<?xml version="1.0"?>
<VTKFile type="UnstructuredGrid" version="0.1" byte_order="LittleEndian">
<UnstructuredGrid>
<Piece NumberOfPoints="31153" NumberOfCells="10907">
<Points>
<DataArray type="Float64" NumberOfComponents="3" format="ascii">
-0.5 -0.5 0 -0.47728164777231558 -0.4785996071165966 0 -0.45689259444512947 -0.50000000000000044 0 -0.5 -0.5 0 -0.49007891724228247 -0.4770838628027354 0 -0.47728164777231558 -0.4785996071165966 0 -0.5 -0.5 0 -0.49007891724228247 -0.4770838628027354 0 -0.49999999999999661 -0.47097704960403852 0 -0.49007891724228247 -0.4770838628027354 0 -0.49999999999999661 -0.47097704960403852 0 -0.4830340211968191 -0.45875879449030471 0 -0.49007891724228247 -0.4770838628027354 0 -0.47728164777231558 -0.4785996071165966 0 -0.4830340211968191 -0.45875879449030471 0 -0.45689259444512947 -0.50000000000000044 0 -0.45405298412962591 -0.47307354473530089 0 -0.47728164777231558 -0.4785996071165966 0 -0.45689259444512947 -0.50000000000000044 0 -0.45405298412962591 -0.47307354473530089 0 -0.47728164777231558 -0.4785996071165966 0 -0.45405298412962591 -0.47307354473530089 0 -0.46532854884028368 -0.45940731026721487 0 -0.45405298412962591 -0.47307354473530089 0 -0.43973595487078082 -0.48510994274581759 0 -0.43453424116129707 -0.4704641309973987 0 -0.45689259444512947 -0.50000000000000044 0 -0.45405298412962591 -0.47307354473530089 0 -0.43973595487078082 -0.48510994274581759 0 -0.45689259444512947 -0.50000000000000044 0 -0.43973595487078082 -0.48510994274581759 0 -0.42841613160213537 -0.5 0 -0.45121337381412219 -0.44614708947060128 0 -0.4422490937655868 -0.44024575072862521 0 -0.46033145833812372 -0.44240926889198129 0 -0.45121337381412219 -0.44614708947060128 0 -0.4422490937655868 -0.44024575072862521 0 -0.44242700309606597 -0.44724898024374571 0 -0.4422490937655868 -0.44024575072862521 0 -0.44242700309606597 -0.44724898024374571 0 -0.43042321930296429 -0.44532955656991507 0 -0.44242700309606597 -0.44724898024374571 0 -0.44019192448441657 -0.456155469519267 0 -0.43042321930296429 -0.44532955656991507 0 -0.45121337381412219 -0.44614708947060128 0 -0.44242700309606597 -0.44724898024374571 0 -0.44019192448441657 -0.456155469519267 0 -0.45405298412962591 -0.47307354473530089 0 -0.45121337381412219 -0.44614708947060128 0 -0.45405298412962591 -0.47307354473530089 0 -0.45121337381412219 -0.44614708947060128 0 -0.44019192448441657 -0.456155469519267 0 -0.45405298412962591 -0.47307354473530089 0 -0.44019192448441657 -0.456155469519267 0 -0.43453424116129707 -0.4704641309973987 0 -0.45405298412962591 -0.47307354473530089 0 -0.45121337381412219 -0.44614708947060128 0 -0.45895706770390232 -0.45204685670628492 0 -0.45405298412962591 -0.47307354473530089 0 -0.46532854884028368 -0.45940731026721487 0 -0.45895706770390232 -0.45204685670628492 0 -0.46532854884028368 -0.45940731026721487 0 -0.45895706770390232 -0.45204685670628492 0 -0.46033145833812372 -0.44240926889198129 0 -0.45121337381412219 -0.44614708947060128 0 -0.45895706770390232 -0.45204685670628492 0 -0.46033145833812372 -0.44240926889198129 0 -0.46729429876894762 -0.43935829750722738 0 -0.4830340211968191 -0.45875879449030471 0 -0.4845964013740845 -0.4533699071458081 0 -0.46033145833812372 -0.44240926889198129 0 -0.46729429876894762 -0.43935829750722738 0 -0.4830340211968191 -0.45875879449030471 0 -0.46729429876894762 -0.43935829750722738 0 -0.4845964013740845 -0.4533699071458081 0 -0.46033145833812372 -0.44240926889198129 0 -0.4830340211968191 -0.45875879449030471 0 -0.46729429876894762 -0.43935829750722738 0 -0.479559194399101 -0.43911436132366771 0 -0.4845964013740845 -0.4533699071458081 0 -0.47728164777231558 -0.4785996071165966 0 -0.4830340211968191 -0.45875879449030471 0 -0.47728164777231558 -0.4785996071165966 0 -0.46532854884028368 -0.45940731026721487 0 -0.4830340211968191 -0.45875879449030471 0 -0.46532854884028368 -0.45940731026721487 0 -0.46033145833812372 -0.44240926889198129 0 -0.4830340211968191 -0.45875879449030471 0 -0.4830340211968191 -0.45875879449030471 0 -0.4845964013740845 -0.4533699071458081 0 -0.49999999999999661 -0.47097704960403852 0 -0.4830340211968191 -0.45875879449030471 0 -0.49999999999999961 -0.4658440679978858 0 -0.4830340211968191 -0.45875879449030471 0 -0.4845964013740845 -0.4533699071458081 0 -0.49999999999999961 -0.4658440679978858 0 -0.49999999999999661 -0.47097704960403852 0 -0.4830340211968191 -0.45875879449030471 0 -0.4845964013740845 -0.4533699071458081 0 -0.49999999999999961 -0.4658440679978858 0 -0.5 -0.44767083444357098 0 -0.4845964013740845 -0.4533699071458081 0 -0.49999999999999961 -0.4658440679978858 0 -0.4845964013740845 -0.4533699071458081 0 -0.5 -0.44767083444357098 0 -0.49007571233826341 -0.43447092856100877 0 -0.4845964013740845 -0.4533699071458081 0 -0.49007571233826341 -0.43447092856100877 0 -0.479559194399101 -0.43911436132366771 0 -0.4845964013740845 -0.4533699071458081 0 -0.49007571233826341 -0.43447092856100877 0 -0.49007571233826341 -0.43447092856100877 0 -0.49555502330244228 -0.41557194997620939 0 -0.48308720126212001 -0.42011479327980711 0 -0.5 -0.44767083444357098 0 -0.49007571233826341 -0.43447092856100877 0 -0.49999999999999872 -0.42949760088925609 0 -0.49007571233826341 -0.43447092856100877 0 -0.49555502330244228 -0.41557194997620939 0 -0.49007571233826341 -0.43447092856100877 0 -0.49999999999999872 -0.42949760088925609 0 -0.49555502330244228 -0.41557194997620939 0 -0.49999999999999872 -0.42949760088925609 0 -0.49555502330244228 -0.41557194997620939 0 -0.49999999999999872 -0.42949760088925609 0 -0.49555502330244228 -0.41557194997620939 0 -0.49999999999999939 -0.40024054791375741 0 -0.49555502330244228 -0.41557194997620939 0 -0.49999999999999939 -0.40024054791375741 0 -0.49555502330244228 -0.41557194997620939 0 -0.48308720126212001 -0.42011479327980711 0 -0.48017075690217048 -0.40704831406391989 0 -0.48308720126212001 -0.42011479327980711 0 -0.48017075690217048 -0.40704831406391989 0 -0.47201744484553931 -0.41636257052853781 0 -0.48017075690217048 -0.40704831406391989 0 -0.47201744484553931 -0.41636257052853781 0 -0.46594870531705618 -0.40470601036541087 0 -0.47201744484553931 -0.41636257052853781 0 -0.47627036511510928 -0.4292583120806267 0 -0.46476377415712161 -0.42459747985895602 0 -0.46729429876894762 -0.43935829750722738 0 -0.47627036511510928 -0.4292583120806267 0 -0.46476377415712161 -0.42459747985895602 0 -0.46729429876894762 -0.43935829750722738 0 -0.479559194399101 -0.43911436132366771 0 -0.47627036511510928 -0.4292583120806267 0 -0.479559194399101 -0.43911436132366771 0 -0.49007571233826341 -0.43447092856100877 0 -0.47627036511510928 -0.4292583120806267 0 -0.48308720126212001 -0.42011479327980711 0 -0.47201744484553931 -0.41636257052853781 0 -0.47627036511510928 -0.4292583120806267 0 -0.49007571233826341 -0.43447092856100877 0 -0.48308720126212001 -0.42011479327980711 0 -0.47627036511510928 -0.4292583120806267 0 -0.5 -0.37615469370796661 0 -0.48773470393351459 -0.39107170060030172 0 -0.47991438456458763 -0.36657145122439377 0 -0.5 -0.37615469370796661 0 -0.48773470393351459 -0.39107170060030172 0 -0.49999999999999939 -0.40024054791375741 0 -0.49555502330244228 -0.41557194997620939 0 -0.48773470393351459 -0.39107170060030172 0 -0.49999999999999939 -0.40024054791375741 0 -0.49555502330244228 -0.41557194997620939 0 -0.48017075690217048 -0.40704831406391989 0 -0.48773470393351459 -0.39107170060030172 0 -0.49555502330244228 -0.41557194997620939 0 -0.48773470393351459 -0.39107170060030172 0 -0.48017075690217048 -0.40704831406391989 0 -0.48773470393351459 -0.39107170060030172 0 -0.47401840227218323 -0.39565188186331768 0 -0.48017075690217048 -0.40704831406391989 0 -0.47401840227218323 -0.39565188186331768 0 -0.46594870531705618 -0.40470601036541087 0 -0.48773470393351459 -0.39107170060030172 0 -0.47991438456458763 -0.36657145122439377 0 -0.48773470393351459 -0.39107170060030172 0 -0.47373804209450332 -0.38204112143425978 0 -0.47991438456458763 -0.36657145122439377 0 -0.48773470393351459 -0.39107170060030172 0 -0.47401840227218323 -0.39565188186331768 0 -0.47373804209450332 -0.38204112143425978 0 -0.47401840227218323 -0.39565188186331768 0 -0.47373804209450332 -0.38204112143425978 0 -0.46148244580707071 -0.39332200182318527 0 -0.47373804209450332 -0.38204112143425978 0 -0.46148244580707071 -0.39332200182318527 0 -0.4476392293563643 -0.37371378910624697 0 -0.47401840227218323 -0.39565188186331768 0 -0.46148244580707071 -0.39332200182318527 0 -0.46594870531705618 -0.40470601036541087 0 -0.46148244580707071 -0.39332200182318527 0 -0.46594870531705618 -0.40470601036541087 0 -0.45305813841390569 -0.40313529865555842 0 -0.46148244580707071 -0.39332200182318527 0 -0.43895431240796029 -0.39330517679348681 0 -0.46148244580707071 -0.39332200182318527 0 -0.45305813841390569 -0.40313529865555842 0 -0.43895431240796029 -0.39330517679348681 0 -0.45305813841390569 -0.40313529865555842 0 -0.43895431240796029 -0.39330517679348681 0 -0.44289729498636332 -0.40986882980900641 0 -0.43895431240796029 -0.39330517679348681 0 -0.42963926502663552 -0.37909202820398707 0 -0.4476392293563643 -0.37371378910624697 0 -0.46148244580707071 -0.39332200182318527 0 -0.43895431240796029 -0.39330517679348681 0 -0.4476392293563643 -0.37371378910624697 0 -0.46729429876894762 -0.43935829750722738 0 -0.46476377415712161 -0.42459747985895602 0 -0.44999219616380981 -0.42534668786864788 0 -0.46033145833812372 -0.44240926889198129 0 -0.46729429876894762 -0.43935829750722738 0 -0.44999219616380981 -0.42534668786864788 0 -0.46729429876894762 -0.43935829750722738 0 -0.44999219616380981 -0.42534668786864788 0 -0.47201744484553931 -0.41636257052853781 0 -0.46476377415712161 -0.42459747985895602 0 -0.45600793355107772 -0.4144744744867026 0 -0.47201744484553931 -0.41636257052853781 0 -0.46594870531705618 -0.40470601036541087 0 -0.45600793355107772 -0.4144744744867026 0 -0.46594870531705618 -0.40470601036541087 0 -0.45305813841390569 -0.40313529865555842 0 -0.45600793355107772 -0.4144744744867026 0 -0.46476377415712161 -0.42459747985895602 0 -0.45600793355107772 -0.4144744744867026 0 -0.44999219616380981 -0.42534668786864788 0 -0.45600793355107772 -0.4144744744867026 0 -0.44663158004516978 -0.41893743386450372 0 -0.44289729498636332 -0.40986882980900641 0 -0.45600793355107772 -0.4144744744867026 0 -0.44663158004516978 -0.41893743386450372 0 -0.44999219616380981 -0.42534668786864788 0 -0.44663158004516978 -0.41893743386450372 0 -0.44289729498636332 -0.40986882980900641 0 -0.43762889547942851 -0.4260597432936577 0 -0.45305813841390569 -0.40313529865555842 0 -0.45600793355107772 -0.4144744744867026 0 -0.44289729498636332 -0.40986882980900641 0 -0.46033145833812372 -0.44240926889198129 0 -0.43762889547942851 -0.4260597432936577 0 -0.4422490937655868 -0.44024575072862521 0 -0.46033145833812372 -0.44240926889198129 0 -0.43762889547942851 -0.4260597432936577 0 -0.44663158004516978 -0.41893743386450372 0 -0.43762889547942851 -0.4260597432936577 0 -0.44999219616380981 -0.42534668786864788 0 -0.46033145833812372 -0.44240926889198129 0 -0.43762889547942851 -0.4260597432936577 0 -0.44999219616380981 -0.42534668786864788 0 -0.43762889547942851 -0.4260597432936577 0 -0.43255489668995761 -0.43531138841603312 0 -0.42165323281527789 -0.43126093909462732 0 -0.43762889547942851 -0.4260597432936577 0 -0.42165323281527789 -0.43126093909462732 0 -0.41755915680585909 -0.42321581966935978 0 -0.4422490937655868 -0.44024575072862521 0 -0.43762889547942851 -0.4260597432936577 0 -0.43255489668995761 -0.43531138841603312 0 -0.43255489668995761 -0.43531138841603312 0 -0.42165323281527789 -0.43126093909462732 0 -0.43042321930296429 -0.44532955656991507 0 -0.43762889547942851 -0.4260597432936577 0 -0.41492633262073308 -0.40971021769533411 0 -0.41755915680585909 -0.42321581966935978 0 -0.43762889547942851 -0.4260597432936577 0 -0.43016660290066711 -0.40644646387105471 0 -0.41492633262073308 -0.40971021769533411 0 -0.44289729498636332 -0.40986882980900641 0 -0.43762889547942851 -0.4260597432936577 0 -0.43016660290066711 -0.40644646387105471 0 -0.43762889547942851 -0.4260597432936577 0 -0.41492633262073308 -0.40971021769533411 0 -0.41492633262073308 -0.40971021769533411 0 -0.40566063269014441 -0.42081510056366411 0 -0.39833109068756928 -0.41279140533223457 0 -0.41492633262073308 -0.40971021769533411 0 -0.41755915680585909 -0.42321581966935978 0 -0.40566063269014441 -0.42081510056366411 0 -0.40750842700327972 -0.43336801904004968 0 -0.41755915680585909 -0.42321581966935978 0 -0.40566063269014441 -0.42081510056366411 0 -0.40750842700327972 -0.43336801904004968 0 -0.42165323281527789 -0.43126093909462732 0 -0.41673969783947451 -0.44548673596837279 0 -0.40750842700327972 -0.43336801904004968 0 -0.42165323281527789 -0.43126093909462732 0 -0.41755915680585909 -0.42321581966935978 0 -0.43895431240796029 -0.39330517679348681 0 -0.42963926502663552 -0.37909202820398707 0 -0.42593621166197448 -0.39156529970632509 0 -0.42963926502663552 -0.37909202820398707 0 -0.42593621166197448 -0.39156529970632509 0 -0.41668796980706818 -0.38353621729379739 0 -0.43895431240796029 -0.39330517679348681 0 -0.42593621166197448 -0.39156529970632509 0 -0.41642617900885009 -0.39328835176378829 0 -0.43895431240796029 -0.39330517679348681 0 -0.43016660290066711 -0.40644646387105471 0 -0.41642617900885009 -0.39328835176378829 0 -0.43895431240796029 -0.39330517679348681 0 -0.41642617900885009 -0.39328835176378829 0 -0.43895431240796029 -0.39330517679348681 0 -0.44289729498636332 -0.40986882980900641 0 -0.43016660290066711 -0.40644646387105471 0 -0.42593621166197448 -0.39156529970632509 0 -0.40991712863585722 -0.39241841322020732 0 -0.42593621166197448 -0.39156529970632509 0 -0.41642617900885009 -0.39328835176378829 0 -0.40991712863585722 -0.39241841322020732 0 -0.41492633262073308 -0.40971021769533411 0 -0.41642617900885009 -0.39328835176378829 0 -0.39389804560973979 -0.39327152673408972 0 -0.43016660290066711 -0.40644646387105471 0 -0.41492633262073308 -0.40971021769533411 0 -0.41642617900885009 -0.39328835176378829 0 -0.41642617900885009 -0.39328835176378829 0 -0.40991712863585722 -0.39241841322020732 0 -0.39389804560973979 -0.39327152673408972 0 -0.42593621166197448 -0.39156529970632509 0 -0.40991712863585722 -0.39241841322020732 0 -0.41668796980706818 -0.38353621729379739 0 -0.40991712863585722 -0.39241841322020732 0 -0.41668796980706818 -0.38353621729379739 0 -0.40214340983564378 -0.38306889807475958 0 -0.41668796980706818 -0.38353621729379739 0 -0.40214340983564378 -0.38306889807475958 0 -0.41580383387523012 -0.37153644726370788 0 -0.42963926502663552 -0.37909202820398707 0 -0.41668796980706818 -0.38353621729379739 0 -0.41580383387523012 -0.37153644726370788 0 -0.40214340983564378 -0.38306889807475958 0 -0.38962408325339021 -0.37789756803553648 0 -0.39610336275487612 -0.36505042246660419 0 -0.40214340983564378 -0.38306889807475958 0 -0.39219126724786979 -0.38661390185594541 0 -0.38962408325339021 -0.37789756803553648 0 -0.40991712863585722 -0.39241841322020732 0 -0.40214340983564378 -0.38306889807475958 0 -0.39953746283227759 -0.38884318497125048 0 -0.39953746283227759 -0.38884318497125048 0 -0.39219126724786979 -0.38661390185594541 0 -0.39389804560973979 -0.39327152673408972 0 -0.40214340983564378 -0.38306889807475958 0 -0.39953746283227759 -0.38884318497125048 0 -0.39219126724786979 -0.38661390185594541 0 -0.41492633262073308 -0.40971021769533411 0 -0.39389804560973979 -0.39327152673408972 0 -0.39215823202996603 -0.39331349430551549 0 -0.40991712863585722 -0.39241841322020732 0 -0.39953746283227759 -0.38884318497125048 0 -0.39389804560973979 -0.39327152673408972 0 -0.41642617900885009 -0.39328835176378829 0 -0.39389804560973979 -0.39327152673408972 0 -0.41492633262073308 -0.40971021769533411 0 -0.39215823202996603 -0.39331349430551549 0 -0.39460033451147719 -0.4032614509625454 0 -0.40991712863585722 -0.39241841322020732 0 -0.39389804560973979 -0.39327152673408972 0 -0.41492633262073308 -0.40971021769533411 0 -0.39215823202996603 -0.39331349430551549 0 -0.39219126724786979 -0.38661390185594541 0 -0.39389804560973979 -0.39327152673408972 0 -0.39215823202996603 -0.39331349430551549 0 -0.39389804560973979 -0.39327152673408972 0 -0.39215823202996603 -0.39331349430551549 0 -0.39215823202996603 -0.39331349430551549 0 -0.39460033451147719 -0.4032614509625454 0 -0.39087051052199651 -0.39889096825066223 0 -0.39460033451147719 -0.4032614509625454 0 -0.38873357964977839 -0.40165954201811199 0 -0.38913729325411872 -0.40968002881917048 0 -0.39460033451147719 -0.4032614509625454 0 -0.39087051052199651 -0.39889096825066223 0 -0.38873357964977839 -0.40165954201811199 0 -0.39215823202996603 -0.39331349430551549 0 -0.3674434599388498 -0.39325176925211441 0 -0.39215823202996603 -0.39331349430551549 0 -0.36410131104928528 -0.39485838391446892 0 -0.39215823202996603 -0.39331349430551549 0 -0.38267683344633591 -0.39841878815682852 0 -0.37501551017570722 -0.39800740959626019 0 -0.39215823202996603 -0.39331349430551549 0 -0.37501551017570722 -0.39800740959626019 0 -0.36410131104928528 -0.39485838391446892 0 -0.38873357964977839 -0.40165954201811199 0 -0.38366965431691807 -0.40604975057919529 0 -0.38913729325411872 -0.40968002881917048 0 -0.39087051052199651 -0.39889096825066223 0 -0.38873357964977839 -0.40165954201811199 0 -0.3879898958967643 -0.39732938571647602 0 -0.38873357964977839 -0.40165954201811199 0 -0.38593973989268632 -0.39971877960775082 0 -0.3879898958967643 -0.39732938571647602 0 -0.38593973989268632 -0.39971877960775082 0 -0.38267683344633591 -0.39841878815682852 0 -0.3879898958967643 -0.39732938571647602 0 -0.38873357964977839 -0.40165954201811199 0 -0.38593973989268632 -0.39971877960775082 0 -0.38435865057786661 -0.40146740253958701 0 -0.38593973989268632 -0.39971877960775082 0 -0.38435865057786661 -0.40146740253958701 0 -0.38267683344633591 -0.39841878815682852 0 -0.38435865057786661 -0.40146740253958701 0 -0.38366965431691807 -0.40604975057919529 0 -0.38066068999336078 -0.40183414340429968 0 -0.38873357964977839 -0.40165954201811199 0 -0.38435865057786661 -0.40146740253958701 0 -0.38366965431691807 -0.40604975057919529 0 -0.38366965431691807 -0.40604975057919529 0 -0.37808561525725931 -0.4056729897961725 0 -0.38066068999336078 -0.40183414340429968 0 -0.37808561525725931 -0.4056729897961725 0 -0.37693616593796891 -0.40172747005310089 0 -0.38066068999336078 -0.40183414340429968 0 -0.37808561525725931 -0.4056729897961725 0 -0.37693616593796891 -0.40172747005310089 0 -0.37372851132735591 -0.40301717595400871 0 -0.37693616593796891 -0.40172747005310089 0 -0.37501551017570722 -0.39800740959626019 0 -0.37372851132735591 -0.40301717595400871 0 -0.37856165673500308 -0.39976154855060958 0 -0.38267683344633591 -0.39841878815682852 0 -0.37501551017570722 -0.39800740959626019 0 -0.37693616593796891 -0.40172747005310089 0 -0.37856165673500308 -0.39976154855060958 0 -0.37501551017570722 -0.39800740959626019 0 -0.37693616593796891 -0.40172747005310089 0 -0.37856165673500308 -0.39976154855060958 0 -0.38066068999336078 -0.40183414340429968 0 -0.37856165673500308 -0.39976154855060958 0 -0.38066068999336078 -0.40183414340429968 0 -0.38267683344633591 -0.39841878815682852 0 -0.38435865057786661 -0.40146740253958701 0 -0.38066068999336078 -0.40183414340429968 0 -0.38267683344633591 -0.39841878815682852 0 -0.39215823202996603 -0.39331349430551549 0 -0.38267683344633591 -0.39841878815682852 0 -0.3879898958967643 -0.39732938571647602 0 -0.39215823202996603 -0.39331349430551549 0 -0.39087051052199651 -0.39889096825066223 0 -0.3879898958967643 -0.39732938571647602 0 -0.39215823202996603 -0.39331349430551549 0 -0.37785695543098807 -0.38301425675691869 0 -0.3674434599388498 -0.39325176925211441 0 -0.37785695543098807 -0.38301425675691869 0 -0.38962408325339021 -0.37789756803553648 0 -0.37367381685810741 -0.36766937258605342 0 -0.39215823202996603 -0.39331349430551549 0 -0.37785695543098807 -0.38301425675691869 0 -0.39219126724786979 -0.38661390185594541 0 -0.39215823202996603 -0.39331349430551549 0 -0.37785695543098807 -0.38301425675691869 0 -0.39219126724786979 -0.38661390185594541 0 -0.37785695543098807 -0.38301425675691869 0 -0.38962408325339021 -0.37789756803553648 0 -0.39492174508079619 -0.43403301477277623 0 -0.40566063269014441 -0.42081510056366411 0 -0.38894663047372069 -0.42128140889722732 0 -0.40750842700327972 -0.43336801904004968 0 -0.39492174508079619 -0.43403301477277623 0 -0.40566063269014441 -0.42081510056366411 0 -0.40566063269014441 -0.42081510056366411 0 -0.39833109068756928 -0.41279140533223457 0 -0.38894663047372069 -0.42128140889722732 0 -0.41492633262073308 -0.40971021769533411 0 -0.39460033451147719 -0.4032614509625454 0 -0.39833109068756928 -0.41279140533223457 0 -0.39460033451147719 -0.4032614509625454 0 -0.39833109068756928 -0.41279140533223457 0 -0.38913729325411872 -0.40968002881917048 0 -0.39833109068756928 -0.41279140533223457 0 -0.38894663047372069 -0.42128140889722732 0 -0.38913729325411872 -0.40968002881917048 0 -0.38894663047372069 -0.42128140889722732 0 -0.38913729325411872 -0.40968002881917048 0 -0.38022452951193009 -0.41254470748584893 0 -0.38366965431691807 -0.40604975057919529 0 -0.38913729325411872 -0.40968002881917048 0 -0.38022452951193009 -0.41254470748584893 0 -0.38366965431691807 -0.40604975057919529 0 -0.37808561525725931 -0.4056729897961725 0 -0.38022452951193009 -0.41254470748584893 0 -0.37808561525725931 -0.4056729897961725 0 -0.38022452951193009 -0.41254470748584893 0 -0.37266055146815918 -0.40851580327183801 0 -0.38022452951193009 -0.41254470748584893 0 -0.3788463541689675 -0.42100415070222019 0 -0.37121927084163903 -0.41626129660232791 0 -0.38894663047372069 -0.42128140889722732 0 -0.38022452951193009 -0.41254470748584893 0 -0.3788463541689675 -0.42100415070222019 0 -0.3788463541689675 -0.42100415070222019 0 -0.37989548677862839 -0.43349641975054048 0 -0.37006662564312492 -0.42414264653414069 0 -0.38894663047372069 -0.42128140889722732 0 -0.3788463541689675 -0.42100415070222019 0 -0.37989548677862839 -0.43349641975054048 0 -0.39492174508079619 -0.43403301477277623 0 -0.38894663047372069 -0.42128140889722732 0 -0.37989548677862839 -0.43349641975054048 0 -0.37989548677862839 -0.43349641975054048 0 -0.38870846509697787 -0.44948233083362688 0 -0.37442419446080583 -0.44966624010971662 0 -0.39492174508079619 -0.43403301477277623 0 -0.37989548677862839 -0.43349641975054048 0 -0.38870846509697787 -0.44948233083362688 0 -0.39492174508079619 -0.43403301477277623 0 -0.38870846509697787 -0.44948233083362688 0 -0.40382720794859472 -0.44676221259238269 0 -0.40750842700327972 -0.43336801904004968 0 -0.39492174508079619 -0.43403301477277623 0 -0.40382720794859472 -0.44676221259238269 0 -0.40382720794859472 -0.44676221259238269 0 -0.39818000820651578 -0.46638207734212589 0 -0.41137843945381392 -0.45919494474554728 0 -0.38870846509697787 -0.44948233083362688 0 -0.40382720794859472 -0.44676221259238269 0 -0.39818000820651578 -0.46638207734212589 0 -0.38870846509697787 -0.44948233083362688 0 -0.38199555400001028 -0.4658636303410324 0 -0.37442419446080583 -0.44966624010971662 0 -0.38870846509697787 -0.44948233083362688 0 -0.39818000820651578 -0.46638207734212589 0 -0.38199555400001028 -0.4658636303410324 0 -0.39818000820651578 -0.46638207734212589 0 -0.38199555400001028 -0.4658636303410324 0 -0.38965394594286218 -0.48269505730851803 0 -0.38199555400001028 -0.4658636303410324 0 -0.38965394594286218 -0.48269505730851803 0 -0.36725232308377331 -0.48014495464580342 0 -0.38965394594286218 -0.48269505730851803 0 -0.37146320591614712 -0.5 0 -0.36725232308377331 -0.48014495464580342 0 -0.38965394594286218 -0.48269505730851803 0 -0.39993966875914122 -0.5 0 -0.37146320591614712 -0.5 0 -0.38965394594286218 -0.48269505730851803 0 -0.39993966875914122 -0.5 0 -0.41585195990767387 -0.47795968510034159 0 -0.39818000820651578 -0.46638207734212589 0 -0.38965394594286218 -0.48269505730851803 0 -0.41585195990767387 -0.47795968510034159 0 -0.39993966875914122 -0.5 0 -0.41585195990767387 -0.47795968510034159 0 -0.42841613160213537 -0.5 0 -0.43973595487078082 -0.48510994274581759 0 -0.41585195990767387 -0.47795968510034159 0 -0.42841613160213537 -0.5 0 -0.43973595487078082 -0.48510994274581759 0 -0.41585195990767387 -0.47795968510034159 0 -0.43453424116129707 -0.4704641309973987 0 -0.41585195990767387 -0.47795968510034159 0 -0.43453424116129707 -0.4704641309973987 0 -0.42485324702493998 -0.45909842048347371 0 -0.44019192448441657 -0.456155469519267 0 -0.43453424116129707 -0.4704641309973987 0 -0.42485324702493998 -0.45909842048347371 0 -0.44019192448441657 -0.456155469519267 0 -0.42485324702493998 -0.45909842048347371 0 -0.43042321930296429 -0.44532955656991507 0 -0.4422490937655868 -0.44024575072862521 0 -0.43255489668995761 -0.43531138841603312 0 -0.43042321930296429 -0.44532955656991507 0 -0.42165323281527789 -0.43126093909462732 0 -0.43042321930296429 -0.44532955656991507 0 -0.41673969783947451 -0.44548673596837279 0 -0.42485324702493998 -0.45909842048347371 0 -0.43042321930296429 -0.44532955656991507 0 -0.41673969783947451 -0.44548673596837279 0 -0.40750842700327972 -0.43336801904004968 0 -0.40382720794859472 -0.44676221259238269 0 -0.41673969783947451 -0.44548673596837279 0 -0.40382720794859472 -0.44676221259238269 0 -0.41673969783947451 -0.44548673596837279 0 -0.41137843945381392 -0.45919494474554728 0 -0.39818000820651578 -0.46638207734212589 0 -0.41585195990767387 -0.47795968510034159 0 -0.41137843945381392 -0.45919494474554728 0 -0.41585195990767387 -0.47795968510034159 0 -0.42485324702493998 -0.45909842048347371 0 -0.41137843945381392 -0.45919494474554728 0 -0.42485324702493998 -0.45909842048347371 0 -0.41673969783947451 -0.44548673596837279 0 -0.41137843945381392 -0.45919494474554728 0 -0.4509344030745589 -0.25461266143952521 0 -0.43951847222151991 -0.26176896773253988 0 -0.45439903977159851 -0.26510240888397141 0 -0.4509344030745589 -0.25461266143952521 0 -0.43951847222151991 -0.26176896773253988 0 -0.44175431771453882 -0.2496538524987241 0 -0.43951847222151991 -0.26176896773253988 0 -0.44373932296168289 -0.27146494238489399 0 -0.42964769786268919 -0.27439009465370251 0 -0.44715540218484018 -0.28173314461320298 0 -0.42964769786268919 -0.27439009465370251 0 -0.44373932296168289 -0.27146494238489399 0 -0.44715540218484018 -0.28173314461320298 0 -0.42964769786268919 -0.27439009465370251 0 -0.44373932296168289 -0.27146494238489399 0 -0.44715540218484018 -0.28173314461320298 0 -0.44373932296168289 -0.27146494238489399 0 -0.45598718365061441 -0.27393704946126002 0 -0.44715540218484018 -0.28173314461320298 0 -0.44373932296168289 -0.27146494238489399 0 -0.45598718365061441 -0.27393704946126002 0 -0.45439903977159851 -0.26510240888397141 0 -0.43951847222151991 -0.26176896773253988 0 -0.44373932296168289 -0.27146494238489399 0 -0.45439903977159851 -0.26510240888397141 0 -0.45598718365061441 -0.27393704946126002 0 -0.46645062529806319 -0.26961156820226312 0 -0.45439903977159851 -0.26510240888397141 0 -0.45598718365061441 -0.27393704946126002 0 -0.4658961042451053 -0.27883046380021298 0 -0.44715540218484018 -0.28173314461320298 0 -0.45598718365061441 -0.27393704946126002 0 -0.4658961042451053 -0.27883046380021298 0 -0.46645062529806319 -0.26961156820226312 0 -0.46645062529806319 -0.26961156820226312 0 -0.45439903977159851 -0.26510240888397141 0 -0.46375679365384959 -0.25548994440738781 0 -0.4509344030745589 -0.25461266143952521 0 -0.45439903977159851 -0.26510240888397141 0 -0.46375679365384959 -0.25548994440738781 0 -0.4509344030745589 -0.25461266143952521 0 -0.46375679365384959 -0.25548994440738781 0 -0.45276775536329861 -0.243963550497031 0 -0.46375679365384959 -0.25548994440738781 0 -0.48209271406877591 -0.25304161622392368 0 -0.46414993516591568 -0.24214985441294731 0 -0.46645062529806319 -0.26961156820226312 0 -0.46375679365384959 -0.25548994440738781 0 -0.48209271406877591 -0.25304161622392368 0 -0.46645062529806319 -0.26961156820226312 0 -0.48209271406877591 -0.25304161622392368 0 -0.48171876141602438 -0.27016998002892972 0 -0.48209271406877591 -0.25304161622392368 0 -0.48171876141602438 -0.27016998002892972 0 -0.5 -0.24788653941881841 0 -0.5 -0.2758918352547064 0 -0.48171876141602438 -0.27016998002892972 0 -0.5 -0.24788653941881841 0 -0.5 -0.2758918352547064 0 -0.48171876141602438 -0.27016998002892972 0 -0.47357770109242059 -0.29281513785189789 0 -0.4658961042451053 -0.27883046380021298 0 -0.48171876141602438 -0.27016998002892972 0 -0.47357770109242059 -0.29281513785189789 0 -0.4658961042451053 -0.27883046380021298 0 -0.46645062529806319 -0.26961156820226312 0 -0.48171876141602438 -0.27016998002892972 0 -0.5 -0.2758918352547064 0 -0.47357770109242059 -0.29281513785189789 0 -0.50000000000000044 -0.30389713109059452 0 -0.50000000000000044 -0.30389713109059452 0 -0.47784564276401131 -0.30917954354575611 0 -0.48415552349529739 -0.32402103800098531 0 -0.47357770109242059 -0.29281513785189789 0 -0.50000000000000044 -0.30389713109059452 0 -0.47357770109242059 -0.29281513785189789 0 -0.50000000000000044 -0.30389713109059452 0 -0.47784564276401131 -0.30917954354575611 0 -0.47357770109242059 -0.29281513785189789 0 -0.47784564276401131 -0.30917954354575611 0 -0.4543504531884669 -0.30336034759123731 0 -0.47784564276401131 -0.30917954354575611 0 -0.4543504531884669 -0.30336034759123731 0 -0.46427374582673347 -0.31757095247257799 0 -0.4658961042451053 -0.27883046380021298 0 -0.47357770109242059 -0.29281513785189789 0 -0.44715540218484018 -0.28173314461320298 0 -0.47357770109242059 -0.29281513785189789 0 -0.4543504531884669 -0.30336034759123731 0 -0.44715540218484018 -0.28173314461320298 0 -0.47357770109242059 -0.29281513785189789 0 -0.44715540218484018 -0.28173314461320298 0 -0.44715540218484018 -0.28173314461320298 0 -0.43676763121354151 -0.29276886976329569 0 -0.42964769786268919 -0.27439009465370251 0 -0.4543504531884669 -0.30336034759123731 0 -0.44715540218484018 -0.28173314461320298 0 -0.43676763121354151 -0.29276886976329569 0 -0.4543504531884669 -0.30336034759123731 0 -0.44715540218484018 -0.28173314461320298 0 -0.44039149726114912 -0.31975050954427953 0 -0.43676763121354151 -0.29276886976329569 0 -0.4543504531884669 -0.30336034759123731 0 -0.44039149726114912 -0.31975050954427953 0 -0.43676763121354151 -0.29276886976329569 0 -0.4543504531884669 -0.30336034759123731 0 -0.44039149726114912 -0.31975050954427953 0 -0.46154550419209461 -0.3249875505692712 0 -0.44039149726114912 -0.31975050954427953 0 -0.45634024218315478 -0.33872970944864023 0 -0.46154550419209461 -0.3249875505692712 0 -0.44039149726114912 -0.31975050954427953 0 -0.44401536330875668 -0.34673214932526319 0 -0.44039149726114912 -0.31975050954427953 0 -0.45634024218315478 -0.33872970944864023 0 -0.44401536330875668 -0.34673214932526319 0 -0.44039149726114912 -0.31975050954427953 0 -0.44401536330875668 -0.34673214932526319 0 -0.43075399304126932 -0.33588143922052999 0 -0.46154550419209461 -0.3249875505692712 0 -0.47209406519566061 -0.34207120184848588 0 -0.46874055519572222 -0.3466147535473052 0 -0.45634024218315478 -0.33872970944864023 0 -0.46154550419209461 -0.3249875505692712 0 -0.46874055519572222 -0.3466147535473052 0 -0.46154550419209461 -0.3249875505692712 0 -0.46427374582673347 -0.31757095247257799 0 -0.47209406519566061 -0.34207120184848588 0 -0.46427374582673347 -0.31757095247257799 0 -0.47209406519566061 -0.34207120184848588 0 -0.46154550419209461 -0.3249875505692712 0 -0.46874055519572222 -0.3466147535473052 0 -0.4543504531884669 -0.30336034759123731 0 -0.46154550419209461 -0.3249875505692712 0 -0.46427374582673347 -0.31757095247257799 0 -0.4543504531884669 -0.30336034759123731 0 -0.46154550419209461 -0.3249875505692712 0 -0.47784564276401131 -0.30917954354575611 0 -0.46427374582673347 -0.31757095247257799 0 -0.47478019925165582 -0.31854937976917092 0 -0.46427374582673347 -0.31757095247257799 0 -0.47478019925165582 -0.31854937976917092 0 -0.47667888018753718 -0.32843908351458462 0 -0.47478019925165582 -0.31854937976917092 0 -0.48415552349529739 -0.32402103800098531 0 -0.47667888018753718 -0.32843908351458462 0 -0.47784564276401131 -0.30917954354575611 0 -0.47478019925165582 -0.31854937976917092 0 -0.48415552349529739 -0.32402103800098531 0 -0.50000000000000044 -0.30389713109059452 0 -0.48415552349529739 -0.32402103800098531 0 -0.5 -0.32798298529638509 0 -0.5 -0.32798298529638509 0 -0.48842808873954491 -0.34042389088369668 0 -0.5 -0.35206883950217588 0 -0.48415552349529739 -0.32402103800098531 0 -0.5 -0.32798298529638509 0 -0.48842808873954491 -0.34042389088369668 0 -0.48415552349529739 -0.32402103800098531 0 -0.48842808873954491 -0.34042389088369668 0 -0.47667888018753718 -0.32843908351458462 0 -0.48842808873954491 -0.34042389088369668 0 -0.47209406519566061 -0.34207120184848588 0 -0.47667888018753718 -0.32843908351458462 0 -0.46427374582673347 -0.31757095247257799 0 -0.47209406519566061 -0.34207120184848588 0 -0.47667888018753718 -0.32843908351458462 0 -0.48842808873954491 -0.34042389088369668 0 -0.47209406519566061 -0.34207120184848588 0 -0.47991438456458763 -0.36657145122439377 0 -0.47991438456458763 -0.36657145122439377 0 -0.46537537429827253 -0.36411413528736641 0 -0.46874055519572222 -0.3466147535473052 0 -0.47209406519566061 -0.34207120184848588 0 -0.47991438456458763 -0.36657145122439377 0 -0.47209406519566061 -0.34207120184848588 0 -0.47991438456458763 -0.36657145122439377 0 -0.46874055519572222 -0.3466147535473052 0 -0.48842808873954491 -0.34042389088369668 0 -0.5 -0.35206883950217588 0 -0.47991438456458763 -0.36657145122439377 0 -0.5 -0.37615469370796661 0 -0.5 -0.35206883950217588 0 -0.47991438456458763 -0.36657145122439377 0 -0.47373804209450332 -0.38204112143425978 0 -0.47991438456458763 -0.36657145122439377 0 -0.46537537429827253 -0.36411413528736641 0 -0.46537537429827253 -0.36411413528736641 0 -0.45642215286845422 -0.35398090734296439 0 -0.4476392293563643 -0.37371378910624697 0 -0.47373804209450332 -0.38204112143425978 0 -0.46537537429827253 -0.36411413528736641 0 -0.4476392293563643 -0.37371378910624697 0 -0.46537537429827253 -0.36411413528736641 0 -0.46874055519572222 -0.3466147535473052 0 -0.45642215286845422 -0.35398090734296439 0 -0.45634024218315478 -0.33872970944864023 0 -0.46874055519572222 -0.3466147535473052 0 -0.45642215286845422 -0.35398090734296439 0 -0.45642215286845422 -0.35398090734296439 0 -0.44401536330875668 -0.34673214932526319 0 -0.4476392293563643 -0.37371378910624697 0 -0.45634024218315478 -0.33872970944864023 0 -0.45642215286845422 -0.35398090734296439 0 -0.44401536330875668 -0.34673214932526319 0 -0.44401536330875668 -0.34673214932526319 0 -0.4476392293563643 -0.37371378910624697 0 -0.44401536330875668 -0.34673214932526319 0 -0.4476392293563643 -0.37371378910624697 0 -0.42928392974223711 -0.35816651022709528 0 -0.42963926502663552 -0.37909202820398707 0 -0.4476392293563643 -0.37371378910624697 0 -0.42928392974223711 -0.35816651022709528 0 -0.42963926502663552 -0.37909202820398707 0 -0.42928392974223711 -0.35816651022709528 0 -0.41580383387523012 -0.37153644726370788 0 -0.42928392974223711 -0.35816651022709528 0 -0.4164442544198862 -0.33938028561326461 0 -0.43075399304126932 -0.33588143922052999 0 -0.44401536330875668 -0.34673214932526319 0 -0.42928392974223711 -0.35816651022709528 0 -0.43075399304126932 -0.33588143922052999 0 -0.41072031788316909 -0.35452137428166758 0 -0.39453187670830392 -0.33938540276078011 0 -0.4164442544198862 -0.33938028561326461 0 -0.42928392974223711 -0.35816651022709528 0 -0.41072031788316909 -0.35452137428166758 0 -0.4164442544198862 -0.33938028561326461 0 -0.42928392974223711 -0.35816651022709528 0 -0.41072031788316909 -0.35452137428166758 0 -0.41580383387523012 -0.37153644726370788 0 -0.41072031788316909 -0.35452137428166758 0 -0.41580383387523012 -0.37153644726370788 0 -0.39610336275487612 -0.36505042246660419 0 -0.40214340983564378 -0.38306889807475958 0 -0.41580383387523012 -0.37153644726370788 0 -0.39610336275487612 -0.36505042246660419 0 -0.39610336275487612 -0.36505042246660419 0 -0.37375925650236208 -0.35176475631893173 0 -0.37367381685810741 -0.36766937258605342 0 -0.38962408325339021 -0.37789756803553648 0 -0.39610336275487612 -0.36505042246660419 0 -0.37367381685810741 -0.36766937258605342 0 -0.39610336275487612 -0.36505042246660419 0 -0.39453187670830392 -0.33938540276078011 0 -0.37375925650236208 -0.35176475631893173 0 -0.39610336275487612 -0.36505042246660419 0 -0.37375925650236208 -0.35176475631893173 0 -0.41072031788316909 -0.35452137428166758 0 -0.39610336275487612 -0.36505042246660419 0 -0.39453187670830392 -0.33938540276078011 0 -0.39453187670830392 -0.33938540276078011 0 -0.37680492703374102 -0.32622567850056539 0 -0.37375925650236208 -0.35176475631893173 0 -0.39453187670830392 -0.33938540276078011 0 -0.37680492703374102 -0.32622567850056539 0 -0.39386684934375848 -0.32058903429060492 0 -0.37680492703374102 -0.32622567850056539 0 -0.39386684934375848 -0.32058903429060492 0 -0.38207090706375169 -0.30755372683824073 0 -0.39453187670830392 -0.33938540276078011 0 -0.39386684934375848 -0.32058903429060492 0 -0.41411380428024003 -0.32194779865887152 0 -0.39386684934375848 -0.32058903429060492 0 -0.41411380428024003 -0.32194779865887152 0 -0.40181273163275572 -0.30783256469456682 0 -0.39453187670830392 -0.33938540276078011 0 -0.41411380428024003 -0.32194779865887152 0 -0.4164442544198862 -0.33938028561326461 0 -0.41411380428024003 -0.32194779865887152 0 -0.4164442544198862 -0.33938028561326461 0 -0.43075399304126932 -0.33588143922052999 0 -0.44039149726114912 -0.31975050954427953 0 -0.41411380428024003 -0.32194779865887152 0 -0.42162247364625433 -0.30318779666364892 0 -0.44039149726114912 -0.31975050954427953 0 -0.41411380428024003 -0.32194779865887152 0 -0.43075399304126932 -0.33588143922052999 0 -0.44039149726114912 -0.31975050954427953 0 -0.43676763121354151 -0.29276886976329569 0 -0.42162247364625433 -0.30318779666364892 0 -0.43676763121354151 -0.29276886976329569 0 -0.42352714814830761 -0.28781286130422679 0 -0.42964769786268919 -0.27439009465370251 0 -0.43676763121354151 -0.29276886976329569 0 -0.42352714814830761 -0.28781286130422679 0 -0.42162247364625433 -0.30318779666364892 0 -0.42352714814830761 -0.28781286130422679 0 -0.4111175063778858 -0.29134973433148892 0 -0.42162247364625433 -0.30318779666364892 0 -0.42352714814830761 -0.28781286130422679 0 -0.4111175063778858 -0.29134973433148892 0 -0.41773940841069052 -0.27836569312533749 0 -0.4111175063778858 -0.29134973433148892 0 -0.40611242967624411 -0.27769582325232889 0 -0.41773940841069052 -0.27836569312533749 0 -0.4111175063778858 -0.29134973433148892 0 -0.42162247364625433 -0.30318779666364892 0 -0.40181273163275572 -0.30783256469456682 0 -0.41411380428024003 -0.32194779865887152 0 -0.42162247364625433 -0.30318779666364892 0 -0.40181273163275572 -0.30783256469456682 0 -0.39386684934375848 -0.32058903429060492 0 -0.40181273163275572 -0.30783256469456682 0 -0.38207090706375169 -0.30755372683824073 0 -0.40181273163275572 -0.30783256469456682 0 -0.38207090706375169 -0.30755372683824073 0 -0.39127764674483723 -0.28751740949134408 0 -0.38207090706375169 -0.30755372683824073 0 -0.39127764674483723 -0.28751740949134408 0 -0.36775702437687668 -0.28964541075215688 0 -0.39127764674483723 -0.28751740949134408 0 -0.37871790271623101 -0.27315260160781629 0 -0.36775702437687668 -0.28964541075215688 0 -0.4111175063778858 -0.29134973433148892 0 -0.39127764674483723 -0.28751740949134408 0 -0.40611242967624411 -0.27769582325232889 0 -0.4111175063778858 -0.29134973433148892 0 -0.40181273163275572 -0.30783256469456682 0 -0.39127764674483723 -0.28751740949134408 0 -0.39495121513529241 -0.26687437556644389 0 -0.40611242967624411 -0.27769582325232889 0 -0.41473534848203769 -0.2653697857633695 0 -0.39127764674483723 -0.28751740949134408 0 -0.39495121513529241 -0.26687437556644389 0 -0.40611242967624411 -0.27769582325232889 0 -0.39495121513529241 -0.26687437556644389 0 -0.37871790271623101 -0.27315260160781629 0 -0.3796922693485355 -0.25853387244871051 0 -0.39127764674483723 -0.28751740949134408 0 -0.39495121513529241 -0.26687437556644389 0 -0.37871790271623101 -0.27315260160781629 0 -0.3796922693485355 -0.25853387244871051 0 -0.37105134606721413 -0.24673755009235079 0 -0.39061584230541252 -0.2487733851209307 0 -0.39495121513529241 -0.26687437556644389 0 -0.3796922693485355 -0.25853387244871051 0 -0.39061584230541252 -0.2487733851209307 0 -0.39495121513529241 -0.26687437556644389 0 -0.40567112408393652 -0.25303076231511862 0 -0.41473534848203769 -0.2653697857633695 0 -0.39495121513529241 -0.26687437556644389 0 -0.40567112408393652 -0.25303076231511862 0 -0.39061584230541252 -0.2487733851209307 0 -0.41473534848203769 -0.2653697857633695 0 -0.42875470656841969 -0.25725464290850703 0 -0.42127657638668742 -0.2452010714524766 0 -0.40567112408393652 -0.25303076231511862 0 -0.41473534848203769 -0.2653697857633695 0 -0.42127657638668742 -0.2452010714524766 0 -0.40611242967624411 -0.27769582325232889 0 -0.41473534848203769 -0.2653697857633695 0 -0.41773940841069052 -0.27836569312533749 0 -0.41473534848203769 -0.2653697857633695 0 -0.41773940841069052 -0.27836569312533749 0 -0.42964769786268919 -0.27439009465370251 0 -0.41473534848203769 -0.2653697857633695 0 -0.42964769786268919 -0.27439009465370251 0 -0.42875470656841969 -0.25725464290850703 0 -0.42352714814830761 -0.28781286130422679 0 -0.41773940841069052 -0.27836569312533749 0 -0.42964769786268919 -0.27439009465370251 0 -0.43951847222151991 -0.26176896773253988 0 -0.42964769786268919 -0.27439009465370251 0 -0.42875470656841969 -0.25725464290850703 0 -0.43951847222151991 -0.26176896773253988 0 -0.42875470656841969 -0.25725464290850703 0 -0.44175431771453882 -0.2496538524987241 0 -0.42875470656841969 -0.25725464290850703 0 -0.43527656859499569 -0.2429182587076664 0 -0.32616174140801057 -0.2702464185870691 0 -0.30403873960416522 -0.25992880783821931 0 -0.3235438603471687 -0.24989833146168711 0 -0.32616174140801057 -0.2702464185870691 0 -0.30403873960416522 -0.25992880783821931 0 -0.32616174140801057 -0.2702464185870691 0 -0.31543750222054101 -0.29309912821794681 0 -0.30664529687623188 -0.27921039347313181 0 -0.32616174140801057 -0.2702464185870691 0 -0.34212265676594322 -0.25855395123388702 0 -0.34828474321185671 -0.28056402933591768 0 -0.32616174140801057 -0.2702464185870691 0 -0.34828474321185671 -0.28056402933591768 0 -0.32616174140801057 -0.2702464185870691 0 -0.34212265676594322 -0.25855395123388702 0 -0.3235438603471687 -0.24989833146168711 0 -0.34212265676594322 -0.25855395123388702 0 -0.35966804463953528 -0.26365078971413419 0 -0.35537346118664881 -0.2470184445464203 0 -0.35966804463953528 -0.26365078971413419 0 -0.37105134606721413 -0.24673755009235079 0 -0.35966804463953528 -0.26365078971413419 0 -0.37105134606721413 -0.24673755009235079 0 -0.35537346118664881 -0.2470184445464203 0 -0.3796922693485355 -0.25853387244871051 0 -0.35966804463953528 -0.26365078971413419 0 -0.37105134606721413 -0.24673755009235079 0 -0.37871790271623101 -0.27315260160781629 0 -0.3796922693485355 -0.25853387244871051 0 -0.35966804463953528 -0.26365078971413419 0 -0.37871790271623101 -0.27315260160781629 0 -0.35966804463953528 -0.26365078971413419 0 -0.36775702437687668 -0.28964541075215688 0 -0.35966804463953528 -0.26365078971413419 0 -0.34828474321185671 -0.28056402933591768 0 -0.34212265676594322 -0.25855395123388702 0 -0.35966804463953528 -0.26365078971413419 0 -0.34828474321185671 -0.28056402933591768 0 -0.35966804463953528 -0.26365078971413419 0 -0.34828474321185671 -0.28056402933591768 0 -0.36775702437687668 -0.28964541075215688 0 -0.34828474321185671 -0.28056402933591768 0 -0.36775702437687668 -0.28964541075215688 0 -0.34828474321185671 -0.28056402933591768 0 -0.36775702437687668 -0.28964541075215688 0 -0.35309746978426021 -0.29891894062043528 0 -0.34828474321185671 -0.28056402933591768 0 -0.35309746978426021 -0.29891894062043528 0 -0.33658383463392733 -0.29794916771852248 0 -0.36775702437687668 -0.28964541075215688 0 -0.36442984490046337 -0.31102819277914928 0 -0.35309746978426021 -0.29891894062043528 0 -0.38207090706375169 -0.30755372683824073 0 -0.36775702437687668 -0.28964541075215688 0 -0.36442984490046337 -0.31102819277914928 0 -0.35309746978426021 -0.29891894062043528 0 -0.33658383463392733 -0.29794916771852248 0 -0.34843190179817718 -0.31540790251643019 0 -0.36442984490046337 -0.31102819277914928 0 -0.35309746978426021 -0.29891894062043528 0 -0.34843190179817718 -0.31540790251643019 0 -0.33658383463392733 -0.29794916771852248 0 -0.32488292605599811 -0.31533430610112728 0 -0.33658383463392733 -0.29794916771852248 0 -0.32488292605599811 -0.31533430610112728 0 -0.33598267166820661 -0.31469510726261241 0 -0.33658383463392733 -0.29794916771852248 0 -0.33598267166820661 -0.31469510726261241 0 -0.34843190179817718 -0.31540790251643019 0 -0.34828474321185671 -0.28056402933591768 0 -0.33658383463392733 -0.29794916771852248 0 -0.32616174140801057 -0.2702464185870691 0 -0.34828474321185671 -0.28056402933591768 0 -0.33658383463392733 -0.29794916771852248 0 -0.32616174140801057 -0.2702464185870691 0 -0.33658383463392733 -0.29794916771852248 0 -0.31543750222054101 -0.29309912821794681 0 -0.31543750222054101 -0.29309912821794681 0 -0.32488292605599811 -0.31533430610112728 0 -0.30880828462222593 -0.30835075437429338 0 -0.33658383463392733 -0.29794916771852248 0 -0.31543750222054101 -0.29309912821794681 0 -0.32488292605599811 -0.31533430610112728 0 -0.31543750222054101 -0.29309912821794681 0 -0.32488292605599811 -0.31533430610112728 0 -0.32393332595201257 -0.32213856893385412 0 -0.32488292605599811 -0.31533430610112728 0 -0.30865099597446471 -0.33945160851442108 0 -0.32488292605599811 -0.31533430610112728 0 -0.30742226906225611 -0.32252841288139489 0 -0.30880828462222593 -0.30835075437429338 0 -0.32488292605599811 -0.31533430610112728 0 -0.30865099597446471 -0.33945160851442108 0 -0.30742226906225611 -0.32252841288139489 0 -0.32488292605599811 -0.31533430610112728 0 -0.30865099597446471 -0.33945160851442108 0 -0.32393332595201257 -0.32213856893385412 0 -0.32488292605599811 -0.31533430610112728 0 -0.3290710439973345 -0.3251934240235857 0 -0.32393332595201257 -0.32213856893385412 0 -0.3290710439973345 -0.3251934240235857 0 -0.32488292605599811 -0.31533430610112728 0 -0.3290710439973345 -0.3251934240235857 0 -0.32393332595201257 -0.32213856893385412 0 -0.32435610893071332 -0.34019238078191949 0 -0.30865099597446471 -0.33945160851442108 0 -0.32393332595201257 -0.32213856893385412 0 -0.32435610893071332 -0.34019238078191949 0 -0.3290710439973345 -0.3251934240235857 0 -0.3290710439973345 -0.3251934240235857 0 -0.33842455205428862 -0.34721222583715777 0 -0.3290710439973345 -0.3251934240235857 0 -0.35141515024984821 -0.3384790901712591 0 -0.3290710439973345 -0.3251934240235857 0 -0.35141515024984821 -0.3384790901712591 0 -0.33842455205428862 -0.34721222583715777 0 -0.34312403408203901 -0.32794635582036041 0 -0.3290710439973345 -0.3251934240235857 0 -0.35141515024984821 -0.3384790901712591 0 -0.32435610893071332 -0.34019238078191949 0 -0.3290710439973345 -0.3251934240235857 0 -0.33842455205428862 -0.34721222583715777 0 -0.34312403408203901 -0.32794635582036041 0 -0.33713953151440468 -0.32210652119038569 0 -0.3290710439973345 -0.3251934240235857 0 -0.34312403408203901 -0.32794635582036041 0 -0.33713953151440468 -0.32210652119038569 0 -0.34843190179817718 -0.31540790251643019 0 -0.33713953151440468 -0.32210652119038569 0 -0.3290710439973345 -0.3251934240235857 0 -0.3314353984898647 -0.31941449082474899 0 -0.32488292605599811 -0.31533430610112728 0 -0.3314353984898647 -0.31941449082474899 0 -0.33598267166820661 -0.31469510726261241 0 -0.32488292605599811 -0.31533430610112728 0 -0.3290710439973345 -0.3251934240235857 0 -0.3314353984898647 -0.31941449082474899 0 -0.33713953151440468 -0.32210652119038569 0 -0.3314353984898647 -0.31941449082474899 0 -0.33598267166820661 -0.31469510726261241 0 -0.33713953151440468 -0.32210652119038569 0 -0.33598267166820661 -0.31469510726261241 0 -0.34843190179817718 -0.31540790251643019 0 -0.34312403408203901 -0.32794635582036041 0 -0.34843190179817718 -0.31540790251643019 0 -0.3598143623043441 -0.32655056570390067 0 -0.36442984490046337 -0.31102819277914928 0 -0.34843190179817718 -0.31540790251643019 0 -0.3598143623043441 -0.32655056570390067 0 -0.37680492703374102 -0.32622567850056539 0 -0.38207090706375169 -0.30755372683824073 0 -0.36442984490046337 -0.31102819277914928 0 -0.37680492703374102 -0.32622567850056539 0 -0.36442984490046337 -0.31102819277914928 0 -0.3598143623043441 -0.32655056570390067 0 -0.3598143623043441 -0.32655056570390067 0 -0.35141515024984821 -0.3384790901712591 0 -0.37375925650236208 -0.35176475631893173 0 -0.37680492703374102 -0.32622567850056539 0 -0.3598143623043441 -0.32655056570390067 0 -0.37375925650236208 -0.35176475631893173 0 -0.34312403408203901 -0.32794635582036041 0 -0.3598143623043441 -0.32655056570390067 0 -0.35141515024984821 -0.3384790901712591 0 -0.35141515024984821 -0.3384790901712591 0 -0.35432950288930259 -0.35549165621219708 0 -0.33842455205428862 -0.34721222583715777 0 -0.35432950288930259 -0.35549165621219708 0 -0.34777806011124213 -0.36923102765073018 0 -0.33842455205428862 -0.34721222583715777 0 -0.35141515024984821 -0.3384790901712591 0 -0.37375925650236208 -0.35176475631893173 0 -0.35141515024984821 -0.3384790901712591 0 -0.35432950288930259 -0.35549165621219708 0 -0.37375925650236208 -0.35176475631893173 0 -0.35432950288930259 -0.35549165621219708 0 -0.37375925650236208 -0.35176475631893173 0 -0.37367381685810741 -0.36766937258605342 0 -0.35432950288930259 -0.35549165621219708 0 -0.37367381685810741 -0.36766937258605342 0 -0.35901837125840491 -0.37087074600000092 0 -0.37367381685810741 -0.36766937258605342 0 -0.35901837125840491 -0.37087074600000092 0 -0.36582863262733001 -0.38110790764763192 0 -0.35901837125840491 -0.37087074600000092 0 -0.34777806011124213 -0.36923102765073018 0 -0.35348184380604247 -0.38085376590339221 0 -0.35432950288930259 -0.35549165621219708 0 -0.35901837125840491 -0.37087074600000092 0 -0.34777806011124213 -0.36923102765073018 0 -0.34777806011124213 -0.36923102765073018 0 -0.33842455205428862 -0.34721222583715777 0 -0.32472688938627498 -0.36177304337713379 0 -0.34777806011124213 -0.36923102765073018 0 -0.32472688938627498 -0.36177304337713379 0 -0.33168567749387812 -0.37760406933993212 0 -0.32435610893071332 -0.34019238078191949 0 -0.33842455205428862 -0.34721222583715777 0 -0.32472688938627498 -0.36177304337713379 0 -0.34777806011124213 -0.36923102765073018 0 -0.33842455205428862 -0.34721222583715777 0 -0.32435610893071332 -0.34019238078191949 0 -0.31044819871585549 -0.35388113379850489 0 -0.30865099597446471 -0.33945160851442108 0 -0.32435610893071332 -0.34019238078191949 0 -0.32472688938627498 -0.36177304337713379 0 -0.31044819871585549 -0.35388113379850489 0 -0.32472688938627498 -0.36177304337713379 0 -0.30522580768714319 -0.36888593173740358 0 -0.31834191434954878 -0.37954479593773099 0 -0.32472688938627498 -0.36177304337713379 0 -0.33168567749387812 -0.37760406933993212 0 -0.31834191434954878 -0.37954479593773099 0 -0.32472688938627498 -0.36177304337713379 0 -0.30522580768714319 -0.36888593173740358 0 -0.31044819871585549 -0.35388113379850489 0 -0.31044819871585549 -0.35388113379850489 0 -0.29655369765149181 -0.35367517758561401 0 -0.30865099597446471 -0.33945160851442108 0 -0.30522580768714319 -0.36888593173740358 0 -0.31044819871585549 -0.35388113379850489 0 -0.29655369765149181 -0.35367517758561401 0 -0.29655369765149181 -0.35367517758561401 0 -0.27843664637040572 -0.35523208052723088 0 -0.28889395014416069 -0.33453536264710948 0 -0.30522580768714319 -0.36888593173740358 0 -0.28766658701692049 -0.37006494828901387 0 -0.29648410022266541 -0.37732551396455349 0 -0.30522580768714319 -0.36888593173740358 0 -0.29655369765149181 -0.35367517758561401 0 -0.28766658701692049 -0.37006494828901387 0 -0.29655369765149181 -0.35367517758561401 0 -0.28766658701692049 -0.37006494828901387 0 -0.27843664637040572 -0.35523208052723088 0 -0.28766658701692049 -0.37006494828901387 0 -0.27296856034325911 -0.3709841081039057 0 -0.27843664637040572 -0.35523208052723088 0 -0.28766658701692049 -0.37006494828901387 0 -0.27296856034325911 -0.3709841081039057 0 -0.27984962255216772 -0.37718658713522341 0 -0.26812806966705482 -0.36101813014815631 0 -0.27296856034325911 -0.3709841081039057 0 -0.27843664637040572 -0.35523208052723088 0 -0.26812806966705482 -0.36101813014815631 0 -0.27296856034325911 -0.3709841081039057 0 -0.25934190744446889 -0.36674172805788308 0 -0.25934190744446889 -0.36674172805788308 0 -0.26174071051694819 -0.3809219102723978 0 -0.24300320825855271 -0.3768286419098269 0 -0.27296856034325911 -0.3709841081039057 0 -0.25934190744446889 -0.36674172805788308 0 -0.26174071051694819 -0.3809219102723978 0 -0.26812806966705482 -0.36101813014815631 0 -0.25934190744446889 -0.36674172805788308 0 -0.26176516451008569 -0.35111460390360583 0 -0.26176516451008569 -0.35111460390360583 0 -0.2458903191612237 -0.35977789146509231 0 -0.247265814921798 -0.3446520577861556 0 -0.25934190744446889 -0.36674172805788308 0 -0.26176516451008569 -0.35111460390360583 0 -0.2458903191612237 -0.35977789146509231 0 -0.26812806966705482 -0.36101813014815631 0 -0.26176516451008569 -0.35111460390360583 0 -0.27843664637040572 -0.35523208052723088 0 -0.26176516451008569 -0.35111460390360583 0 -0.27843664637040572 -0.35523208052723088 0 -0.27228555805351851 -0.34033595915188147 0 -0.27228555805351851 -0.34033595915188147 0 -0.27108377745872247 -0.32640452672186487 0 -0.28889395014416069 -0.33453536264710948 0 -0.27843664637040572 -0.35523208052723088 0 -0.27228555805351851 -0.34033595915188147 0 -0.28889395014416069 -0.33453536264710948 0 -0.27228555805351851 -0.34033595915188147 0 -0.2567583914609915 -0.33258759835201063 0 -0.27108377745872247 -0.32640452672186487 0 -0.26176516451008569 -0.35111460390360583 0 -0.27228555805351851 -0.34033595915188147 0 -0.2567583914609915 -0.33258759835201063 0 -0.26176516451008569 -0.35111460390360583 0 -0.2567583914609915 -0.33258759835201063 0 -0.247265814921798 -0.3446520577861556 0 -0.2567583914609915 -0.33258759835201063 0 -0.25976271365412262 -0.31481476486389631 0 -0.24436533018786191 -0.31749169771618618 0 -0.2567583914609915 -0.33258759835201063 0 -0.25976271365412262 -0.31481476486389631 0 -0.27108377745872247 -0.32640452672186487 0 -0.25976271365412262 -0.31481476486389631 0 -0.27108377745872247 -0.32640452672186487 0 -0.28172432323510782 -0.30986379095351668 0 -0.27108377745872247 -0.32640452672186487 0 -0.28889395014416069 -0.33453536264710948 0 -0.28172432323510782 -0.30986379095351668 0 -0.28889395014416069 -0.33453536264710948 0 -0.29696912868060138 -0.31406820710501099 0 -0.28172432323510782 -0.30986379095351668 0 -0.29655369765149181 -0.35367517758561401 0 -0.28889395014416069 -0.33453536264710948 0 -0.30865099597446471 -0.33945160851442108 0 -0.28889395014416069 -0.33453536264710948 0 -0.30865099597446471 -0.33945160851442108 0 -0.30742226906225611 -0.32252841288139489 0 -0.28889395014416069 -0.33453536264710948 0 -0.30742226906225611 -0.32252841288139489 0 -0.29696912868060138 -0.31406820710501099 0 -0.30742226906225611 -0.32252841288139489 0 -0.29696912868060138 -0.31406820710501099 0 -0.30880828462222593 -0.30835075437429338 0 -0.29696912868060138 -0.31406820710501099 0 -0.29984293481407492 -0.29801169876790462 0 -0.30880828462222593 -0.30835075437429338 0 -0.31543750222054101 -0.29309912821794681 0 -0.29984293481407492 -0.29801169876790462 0 -0.30880828462222593 -0.30835075437429338 0 -0.31543750222054101 -0.29309912821794681 0 -0.29984293481407492 -0.29801169876790462 0 -0.30664529687623188 -0.27921039347313181 0 -0.29984293481407492 -0.29801169876790462 0 -0.28947307324974142 -0.28347791848352788 0 -0.30664529687623188 -0.27921039347313181 0 -0.29696912868060138 -0.31406820710501099 0 -0.29984293481407492 -0.29801169876790462 0 -0.28172432323510782 -0.30986379095351668 0 -0.29984293481407492 -0.29801169876790462 0 -0.28947307324974142 -0.28347791848352788 0 -0.28172432323510782 -0.30986379095351668 0 -0.25976271365412262 -0.31481476486389631 0 -0.28172432323510782 -0.30986379095351668 0 -0.26655802236667342 -0.29902203928722049 0 -0.28947307324974142 -0.28347791848352788 0 -0.28172432323510782 -0.30986379095351668 0 -0.26655802236667342 -0.29902203928722049 0 -0.25976271365412262 -0.31481476486389631 0 -0.26655802236667342 -0.29902203928722049 0 -0.25008045053424988 -0.30220609096083711 0 -0.25976271365412262 -0.31481476486389631 0 -0.25008045053424988 -0.30220609096083711 0 -0.24436533018786191 -0.31749169771618618 0 -0.26655802236667342 -0.29902203928722049 0 -0.25599936036228632 -0.28628528780799478 0 -0.27106021136977088 -0.28162129779876061 0 -0.26655802236667342 -0.29902203928722049 0 -0.25008045053424988 -0.30220609096083711 0 -0.25599936036228632 -0.28628528780799478 0 -0.28947307324974142 -0.28347791848352788 0 -0.26655802236667342 -0.29902203928722049 0 -0.27106021136977088 -0.28162129779876061 0 -0.27106021136977088 -0.28162129779876061 0 -0.28047606832563848 -0.26846444788696472 0 -0.26278702599662962 -0.27032427487989169 0 -0.28947307324974142 -0.28347791848352788 0 -0.27106021136977088 -0.28162129779876061 0 -0.28047606832563848 -0.26846444788696472 0 -0.25599936036228632 -0.28628528780799478 0 -0.27106021136977088 -0.28162129779876061 0 -0.26278702599662962 -0.27032427487989169 0 -0.25599936036228632 -0.28628528780799478 0 -0.26278702599662962 -0.27032427487989169 0 -0.24528171809468299 -0.27407144203953199 0 -0.26278702599662962 -0.27032427487989169 0 -0.24528171809468299 -0.27407144203953199 0 -0.25346419334368148 -0.24821555279875021 0 -0.26278702599662962 -0.27032427487989169 0 -0.28191573780031948 -0.24961119708936949 0 -0.25346419334368148 -0.24821555279875021 0 -0.28047606832563848 -0.26846444788696472 0 -0.26278702599662962 -0.27032427487989169 0 -0.28191573780031948 -0.24961119708936949 0 -0.30403873960416522 -0.25992880783821931 0 -0.28191573780031948 -0.24961119708936949 0 -0.28047606832563848 -0.26846444788696472 0 -0.30403873960416522 -0.25992880783821931 0 -0.28191573780031948 -0.24961119708936949 0 -0.28947307324974142 -0.28347791848352788 0 -0.28047606832563848 -0.26846444788696472 0 -0.30403873960416522 -0.25992880783821931 0 -0.32616174140801057 -0.2702464185870691 0 -0.30664529687623188 -0.27921039347313181 0 -0.30403873960416522 -0.25992880783821931 0 -0.28947307324974142 -0.28347791848352788 0 -0.30664529687623188 -0.27921039347313181 0 -0.30403873960416522 -0.25992880783821931 0 -0.33593673901179077 -0.46122986432662127 0 -0.35015209651977341 -0.46897643342248652 0 -0.34377937747385051 -0.44927607504031841 0 -0.33593673901179077 -0.46122986432662127 0 -0.31885784577898779 -0.4576289775742271 0 -0.32989727876498548 -0.47912083485532059 0 -0.33593673901179077 -0.46122986432662127 0 -0.32879755342556582 -0.44719658043999361 0 -0.34377937747385051 -0.44927607504031841 0 -0.33707193832870791 -0.4376989072087013 0 -0.32879755342556582 -0.44719658043999361 0 -0.34377937747385051 -0.44927607504031841 0 -0.33707193832870791 -0.4376989072087013 0 -0.34377937747385051 -0.44927607504031841 0 -0.34847068221687177 -0.43515821905545238 0 -0.33707193832870791 -0.4376989072087013 0 -0.32879755342556582 -0.44719658043999361 0 -0.32486719988719842 -0.43363603468978679 0 -0.32879755342556582 -0.44719658043999361 0 -0.31591793737420099 -0.44270381407736059 0 -0.31885784577898779 -0.4576289775742271 0 -0.32879755342556582 -0.44719658043999361 0 -0.31591793737420099 -0.44270381407736059 0 -0.32486719988719842 -0.43363603468978679 0 -0.33593673901179077 -0.46122986432662127 0 -0.32879755342556582 -0.44719658043999361 0 -0.31885784577898779 -0.4576289775742271 0 -0.31451028023015881 -0.5 0 -0.32989727876498548 -0.47912083485532059 0 -0.31033769547596729 -0.47295405842081012 0 -0.31885784577898779 -0.4576289775742271 0 -0.32989727876498548 -0.47912083485532059 0 -0.31033769547596729 -0.47295405842081012 0 -0.31451028023015881 -0.5 0 -0.34298674307315291 -0.5 0 -0.32989727876498548 -0.47912083485532059 0 -0.33593673901179077 -0.46122986432662127 0 -0.32989727876498548 -0.47912083485532059 0 -0.35015209651977341 -0.46897643342248652 0 -0.34298674307315291 -0.5 0 -0.32989727876498548 -0.47912083485532059 0 -0.35015209651977341 -0.46897643342248652 0 -0.34298674307315291 -0.5 0 -0.35015209651977341 -0.46897643342248652 0 -0.36725232308377331 -0.48014495464580342 0 -0.34298674307315291 -0.5 0 -0.37146320591614712 -0.5 0 -0.36725232308377331 -0.48014495464580342 0 -0.35015209651977341 -0.46897643342248652 0 -0.36725232308377331 -0.48014495464580342 0 -0.3672623930506938 -0.46333460680278349 0 -0.38199555400001028 -0.4658636303410324 0 -0.36725232308377331 -0.48014495464580342 0 -0.3672623930506938 -0.46333460680278349 0 -0.3672623930506938 -0.46333460680278349 0 -0.35876182998161937 -0.44979830693523759 0 -0.37442419446080583 -0.44966624010971662 0 -0.38199555400001028 -0.4658636303410324 0 -0.3672623930506938 -0.46333460680278349 0 -0.37442419446080583 -0.44966624010971662 0 -0.35015209651977341 -0.46897643342248652 0 -0.3672623930506938 -0.46333460680278349 0 -0.35876182998161937 -0.44979830693523759 0 -0.35015209651977341 -0.46897643342248652 0 -0.34377937747385051 -0.44927607504031841 0 -0.35876182998161937 -0.44979830693523759 0 -0.35876182998161937 -0.44979830693523759 0 -0.36140097643995478 -0.43388132033937732 0 -0.34847068221687177 -0.43515821905545238 0 -0.34377937747385051 -0.44927607504031841 0 -0.35876182998161937 -0.44979830693523759 0 -0.34847068221687177 -0.43515821905545238 0 -0.35876182998161937 -0.44979830693523759 0 -0.37442419446080583 -0.44966624010971662 0 -0.36140097643995478 -0.43388132033937732 0 -0.37989548677862839 -0.43349641975054048 0 -0.37442419446080583 -0.44966624010971662 0 -0.36140097643995478 -0.43388132033937732 0 -0.37989548677862839 -0.43349641975054048 0 -0.36140097643995478 -0.43388132033937732 0 -0.37006662564312492 -0.42414264653414069 0 -0.36140097643995478 -0.43388132033937732 0 -0.37006662564312492 -0.42414264653414069 0 -0.36124972947753631 -0.42153755776119989 0 -0.3788463541689675 -0.42100415070222019 0 -0.37006662564312492 -0.42414264653414069 0 -0.37121927084163903 -0.41626129660232791 0 -0.37006662564312492 -0.42414264653414069 0 -0.37121927084163903 -0.41626129660232791 0 -0.36124972947753631 -0.42153755776119989 0 -0.37121927084163903 -0.41626129660232791 0 -0.37266055146815918 -0.40851580327183801 0 -0.36469350732220179 -0.40938521344560219 0 -0.38022452951193009 -0.41254470748584893 0 -0.37121927084163903 -0.41626129660232791 0 -0.37266055146815918 -0.40851580327183801 0 -0.37266055146815918 -0.40851580327183801 0 -0.36469350732220179 -0.40938521344560219 0 -0.36919054982281679 -0.40485320012922571 0 -0.36469350732220179 -0.40938521344560219 0 -0.35570614194425282 -0.41400736050568632 0 -0.35773107686951539 -0.40842950520037591 0 -0.36469350732220179 -0.40938521344560219 0 -0.35773107686951539 -0.40842950520037591 0 -0.3598880929128026 -0.40465262530244778 0 -0.36469350732220179 -0.40938521344560219 0 -0.36124972947753631 -0.42153755776119989 0 -0.35570614194425282 -0.41400736050568632 0 -0.37121927084163903 -0.41626129660232791 0 -0.36469350732220179 -0.40938521344560219 0 -0.36124972947753631 -0.42153755776119989 0 -0.36124972947753631 -0.42153755776119989 0 -0.35570614194425282 -0.41400736050568632 0 -0.35166940124758661 -0.42408489217657802 0 -0.35773107686951539 -0.40842950520037591 0 -0.3598880929128026 -0.40465262530244778 0 -0.35063656529880449 -0.40567282154776751 0 -0.35570614194425282 -0.41400736050568632 0 -0.35773107686951539 -0.40842950520037591 0 -0.35063656529880449 -0.40567282154776751 0 -0.34601365153850022 -0.41479284212809631 0 -0.35063656529880449 -0.40567282154776751 0 -0.34192327637816178 -0.40766074456661588 0 -0.35570614194425282 -0.41400736050568632 0 -0.34601365153850022 -0.41479284212809631 0 -0.35063656529880449 -0.40567282154776751 0 -0.34601365153850022 -0.41479284212809631 0 -0.35166940124758661 -0.42408489217657802 0 -0.33703073661589789 -0.42396683793450862 0 -0.35570614194425282 -0.41400736050568632 0 -0.34601365153850022 -0.41479284212809631 0 -0.35166940124758661 -0.42408489217657802 0 -0.34847068221687177 -0.43515821905545238 0 -0.35166940124758661 -0.42408489217657802 0 -0.33703073661589789 -0.42396683793450862 0 -0.36140097643995478 -0.43388132033937732 0 -0.34847068221687177 -0.43515821905545238 0 -0.35166940124758661 -0.42408489217657802 0 -0.36140097643995478 -0.43388132033937732 0 -0.36124972947753631 -0.42153755776119989 0 -0.35166940124758661 -0.42408489217657802 0 -0.35901837125840491 -0.37087074600000092 0 -0.36582863262733001 -0.38110790764763192 0 -0.35348184380604247 -0.38085376590339221 0 -0.37785695543098807 -0.38301425675691869 0 -0.37367381685810741 -0.36766937258605342 0 -0.36582863262733001 -0.38110790764763192 0 -0.37785695543098807 -0.38301425675691869 0 -0.36582863262733001 -0.38110790764763192 0 -0.3674434599388498 -0.39325176925211441 0 -0.36582863262733001 -0.38110790764763192 0 -0.3674434599388498 -0.39325176925211441 0 -0.35738569150982302 -0.38711169971535991 0 -0.39215823202996603 -0.39331349430551549 0 -0.36410131104928528 -0.39485838391446892 0 -0.3674434599388498 -0.39325176925211441 0 -0.36410131104928528 -0.39485838391446892 0 -0.36583218619736058 -0.39891159702881718 0 -0.35771733888721269 -0.40129611187372061 0 -0.36410131104928528 -0.39485838391446892 0 -0.36852284709786692 -0.39768587012888151 0 -0.36583218619736058 -0.39891159702881718 0 -0.37501551017570722 -0.39800740959626019 0 -0.36410131104928528 -0.39485838391446892 0 -0.36852284709786692 -0.39768587012888151 0 -0.37501551017570722 -0.39800740959626019 0 -0.36852284709786692 -0.39768587012888151 0 -0.36959075904207739 -0.40086774143547138 0 -0.36852284709786692 -0.39768587012888151 0 -0.36959075904207739 -0.40086774143547138 0 -0.36583218619736058 -0.39891159702881718 0 -0.37501551017570722 -0.39800740959626019 0 -0.36959075904207739 -0.40086774143547138 0 -0.37372851132735591 -0.40301717595400871 0 -0.37266055146815918 -0.40851580327183801 0 -0.37372851132735591 -0.40301717595400871 0 -0.36919054982281679 -0.40485320012922571 0 -0.37808561525725931 -0.4056729897961725 0 -0.37266055146815918 -0.40851580327183801 0 -0.37372851132735591 -0.40301717595400871 0 -0.36959075904207739 -0.40086774143547138 0 -0.37372851132735591 -0.40301717595400871 0 -0.36919054982281679 -0.40485320012922571 0 -0.36959075904207739 -0.40086774143547138 0 -0.36919054982281679 -0.40485320012922571 0 -0.36525494963135691 -0.40273119577563521 0 -0.36469350732220179 -0.40938521344560219 0 -0.36919054982281679 -0.40485320012922571 0 -0.36525494963135691 -0.40273119577563521 0 -0.36525494963135691 -0.40273119577563521 0 -0.36583218619736058 -0.39891159702881718 0 -0.35771733888721269 -0.40129611187372061 0 -0.36959075904207739 -0.40086774143547138 0 -0.36525494963135691 -0.40273119577563521 0 -0.36583218619736058 -0.39891159702881718 0 -0.36525494963135691 -0.40273119577563521 0 -0.3598880929128026 -0.40465262530244778 0 -0.35771733888721269 -0.40129611187372061 0 -0.36469350732220179 -0.40938521344560219 0 -0.36525494963135691 -0.40273119577563521 0 -0.3598880929128026 -0.40465262530244778 0 -0.3674434599388498 -0.39325176925211441 0 -0.34278882966706947 -0.39323335605830118 0 -0.36410131104928528 -0.39485838391446892 0 -0.35771733888721269 -0.40129611187372061 0 -0.34746059939626028 -0.40194498739209189 0 -0.36410131104928528 -0.39485838391446892 0 -0.33609936988597988 -0.39634965744007611 0 -0.36410131104928528 -0.39485838391446892 0 -0.34746059939626028 -0.40194498739209189 0 -0.33609936988597988 -0.39634965744007611 0 -0.36410131104928528 -0.39485838391446892 0 -0.3674434599388498 -0.39325176925211441 0 -0.34278882966706947 -0.39323335605830118 0 -0.3674434599388498 -0.39325176925211441 0 -0.35738569150982302 -0.38711169971535991 0 -0.34278882966706947 -0.39323335605830118 0 -0.36410131104928528 -0.39485838391446892 0 -0.33609936988597988 -0.39634965744007611 0 -0.34278882966706947 -0.39323335605830118 0 -0.3598880929128026 -0.40465262530244778 0 -0.35771733888721269 -0.40129611187372061 0 -0.35063656529880449 -0.40567282154776751 0 -0.35771733888721269 -0.40129611187372061 0 -0.34746059939626028 -0.40194498739209189 0 -0.35063656529880449 -0.40567282154776751 0 -0.34746059939626028 -0.40194498739209189 0 -0.35063656529880449 -0.40567282154776751 0 -0.34192327637816178 -0.40766074456661588 0 -0.36582863262733001 -0.38110790764763192 0 -0.35738569150982302 -0.38711169971535991 0 -0.35348184380604247 -0.38085376590339221 0 -0.35348184380604247 -0.38085376590339221 0 -0.34288512874023142 -0.38073366722216412 0 -0.34278882966706947 -0.39323335605830118 0 -0.35738569150982302 -0.38711169971535991 0 -0.35348184380604247 -0.38085376590339221 0 -0.34278882966706947 -0.39323335605830118 0 -0.34777806011124213 -0.36923102765073018 0 -0.35348184380604247 -0.38085376590339221 0 -0.34288512874023142 -0.38073366722216412 0 -0.34777806011124213 -0.36923102765073018 0 -0.33168567749387812 -0.37760406933993212 0 -0.34288512874023142 -0.38073366722216412 0 -0.33168567749387812 -0.37760406933993212 0 -0.34288512874023142 -0.38073366722216412 0 -0.3351240262982132 -0.38692409014375551 0 -0.34288512874023142 -0.38073366722216412 0 -0.3351240262982132 -0.38692409014375551 0 -0.34278882966706947 -0.39323335605830118 0 -0.33168567749387812 -0.37760406933993212 0 -0.3351240262982132 -0.38692409014375551 0 -0.32582145438423232 -0.38432197457147671 0 -0.33609936988597988 -0.39634965744007611 0 -0.34278882966706947 -0.39323335605830118 0 -0.31813419939528909 -0.39321494286448788 0 -0.3351240262982132 -0.38692409014375551 0 -0.34278882966706947 -0.39323335605830118 0 -0.31813419939528909 -0.39321494286448788 0 -0.34278882966706947 -0.39323335605830118 0 -0.31813419939528909 -0.39321494286448788 0 -0.34746059939626028 -0.40194498739209189 0 -0.33609936988597988 -0.39634965744007611 0 -0.33428573487811769 -0.40583220500990302 0 -0.34746059939626028 -0.40194498739209189 0 -0.33428573487811769 -0.40583220500990302 0 -0.34192327637816178 -0.40766074456661588 0 -0.33609936988597988 -0.39634965744007611 0 -0.33428573487811769 -0.40583220500990302 0 -0.3230186802127078 -0.40468927703216201 0 -0.33609936988597988 -0.39634965744007611 0 -0.3230186802127078 -0.40468927703216201 0 -0.30809742872267443 -0.39784093096568329 0 -0.33609936988597988 -0.39634965744007611 0 -0.31813419939528909 -0.39321494286448788 0 -0.30809742872267443 -0.39784093096568329 0 -0.33609936988597988 -0.39634965744007611 0 -0.30809742872267443 -0.39784093096568329 0 -0.3230186802127078 -0.40468927703216201 0 -0.31289921996229741 -0.40706284742950299 0 -0.30809742872267443 -0.39784093096568329 0 -0.3351240262982132 -0.38692409014375551 0 -0.31813419939528909 -0.39321494286448788 0 -0.32582145438423232 -0.38432197457147671 0 -0.31813419939528909 -0.39321494286448788 0 -0.32582145438423232 -0.38432197457147671 0 -0.31834191434954878 -0.37954479593773099 0 -0.31813419939528909 -0.39321494286448788 0 -0.31834191434954878 -0.37954479593773099 0 -0.3061840759923114 -0.38277679382366181 0 -0.33168567749387812 -0.37760406933993212 0 -0.32582145438423232 -0.38432197457147671 0 -0.31834191434954878 -0.37954479593773099 0 -0.33703073661589789 -0.42396683793450862 0 -0.32339903184552748 -0.4215175314842281 0 -0.32486719988719842 -0.43363603468978679 0 -0.33707193832870791 -0.4376989072087013 0 -0.33703073661589789 -0.42396683793450862 0 -0.32486719988719842 -0.43363603468978679 0 -0.33707193832870791 -0.4376989072087013 0 -0.34847068221687177 -0.43515821905545238 0 -0.33703073661589789 -0.42396683793450862 0 -0.34601365153850022 -0.41479284212809631 0 -0.33703073661589789 -0.42396683793450862 0 -0.33728674053202418 -0.41261216625704272 0 -0.34601365153850022 -0.41479284212809631 0 -0.34192327637816178 -0.40766074456661588 0 -0.33728674053202418 -0.41261216625704272 0 -0.33428573487811769 -0.40583220500990302 0 -0.34192327637816178 -0.40766074456661588 0 -0.33728674053202418 -0.41261216625704272 0 -0.33428573487811769 -0.40583220500990302 0 -0.33728674053202418 -0.41261216625704272 0 -0.3283306274575557 -0.41319056624820061 0 -0.33428573487811769 -0.40583220500990302 0 -0.3230186802127078 -0.40468927703216201 0 -0.3283306274575557 -0.41319056624820061 0 -0.33703073661589789 -0.42396683793450862 0 -0.3283306274575557 -0.41319056624820061 0 -0.32339903184552748 -0.4215175314842281 0 -0.33703073661589789 -0.42396683793450862 0 -0.33728674053202418 -0.41261216625704272 0 -0.3283306274575557 -0.41319056624820061 0 -0.3283306274575557 -0.41319056624820061 0 -0.32339903184552748 -0.4215175314842281 0 -0.31963080584795112 -0.41228606202816842 0 -0.3230186802127078 -0.40468927703216201 0 -0.3283306274575557 -0.41319056624820061 0 -0.31963080584795112 -0.41228606202816842 0 -0.31963080584795112 -0.41228606202816842 0 -0.31289921996229741 -0.40706284742950299 0 -0.31050646976166718 -0.41497008794674839 0 -0.3230186802127078 -0.40468927703216201 0 -0.31963080584795112 -0.41228606202816842 0 -0.31289921996229741 -0.40706284742950299 0 -0.32339903184552748 -0.4215175314842281 0 -0.31963080584795112 -0.41228606202816842 0 -0.31050646976166718 -0.41497008794674839 0 -0.32339903184552748 -0.4215175314842281 0 -0.30850505060884931 -0.42831344960936862 0 -0.31050646976166718 -0.41497008794674839 0 -0.32339903184552748 -0.4215175314842281 0 -0.32486719988719842 -0.43363603468978679 0 -0.30850505060884931 -0.42831344960936862 0 -0.31591793737420099 -0.44270381407736059 0 -0.32486719988719842 -0.43363603468978679 0 -0.30850505060884931 -0.42831344960936862 0 -0.30850505060884931 -0.42831344960936862 0 -0.29487719554397063 -0.41686524366431688 0 -0.28794125329539683 -0.43374339648287619 0 -0.30850505060884931 -0.42831344960936862 0 -0.28794125329539683 -0.43374339648287619 0 -0.29915932607917378 -0.44997167938060301 0 -0.31050646976166718 -0.41497008794674839 0 -0.30418876682684898 -0.40786629006408931 0 -0.29487719554397063 -0.41686524366431688 0 -0.30850505060884931 -0.42831344960936862 0 -0.31050646976166718 -0.41497008794674839 0 -0.29487719554397063 -0.41686524366431688 0 -0.31289921996229741 -0.40706284742950299 0 -0.31050646976166718 -0.41497008794674839 0 -0.30418876682684898 -0.40786629006408931 0 -0.30418876682684898 -0.40786629006408931 0 -0.29487719554397063 -0.41686524366431688 0 -0.29448871736124699 -0.40595209753700667 0 -0.29487719554397063 -0.41686524366431688 0 -0.28394831272771948 -0.40991234914241592 0 -0.27777394953363532 -0.4205945432988456 0 -0.29487719554397063 -0.41686524366431688 0 -0.28394831272771948 -0.40991234914241592 0 -0.29448871736124699 -0.40595209753700667 0 -0.29487719554397063 -0.41686524366431688 0 -0.28794125329539683 -0.43374339648287619 0 -0.27777394953363532 -0.4205945432988456 0 -0.31813419939528909 -0.39321494286448788 0 -0.3061840759923114 -0.38277679382366181 0 -0.2934795691235087 -0.39319652967067481 0 -0.3061840759923114 -0.38277679382366181 0 -0.2934795691235087 -0.39319652967067481 0 -0.29648410022266541 -0.37732551396455349 0 -0.30522580768714319 -0.36888593173740358 0 -0.3061840759923114 -0.38277679382366181 0 -0.29648410022266541 -0.37732551396455349 0 -0.30522580768714319 -0.36888593173740358 0 -0.31834191434954878 -0.37954479593773099 0 -0.3061840759923114 -0.38277679382366181 0 -0.31813419939528909 -0.39321494286448788 0 -0.30809742872267443 -0.39784093096568329 0 -0.2934795691235087 -0.39319652967067481 0 -0.31813419939528909 -0.39321494286448788 0 -0.2934795691235087 -0.39319652967067481 0 -0.31289921996229741 -0.40706284742950299 0 -0.30418876682684898 -0.40786629006408931 0 -0.30809742872267443 -0.39784093096568329 0 -0.30418876682684898 -0.40786629006408931 0 -0.30809742872267443 -0.39784093096568329 0 -0.29448871736124699 -0.40595209753700667 0 -0.30809742872267443 -0.39784093096568329 0 -0.2934795691235087 -0.39319652967067481 0 -0.28009548755936892 -0.39933220449129048 0 -0.30809742872267443 -0.39784093096568329 0 -0.28009548755936892 -0.39933220449129048 0 -0.30809742872267443 -0.39784093096568329 0 -0.29448871736124699 -0.40595209753700667 0 -0.28009548755936892 -0.39933220449129048 0 -0.28394831272771948 -0.40991234914241592 0 -0.29448871736124699 -0.40595209753700667 0 -0.28009548755936892 -0.39933220449129048 0 -0.2934795691235087 -0.39319652967067481 0 -0.2865904668722738 -0.38046568592542768 0 -0.29648410022266541 -0.37732551396455349 0 -0.2934795691235087 -0.39319652967067481 0 -0.2865904668722738 -0.38046568592542768 0 -0.27524202228020239 -0.38517156788351009 0 -0.28766658701692049 -0.37006494828901387 0 -0.2865904668722738 -0.38046568592542768 0 -0.27984962255216772 -0.37718658713522341 0 -0.28766658701692049 -0.37006494828901387 0 -0.2865904668722738 -0.38046568592542768 0 -0.29648410022266541 -0.37732551396455349 0 -0.2934795691235087 -0.39319652967067481 0 -0.27524202228020239 -0.38517156788351009 0 -0.26882493885172831 -0.39317811647686302 0 -0.27296856034325911 -0.3709841081039057 0 -0.27524202228020239 -0.38517156788351009 0 -0.26174071051694819 -0.3809219102723978 0 -0.27296856034325911 -0.3709841081039057 0 -0.27984962255216772 -0.37718658713522341 0 -0.27524202228020239 -0.38517156788351009 0 -0.2865904668722738 -0.38046568592542768 0 -0.27984962255216772 -0.37718658713522341 0 -0.27524202228020239 -0.38517156788351009 0 -0.27524202228020239 -0.38517156788351009 0 -0.26882493885172831 -0.39317811647686302 0 -0.26174071051694819 -0.3809219102723978 0 -0.27524202228020239 -0.38517156788351009 0 -0.26882493885172831 -0.39317811647686302 0 -0.2934795691235087 -0.39319652967067481 0 -0.26882493885172831 -0.39317811647686302 0 -0.28009548755936892 -0.39933220449129048 0 -0.2934795691235087 -0.39319652967067481 0 -0.26882493885172831 -0.39317811647686302 0 -0.26882493885172831 -0.39317811647686302 0 -0.28009548755936892 -0.39933220449129048 0 -0.270082688016682 -0.40893173784406411 0 -0.28394831272771948 -0.40991234914241592 0 -0.28009548755936892 -0.39933220449129048 0 -0.270082688016682 -0.40893173784406411 0 -0.26882493885172831 -0.39317811647686302 0 -0.25014799577654118 -0.41648120330340072 0 -0.24838936532526301 -0.39316285426559011 0 -0.26882493885172831 -0.39317811647686302 0 -0.24838936532526301 -0.39316285426559011 0 -0.26882493885172831 -0.39317811647686302 0 -0.270082688016682 -0.40893173784406411 0 -0.25014799577654118 -0.41648120330340072 0 -0.26882493885172831 -0.39317811647686302 0 -0.25014799577654118 -0.41648120330340072 0 -0.26882493885172831 -0.39317811647686302 0 -0.26174071051694819 -0.3809219102723978 0 -0.24838936532526301 -0.39316285426559011 0 -0.26174071051694819 -0.3809219102723978 0 -0.24838936532526301 -0.39316285426559011 0 -0.24300320825855271 -0.3768286419098269 0 -0.28794125329539683 -0.43374339648287619 0 -0.2690330482005982 -0.43513109204768968 0 -0.27777394953363532 -0.4205945432988456 0 -0.2690330482005982 -0.43513109204768968 0 -0.27777394953363532 -0.4205945432988456 0 -0.26408450290410329 -0.42297342992594839 0 -0.28394831272771948 -0.40991234914241592 0 -0.27777394953363532 -0.4205945432988456 0 -0.270082688016682 -0.40893173784406411 0 -0.27777394953363532 -0.4205945432988456 0 -0.270082688016682 -0.40893173784406411 0 -0.26408450290410329 -0.42297342992594839 0 -0.270082688016682 -0.40893173784406411 0 -0.25014799577654118 -0.41648120330340072 0 -0.26408450290410329 -0.42297342992594839 0 -0.25014799577654118 -0.41648120330340072 0 -0.25338483299305969 -0.43372857313574231 0 -0.26408450290410329 -0.42297342992594839 0 -0.2690330482005982 -0.43513109204768968 0 -0.25338483299305969 -0.43372857313574231 0 -0.26408450290410329 -0.42297342992594839 0 -0.2690330482005982 -0.43513109204768968 0 -0.25338483299305969 -0.43372857313574231 0 -0.25570750495126032 -0.45143082925249012 0 -0.25570750495126032 -0.45143082925249012 0 -0.25470831005551559 -0.46995098364596122 0 -0.24161269729847379 -0.46588060616763233 0 -0.25570750495126032 -0.45143082925249012 0 -0.26938746802774161 -0.46815139092867009 0 -0.25470831005551559 -0.46995098364596122 0 -0.25570750495126032 -0.45143082925249012 0 -0.26938746802774161 -0.46815139092867009 0 -0.27829894980615377 -0.45158437089643411 0 -0.26938746802774161 -0.46815139092867009 0 -0.27829894980615377 -0.45158437089643411 0 -0.28952225014170008 -0.46902344043112459 0 -0.2690330482005982 -0.43513109204768968 0 -0.25570750495126032 -0.45143082925249012 0 -0.27829894980615377 -0.45158437089643411 0 -0.28794125329539683 -0.43374339648287619 0 -0.2690330482005982 -0.43513109204768968 0 -0.27829894980615377 -0.45158437089643411 0 -0.28794125329539683 -0.43374339648287619 0 -0.27829894980615377 -0.45158437089643411 0 -0.29915932607917378 -0.44997167938060301 0 -0.27829894980615377 -0.45158437089643411 0 -0.29915932607917378 -0.44997167938060301 0 -0.28952225014170008 -0.46902344043112459 0 -0.29915932607917378 -0.44997167938060301 0 -0.31033769547596729 -0.47295405842081012 0 -0.28952225014170008 -0.46902344043112459 0 -0.31885784577898779 -0.4576289775742271 0 -0.29915932607917378 -0.44997167938060301 0 -0.31033769547596729 -0.47295405842081012 0 -0.31591793737420099 -0.44270381407736059 0 -0.31885784577898779 -0.4576289775742271 0 -0.29915932607917378 -0.44997167938060301 0 -0.31591793737420099 -0.44270381407736059 0 -0.30850505060884931 -0.42831344960936862 0 -0.29915932607917378 -0.44997167938060301 0 -0.31451028023015881 -0.5 0 -0.29794801184677361 -0.48579030044137739 0 -0.28603381738716471 -0.5 0 -0.31451028023015881 -0.5 0 -0.29794801184677361 -0.48579030044137739 0 -0.31033769547596729 -0.47295405842081012 0 -0.29794801184677361 -0.48579030044137739 0 -0.31033769547596729 -0.47295405842081012 0 -0.28952225014170008 -0.46902344043112459 0 -0.29794801184677361 -0.48579030044137739 0 -0.28952225014170008 -0.46902344043112459 0 -0.27655601530842799 -0.48427359666258329 0 -0.29794801184677361 -0.48579030044137739 0 -0.28603381738716471 -0.5 0 -0.27655601530842799 -0.48427359666258329 0 -0.28603381738716471 -0.5 0 -0.27655601530842799 -0.48427359666258329 0 -0.2575573545441705 -0.5 0 -0.26938746802774161 -0.46815139092867009 0 -0.28952225014170008 -0.46902344043112459 0 -0.27655601530842799 -0.48427359666258329 0 -0.26938746802774161 -0.46815139092867009 0 -0.27655601530842799 -0.48427359666258329 0 -0.25888718990301779 -0.48267644817432809 0 -0.26938746802774161 -0.46815139092867009 0 -0.25888718990301779 -0.48267644817432809 0 -0.25470831005551559 -0.46995098364596122 0 -0.25888718990301779 -0.48267644817432809 0 -0.25470831005551559 -0.46995098364596122 0 -0.24771813852586311 -0.47993919452042322 0 -0.25888718990301779 -0.48267644817432809 0 -0.2575573545441705 -0.5 0 -0.24600212161023219 -0.49334519391237608 0 -0.27655601530842799 -0.48427359666258329 0 -0.25888718990301779 -0.48267644817432809 0 -0.2575573545441705 -0.5 0 -0.25888718990301779 -0.48267644817432809 0 -0.24600212161023219 -0.49334519391237608 0 -0.24771813852586311 -0.47993919452042322 0 -0.24600212161023219 -0.49334519391237608 0 -0.23628332622021431 -0.47979578460775979 0 -0.22121770447466671 -0.48624639262396618 0 -0.2575573545441705 -0.5 0 -0.24600212161023219 -0.49334519391237608 0 -0.22908089170117629 -0.5 0 -0.24600212161023219 -0.49334519391237608 0 -0.24771813852586311 -0.47993919452042322 0 -0.23628332622021431 -0.47979578460775979 0 -0.25470831005551559 -0.46995098364596122 0 -0.24771813852586311 -0.47993919452042322 0 -0.24161269729847379 -0.46588060616763233 0 -0.23628332622021431 -0.47979578460775979 0 -0.22669780560202241 -0.46937465982661558 0 -0.24161269729847379 -0.46588060616763233 0 -0.24771813852586311 -0.47993919452042322 0 -0.23628332622021431 -0.47979578460775979 0 -0.24161269729847379 -0.46588060616763233 0 -0.23628332622021431 -0.47979578460775979 0 -0.22669780560202241 -0.46937465982661558 0 -0.22121770447466671 -0.48624639262396618 0 -0.22669780560202241 -0.46937465982661558 0 -0.22121770447466671 -0.48624639262396618 0 -0.2127941096261631 -0.46308737695647317 0 -0.24600212161023219 -0.49334519391237608 0 -0.22121770447466671 -0.48624639262396618 0 -0.24600212161023219 -0.49334519391237608 0 -0.22908089170117629 -0.5 0 -0.22121770447466671 -0.48624639262396618 0 -0.25570750495126032 -0.45143082925249012 0 -0.24161269729847379 -0.46588060616763233 0 -0.2314710527013521 -0.43978429012993692 0 -0.25338483299305969 -0.43372857313574231 0 -0.25570750495126032 -0.45143082925249012 0 -0.2314710527013521 -0.43978429012993692 0 -0.22669780560202241 -0.46937465982661558 0 -0.2314710527013521 -0.43978429012993692 0 -0.2127941096261631 -0.46308737695647317 0 -0.22669780560202241 -0.46937465982661558 0 -0.24161269729847379 -0.46588060616763233 0 -0.2314710527013521 -0.43978429012993692 0 -0.2314710527013521 -0.43978429012993692 0 -0.2127941096261631 -0.46308737695647317 0 -0.2314710527013521 -0.43978429012993692 0 -0.20509416255310101 -0.43934015315530311 0 -0.2127941096261631 -0.46308737695647317 0 -0.2127941096261631 -0.46308737695647317 0 -0.1882856083534398 -0.4666817748806914 0 -0.19063860440776401 -0.45296465086813381 0 -0.20509416255310101 -0.43934015315530311 0 -0.2127941096261631 -0.46308737695647317 0 -0.19063860440776401 -0.45296465086813381 0 -0.20509416255310101 -0.43934015315530311 0 -0.19063860440776401 -0.45296465086813381 0 -0.1860968876546574 -0.4361899180395663 0 -0.22121770447466671 -0.48624639262396618 0 -0.1964332873391012 -0.47914759133555629 0 -0.20060442885818219 -0.5 0 -0.22908089170117629 -0.5 0 -0.22121770447466671 -0.48624639262396618 0 -0.20060442885818219 -0.5 0 -0.22121770447466671 -0.48624639262396618 0 -0.1964332873391012 -0.47914759133555629 0 -0.22121770447466671 -0.48624639262396618 0 -0.2127941096261631 -0.46308737695647317 0 -0.1964332873391012 -0.47914759133555629 0 -0.2127941096261631 -0.46308737695647317 0 -0.1882856083534398 -0.4666817748806914 0 -0.1964332873391012 -0.47914759133555629 0 -0.20060442885818219 -0.5 0 -0.18160673211640249 -0.49505873029012532 0 -0.18610944099138521 -0.48560402272737491 0 -0.1964332873391012 -0.47914759133555629 0 -0.20060442885818219 -0.5 0 -0.18610944099138521 -0.48560402272737491 0 -0.20060442885818219 -0.5 0 -0.17212796601518809 -0.5 0 -0.18160673211640249 -0.49505873029012532 0 -0.18160673211640249 -0.49505873029012532 0 -0.16346780318567411 -0.48190842781918491 0 -0.17593324503095509 -0.48356142882210079 0 -0.18160673211640249 -0.49505873029012532 0 -0.16346780318567411 -0.48190842781918491 0 -0.17212796601518809 -0.5 0 -0.18160673211640249 -0.49505873029012532 0 -0.16346780318567411 -0.48190842781918491 0 -0.18160673211640249 -0.49505873029012532 0 -0.18610944099138521 -0.48560402272737491 0 -0.17593324503095509 -0.48356142882210079 0 -0.17212796601518809 -0.5 0 -0.16346780318567411 -0.48190842781918491 0 -0.14365150317219391 -0.5 0 -0.15699188241284179 -0.47097233805931699 0 -0.17164887020353559 -0.47204879004714639 0 -0.14953672395004969 -0.46651592089129112 0 -0.15699188241284179 -0.47097233805931699 0 -0.16346780318567411 -0.48190842781918491 0 -0.17164887020353559 -0.47204879004714639 0 -0.16346780318567411 -0.48190842781918491 0 -0.17164887020353559 -0.47204879004714639 0 -0.17593324503095509 -0.48356142882210079 0 -0.1882856083534398 -0.4666817748806914 0 -0.1964332873391012 -0.47914759133555629 0 -0.17164887020353559 -0.47204879004714639 0 -0.1964332873391012 -0.47914759133555629 0 -0.18610944099138521 -0.48560402272737491 0 -0.17164887020353559 -0.47204879004714639 0 -0.1964332873391012 -0.47914759133555629 0 -0.17164887020353559 -0.47204879004714639 0 -0.18610944099138521 -0.48560402272737491 0 -0.17164887020353559 -0.47204879004714639 0 -0.17593324503095509 -0.48356142882210079 0 -0.1882856083534398 -0.4666817748806914 0 -0.17164887020353559 -0.47204879004714639 0 -0.1760322134179679 -0.45880979178877762 0 -0.1882856083534398 -0.4666817748806914 0 -0.19063860440776401 -0.45296465086813381 0 -0.1760322134179679 -0.45880979178877762 0 -0.19063860440776401 -0.45296465086813381 0 -0.17472194670784699 -0.44444760419482832 0 -0.1860968876546574 -0.4361899180395663 0 -0.19063860440776401 -0.45296465086813381 0 -0.1760322134179679 -0.45880979178877762 0 -0.17472194670784699 -0.44444760419482832 0 -0.16413060541719721 -0.45148273393297972 0 -0.15642982238080741 -0.45705850598932479 0 -0.14846543954508529 -0.44894535056221158 0 -0.16413060541719721 -0.45148273393297972 0 -0.16039568398272369 -0.43858606291795699 0 -0.14846543954508529 -0.44894535056221158 0 -0.17472194670784699 -0.44444760419482832 0 -0.16413060541719721 -0.45148273393297972 0 -0.16039568398272369 -0.43858606291795699 0 -0.1760322134179679 -0.45880979178877762 0 -0.17472194670784699 -0.44444760419482832 0 -0.16413060541719721 -0.45148273393297972 0 -0.17164887020353559 -0.47204879004714639 0 -0.1639462210676331 -0.46143738741767271 0 -0.14686445306797019 -0.46494998875873589 0 -0.17164887020353559 -0.47204879004714639 0 -0.14686445306797019 -0.46494998875873589 0 -0.17164887020353559 -0.47204879004714639 0 -0.1760322134179679 -0.45880979178877762 0 -0.1639462210676331 -0.46143738741767271 0 -0.1760322134179679 -0.45880979178877762 0 -0.16413060541719721 -0.45148273393297972 0 -0.1639462210676331 -0.46143738741767271 0 -0.16413060541719721 -0.45148273393297972 0 -0.15642982238080741 -0.45705850598932479 0 -0.1639462210676331 -0.46143738741767271 0 -0.14686445306797019 -0.46494998875873589 0 -0.14846543954508529 -0.44894535056221158 0 -0.12798242029922571 -0.45372165104675771 0 -0.15699188241284179 -0.47097233805931699 0 -0.14953672395004969 -0.46651592089129112 0 -0.15642982238080741 -0.45705850598932479 0 -0.14686445306797019 -0.46494998875873589 0 -0.14846543954508529 -0.44894535056221158 0 -0.17164887020353559 -0.47204879004714639 0 -0.14953672395004969 -0.46651592089129112 0 -0.14686445306797019 -0.46494998875873589 0 -0.15642982238080741 -0.45705850598932479 0 -0.1639462210676331 -0.46143738741767271 0 -0.14686445306797019 -0.46494998875873589 0 -0.15699188241284179 -0.47097233805931699 0 -0.14953672395004969 -0.46651592089129112 0 -0.14532887425494409 -0.46875812534824662 0 -0.14686445306797019 -0.46494998875873589 0 -0.1356426052378904 -0.46173580512880669 0 -0.14532887425494409 -0.46875812534824662 0 -0.14686445306797019 -0.46494998875873589 0 -0.1356426052378904 -0.46173580512880669 0 -0.14953672395004969 -0.46651592089129112 0 -0.14532887425494409 -0.46875812534824662 0 -0.14953672395004969 -0.46651592089129112 0 -0.14686445306797019 -0.46494998875873589 0 -0.14532887425494409 -0.46875812534824662 0 -0.14953672395004969 -0.46651592089129112 0 -0.14686445306797019 -0.46494998875873589 0 -0.14846543954508529 -0.44894535056221158 0 -0.13205437630169559 -0.43625871820990142 0 -0.14830349604402129 -0.43408530522863659 0 -0.16039568398272369 -0.43858606291795699 0 -0.14846543954508529 -0.44894535056221158 0 -0.14830349604402129 -0.43408530522863659 0 -0.14846543954508529 -0.44894535056221158 0 -0.12798242029922571 -0.45372165104675771 0 -0.13205437630169559 -0.43625871820990142 0 -0.14686445306797019 -0.46494998875873589 0 -0.1356426052378904 -0.46173580512880669 0 -0.12798242029922571 -0.45372165104675771 0 -0.14686445306797019 -0.46494998875873589 0 -0.12798242029922571 -0.45372165104675771 0 -0.1356426052378904 -0.46173580512880669 0 -0.1276139703006203 -0.46768189475425948 0 -0.14532887425494409 -0.46875812534824662 0 -0.1356426052378904 -0.46173580512880669 0 -0.14532887425494409 -0.46875812534824662 0 -0.1356426052378904 -0.46173580512880669 0 -0.130160841481294 -0.46016570761934111 0 -0.1356426052378904 -0.46173580512880669 0 -0.1223714963841853 -0.452114559231794 0 -0.1356426052378904 -0.46173580512880669 0 -0.12798242029922571 -0.45372165104675771 0 -0.1223714963841853 -0.452114559231794 0 -0.1356426052378904 -0.46173580512880669 0 -0.130160841481294 -0.46016570761934111 0 -0.1223714963841853 -0.452114559231794 0 -0.1356426052378904 -0.46173580512880669 0 -0.130160841481294 -0.46016570761934111 0 -0.1276139703006203 -0.46768189475425948 0 -0.130160841481294 -0.46016570761934111 0 -0.1276139703006203 -0.46768189475425948 0 -0.1214594444423419 -0.46076966567589389 0 -0.12578544199870001 -0.47917208356550189 0 -0.14546024343403199 -0.48305752614656672 0 -0.14532887425494409 -0.46875812534824662 0 -0.12578544199870001 -0.47917208356550189 0 -0.14532887425494409 -0.46875812534824662 0 -0.1276139703006203 -0.46768189475425948 0 -0.12578544199870001 -0.47917208356550189 0 -0.14532887425494409 -0.46875812534824662 0 -0.12578544199870001 -0.47917208356550189 0 -0.14365150317219391 -0.5 0 -0.1151750403291998 -0.5 0 -0.12578544199870001 -0.47917208356550189 0 -0.14365150317219391 -0.5 0 -0.14546024343403199 -0.48305752614656672 0 -0.16346780318567411 -0.48190842781918491 0 -0.14365150317219391 -0.5 0 -0.14546024343403199 -0.48305752614656672 0 -0.15699188241284179 -0.47097233805931699 0 -0.16346780318567411 -0.48190842781918491 0 -0.14532887425494409 -0.46875812534824662 0 -0.16346780318567411 -0.48190842781918491 0 -0.14532887425494409 -0.46875812534824662 0 -0.16346780318567411 -0.48190842781918491 0 -0.14546024343403199 -0.48305752614656672 0 -0.14532887425494409 -0.46875812534824662 0 -0.14299339925155771 -0.39641298765598482 0 -0.16001007742825499 -0.4089382623459038 0 -0.1638188800611815 -0.38478395391029979 0 -0.13967350730362829 -0.37678139160839619 0 -0.1638188800611815 -0.38478395391029979 0 -0.13967350730362829 -0.37678139160839619 0 -0.1638188800611815 -0.38478395391029979 0 -0.15611973104540189 -0.36512640122172269 0 -0.14299339925155771 -0.39641298765598482 0 -0.13967350730362829 -0.37678139160839619 0 -0.1638188800611815 -0.38478395391029979 0 -0.14299339925155771 -0.39641298765598482 0 -0.13967350730362829 -0.37678139160839619 0 -0.12746112459551179 -0.3876314843540985 0 -0.13967350730362829 -0.37678139160839619 0 -0.12746112459551179 -0.3876314843540985 0 -0.1202449094974696 -0.37252035622549928 0 -0.14299339925155771 -0.39641298765598482 0 -0.14017767667191791 -0.41818496192180332 0 -0.1244361553462176 -0.40367529259255358 0 -0.14299339925155771 -0.39641298765598482 0 -0.12746112459551179 -0.3876314843540985 0 -0.1244361553462176 -0.40367529259255358 0 -0.14017767667191791 -0.41818496192180332 0 -0.1193116215658578 -0.42177231840057378 0 -0.1244361553462176 -0.40367529259255358 0 -0.14017767667191791 -0.41818496192180332 0 -0.13205437630169559 -0.43625871820990142 0 -0.1193116215658578 -0.42177231840057378 0 -0.14017767667191791 -0.41818496192180332 0 -0.13205437630169559 -0.43625871820990142 0 -0.14830349604402129 -0.43408530522863659 0 -0.14017767667191791 -0.41818496192180332 0 -0.14830349604402129 -0.43408530522863659 0 -0.15657540931866151 -0.42458744128188919 0 -0.16039568398272369 -0.43858606291795699 0 -0.14830349604402129 -0.43408530522863659 0 -0.15657540931866151 -0.42458744128188919 0 -0.14017767667191791 -0.41818496192180332 0 -0.16001007742825499 -0.4089382623459038 0 -0.15657540931866151 -0.42458744128188919 0 -0.14299339925155771 -0.39641298765598482 0 -0.14017767667191791 -0.41818496192180332 0 -0.16001007742825499 -0.4089382623459038 0 -0.16001007742825499 -0.4089382623459038 0 -0.15657540931866151 -0.42458744128188919 0 -0.17017720686353019 -0.42796794230719659 0 -0.16001007742825499 -0.4089382623459038 0 -0.1817667606809141 -0.41450967379729481 0 -0.17303759617657979 -0.39996039881166939 0 -0.16001007742825499 -0.4089382623459038 0 -0.17017720686353019 -0.42796794230719659 0 -0.1817667606809141 -0.41450967379729481 0 -0.17472194670784699 -0.44444760419482832 0 -0.16039568398272369 -0.43858606291795699 0 -0.17017720686353019 -0.42796794230719659 0 -0.16039568398272369 -0.43858606291795699 0 -0.15657540931866151 -0.42458744128188919 0 -0.17017720686353019 -0.42796794230719659 0 -0.17472194670784699 -0.44444760419482832 0 -0.17017720686353019 -0.42796794230719659 0 -0.1860968876546574 -0.4361899180395663 0 -0.17017720686353019 -0.42796794230719659 0 -0.1860968876546574 -0.4361899180395663 0 -0.1817667606809141 -0.41450967379729481 0 -0.1817667606809141 -0.41450967379729481 0 -0.17303759617657979 -0.39996039881166939 0 -0.18796425281873469 -0.39278651621220362 0 -0.17303759617657979 -0.39996039881166939 0 -0.1638188800611815 -0.38478395391029979 0 -0.18796425281873469 -0.39278651621220362 0 -0.16001007742825499 -0.4089382623459038 0 -0.17303759617657979 -0.39996039881166939 0 -0.1638188800611815 -0.38478395391029979 0 -0.1638188800611815 -0.38478395391029979 0 -0.18796425281873469 -0.39278651621220362 0 -0.1638188800611815 -0.38478395391029979 0 -0.18796425281873469 -0.39278651621220362 0 -0.17634412088915 -0.37332150205102482 0 -0.18796425281873469 -0.39278651621220362 0 -0.19277638213751949 -0.36531591894932353 0 -0.17634412088915 -0.37332150205102482 0 -0.18796425281873469 -0.39278651621220362 0 -0.213869217550893 -0.38835166636410379 0 -0.20753299952950419 -0.3775465787937346 0 -0.18796425281873469 -0.39278651621220362 0 -0.20753299952950419 -0.3775465787937346 0 -0.19277638213751949 -0.36531591894932353 0 -0.18796425281873469 -0.39278651621220362 0 -0.2121096255762881 -0.40078907851410728 0 -0.198359497797988 -0.4101928600319209 0 -0.1817667606809141 -0.41450967379729481 0 -0.18796425281873469 -0.39278651621220362 0 -0.198359497797988 -0.4101928600319209 0 -0.18796425281873469 -0.39278651621220362 0 -0.2121096255762881 -0.40078907851410728 0 -0.2121096255762881 -0.40078907851410728 0 -0.213869217550893 -0.38835166636410379 0 -0.22795379179879779 -0.39314759205431871 0 -0.18796425281873469 -0.39278651621220362 0 -0.2121096255762881 -0.40078907851410728 0 -0.213869217550893 -0.38835166636410379 0 -0.213869217550893 -0.38835166636410379 0 -0.20753299952950419 -0.3775465787937346 0 -0.22393450256760999 -0.37703554680928192 0 -0.20509416255310101 -0.43934015315530311 0 -0.1860968876546574 -0.4361899180395663 0 -0.19720224394721761 -0.42470974449979543 0 -0.1860968876546574 -0.4361899180395663 0 -0.1817667606809141 -0.41450967379729481 0 -0.19720224394721761 -0.42470974449979543 0 -0.1817667606809141 -0.41450967379729481 0 -0.19720224394721761 -0.42470974449979543 0 -0.198359497797988 -0.4101928600319209 0 -0.19720224394721761 -0.42470974449979543 0 -0.198359497797988 -0.4101928600319209 0 -0.2121672307907102 -0.42113659451268032 0 -0.2121096255762881 -0.40078907851410728 0 -0.198359497797988 -0.4101928600319209 0 -0.2121672307907102 -0.42113659451268032 0 -0.2121096255762881 -0.40078907851410728 0 -0.2121672307907102 -0.42113659451268032 0 -0.2287668021683148 -0.4120034407450186 0 -0.2314710527013521 -0.43978429012993692 0 -0.20509416255310101 -0.43934015315530311 0 -0.2121672307907102 -0.42113659451268032 0 -0.20509416255310101 -0.43934015315530311 0 -0.19720224394721761 -0.42470974449979543 0 -0.2121672307907102 -0.42113659451268032 0 -0.2314710527013521 -0.43978429012993692 0 -0.2121672307907102 -0.42113659451268032 0 -0.2287668021683148 -0.4120034407450186 0 -0.25014799577654118 -0.41648120330340072 0 -0.2287668021683148 -0.4120034407450186 0 -0.23881448876722919 -0.40369877259208198 0 -0.25014799577654118 -0.41648120330340072 0 -0.2314710527013521 -0.43978429012993692 0 -0.25014799577654118 -0.41648120330340072 0 -0.25338483299305969 -0.43372857313574231 0 -0.2314710527013521 -0.43978429012993692 0 -0.25014799577654118 -0.41648120330340072 0 -0.2314710527013521 -0.43978429012993692 0 -0.2287668021683148 -0.4120034407450186 0 -0.213869217550893 -0.38835166636410379 0 -0.22393450256760999 -0.37703554680928192 0 -0.22795379179879779 -0.39314759205431871 0 -0.22393450256760999 -0.37703554680928192 0 -0.22795379179879779 -0.39314759205431871 0 -0.24300320825855271 -0.3768286419098269 0 -0.2287668021683148 -0.4120034407450186 0 -0.22795379179879779 -0.39314759205431871 0 -0.23881448876722919 -0.40369877259208198 0 -0.2121096255762881 -0.40078907851410728 0 -0.2287668021683148 -0.4120034407450186 0 -0.22795379179879779 -0.39314759205431871 0 -0.22795379179879779 -0.39314759205431871 0 -0.24838936532526301 -0.39316285426559011 0 -0.23881448876722919 -0.40369877259208198 0 -0.25014799577654118 -0.41648120330340072 0 -0.24838936532526301 -0.39316285426559011 0 -0.23881448876722919 -0.40369877259208198 0 -0.22795379179879779 -0.39314759205431871 0 -0.24838936532526301 -0.39316285426559011 0 -0.22795379179879779 -0.39314759205431871 0 -0.24838936532526301 -0.39316285426559011 0 -0.24300320825855271 -0.3768286419098269 0 -0.24300320825855271 -0.3768286419098269 0 -0.2458903191612237 -0.35977789146509231 0 -0.23307819148760539 -0.36514576812321392 0 -0.25934190744446889 -0.36674172805788308 0 -0.24300320825855271 -0.3768286419098269 0 -0.2458903191612237 -0.35977789146509231 0 -0.22393450256760999 -0.37703554680928192 0 -0.24300320825855271 -0.3768286419098269 0 -0.23307819148760539 -0.36514576812321392 0 -0.22393450256760999 -0.37703554680928192 0 -0.23307819148760539 -0.36514576812321392 0 -0.2161173327254052 -0.36109865456114498 0 -0.23307819148760539 -0.36514576812321392 0 -0.232634001217873 -0.34963287091258838 0 -0.2161173327254052 -0.36109865456114498 0 -0.232634001217873 -0.34963287091258838 0 -0.2161173327254052 -0.36109865456114498 0 -0.21873207010194959 -0.34729951366361039 0 -0.232634001217873 -0.34963287091258838 0 -0.22631545602566211 -0.33465717348937579 0 -0.21873207010194959 -0.34729951366361039 0 -0.2458903191612237 -0.35977789146509231 0 -0.232634001217873 -0.34963287091258838 0 -0.247265814921798 -0.3446520577861556 0 -0.2458903191612237 -0.35977789146509231 0 -0.23307819148760539 -0.36514576812321392 0 -0.232634001217873 -0.34963287091258838 0 -0.2567583914609915 -0.33258759835201063 0 -0.247265814921798 -0.3446520577861556 0 -0.23984499387349281 -0.33292340673557003 0 -0.232634001217873 -0.34963287091258838 0 -0.247265814921798 -0.3446520577861556 0 -0.23984499387349281 -0.33292340673557003 0 -0.2567583914609915 -0.33258759835201063 0 -0.23984499387349281 -0.33292340673557003 0 -0.24436533018786191 -0.31749169771618618 0 -0.23984499387349281 -0.33292340673557003 0 -0.24436533018786191 -0.31749169771618618 0 -0.22882588201598031 -0.32000522524258118 0 -0.24436533018786191 -0.31749169771618618 0 -0.22882588201598031 -0.32000522524258118 0 -0.23385571154840429 -0.30514294509554152 0 -0.22882588201598031 -0.32000522524258118 0 -0.22631545602566211 -0.33465717348937579 0 -0.2118908683175518 -0.32483881152705302 0 -0.22882588201598031 -0.32000522524258118 0 -0.2118908683175518 -0.32483881152705302 0 -0.21685180783710531 -0.30565907251117658 0 -0.232634001217873 -0.34963287091258838 0 -0.23984499387349281 -0.33292340673557003 0 -0.22631545602566211 -0.33465717348937579 0 -0.22631545602566211 -0.33465717348937579 0 -0.2118908683175518 -0.32483881152705302 0 -0.21873207010194959 -0.34729951366361039 0 -0.23984499387349281 -0.33292340673557003 0 -0.22882588201598031 -0.32000522524258118 0 -0.22631545602566211 -0.33465717348937579 0 -0.2118908683175518 -0.32483881152705302 0 -0.2034395125278228 -0.34384718235525169 0 -0.21873207010194959 -0.34729951366361039 0 -0.2118908683175518 -0.32483881152705302 0 -0.1910119304775495 -0.32345747375755918 0 -0.19812978410937521 -0.29923010451123949 0 -0.1910119304775495 -0.32345747375755918 0 -0.2034395125278228 -0.34384718235525169 0 -0.18615265757541621 -0.34209692331055858 0 -0.2118908683175518 -0.32483881152705302 0 -0.1910119304775495 -0.32345747375755918 0 -0.2034395125278228 -0.34384718235525169 0 -0.19277638213751949 -0.36531591894932353 0 -0.2034395125278228 -0.34384718235525169 0 -0.18615265757541621 -0.34209692331055858 0 -0.20753299952950419 -0.3775465787937346 0 -0.22393450256760999 -0.37703554680928192 0 -0.2161173327254052 -0.36109865456114498 0 -0.20753299952950419 -0.3775465787937346 0 -0.19277638213751949 -0.36531591894932353 0 -0.2161173327254052 -0.36109865456114498 0 -0.19277638213751949 -0.36531591894932353 0 -0.2161173327254052 -0.36109865456114498 0 -0.2034395125278228 -0.34384718235525169 0 -0.2161173327254052 -0.36109865456114498 0 -0.2034395125278228 -0.34384718235525169 0 -0.21873207010194959 -0.34729951366361039 0 -0.21930230117124799 -0.25295044087590401 0 -0.23411881780064081 -0.26067207465961989 0 -0.22036275698445901 -0.28013045877708009 0 -0.23411881780064081 -0.26067207465961989 0 -0.24528171809468299 -0.27407144203953199 0 -0.25346419334368148 -0.24821555279875021 0 -0.23411881780064081 -0.26067207465961989 0 -0.24528171809468299 -0.27407144203953199 0 -0.22036275698445901 -0.28013045877708009 0 -0.22036275698445901 -0.28013045877708009 0 -0.23993405853826569 -0.28994729034597988 0 -0.23385571154840429 -0.30514294509554152 0 -0.24528171809468299 -0.27407144203953199 0 -0.22036275698445901 -0.28013045877708009 0 -0.23993405853826569 -0.28994729034597988 0 -0.25599936036228632 -0.28628528780799478 0 -0.24528171809468299 -0.27407144203953199 0 -0.23993405853826569 -0.28994729034597988 0 -0.25008045053424988 -0.30220609096083711 0 -0.25599936036228632 -0.28628528780799478 0 -0.23993405853826569 -0.28994729034597988 0 -0.25008045053424988 -0.30220609096083711 0 -0.23993405853826569 -0.28994729034597988 0 -0.23385571154840429 -0.30514294509554152 0 -0.25008045053424988 -0.30220609096083711 0 -0.24436533018786191 -0.31749169771618618 0 -0.23385571154840429 -0.30514294509554152 0 -0.22036275698445901 -0.28013045877708009 0 -0.23385571154840429 -0.30514294509554152 0 -0.21685180783710531 -0.30565907251117658 0 -0.22882588201598031 -0.32000522524258118 0 -0.23385571154840429 -0.30514294509554152 0 -0.21685180783710531 -0.30565907251117658 0 -0.2118908683175518 -0.32483881152705302 0 -0.21685180783710531 -0.30565907251117658 0 -0.19812978410937521 -0.29923010451123949 0 -0.1910119304775495 -0.32345747375755918 0 -0.19812978410937521 -0.29923010451123949 0 -0.17402085879199641 -0.30252042960865938 0 -0.19812978410937521 -0.29923010451123949 0 -0.19626421680878151 -0.27536946113352151 0 -0.17753186465666021 -0.28065186093214528 0 -0.22036275698445901 -0.28013045877708009 0 -0.21685180783710531 -0.30565907251117658 0 -0.19812978410937521 -0.29923010451123949 0 -0.22036275698445901 -0.28013045877708009 0 -0.19812978410937521 -0.29923010451123949 0 -0.19626421680878151 -0.27536946113352151 0 -0.22036275698445901 -0.28013045877708009 0 -0.19626421680878151 -0.27536946113352151 0 -0.201941962032301 -0.25777820069528129 0 -0.201941962032301 -0.25777820069528129 0 -0.18174050912316109 -0.25437182043704609 0 -0.2075298900228397 -0.23862318425924861 0 -0.19626421680878151 -0.27536946113352151 0 -0.201941962032301 -0.25777820069528129 0 -0.18174050912316109 -0.25437182043704609 0 -0.21930230117124799 -0.25295044087590401 0 -0.22036275698445901 -0.28013045877708009 0 -0.201941962032301 -0.25777820069528129 0 -0.15832530985914769 -0.2643720413550551 0 -0.18174050912316109 -0.25437182043704609 0 -0.1574723052227173 -0.23960148641780851 0 -0.19626421680878151 -0.27536946113352151 0 -0.18174050912316109 -0.25437182043704609 0 -0.17753186465666021 -0.28065186093214528 0 -0.15832530985914769 -0.2643720413550551 0 -0.18174050912316109 -0.25437182043704609 0 -0.17753186465666021 -0.28065186093214528 0 -0.15832530985914769 -0.2643720413550551 0 -0.17753186465666021 -0.28065186093214528 0 -0.15990500002874339 -0.28368844793796788 0 -0.15990500002874339 -0.28368844793796788 0 -0.17402085879199641 -0.30252042960865938 0 -0.14954844785011179 -0.30074089296884232 0 -0.17753186465666021 -0.28065186093214528 0 -0.15990500002874339 -0.28368844793796788 0 -0.17402085879199641 -0.30252042960865938 0 -0.19812978410937521 -0.29923010451123949 0 -0.17753186465666021 -0.28065186093214528 0 -0.17402085879199641 -0.30252042960865938 0 -0.17402085879199641 -0.30252042960865938 0 -0.14954844785011179 -0.30074089296884232 0 -0.1677479104008307 -0.32783423947226142 0 -0.14954844785011179 -0.30074089296884232 0 -0.12659387408615261 -0.3150822694437892 0 -0.1190639156014673 -0.29727410105308999 0 -0.14954844785011179 -0.30074089296884232 0 -0.13654346101632489 -0.27698313373899919 0 -0.1190639156014673 -0.29727410105308999 0 -0.15990500002874339 -0.28368844793796788 0 -0.14954844785011179 -0.30074089296884232 0 -0.13654346101632489 -0.27698313373899919 0 -0.15832530985914769 -0.2643720413550551 0 -0.15990500002874339 -0.28368844793796788 0 -0.13654346101632489 -0.27698313373899919 0 -0.13654346101632489 -0.27698313373899919 0 -0.12028079273907991 -0.26565426569811279 0 -0.13355881260256089 -0.2496977061671225 0 -0.15832530985914769 -0.2643720413550551 0 -0.13355881260256089 -0.2496977061671225 0 -0.1574723052227173 -0.23960148641780851 0 -0.15832530985914769 -0.2643720413550551 0 -0.13654346101632489 -0.27698313373899919 0 -0.13355881260256089 -0.2496977061671225 0 -0.17193834740664971 -0.35395805396543328 0 -0.1498103656353926 -0.34453690856991698 0 -0.15611973104540189 -0.36512640122172269 0 -0.1638188800611815 -0.38478395391029979 0 -0.17634412088915 -0.37332150205102482 0 -0.15611973104540189 -0.36512640122172269 0 -0.17634412088915 -0.37332150205102482 0 -0.17193834740664971 -0.35395805396543328 0 -0.15611973104540189 -0.36512640122172269 0 -0.19277638213751949 -0.36531591894932353 0 -0.17634412088915 -0.37332150205102482 0 -0.17193834740664971 -0.35395805396543328 0 -0.19277638213751949 -0.36531591894932353 0 -0.17193834740664971 -0.35395805396543328 0 -0.18615265757541621 -0.34209692331055858 0 -0.17193834740664971 -0.35395805396543328 0 -0.18615265757541621 -0.34209692331055858 0 -0.1677479104008307 -0.32783423947226142 0 -0.1910119304775495 -0.32345747375755918 0 -0.18615265757541621 -0.34209692331055858 0 -0.1677479104008307 -0.32783423947226142 0 -0.1910119304775495 -0.32345747375755918 0 -0.17402085879199641 -0.30252042960865938 0 -0.1677479104008307 -0.32783423947226142 0 -0.17193834740664971 -0.35395805396543328 0 -0.1677479104008307 -0.32783423947226142 0 -0.1498103656353926 -0.34453690856991698 0 -0.1677479104008307 -0.32783423947226142 0 -0.14415359058046451 -0.32450431874860042 0 -0.1498103656353926 -0.34453690856991698 0 -0.14954844785011179 -0.30074089296884232 0 -0.1677479104008307 -0.32783423947226142 0 -0.14415359058046451 -0.32450431874860042 0 -0.14954844785011179 -0.30074089296884232 0 -0.14415359058046451 -0.32450431874860042 0 -0.12659387408615261 -0.3150822694437892 0 -0.14415359058046451 -0.32450431874860042 0 -0.12659387408615261 -0.3150822694437892 0 -0.12735804496977729 -0.33461089616549811 0 -0.14415359058046451 -0.32450431874860042 0 -0.12735804496977729 -0.33461089616549811 0 -0.1498103656353926 -0.34453690856991698 0 -0.12735804496977729 -0.33461089616549811 0 -0.13041156362616549 -0.35456678270330699 0 -0.1498103656353926 -0.34453690856991698 0 -0.13041156362616549 -0.35456678270330699 0 -0.1498103656353926 -0.34453690856991698 0 -0.15611973104540189 -0.36512640122172269 0 -0.13967350730362829 -0.37678139160839619 0 -0.13041156362616549 -0.35456678270330699 0 -0.15611973104540189 -0.36512640122172269 0 -0.13967350730362829 -0.37678139160839619 0 -0.13041156362616549 -0.35456678270330699 0 -0.1202449094974696 -0.37252035622549928 0 -0.1202449094974696 -0.37252035622549928 0 -0.1025286279774919 -0.37020248041810722 0 -0.11110647592191281 -0.35684885660437482 0 -0.13041156362616549 -0.35456678270330699 0 -0.1202449094974696 -0.37252035622549928 0 -0.11110647592191281 -0.35684885660437482 0 -0.1025286279774919 -0.37020248041810722 0 -0.11110647592191281 -0.35684885660437482 0 -0.089462968588986932 -0.34443686554264891 0 -0.11110647592191281 -0.35684885660437482 0 -0.1109841026394171 -0.34121362452920517 0 -0.089462968588986932 -0.34443686554264891 0 -0.13041156362616549 -0.35456678270330699 0 -0.11110647592191281 -0.35684885660437482 0 -0.1109841026394171 -0.34121362452920517 0 -0.12735804496977729 -0.33461089616549811 0 -0.1109841026394171 -0.34121362452920517 0 -0.1101836035428151 -0.32478245233520842 0 -0.12735804496977729 -0.33461089616549811 0 -0.13041156362616549 -0.35456678270330699 0 -0.1109841026394171 -0.34121362452920517 0 -0.12659387408615261 -0.3150822694437892 0 -0.1101836035428151 -0.32478245233520842 0 -0.11384291360269071 -0.31301719449784021 0 -0.12659387408615261 -0.3150822694437892 0 -0.12735804496977729 -0.33461089616549811 0 -0.1101836035428151 -0.32478245233520842 0 -0.1101836035428151 -0.32478245233520842 0 -0.11384291360269071 -0.31301719449784021 0 -0.1027318399088402 -0.31617319760237272 0 -0.1101836035428151 -0.32478245233520842 0 -0.10057558984094141 -0.3228328416890045 0 -0.097381959186845016 -0.33203589382419407 0 -0.1101836035428151 -0.32478245233520842 0 -0.1027318399088402 -0.31617319760237272 0 -0.10057558984094141 -0.3228328416890045 0 -0.10057558984094141 -0.3228328416890045 0 -0.097381959186845016 -0.33203589382419407 0 -0.092004956725265361 -0.31833982299424268 0 -0.1027318399088402 -0.31617319760237272 0 -0.092004956725265361 -0.31833982299424268 0 -0.098671017013105766 -0.30821431290695211 0 -0.1027318399088402 -0.31617319760237272 0 -0.10057558984094141 -0.3228328416890045 0 -0.092004956725265361 -0.31833982299424268 0 -0.1109841026394171 -0.34121362452920517 0 -0.097381959186845016 -0.33203589382419407 0 -0.089462968588986932 -0.34443686554264891 0 -0.1109841026394171 -0.34121362452920517 0 -0.1101836035428151 -0.32478245233520842 0 -0.097381959186845016 -0.33203589382419407 0 -0.092004956725265361 -0.31833982299424268 0 -0.089462968588986932 -0.34443686554264891 0 -0.079387770285372 -0.33820176543939079 0 -0.073629636103359333 -0.34476783885119783 0 -0.089462968588986932 -0.34443686554264891 0 -0.092004956725265361 -0.31833982299424268 0 -0.088408905547640193 -0.32215205719342471 0 -0.089462968588986932 -0.34443686554264891 0 -0.097381959186845016 -0.33203589382419407 0 -0.092004956725265361 -0.31833982299424268 0 -0.089462968588986932 -0.34443686554264891 0 -0.081554023385375957 -0.33011189053049428 0 -0.088408905547640193 -0.32215205719342471 0 -0.089462968588986932 -0.34443686554264891 0 -0.081554023385375957 -0.33011189053049428 0 -0.079387770285372 -0.33820176543939079 0 -0.089462968588986932 -0.34443686554264891 0 -0.088408905547640193 -0.32215205719342471 0 -0.081195163737748322 -0.3168833603259863 0 -0.086972980365637553 -0.30627292361820102 0 -0.088408905547640193 -0.32215205719342471 0 -0.086972980365637553 -0.30627292361820102 0 -0.092004956725265361 -0.31833982299424268 0 -0.088408905547640193 -0.32215205719342471 0 -0.086972980365637553 -0.30627292361820102 0 -0.081554023385375957 -0.33011189053049428 0 -0.088408905547640193 -0.32215205719342471 0 -0.081848132023119399 -0.32271822861605531 0 -0.081554023385375957 -0.33011189053049428 0 -0.081848132023119399 -0.32271822861605531 0 -0.075430160774703797 -0.32159363803813451 0 -0.081848132023119399 -0.32271822861605531 0 -0.081195163737748322 -0.3168833603259863 0 -0.075430160774703797 -0.32159363803813451 0 -0.088408905547640193 -0.32215205719342471 0 -0.081848132023119399 -0.32271822861605531 0 -0.081195163737748322 -0.3168833603259863 0 -0.075430160774703797 -0.32159363803813451 0 -0.064465689500359136 -0.31582113440945808 0 -0.075525193069806693 -0.31037404713149552 0 -0.081195163737748322 -0.3168833603259863 0 -0.075430160774703797 -0.32159363803813451 0 -0.075525193069806693 -0.31037404713149552 0 -0.075430160774703797 -0.32159363803813451 0 -0.068243037086878094 -0.32501211542267389 0 -0.072904453063765806 -0.33349046683322231 0 -0.075430160774703797 -0.32159363803813451 0 -0.068243037086878094 -0.32501211542267389 0 -0.064465689500359136 -0.31582113440945808 0 -0.068243037086878094 -0.32501211542267389 0 -0.064465689500359136 -0.31582113440945808 0 -0.060171845008683701 -0.32914322240988109 0 -0.079387770285372 -0.33820176543939079 0 -0.072904453063765806 -0.33349046683322231 0 -0.073629636103359333 -0.34476783885119783 0 -0.081554023385375957 -0.33011189053049428 0 -0.079387770285372 -0.33820176543939079 0 -0.072904453063765806 -0.33349046683322231 0 -0.081554023385375957 -0.33011189053049428 0 -0.075430160774703797 -0.32159363803813451 0 -0.072904453063765806 -0.33349046683322231 0 -0.068243037086878094 -0.32501211542267389 0 -0.072904453063765806 -0.33349046683322231 0 -0.060171845008683701 -0.32914322240988109 0 -0.072904453063765806 -0.33349046683322231 0 -0.059275645073211577 -0.3420228727469149 0 -0.060171845008683701 -0.32914322240988109 0 -0.072904453063765806 -0.33349046683322231 0 -0.073629636103359333 -0.34476783885119783 0 -0.059275645073211577 -0.3420228727469149 0 -0.064491730159867908 -0.35151337682494399 0 -0.073629636103359333 -0.34476783885119783 0 -0.059275645073211577 -0.3420228727469149 0 -0.064491730159867908 -0.35151337682494399 0 -0.073629636103359333 -0.34476783885119783 0 -0.077402499739820593 -0.35596840264795482 0 -0.064491730159867908 -0.35151337682494399 0 -0.077402499739820593 -0.35596840264795482 0 -0.069430872620124373 -0.36032855382554541 0 -0.064491730159867908 -0.35151337682494399 0 -0.069430872620124373 -0.36032855382554541 0 -0.060138218332676567 -0.36363939627770731 0 -0.069430872620124373 -0.36032855382554541 0 -0.074185126376287852 -0.36967509387154418 0 -0.060138218332676567 -0.36363939627770731 0 -0.074185126376287852 -0.36967509387154418 0 -0.060138218332676567 -0.36363939627770731 0 -0.061650827460071958 -0.37776449475139789 0 -0.077402499739820593 -0.35596840264795482 0 -0.069430872620124373 -0.36032855382554541 0 -0.074185126376287852 -0.36967509387154418 0 -0.077402499739820593 -0.35596840264795482 0 -0.074185126376287852 -0.36967509387154418 0 -0.086920980452708518 -0.37053390809105508 0 -0.1025286279774919 -0.37020248041810722 0 -0.086920980452708518 -0.37053390809105508 0 -0.089462968588986932 -0.34443686554264891 0 -0.074185126376287852 -0.36967509387154418 0 -0.086920980452708518 -0.37053390809105508 0 -0.07887246609233356 -0.38180927860457609 0 -0.077402499739820593 -0.35596840264795482 0 -0.086920980452708518 -0.37053390809105508 0 -0.089462968588986932 -0.34443686554264891 0 -0.086920980452708518 -0.37053390809105508 0 -0.089462968588986932 -0.34443686554264891 0 -0.073629636103359333 -0.34476783885119783 0 -0.077402499739820593 -0.35596840264795482 0 -0.089462968588986932 -0.34443686554264891 0 -0.097254442924579007 -0.26444654837757708 0 -0.09996194098761424 -0.23665031630931771 0 -0.097254442924579007 -0.26444654837757708 0 -0.11437414826144621 -0.25049231715679721 0 -0.09996194098761424 -0.23665031630931771 0 -0.097254442924579007 -0.26444654837757708 0 -0.11437414826144621 -0.25049231715679721 0 -0.12028079273907991 -0.26565426569811279 0 -0.11437414826144621 -0.25049231715679721 0 -0.12028079273907991 -0.26565426569811279 0 -0.13355881260256089 -0.2496977061671225 0 -0.13654346101632489 -0.27698313373899919 0 -0.12028079273907991 -0.26565426569811279 0 -0.1119226582642678 -0.27960268466597749 0 -0.097254442924579007 -0.26444654837757708 0 -0.12028079273907991 -0.26565426569811279 0 -0.1119226582642678 -0.27960268466597749 0 -0.097254442924579007 -0.26444654837757708 0 -0.1119226582642678 -0.27960268466597749 0 -0.094546944861543025 -0.29224278044583651 0 -0.097254442924579007 -0.26444654837757708 0 -0.094546944861543025 -0.29224278044583651 0 -0.094546944861543025 -0.29224278044583651 0 -0.1190639156014673 -0.29727410105308999 0 -0.1119226582642678 -0.27960268466597749 0 -0.094546944861543025 -0.29224278044583651 0 -0.1190639156014673 -0.29727410105308999 0 -0.13654346101632489 -0.27698313373899919 0 -0.1119226582642678 -0.27960268466597749 0 -0.1190639156014673 -0.29727410105308999 0 -0.11384291360269071 -0.31301719449784021 0 -0.1190639156014673 -0.29727410105308999 0 -0.10540032655677441 -0.30610145058535648 0 -0.12659387408615261 -0.3150822694437892 0 -0.11384291360269071 -0.31301719449784021 0 -0.1190639156014673 -0.29727410105308999 0 -0.094546944861543025 -0.29224278044583651 0 -0.10540032655677441 -0.30610145058535648 0 -0.098671017013105766 -0.30821431290695211 0 -0.11384291360269071 -0.31301719449784021 0 -0.1027318399088402 -0.31617319760237272 0 -0.10540032655677441 -0.30610145058535648 0 -0.1027318399088402 -0.31617319760237272 0 -0.10540032655677441 -0.30610145058535648 0 -0.098671017013105766 -0.30821431290695211 0 -0.092004956725265361 -0.31833982299424268 0 -0.094546944861543025 -0.29224278044583651 0 -0.098671017013105766 -0.30821431290695211 0 -0.094546944861543025 -0.29224278044583651 0 -0.1190639156014673 -0.29727410105308999 0 -0.10540032655677441 -0.30610145058535648 0 -0.086972980365637553 -0.30627292361820102 0 -0.085537055183634109 -0.29039379004297722 0 -0.092004956725265361 -0.31833982299424268 0 -0.094546944861543025 -0.29224278044583651 0 -0.086972980365637553 -0.30627292361820102 0 -0.086972980365637553 -0.30627292361820102 0 -0.079636069813255606 -0.30169950019328351 0 -0.085537055183634109 -0.29039379004297722 0 -0.092004956725265361 -0.31833982299424268 0 -0.094546944861543025 -0.29224278044583651 0 -0.079636069813255606 -0.30169950019328351 0 -0.070509050633944068 -0.29975723998046028 0 -0.085537055183634109 -0.29039379004297722 0 -0.081195163737748322 -0.3168833603259863 0 -0.086972980365637553 -0.30627292361820102 0 -0.075525193069806693 -0.31037404713149552 0 -0.086972980365637553 -0.30627292361820102 0 -0.079636069813255606 -0.30169950019328351 0 -0.075525193069806693 -0.31037404713149552 0 -0.064465689500359136 -0.31582113440945808 0 -0.075525193069806693 -0.31037404713149552 0 -0.070509050633944068 -0.29975723998046028 0 -0.064465689500359136 -0.31582113440945808 0 -0.070509050633944068 -0.29975723998046028 0 -0.054029402546928368 -0.30477384002300811 0 -0.079636069813255606 -0.30169950019328351 0 -0.075525193069806693 -0.31037404713149552 0 -0.070509050633944068 -0.29975723998046028 0 -0.085537055183634109 -0.29039379004297722 0 -0.074151691086618954 -0.27796190486623612 0 -0.060036033536231867 -0.28516052460078839 0 -0.070509050633944068 -0.29975723998046028 0 -0.085537055183634109 -0.29039379004297722 0 -0.060036033536231867 -0.28516052460078839 0 -0.085537055183634109 -0.29039379004297722 0 -0.060036033536231867 -0.28516052460078839 0 -0.094546944861543025 -0.29224278044583651 0 -0.085537055183634109 -0.29039379004297722 0 -0.083469356647459914 -0.26752821065155907 0 -0.094546944861543025 -0.29224278044583651 0 -0.086972980365637553 -0.30627292361820102 0 -0.085537055183634109 -0.29039379004297722 0 -0.094546944861543025 -0.29224278044583651 0 -0.085537055183634109 -0.29039379004297722 0 -0.085537055183634109 -0.29039379004297722 0 -0.083469356647459914 -0.26752821065155907 0 -0.085537055183634109 -0.29039379004297722 0 -0.083469356647459914 -0.26752821065155907 0 -0.074151691086618954 -0.27796190486623612 0 -0.097254442924579007 -0.26444654837757708 0 -0.094546944861543025 -0.29224278044583651 0 -0.083469356647459914 -0.26752821065155907 0 -0.083469356647459914 -0.26752821065155907 0 -0.074151691086618954 -0.27796190486623612 0 -0.066578389776785984 -0.26142320985948869 0 -0.074151691086618954 -0.27796190486623612 0 -0.066578389776785984 -0.26142320985948869 0 -0.060036033536231867 -0.28516052460078839 0 -0.083469356647459914 -0.26752821065155907 0 -0.066578389776785984 -0.26142320985948869 0 -0.081401658111284914 -0.24466263126014121 0 -0.066578389776785984 -0.26142320985948869 0 -0.081401658111284914 -0.24466263126014121 0 -0.067406794775839135 -0.24418288511786759 0 -0.097254442924579007 -0.26444654837757708 0 -0.083469356647459914 -0.26752821065155907 0 -0.081401658111284914 -0.24466263126014121 0 -0.083469356647459914 -0.26752821065155907 0 -0.081401658111284914 -0.24466263126014121 0 -0.031594604406692657 -0.25700172888382072 0 -0.045946553200304253 -0.2661448097297483 0 -0.05132256102027493 -0.24310343780616009 0 -0.031594604406692657 -0.25700172888382072 0 -0.045946553200304253 -0.2661448097297483 0 -0.025586211023447141 -0.26942369202782779 0 -0.031594604406692657 -0.25700172888382072 0 -0.05132256102027493 -0.24310343780616009 0 -0.066578389776785984 -0.26142320985948869 0 -0.045946553200304253 -0.2661448097297483 0 -0.05132256102027493 -0.24310343780616009 0 -0.066578389776785984 -0.26142320985948869 0 -0.045946553200304253 -0.2661448097297483 0 -0.060036033536231867 -0.28516052460078839 0 -0.045946553200304253 -0.2661448097297483 0 -0.034535011888829577 -0.27992725915859951 0 -0.025586211023447141 -0.26942369202782779 0 -0.045946553200304253 -0.2661448097297483 0 -0.034535011888829577 -0.27992725915859951 0 -0.060036033536231867 -0.28516052460078839 0 -0.034535011888829577 -0.27992725915859951 0 -0.042949191561027361 -0.2955658951115217 0 -0.060036033536231867 -0.28516052460078839 0 -0.034535011888829577 -0.27992725915859951 0 -0.042949191561027361 -0.2955658951115217 0 -0.02801962723209445 -0.297618451773978 0 -0.034535011888829577 -0.27992725915859951 0 -0.060036033536231867 -0.28516052460078839 0 -0.042949191561027361 -0.2955658951115217 0 -0.060036033536231867 -0.28516052460078839 0 -0.054029402546928368 -0.30477384002300811 0 -0.070509050633944068 -0.29975723998046028 0 -0.060036033536231867 -0.28516052460078839 0 -0.054029402546928368 -0.30477384002300811 0 -0.054029402546928368 -0.30477384002300811 0 -0.038125882601052541 -0.31034940000123468 0 -0.050888198794844089 -0.32040896258203788 0 -0.042949191561027361 -0.2955658951115217 0 -0.054029402546928368 -0.30477384002300811 0 -0.038125882601052541 -0.31034940000123468 0 -0.042949191561027361 -0.2955658951115217 0 -0.038125882601052541 -0.31034940000123468 0 -0.02801962723209445 -0.297618451773978 0 -0.038125882601052541 -0.31034940000123468 0 -0.02801962723209445 -0.297618451773978 0 -0.022489455963396899 -0.31027528556338291 0 -0.02801962723209445 -0.297618451773978 0 -0.022489455963396899 -0.31027528556338291 0 -0.013357561183036061 -0.29945589093693181 0 -0.022489455963396899 -0.31027528556338291 0 -0.0074209204564366664 -0.31244580551942253 0 -0.013357561183036061 -0.29945589093693181 0 -0.0074209204564366664 -0.31244580551942253 0 -0.013357561183036061 -0.29945589093693181 0 0.00070050571613747476 -0.2985815963608216 0 -0.013357561183036061 -0.29945589093693181 0 -0.0060768745930243557 -0.28868453192696197 0 -0.018209711637966131 -0.28831280572878998 0 -0.0060768745930243557 -0.28868453192696197 0 -0.0090339902414272796 -0.27469399371641051 0 0.0078613088204720159 -0.28479831103914188 0 -0.013357561183036061 -0.29945589093693181 0 -0.0060768745930243557 -0.28868453192696197 0 0.00070050571613747476 -0.2985815963608216 0 -0.0060768745930243557 -0.28868453192696197 0 -0.018209711637966131 -0.28831280572878998 0 -0.0090339902414272796 -0.27469399371641051 0 -0.034535011888829577 -0.27992725915859951 0 -0.02801962723209445 -0.297618451773978 0 -0.018209711637966131 -0.28831280572878998 0 -0.02801962723209445 -0.297618451773978 0 -0.013357561183036061 -0.29945589093693181 0 -0.018209711637966131 -0.28831280572878998 0 -0.031594604406692657 -0.25700172888382072 0 -0.025586211023447141 -0.26942369202782779 0 -0.01186664779311036 -0.27090001996148128 0 -0.034535011888829577 -0.27992725915859951 0 -0.025586211023447141 -0.26942369202782779 0 -0.0090339902414272796 -0.27469399371641051 0 -0.034535011888829577 -0.27992725915859951 0 -0.0090339902414272796 -0.27469399371641051 0 -0.034535011888829577 -0.27992725915859951 0 -0.018209711637966131 -0.28831280572878998 0 -0.0090339902414272796 -0.27469399371641051 0 -0.01186664779311036 -0.27090001996148128 0 0.0078613088204720159 -0.28479831103914188 0 -0.0090339902414272796 -0.27469399371641051 0 -0.01186664779311036 -0.27090001996148128 0 0.0078613088204720159 -0.28479831103914188 0 -0.025586211023447141 -0.26942369202782779 0 -0.0090339902414272796 -0.27469399371641051 0 -0.01186664779311036 -0.27090001996148128 0 -0.00078508196032120968 -0.26703854446780351 0 -0.01186664779311036 -0.27090001996148128 0 0.0053490981021702948 -0.27300109275042561 0 -0.01186664779311036 -0.27090001996148128 0 -0.0064030148223353034 -0.25860466309365893 0 -0.016937574742592561 -0.25899543121632429 0 -0.00078508196032120968 -0.26703854446780351 0 -0.01186664779311036 -0.27090001996148128 0 -0.0064030148223353034 -0.25860466309365893 0 -0.00078508196032120968 -0.26703854446780351 0 -0.0064030148223353034 -0.25860466309365893 0 0.0028799528272470888 -0.26276843333515038 0 -0.0064030148223353034 -0.25860466309365893 0 -0.0027879324552719381 -0.24539863686431981 0 0.0059842086934125353 -0.25674621383972213 0 -0.0064030148223353034 -0.25860466309365893 0 -0.01788603194823192 -0.2494753129263366 0 -0.0027879324552719381 -0.24539863686431981 0 -0.0064030148223353034 -0.25860466309365893 0 -0.016937574742592561 -0.25899543121632429 0 -0.01788603194823192 -0.2494753129263366 0 -0.031594604406692657 -0.25700172888382072 0 -0.016937574742592561 -0.25899543121632429 0 -0.01788603194823192 -0.2494753129263366 0 -0.031594604406692657 -0.25700172888382072 0 -0.01186664779311036 -0.27090001996148128 0 -0.016937574742592561 -0.25899543121632429 0 -0.031594604406692657 -0.25700172888382072 0 -0.01186664779311036 -0.27090001996148128 0 -0.044870434282052583 -0.34838889067408818 0 -0.038504106376608602 -0.35562033171832008 0 -0.045508724163812082 -0.36294674002268951 0 -0.044870434282052583 -0.34838889067408818 0 -0.031488136155190083 -0.34843256654438659 0 -0.036167602548620392 -0.33784388920267089 0 -0.044870434282052583 -0.34838889067408818 0 -0.031488136155190083 -0.34843256654438659 0 -0.038504106376608602 -0.35562033171832008 0 -0.031488136155190083 -0.34843256654438659 0 -0.038504106376608602 -0.35562033171832008 0 -0.032149130905379651 -0.36271312963211633 0 -0.038504106376608602 -0.35562033171832008 0 -0.032149130905379651 -0.36271312963211633 0 -0.045508724163812082 -0.36294674002268951 0 -0.032149130905379651 -0.36271312963211633 0 -0.045508724163812082 -0.36294674002268951 0 -0.036812411860601253 -0.37558516926459101 0 -0.032149130905379651 -0.36271312963211633 0 -0.02625864979504015 -0.36992268064492478 0 -0.036812411860601253 -0.37558516926459101 0 -0.045508724163812082 -0.36294674002268951 0 -0.036812411860601253 -0.37558516926459101 0 -0.050590646601294011 -0.37718949623412629 0 -0.045508724163812082 -0.36294674002268951 0 -0.060138218332676567 -0.36363939627770731 0 -0.054856950402324148 -0.3537022553092688 0 -0.045508724163812082 -0.36294674002268951 0 -0.060138218332676567 -0.36363939627770731 0 -0.050590646601294011 -0.37718949623412629 0 -0.060138218332676567 -0.36363939627770731 0 -0.061650827460071958 -0.37776449475139789 0 -0.050590646601294011 -0.37718949623412629 0 -0.064491730159867908 -0.35151337682494399 0 -0.060138218332676567 -0.36363939627770731 0 -0.054856950402324148 -0.3537022553092688 0 -0.044870434282052583 -0.34838889067408818 0 -0.045508724163812082 -0.36294674002268951 0 -0.054856950402324148 -0.3537022553092688 0 -0.044870434282052583 -0.34838889067408818 0 -0.054856950402324148 -0.3537022553092688 0 -0.059275645073211577 -0.3420228727469149 0 -0.064491730159867908 -0.35151337682494399 0 -0.054856950402324148 -0.3537022553092688 0 -0.059275645073211577 -0.3420228727469149 0 -0.059275645073211577 -0.3420228727469149 0 -0.060171845008683701 -0.32914322240988109 0 -0.048169437880678068 -0.33522270142491289 0 -0.060171845008683701 -0.32914322240988109 0 -0.048169437880678068 -0.33522270142491289 0 -0.050888198794844089 -0.32040896258203788 0 -0.044870434282052583 -0.34838889067408818 0 -0.059275645073211577 -0.3420228727469149 0 -0.048169437880678068 -0.33522270142491289 0 -0.064465689500359136 -0.31582113440945808 0 -0.054029402546928368 -0.30477384002300811 0 -0.050888198794844089 -0.32040896258203788 0 -0.064465689500359136 -0.31582113440945808 0 -0.060171845008683701 -0.32914322240988109 0 -0.050888198794844089 -0.32040896258203788 0 -0.038125882601052541 -0.31034940000123468 0 -0.050888198794844089 -0.32040896258203788 0 -0.039137938563746623 -0.3252195670622508 0 -0.048169437880678068 -0.33522270142491289 0 -0.050888198794844089 -0.32040896258203788 0 -0.039137938563746623 -0.3252195670622508 0 -0.039137938563746623 -0.3252195670622508 0 -0.029818660142940621 -0.3291019357005559 0 -0.029947317999776971 -0.31950371937313871 0 -0.038125882601052541 -0.31034940000123468 0 -0.039137938563746623 -0.3252195670622508 0 -0.029947317999776971 -0.31950371937313871 0 -0.044870434282052583 -0.34838889067408818 0 -0.048169437880678068 -0.33522270142491289 0 -0.036167602548620392 -0.33784388920267089 0 -0.048169437880678068 -0.33522270142491289 0 -0.039137938563746623 -0.3252195670622508 0 -0.036167602548620392 -0.33784388920267089 0 -0.039137938563746623 -0.3252195670622508 0 -0.036167602548620392 -0.33784388920267089 0 -0.029818660142940621 -0.3291019357005559 0 -0.029818660142940621 -0.3291019357005559 0 -0.022292011599498202 -0.33877376364834899 0 -0.020164652727748169 -0.32257240853826918 0 -0.022292011599498202 -0.33877376364834899 0 -0.020164652727748169 -0.32257240853826918 0 -0.0073090187898726703 -0.32644714733581232 0 -0.031488136155190083 -0.34843256654438659 0 -0.036167602548620392 -0.33784388920267089 0 -0.022292011599498202 -0.33877376364834899 0 -0.036167602548620392 -0.33784388920267089 0 -0.029818660142940621 -0.3291019357005559 0 -0.022292011599498202 -0.33877376364834899 0 -0.038125882601052541 -0.31034940000123468 0 -0.022489455963396899 -0.31027528556338291 0 -0.029947317999776971 -0.31950371937313871 0 -0.022489455963396899 -0.31027528556338291 0 -0.029947317999776971 -0.31950371937313871 0 -0.020164652727748169 -0.32257240853826918 0 -0.029818660142940621 -0.3291019357005559 0 -0.029947317999776971 -0.31950371937313871 0 -0.020164652727748169 -0.32257240853826918 0 -0.022489455963396899 -0.31027528556338291 0 -0.0074209204564366664 -0.31244580551942253 0 -0.020164652727748169 -0.32257240853826918 0 -0.0074209204564366664 -0.31244580551942253 0 -0.020164652727748169 -0.32257240853826918 0 -0.0073090187898726703 -0.32644714733581232 0 -0.0074209204564366664 -0.31244580551942253 0 -0.0073090187898726703 -0.32644714733581232 0 0.0019524439344398539 -0.31934945332578601 0 -0.022292011599498202 -0.33877376364834899 0 -0.0073090187898726703 -0.32644714733581232 0 -0.0052977523197558392 -0.33907190723812147 0 -0.022292011599498202 -0.33877376364834899 0 -0.0052977523197558392 -0.33907190723812147 0 -0.013290371387499059 -0.34697148543581591 0 -0.0073090187898726703 -0.32644714733581232 0 -0.0052977523197558392 -0.33907190723812147 0 0.0072742440764781337 -0.32873799983209401 0 -0.0052977523197558392 -0.33907190723812147 0 -0.0035546916292847502 -0.35191356541576851 0 -0.013290371387499059 -0.34697148543581591 0 -0.0052977523197558392 -0.33907190723812147 0 -0.0035546916292847502 -0.35191356541576851 0 0.0063003120656644216 -0.34388798576577179 0 -0.0035546916292847502 -0.35191356541576851 0 -0.0044151325190836394 -0.36555497356786892 0 0.0072896530918497614 -0.3572746125926608 0 -0.0035546916292847502 -0.35191356541576851 0 -0.01395386093825734 -0.3572585353413712 0 -0.0044151325190836394 -0.36555497356786892 0 -0.0035546916292847502 -0.35191356541576851 0 -0.01395386093825734 -0.3572585353413712 0 -0.013290371387499059 -0.34697148543581591 0 -0.01395386093825734 -0.3572585353413712 0 -0.013290371387499059 -0.34697148543581591 0 -0.021607582791177488 -0.34895132528442718 0 -0.022292011599498202 -0.33877376364834899 0 -0.013290371387499059 -0.34697148543581591 0 -0.021607582791177488 -0.34895132528442718 0 -0.01395386093825734 -0.3572585353413712 0 -0.021607582791177488 -0.34895132528442718 0 -0.023871708338618559 -0.35598310835651642 0 -0.031488136155190083 -0.34843256654438659 0 -0.032149130905379651 -0.36271312963211633 0 -0.023871708338618559 -0.35598310835651642 0 -0.031488136155190083 -0.34843256654438659 0 -0.021607582791177488 -0.34895132528442718 0 -0.023871708338618559 -0.35598310835651642 0 -0.031488136155190083 -0.34843256654438659 0 -0.022292011599498202 -0.33877376364834899 0 -0.021607582791177488 -0.34895132528442718 0 -0.02625864979504015 -0.36992268064492478 0 -0.01805022503641969 -0.37648405879732699 0 -0.036812411860601253 -0.37558516926459101 0 -0.032149130905379651 -0.36271312963211633 0 -0.023871708338618559 -0.35598310835651642 0 -0.018022831377761339 -0.36490836488566308 0 -0.032149130905379651 -0.36271312963211633 0 -0.02625864979504015 -0.36992268064492478 0 -0.018022831377761339 -0.36490836488566308 0 -0.01395386093825734 -0.3572585353413712 0 -0.023871708338618559 -0.35598310835651642 0 -0.018022831377761339 -0.36490836488566308 0 -0.018022831377761339 -0.36490836488566308 0 -0.01805022503641969 -0.37648405879732699 0 -0.018022831377761339 -0.36490836488566308 0 -0.01492727137686359 -0.3742199898777851 0 -0.01805022503641969 -0.37648405879732699 0 -0.02625864979504015 -0.36992268064492478 0 -0.018022831377761339 -0.36490836488566308 0 -0.01805022503641969 -0.37648405879732699 0 -0.01492727137686359 -0.3742199898777851 0 -0.01240520882526947 -0.36616343019746289 0 -0.0044151325190836394 -0.36555497356786892 0 -0.01492727137686359 -0.3742199898777851 0 -0.0044151325190836394 -0.36555497356786892 0 0.0064397945350947311 -0.37378650621160159 0 -0.018022831377761339 -0.36490836488566308 0 -0.01492727137686359 -0.3742199898777851 0 -0.01240520882526947 -0.36616343019746289 0 -0.01395386093825734 -0.3572585353413712 0 -0.01240520882526947 -0.36616343019746289 0 -0.0044151325190836394 -0.36555497356786892 0 -0.01395386093825734 -0.3572585353413712 0 -0.018022831377761339 -0.36490836488566308 0 -0.01240520882526947 -0.36616343019746289 0 -0.01492727137686359 -0.3742199898777851 0 -0.018078344358931221 -0.38836639530209349 0 0.0064397945350947311 -0.37378650621160159 0 -0.018078344358931221 -0.38836639530209349 0 0.00028119204996319801 -0.39109590938555239 0 0.0064397945350947311 -0.37378650621160159 0 -0.018078344358931221 -0.38836639530209349 0 0.0064397945350947311 -0.37378650621160159 0 -0.0065701789597016232 -0.39935381391183961 0 -0.018078344358931221 -0.38836639530209349 0 -0.018131420458198929 -0.41079467648819468 0 -0.0065701789597016232 -0.39935381391183961 0 -0.018078344358931221 -0.38836639530209349 0 0.00028119204996319801 -0.39109590938555239 0 -0.0065701789597016232 -0.39935381391183961 0 -0.018131420458198929 -0.41079467648819468 0 0.0096478569283612071 -0.40715827447151909 0 -0.018078344358931221 -0.38836639530209349 0 -0.018131420458198929 -0.41079467648819468 0 -0.018078344358931221 -0.38836639530209349 0 -0.041443444634256039 -0.40226062161652959 0 -0.018078344358931221 -0.38836639530209349 0 -0.041443444634256039 -0.40226062161652959 0 -0.018131420458198929 -0.41079467648819468 0 -0.01805022503641969 -0.37648405879732699 0 -0.041937314553976028 -0.393801644279136 0 -0.01805022503641969 -0.37648405879732699 0 -0.018078344358931221 -0.38836639530209349 0 -0.041937314553976028 -0.393801644279136 0 -0.01805022503641969 -0.37648405879732699 0 -0.018078344358931221 -0.38836639530209349 0 -0.01492727137686359 -0.3742199898777851 0 -0.01805022503641969 -0.37648405879732699 0 -0.018078344358931221 -0.38836639530209349 0 -0.01492727137686359 -0.3742199898777851 0 -0.01805022503641969 -0.37648405879732699 0 -0.036812411860601253 -0.37558516926459101 0 -0.041937314553976028 -0.393801644279136 0 -0.050590646601294011 -0.37718949623412629 0 -0.01805022503641969 -0.37648405879732699 0 -0.036812411860601253 -0.37558516926459101 0 -0.041937314553976028 -0.393801644279136 0 -0.018078344358931221 -0.38836639530209349 0 -0.041937314553976028 -0.393801644279136 0 -0.041443444634256039 -0.40226062161652959 0 -0.041937314553976028 -0.393801644279136 0 -0.041443444634256039 -0.40226062161652959 0 -0.065824404071532616 -0.41111922976094489 0 -0.041937314553976028 -0.393801644279136 0 -0.057496383236626203 -0.38939953280923628 0 -0.065824404071532616 -0.41111922976094489 0 -0.041937314553976028 -0.393801644279136 0 -0.065824404071532616 -0.41111922976094489 0 -0.041937314553976028 -0.393801644279136 0 -0.057496383236626203 -0.38939953280923628 0 -0.050590646601294011 -0.37718949623412629 0 -0.057496383236626203 -0.38939953280923628 0 -0.061650827460071958 -0.37776449475139789 0 -0.050590646601294011 -0.37718949623412629 0 -0.059170384705036869 -0.44410323195397688 0 -0.064808544909579657 -0.41615484793096769 0 -0.047233061707888803 -0.42211059519211053 0 -0.037273235827979208 -0.43523176514314837 0 -0.059170384705036869 -0.44410323195397688 0 -0.047233061707888803 -0.42211059519211053 0 -0.059170384705036869 -0.44410323195397688 0 -0.064808544909579657 -0.41615484793096769 0 -0.041443444634256039 -0.40226062161652959 0 -0.064808544909579657 -0.41615484793096769 0 -0.041443444634256039 -0.40226062161652959 0 -0.047233061707888803 -0.42211059519211053 0 -0.064808544909579657 -0.41615484793096769 0 -0.041443444634256039 -0.40226062161652959 0 -0.065824404071532616 -0.41111922976094489 0 -0.064808544909579657 -0.41615484793096769 0 -0.041443444634256039 -0.40226062161652959 0 -0.047233061707888803 -0.42211059519211053 0 -0.033469698462591832 -0.41280250931593032 0 -0.047233061707888803 -0.42211059519211053 0 -0.033469698462591832 -0.41280250931593032 0 -0.037273235827979208 -0.43523176514314837 0 -0.033469698462591832 -0.41280250931593032 0 -0.037273235827979208 -0.43523176514314837 0 -0.018180003775471999 -0.43132445007169468 0 -0.041443444634256039 -0.40226062161652959 0 -0.033469698462591832 -0.41280250931593032 0 -0.018131420458198929 -0.41079467648819468 0 -0.018180003775471999 -0.43132445007169468 0 -0.018131420458198929 -0.41079467648819468 0 -0.033469698462591832 -0.41280250931593032 0 -0.018180003775471999 -0.43132445007169468 0 -0.018131420458198929 -0.41079467648819468 0 -0.033469698462591832 -0.41280250931593032 0 -0.018131420458198929 -0.41079467648819468 0 -0.018131420458198929 -0.41079467648819468 0 0.0096478569283612071 -0.40715827447151909 0 -0.018180003775471999 -0.43132445007169468 0 -0.018131420458198929 -0.41079467648819468 0 -0.0035836006262223211 -0.42109404790360599 0 -0.018131420458198929 -0.41079467648819468 0 -0.0035836006262223211 -0.42109404790360599 0 0.0096478569283612071 -0.40715827447151909 0 -0.018180003775471999 -0.43132445007169468 0 -0.0035836006262223211 -0.42109404790360599 0 0.0086228470973496642 -0.43408322599107407 0 -0.018180003775471999 -0.43132445007169468 0 -0.00063600287822451068 -0.45042270870384937 0 -0.018228587092744278 -0.45185422365519468 0 -0.018180003775471999 -0.43132445007169468 0 -0.00063600287822451068 -0.45042270870384937 0 0.0086228470973496642 -0.43408322599107407 0 -0.00063600287822451068 -0.45042270870384937 0 -0.018228587092744278 -0.45185422365519468 0 -0.0031950402278951582 -0.47355988848270247 0 -0.018228587092744278 -0.45185422365519468 0 -0.028850368584379549 -0.47424093604857143 0 -0.039410960142127277 -0.45549635455557558 0 -0.018228587092744278 -0.45185422365519468 0 -0.0031950402278951582 -0.47355988848270247 0 -0.028850368584379549 -0.47424093604857143 0 -0.037273235827979208 -0.43523176514314837 0 -0.018180003775471999 -0.43132445007169468 0 -0.018228587092744278 -0.45185422365519468 0 -0.018180003775471999 -0.43132445007169468 0 -0.018228587092744278 -0.45185422365519468 0 -0.0031950402278951582 -0.47355988848270247 0 -0.018819842018078289 -0.5 0 0.010254380259800079 -0.5 0 -0.0031950402278951582 -0.47355988848270247 0 -0.028850368584379549 -0.47424093604857143 0 -0.018819842018078289 -0.5 0 -0.028850368584379549 -0.47424093604857143 0 -0.018819842018078289 -0.5 0 -0.047894064295956773 -0.49999999999999639 0 -0.028850368584379549 -0.47424093604857143 0 -0.053532224500496467 -0.47205161597698658 0 -0.047894064295956773 -0.49999999999999639 0 -0.047894064295956773 -0.49999999999999639 0 -0.074310307458921587 -0.50000000000000477 0 -0.063111689998319384 -0.48685343864025987 0 -0.053532224500496467 -0.47205161597698658 0 -0.047894064295956773 -0.49999999999999639 0 -0.053532224500496467 -0.47205161597698658 0 -0.047894064295956773 -0.49999999999999639 0 -0.063111689998319384 -0.48685343864025987 0 -0.037273235827979208 -0.43523176514314837 0 -0.039410960142127277 -0.45549635455557558 0 -0.059170384705036869 -0.44410323195397688 0 -0.037273235827979208 -0.43523176514314837 0 -0.018228587092744278 -0.45185422365519468 0 -0.039410960142127277 -0.45549635455557558 0 -0.028850368584379549 -0.47424093604857143 0 -0.053532224500496467 -0.47205161597698658 0 -0.039410960142127277 -0.45549635455557558 0 -0.053532224500496467 -0.47205161597698658 0 -0.059170384705036869 -0.44410323195397688 0 -0.053532224500496467 -0.47205161597698658 0 -0.059170384705036869 -0.44410323195397688 0 -0.067130698240080028 -0.46056031592077851 0 -0.053532224500496467 -0.47205161597698658 0 -0.039410960142127277 -0.45549635455557558 0 -0.059170384705036869 -0.44410323195397688 0 -0.059170384705036869 -0.44410323195397688 0 -0.067130698240080028 -0.46056031592077851 0 -0.079110020016883859 -0.45072427716809882 0 -0.059170384705036869 -0.44410323195397688 0 -0.079110020016883859 -0.45072427716809882 0 -0.081509876295859041 -0.42608641575214518 0 -0.067130698240080028 -0.46056031592077851 0 -0.079110020016883859 -0.45072427716809882 0 -0.076710163737902931 -0.4753621385840518 0 -0.079110020016883859 -0.45072427716809882 0 -0.076710163737902931 -0.4753621385840518 0 -0.088078431388801143 -0.46362540006426911 0 -0.079110020016883859 -0.45072427716809882 0 -0.076710163737902931 -0.4753621385840518 0 -0.088078431388801143 -0.46362540006426911 0 -0.079110020016883859 -0.45072427716809882 0 -0.097356361224412075 -0.45206768248792212 0 -0.079110020016883859 -0.45072427716809882 0 -0.081509876295859041 -0.42608641575214518 0 -0.079110020016883859 -0.45072427716809882 0 -0.097356361224412075 -0.45206768248792212 0 -0.095305131913166599 -0.43428986454346841 0 -0.074310307458921587 -0.50000000000000477 0 -0.063111689998319384 -0.48685343864025987 0 -0.076710163737902931 -0.4753621385840518 0 -0.074310307458921587 -0.50000000000000477 0 -0.076710163737902931 -0.4753621385840518 0 -0.053532224500496467 -0.47205161597698658 0 -0.067130698240080028 -0.46056031592077851 0 -0.076710163737902931 -0.4753621385840518 0 -0.053532224500496467 -0.47205161597698658 0 -0.063111689998319384 -0.48685343864025987 0 -0.076710163737902931 -0.4753621385840518 0 -0.088078431388801143 -0.46362540006426911 0 -0.09073067512867318 -0.48402172310900982 0 -0.10177040680827849 -0.4656529679067985 0 -0.088078431388801143 -0.46362540006426911 0 -0.076710163737902931 -0.4753621385840518 0 -0.09073067512867318 -0.48402172310900982 0 -0.074310307458921587 -0.50000000000000477 0 -0.09073067512867318 -0.48402172310900982 0 -0.08669857748620563 -0.50000000000000111 0 -0.074310307458921587 -0.50000000000000477 0 -0.076710163737902931 -0.4753621385840518 0 -0.09073067512867318 -0.48402172310900982 0 -0.09073067512867318 -0.48402172310900982 0 -0.08669857748620563 -0.50000000000000111 0 -0.106242009742453 -0.48958604178275189 0 -0.08669857748620563 -0.50000000000000111 0 -0.106242009742453 -0.48958604178275189 0 -0.1151750403291998 -0.5 0 -0.08669857748620563 -0.50000000000000111 0 -0.106242009742453 -0.48958604178275189 0 -0.09073067512867318 -0.48402172310900982 0 -0.1098625469514177 -0.47675587989259488 0 -0.10177040680827849 -0.4656529679067985 0 -0.09073067512867318 -0.48402172310900982 0 -0.106242009742453 -0.48958604178275189 0 -0.1098625469514177 -0.47675587989259488 0 -0.1098625469514177 -0.47675587989259488 0 -0.10177040680827849 -0.4656529679067985 0 -0.11600511774271791 -0.4675830549896236 0 -0.12578544199870001 -0.47917208356550189 0 -0.1098625469514177 -0.47675587989259488 0 -0.11600511774271791 -0.4675830549896236 0 -0.12578544199870001 -0.47917208356550189 0 -0.106242009742453 -0.48958604178275189 0 -0.1098625469514177 -0.47675587989259488 0 -0.1276139703006203 -0.46768189475425948 0 -0.12578544199870001 -0.47917208356550189 0 -0.11600511774271791 -0.4675830549896236 0 -0.12578544199870001 -0.47917208356550189 0 -0.106242009742453 -0.48958604178275189 0 -0.1151750403291998 -0.5 0 -0.12578544199870001 -0.47917208356550189 0 -0.106242009742453 -0.48958604178275189 0 -0.1091003875304809 -0.4424933133347802 0 -0.097356361224412075 -0.45206768248792212 0 -0.095305131913166599 -0.43428986454346841 0 -0.1091003875304809 -0.4424933133347802 0 -0.097356361224412075 -0.45206768248792212 0 -0.11114579630289211 -0.45630311178445138 0 -0.1091003875304809 -0.4424933133347802 0 -0.095468695855318433 -0.43261065326132342 0 -0.1091003875304809 -0.4424933133347802 0 -0.095305131913166599 -0.43428986454346841 0 -0.088078431388801143 -0.46362540006426911 0 -0.097356361224412075 -0.45206768248792212 0 -0.10177040680827849 -0.4656529679067985 0 -0.097356361224412075 -0.45206768248792212 0 -0.10177040680827849 -0.4656529679067985 0 -0.11114579630289211 -0.45630311178445138 0 -0.11114579630289211 -0.45630311178445138 0 -0.11600511774271791 -0.4675830549896236 0 -0.1214594444423419 -0.46076966567589389 0 -0.10177040680827849 -0.4656529679067985 0 -0.11114579630289211 -0.45630311178445138 0 -0.11600511774271791 -0.4675830549896236 0 -0.1276139703006203 -0.46768189475425948 0 -0.11600511774271791 -0.4675830549896236 0 -0.1214594444423419 -0.46076966567589389 0 -0.130160841481294 -0.46016570761934111 0 -0.1214594444423419 -0.46076966567589389 0 -0.1223714963841853 -0.452114559231794 0 -0.11114579630289211 -0.45630311178445138 0 -0.1214594444423419 -0.46076966567589389 0 -0.1223714963841853 -0.452114559231794 0 -0.12798242029922571 -0.45372165104675771 0 -0.13205437630169559 -0.43625871820990142 0 -0.1091003875304809 -0.4424933133347802 0 -0.12798242029922571 -0.45372165104675771 0 -0.1091003875304809 -0.4424933133347802 0 -0.1223714963841853 -0.452114559231794 0 -0.12798242029922571 -0.45372165104675771 0 -0.1091003875304809 -0.4424933133347802 0 -0.1091003875304809 -0.4424933133347802 0 -0.11114579630289211 -0.45630311178445138 0 -0.1223714963841853 -0.452114559231794 0 -0.1091003875304809 -0.4424933133347802 0 -0.1223714963841853 -0.452114559231794 0 -0.13205437630169559 -0.43625871820990142 0 -0.1091003875304809 -0.4424933133347802 0 -0.1193116215658578 -0.42177231840057378 0 -0.1091003875304809 -0.4424933133347802 0 -0.1045901022956479 -0.42308792471077328 0 -0.1193116215658578 -0.42177231840057378 0 -0.1091003875304809 -0.4424933133347802 0 -0.1045901022956479 -0.42308792471077328 0 -0.095468695855318433 -0.43261065326132342 0 -0.1045901022956479 -0.42308792471077328 0 -0.095468695855318433 -0.43261065326132342 0 -0.095126082777116427 -0.41368349424861611 0 -0.1091003875304809 -0.4424933133347802 0 -0.095305131913166599 -0.43428986454346841 0 -0.095468695855318433 -0.43261065326132342 0 -0.095126082777116427 -0.41368349424861611 0 -0.10638495243235301 -0.40895886155814959 0 -0.098096749582792936 -0.39808458213412251 0 -0.1045901022956479 -0.42308792471077328 0 -0.095126082777116427 -0.41368349424861611 0 -0.10638495243235301 -0.40895886155814959 0 -0.10638495243235301 -0.40895886155814959 0 -0.1193116215658578 -0.42177231840057378 0 -0.1244361553462176 -0.40367529259255358 0 -0.1045901022956479 -0.42308792471077328 0 -0.10638495243235301 -0.40895886155814959 0 -0.1193116215658578 -0.42177231840057378 0 -0.10638495243235301 -0.40895886155814959 0 -0.1244361553462176 -0.40367529259255358 0 -0.1106186635415284 -0.38941488964136611 0 -0.12746112459551179 -0.3876314843540985 0 -0.1244361553462176 -0.40367529259255358 0 -0.1106186635415284 -0.38941488964136611 0 -0.1202449094974696 -0.37252035622549928 0 -0.1025286279774919 -0.37020248041810722 0 -0.1106186635415284 -0.38941488964136611 0 -0.12746112459551179 -0.3876314843540985 0 -0.1202449094974696 -0.37252035622549928 0 -0.1106186635415284 -0.38941488964136611 0 -0.1025286279774919 -0.37020248041810722 0 -0.1106186635415284 -0.38941488964136611 0 -0.096338444304653548 -0.38515970370636438 0 -0.1025286279774919 -0.37020248041810722 0 -0.086920980452708518 -0.37053390809105508 0 -0.096338444304653548 -0.38515970370636438 0 -0.10638495243235301 -0.40895886155814959 0 -0.1106186635415284 -0.38941488964136611 0 -0.098096749582792936 -0.39808458213412251 0 -0.1106186635415284 -0.38941488964136611 0 -0.096338444304653548 -0.38515970370636438 0 -0.098096749582792936 -0.39808458213412251 0 -0.095126082777116427 -0.41368349424861611 0 -0.098096749582792936 -0.39808458213412251 0 -0.08437899231643009 -0.39663095063946119 0 -0.096338444304653548 -0.38515970370636438 0 -0.098096749582792936 -0.39808458213412251 0 -0.08437899231643009 -0.39663095063946119 0 -0.086920980452708518 -0.37053390809105508 0 -0.08437899231643009 -0.39663095063946119 0 -0.07887246609233356 -0.38180927860457609 0 -0.086920980452708518 -0.37053390809105508 0 -0.08437899231643009 -0.39663095063946119 0 -0.086920980452708518 -0.37053390809105508 0 -0.096338444304653548 -0.38515970370636438 0 -0.08437899231643009 -0.39663095063946119 0 -0.074185126376287852 -0.36967509387154418 0 -0.061650827460071958 -0.37776449475139789 0 -0.070004765223907819 -0.39039716181624412 0 -0.074185126376287852 -0.36967509387154418 0 -0.07887246609233356 -0.38180927860457609 0 -0.070004765223907819 -0.39039716181624412 0 -0.074185126376287852 -0.36967509387154418 0 -0.070004765223907819 -0.39039716181624412 0 -0.08437899231643009 -0.39663095063946119 0 -0.07887246609233356 -0.38180927860457609 0 -0.070004765223907819 -0.39039716181624412 0 -0.057496383236626203 -0.38939953280923628 0 -0.061650827460071958 -0.37776449475139789 0 -0.070004765223907819 -0.39039716181624412 0 -0.057496383236626203 -0.38939953280923628 0 -0.070004765223907819 -0.39039716181624412 0 -0.065824404071532616 -0.41111922976094489 0 -0.08437899231643009 -0.39663095063946119 0 -0.070004765223907819 -0.39039716181624412 0 -0.065824404071532616 -0.41111922976094489 0 -0.070004765223907819 -0.39039716181624412 0 -0.065824404071532616 -0.41111922976094489 0 -0.065824404071532616 -0.41111922976094489 0 -0.08183700418015516 -0.4227279931878678 0 -0.064808544909579657 -0.41615484793096769 0 -0.081509876295859041 -0.42608641575214518 0 -0.064808544909579657 -0.41615484793096769 0 -0.08183700418015516 -0.4227279931878678 0 -0.081509876295859041 -0.42608641575214518 0 -0.065824404071532616 -0.41111922976094489 0 -0.064808544909579657 -0.41615484793096769 0 -0.08183700418015516 -0.4227279931878678 0 -0.08437899231643009 -0.39663095063946119 0 -0.065824404071532616 -0.41111922976094489 0 -0.08183700418015516 -0.4227279931878678 0 -0.065824404071532616 -0.41111922976094489 0 -0.064808544909579657 -0.41615484793096769 0 -0.059170384705036869 -0.44410323195397688 0 -0.064808544909579657 -0.41615484793096769 0 -0.081509876295859041 -0.42608641575214518 0 -0.095468695855318433 -0.43261065326132342 0 -0.095126082777116427 -0.41368349424861611 0 -0.08183700418015516 -0.4227279931878678 0 -0.079110020016883859 -0.45072427716809882 0 -0.095305131913166599 -0.43428986454346841 0 -0.081509876295859041 -0.42608641575214518 0 -0.08183700418015516 -0.4227279931878678 0 -0.081509876295859041 -0.42608641575214518 0 -0.095305131913166599 -0.43428986454346841 0 -0.095468695855318433 -0.43261065326132342 0 -0.081509876295859041 -0.42608641575214518 0 -0.095305131913166599 -0.43428986454346841 0 -0.081509876295859041 -0.42608641575214518 0 -0.095468695855318433 -0.43261065326132342 0 -0.08183700418015516 -0.4227279931878678 0 -0.081509876295859041 -0.42608641575214518 0 -0.095468695855318433 -0.43261065326132342 0 -0.08183700418015516 -0.4227279931878678 0 -0.08437899231643009 -0.39663095063946119 0 -0.08183700418015516 -0.4227279931878678 0 -0.095126082777116427 -0.41368349424861611 0 -0.08437899231643009 -0.39663095063946119 0 -0.08183700418015516 -0.4227279931878678 0 -0.087961402494441704 -0.086500428379449101 0 -0.070075941313342438 -0.083726543645775073 0 -0.076948692228584831 -0.098460306332484787 0 -0.087961402494441704 -0.086500428379449101 0 -0.083767187507549995 -0.06481735130141901 0 -0.070075941313342438 -0.083726543645775073 0 -0.087961402494441704 -0.086500428379449101 0 -0.070075941313342438 -0.083726543645775073 0 -0.087961402494441704 -0.086500428379449101 0 -0.087639262845735422 -0.097278183261884921 0 -0.096363889663220875 -0.09607238484248562 0 -0.087961402494441704 -0.086500428379449101 0 -0.096363889663220875 -0.09607238484248562 0 -0.096381497996848739 -0.08134425063638856 0 -0.087961402494441704 -0.086500428379449101 0 -0.083767187507549995 -0.06481735130141901 0 -0.096381497996848739 -0.08134425063638856 0 -0.083767187507549995 -0.06481735130141901 0 -0.096381497996848739 -0.08134425063638856 0 -0.083767187507549995 -0.06481735130141901 0 -0.096381497996848739 -0.08134425063638856 0 -0.096375535474321677 -0.079687002069074017 0 -0.083767187507549995 -0.06481735130141901 0 -0.096375535474321677 -0.079687002069074017 0 -0.097957114600540879 -0.065565649830007386 0 -0.083767187507549995 -0.06481735130141901 0 -0.070075941313342438 -0.083726543645775073 0 -0.083767187507549995 -0.06481735130141901 0 -0.070075941313342438 -0.083726543645775073 0 -0.062303790000144153 -0.065697019804546425 0 -0.070075941313342438 -0.083726543645775073 0 -0.056576234466988243 -0.1023711980277994 0 -0.070075941313342438 -0.083726543645775073 0 -0.076948692228584831 -0.098460306332484787 0 -0.056576234466988243 -0.1023711980277994 0 -0.076948692228584831 -0.098460306332484787 0 -0.07728096765399535 -0.1115262408934171 0 -0.056576234466988243 -0.1023711980277994 0 -0.056576234466988243 -0.1023711980277994 0 -0.074673213010391343 -0.12550637003487361 0 -0.060167275557391153 -0.1185355675063557 0 -0.056576234466988243 -0.1023711980277994 0 -0.074673213010391343 -0.12550637003487361 0 -0.07728096765399535 -0.1115262408934171 0 -0.056576234466988243 -0.1023711980277994 0 -0.074673213010391343 -0.12550637003487361 0 -0.060167275557391153 -0.1185355675063557 0 -0.074673213010391343 -0.12550637003487361 0 -0.065613179181117698 -0.1303470642693462 0 -0.07728096765399535 -0.1115262408934171 0 -0.089101494505283665 -0.12100450891030209 0 -0.074673213010391343 -0.12550637003487361 0 -0.07728096765399535 -0.1115262408934171 0 -0.089101494505283665 -0.12100450891030209 0 -0.089283066996694346 -0.1080796134931203 0 -0.089101494505283665 -0.12100450891030209 0 -0.089283066996694346 -0.1080796134931203 0 -0.102149265395751 -0.1110699179469531 0 -0.076948692228584831 -0.098460306332484787 0 -0.089283066996694346 -0.1080796134931203 0 -0.087639262845735422 -0.097278183261884921 0 -0.087961402494441704 -0.086500428379449101 0 -0.076948692228584831 -0.098460306332484787 0 -0.087639262845735422 -0.097278183261884921 0 -0.076948692228584831 -0.098460306332484787 0 -0.07728096765399535 -0.1115262408934171 0 -0.089283066996694346 -0.1080796134931203 0 -0.089283066996694346 -0.1080796134931203 0 -0.087639262845735422 -0.097278183261884921 0 -0.096363889663220875 -0.09607238484248562 0 -0.089283066996694346 -0.1080796134931203 0 -0.096363889663220875 -0.09607238484248562 0 -0.102149265395751 -0.1110699179469531 0 -0.096363889663220875 -0.09607238484248562 0 -0.10899580848614759 -0.097871149971358179 0 -0.102149265395751 -0.1110699179469531 0 -0.102149265395751 -0.1110699179469531 0 -0.12161011897544639 -0.1143980493063277 0 -0.1028934165763854 -0.12684356447062309 0 -0.089101494505283665 -0.12100450891030209 0 -0.102149265395751 -0.1110699179469531 0 -0.1028934165763854 -0.12684356447062309 0 -0.10899580848614759 -0.097871149971358179 0 -0.12161011897544639 -0.1143980493063277 0 -0.10899580848614759 -0.097871149971358179 0 -0.12161011897544639 -0.1143980493063277 0 -0.12767639917558171 -0.095214282378036696 0 -0.10899580848614759 -0.097871149971358179 0 -0.102149265395751 -0.1110699179469531 0 -0.12161011897544639 -0.1143980493063277 0 -0.10899580848614759 -0.097871149971358179 0 -0.1132605409186659 -0.080905517023447962 0 -0.12767639917558171 -0.095214282378036696 0 -0.10899580848614759 -0.097871149971358179 0 -0.1132605409186659 -0.080905517023447962 0 -0.096381497996848739 -0.08134425063638856 0 -0.1132605409186659 -0.080905517023447962 0 -0.096381497996848739 -0.08134425063638856 0 -0.096375535474321677 -0.079687002069074017 0 -0.096363889663220875 -0.09607238484248562 0 -0.10899580848614759 -0.097871149971358179 0 -0.096381497996848739 -0.08134425063638856 0 -0.10899580848614759 -0.097871149971358179 0 -0.096381497996848739 -0.08134425063638856 0 -0.096375535474321677 -0.079687002069074017 0 -0.097957114600540879 -0.065565649830007386 0 -0.1118173875218271 -0.062434066182754072 0 -0.096375535474321677 -0.079687002069074017 0 -0.1118173875218271 -0.062434066182754072 0 -0.1132605409186659 -0.080905517023447962 0 -0.096375535474321677 -0.079687002069074017 0 -0.1118173875218271 -0.062434066182754072 0 -0.1132605409186659 -0.080905517023447962 0 -0.1118173875218271 -0.062434066182754072 0 -0.13994822908535109 -0.070361261062693692 0 -0.1118173875218271 -0.062434066182754072 0 -0.10780780904571791 -0.049880520796298948 0 -0.12725923956933161 -0.045181130296433343 0 -0.1118173875218271 -0.062434066182754072 0 -0.12725923956933161 -0.045181130296433343 0 -0.1047870900423291 -0.03578643808491877 0 -0.10780780904571791 -0.049880520796298948 0 -0.12725923956933161 -0.045181130296433343 0 -0.1047870900423291 -0.03578643808491877 0 -0.11495211715658139 -0.02075877961845643 0 -0.12725923956933161 -0.045181130296433343 0 -0.11495211715658139 -0.02075877961845643 0 -0.12725923956933161 -0.045181130296433343 0 -0.1047870900423291 -0.03578643808491877 0 -0.094277138774939609 -0.050301894693168918 0 -0.087713736766911077 -0.034266285003381539 0 -0.1047870900423291 -0.03578643808491877 0 -0.094277138774939609 -0.050301894693168918 0 -0.10780780904571791 -0.049880520796298948 0 -0.1047870900423291 -0.03578643808491877 0 -0.094277138774939609 -0.050301894693168918 0 -0.097957114600540879 -0.065565649830007386 0 -0.1118173875218271 -0.062434066182754072 0 -0.10780780904571791 -0.049880520796298948 0 -0.097957114600540879 -0.065565649830007386 0 -0.094277138774939609 -0.050301894693168918 0 -0.10780780904571791 -0.049880520796298948 0 -0.1203328952813548 -0.0044339126386656706 0 -0.11495211715658139 -0.02075877961845643 0 -0.1308871796528614 -0.016470598670949719 0 -0.1203328952813548 -0.0044339126386656706 0 -0.11495211715658139 -0.02075877961845643 0 -0.1026449947438315 0.003663571059520726 0 -0.11495211715658139 -0.02075877961845643 0 -0.1308871796528614 -0.016470598670949719 0 -0.12725923956933161 -0.045181130296433343 0 -0.1047870900423291 -0.03578643808491877 0 -0.096694079607189592 -0.019677198183491031 0 -0.087713736766911077 -0.034266285003381539 0 -0.1047870900423291 -0.03578643808491877 0 -0.11495211715658139 -0.02075877961845643 0 -0.096694079607189592 -0.019677198183491031 0 -0.096694079607189592 -0.019677198183491031 0 -0.08597795090394926 -0.0076000302298698573 0 -0.1026449947438315 0.003663571059520726 0 -0.11495211715658139 -0.02075877961845643 0 -0.1026449947438315 0.003663571059520726 0 -0.11495211715658139 -0.02075877961845643 0 -0.096694079607189592 -0.019677198183491031 0 -0.1026449947438315 0.003663571059520726 0 -0.096694079607189592 -0.019677198183491031 0 -0.08597795090394926 -0.0076000302298698573 0 -0.07717408885708503 -0.021215427080197032 0 -0.096694079607189592 -0.019677198183491031 0 -0.07717408885708503 -0.021215427080197032 0 -0.087713736766911077 -0.034266285003381539 0 -0.07717408885708503 -0.021215427080197032 0 -0.087713736766911077 -0.034266285003381539 0 -0.074907118569077058 -0.034531998756287062 0 -0.063595575676258759 -0.02966348765871105 0 -0.0690357512981494 -0.0069628791447860954 0 -0.063595575676258759 -0.02966348765871105 0 -0.07717408885708503 -0.021215427080197032 0 -0.0690357512981494 -0.0069628791447860954 0 -0.063595575676258759 -0.02966348765871105 0 -0.07717408885708503 -0.021215427080197032 0 -0.074907118569077058 -0.034531998756287062 0 -0.08597795090394926 -0.0076000302298698573 0 -0.07717408885708503 -0.021215427080197032 0 -0.0690357512981494 -0.0069628791447860954 0 -0.083767187507549995 -0.06481735130141901 0 -0.094277138774939609 -0.050301894693168918 0 -0.081318823275986107 -0.04530567689386078 0 -0.083767187507549995 -0.06481735130141901 0 -0.094277138774939609 -0.050301894693168918 0 -0.083767187507549995 -0.06481735130141901 0 -0.097957114600540879 -0.065565649830007386 0 -0.094277138774939609 -0.050301894693168918 0 -0.094277138774939609 -0.050301894693168918 0 -0.087713736766911077 -0.034266285003381539 0 -0.081318823275986107 -0.04530567689386078 0 -0.087713736766911077 -0.034266285003381539 0 -0.081318823275986107 -0.04530567689386078 0 -0.074907118569077058 -0.034531998756287062 0 -0.063595575676258759 -0.02966348765871105 0 -0.067124501253761348 -0.043012592284809879 0 -0.058155400054368103 -0.052364096172636043 0 -0.081318823275986107 -0.04530567689386078 0 -0.074907118569077058 -0.034531998756287062 0 -0.067124501253761348 -0.043012592284809879 0 -0.063595575676258759 -0.02966348765871105 0 -0.074907118569077058 -0.034531998756287062 0 -0.067124501253761348 -0.043012592284809879 0 -0.067124501253761348 -0.043012592284809879 0 -0.058155400054368103 -0.052364096172636043 0 -0.062303790000144153 -0.065697019804546425 0 -0.083767187507549995 -0.06481735130141901 0 -0.067124501253761348 -0.043012592284809879 0 -0.062303790000144153 -0.065697019804546425 0 -0.083767187507549995 -0.06481735130141901 0 -0.067124501253761348 -0.043012592284809879 0 -0.083767187507549995 -0.06481735130141901 0 -0.081318823275986107 -0.04530567689386078 0 -0.067124501253761348 -0.043012592284809879 0 -0.05122599759396116 -0.060844501720188682 0 -0.058155400054368103 -0.052364096172636043 0 -0.062303790000144153 -0.065697019804546425 0 -0.05122599759396116 -0.060844501720188682 0 -0.058155400054368103 -0.052364096172636043 0 -0.046126091915921229 -0.050876359607988697 0 -0.063595575676258759 -0.02966348765871105 0 -0.058155400054368103 -0.052364096172636043 0 -0.063595575676258759 -0.02966348765871105 0 -0.058155400054368103 -0.052364096172636043 0 -0.045430581072266503 -0.037312437153911721 0 -0.058155400054368103 -0.052364096172636043 0 -0.045430581072266503 -0.037312437153911721 0 -0.046126091915921229 -0.050876359607988697 0 -0.045430581072266503 -0.037312437153911721 0 -0.03555395045377284 -0.025273813134376599 0 -0.02580092391809222 -0.039087265977424811 0 -0.045430581072266503 -0.037312437153911721 0 -0.0355481683296065 -0.052278730005823892 0 -0.02580092391809222 -0.039087265977424811 0 -0.045430581072266503 -0.037312437153911721 0 -0.0355481683296065 -0.052278730005823892 0 -0.046126091915921229 -0.050876359607988697 0 -0.0355481683296065 -0.052278730005823892 0 -0.025982740091705619 -0.063260483884413021 0 -0.0411782957374466 -0.063395051635484936 0 -0.05122599759396116 -0.060844501720188682 0 -0.046126091915921229 -0.050876359607988697 0 -0.0411782957374466 -0.063395051635484936 0 -0.0355481683296065 -0.052278730005823892 0 -0.046126091915921229 -0.050876359607988697 0 -0.0411782957374466 -0.063395051635484936 0 -0.0690357512981494 -0.0069628791447860954 0 -0.050756340277634988 -0.022422455442903829 0 -0.04051248678685327 -0.0091701030098075009 0 -0.0690357512981494 -0.0069628791447860954 0 -0.04051248678685327 -0.0091701030098075009 0 -0.054143937104984843 0.0086080978698742146 0 -0.063595575676258759 -0.02966348765871105 0 -0.0690357512981494 -0.0069628791447860954 0 -0.050756340277634988 -0.022422455442903829 0 -0.063595575676258759 -0.02966348765871105 0 -0.045430581072266503 -0.037312437153911721 0 -0.050756340277634988 -0.022422455442903829 0 -0.050756340277634988 -0.022422455442903829 0 -0.03555395045377284 -0.025273813134376599 0 -0.04051248678685327 -0.0091701030098075009 0 -0.045430581072266503 -0.037312437153911721 0 -0.050756340277634988 -0.022422455442903829 0 -0.03555395045377284 -0.025273813134376599 0 -0.04051248678685327 -0.0091701030098075009 0 -0.036671200689271023 0.0057763915615372261 0 -0.02165275992836839 0.0022290584850298968 0 -0.04051248678685327 -0.0091701030098075009 0 -0.01431435690640225 -0.01483652694504059 0 -0.02165275992836839 0.0022290584850298968 0 -0.03555395045377284 -0.025273813134376599 0 -0.04051248678685327 -0.0091701030098075009 0 -0.01431435690640225 -0.01483652694504059 0 -0.03555395045377284 -0.025273813134376599 0 -0.01431435690640225 -0.01483652694504059 0 -0.02580092391809222 -0.039087265977424811 0 -0.01431435690640225 -0.01483652694504059 0 -0.02580092391809222 -0.039087265977424811 0 -0.0072972502983304158 -0.034748904429526939 0 -0.01431435690640225 -0.01483652694504059 0 -0.02580092391809222 -0.039087265977424811 0 -0.01431435690640225 -0.01483652694504059 0 -0.0072972502983304158 -0.034748904429526939 0 0.00087121664655170873 -0.021536788382980631 0 -0.01431435690640225 -0.01483652694504059 0 -3.0483325887532769e-05 -0.0080437905340390685 0 -0.002827789894712216 0.0094142120873437173 0 -0.01431435690640225 -0.01483652694504059 0 -0.002827789894712216 0.0094142120873437173 0 -0.01431435690640225 -0.01483652694504059 0 -0.02165275992836839 0.0022290584850298968 0 -0.002827789894712216 0.0094142120873437173 0 -0.01431435690640225 -0.01483652694504059 0 -3.0483325887532769e-05 -0.0080437905340390685 0 0.00087121664655170873 -0.021536788382980631 0 -0.0355481683296065 -0.052278730005823892 0 -0.02580092391809222 -0.039087265977424811 0 -0.025982740091705619 -0.063260483884413021 0 -0.02580092391809222 -0.039087265977424811 0 -0.0055195432453418224 -0.053805599270284499 0 -0.025982740091705619 -0.063260483884413021 0 -0.0072972502983304158 -0.034748904429526939 0 -0.0055195432453418224 -0.053805599270284499 0 0.011289282780618861 -0.038717292824338147 0 -0.02580092391809222 -0.039087265977424811 0 -0.0072972502983304158 -0.034748904429526939 0 -0.0055195432453418224 -0.053805599270284499 0 -0.0055195432453418224 -0.053805599270284499 0 -0.0131751722637299 -0.074901712516008967 0 -0.025982740091705619 -0.063260483884413021 0 -0.0131751722637299 -0.074901712516008967 0 0.0013718725137959219 -0.084861861412949505 0 0.01176404020682973 -0.071033850231580098 0 -0.0055195432453418224 -0.053805599270284499 0 -0.0131751722637299 -0.074901712516008967 0 0.01176404020682973 -0.071033850231580098 0 -0.0131751722637299 -0.074901712516008967 0 0.01176404020682973 -0.071033850231580098 0 -0.01224364479170121 -0.086657070136444719 0 -0.023668817968797651 -0.089576247090457264 0 -0.007422044297151445 -0.097418498707338014 0 -0.01224364479170121 -0.086657070136444719 0 -0.007422044297151445 -0.097418498707338014 0 0.0013718725137959219 -0.084861861412949505 0 -0.0131751722637299 -0.074901712516008967 0 -0.01224364479170121 -0.086657070136444719 0 0.0013718725137959219 -0.084861861412949505 0 -0.0131751722637299 -0.074901712516008967 0 -0.023668817968797651 -0.089576247090457264 0 -0.038114384734289512 -0.078769574800437642 0 -0.0131751722637299 -0.074901712516008967 0 -0.01224364479170121 -0.086657070136444719 0 -0.023668817968797651 -0.089576247090457264 0 -0.0131751722637299 -0.074901712516008967 0 -0.038114384734289512 -0.078769574800437642 0 -0.0131751722637299 -0.074901712516008967 0 -0.025982740091705619 -0.063260483884413021 0 -0.038114384734289512 -0.078769574800437642 0 -0.025982740091705619 -0.063260483884413021 0 -0.0411782957374466 -0.063395051635484936 0 -0.038114384734289512 -0.078769574800437642 0 -0.0411782957374466 -0.063395051635484936 0 -0.038114384734289512 -0.078769574800437642 0 -0.049092921659072718 -0.070533452849191117 0 -0.025982740091705619 -0.063260483884413021 0 -0.038114384734289512 -0.078769574800437642 0 -0.038114384734289512 -0.078769574800437642 0 -0.056576234466988243 -0.1023711980277994 0 -0.037864262799270708 -0.099461868015171068 0 -0.023668817968797651 -0.089576247090457264 0 -0.038114384734289512 -0.078769574800437642 0 -0.037864262799270708 -0.099461868015171068 0 -0.038114384734289512 -0.078769574800437642 0 -0.054095163023816152 -0.081248059223105434 0 -0.070075941313342438 -0.083726543645775073 0 -0.054095163023816152 -0.081248059223105434 0 -0.056576234466988243 -0.1023711980277994 0 -0.070075941313342438 -0.083726543645775073 0 -0.054095163023816152 -0.081248059223105434 0 -0.038114384734289512 -0.078769574800437642 0 -0.056576234466988243 -0.1023711980277994 0 -0.038114384734289512 -0.078769574800437642 0 -0.054095163023816152 -0.081248059223105434 0 -0.056576234466988243 -0.1023711980277994 0 -0.054095163023816152 -0.081248059223105434 0 -0.062303790000144153 -0.065697019804546425 0 -0.049092921659072718 -0.070533452849191117 0 -0.038114384734289512 -0.078769574800437642 0 -0.054095163023816152 -0.081248059223105434 0 -0.049092921659072718 -0.070533452849191117 0 -0.070075941313342438 -0.083726543645775073 0 -0.054095163023816152 -0.081248059223105434 0 -0.062303790000144153 -0.065697019804546425 0 -0.05122599759396116 -0.060844501720188682 0 -0.062303790000144153 -0.065697019804546425 0 -0.049092921659072718 -0.070533452849191117 0 -0.05122599759396116 -0.060844501720188682 0 -0.0411782957374466 -0.063395051635484936 0 -0.049092921659072718 -0.070533452849191117 0 -0.056576234466988243 -0.1023711980277994 0 -0.044833903118468119 -0.1185887138689969 0 -0.060167275557391153 -0.1185355675063557 0 -0.056576234466988243 -0.1023711980277994 0 -0.044833903118468119 -0.1185887138689969 0 -0.044833903118468119 -0.1185887138689969 0 -0.065613179181117698 -0.1303470642693462 0 -0.060167275557391153 -0.1185355675063557 0 -0.044833903118468119 -0.1185887138689969 0 -0.065613179181117698 -0.1303470642693462 0 -0.037864262799270708 -0.099461868015171068 0 -0.044833903118468119 -0.1185887138689969 0 -0.0261279737078111 -0.1080036062881651 0 -0.056576234466988243 -0.1023711980277994 0 -0.037864262799270708 -0.099461868015171068 0 -0.044833903118468119 -0.1185887138689969 0 -0.044833903118468119 -0.1185887138689969 0 -0.0261279737078111 -0.1080036062881651 0 -0.044833903118468119 -0.1185887138689969 0 -0.029149457069571259 -0.1222194372970743 0 -0.0261279737078111 -0.1080036062881651 0 -0.0261279737078111 -0.1080036062881651 0 -0.0097176083517210351 -0.10937394875132909 0 -0.01496725314324907 -0.1211223232700802 0 -0.029149457069571259 -0.1222194372970743 0 -0.0261279737078111 -0.1080036062881651 0 -0.01496725314324907 -0.1211223232700802 0 -0.0261279737078111 -0.1080036062881651 0 -0.007422044297151445 -0.097418498707338014 0 -0.023668817968797651 -0.089576247090457264 0 -0.037864262799270708 -0.099461868015171068 0 -0.0261279737078111 -0.1080036062881651 0 -0.023668817968797651 -0.089576247090457264 0 -0.0261279737078111 -0.1080036062881651 0 -0.007422044297151445 -0.097418498707338014 0 -0.0261279737078111 -0.1080036062881651 0 -0.0097176083517210351 -0.10937394875132909 0 -0.007422044297151445 -0.097418498707338014 0 -0.0097176083517210351 -0.10937394875132909 0 -0.003750020310441117 -0.10389913432191671 0 -0.007422044297151445 -0.097418498707338014 0 -0.0097176083517210351 -0.10937394875132909 0 -0.003750020310441117 -0.10389913432191671 0 -0.0015245481095283991 -0.1098675185925166 0 -0.003750020310441117 -0.10389913432191671 0 -0.0015245481095283991 -0.1098675185925166 0 0.0030192891058982152 -0.1002006070164069 0 -0.007422044297151445 -0.097418498707338014 0 0.0030192891058982152 -0.1002006070164069 0 0.0013718725137959219 -0.084861861412949505 0 -0.003750020310441117 -0.10389913432191671 0 -0.007422044297151445 -0.097418498707338014 0 0.0030192891058982152 -0.1002006070164069 0 -0.0097176083517210351 -0.10937394875132909 0 -0.01496725314324907 -0.1211223232700802 0 -0.0049168295488564526 -0.11672263369041069 0 -0.0097176083517210351 -0.10937394875132909 0 -0.0049168295488564526 -0.11672263369041069 0 -0.0015245481095283991 -0.1098675185925166 0 -0.0049168295488564526 -0.11672263369041069 0 -0.0015245481095283991 -0.1098675185925166 0 0.0011804868638339221 -0.1150632320095166 0 -0.01496725314324907 -0.1211223232700802 0 -0.0049168295488564526 -0.11672263369041069 0 -0.002867853252260967 -0.124711792585839 0 -0.0049168295488564526 -0.11672263369041069 0 -0.002867853252260967 -0.124711792585839 0 0.0022235697328065532 -0.12005553949821809 0 -0.0049168295488564526 -0.11672263369041069 0 0.0022235697328065532 -0.12005553949821809 0 0.0011804868638339221 -0.1150632320095166 0 -0.002867853252260967 -0.124711792585839 0 -0.0058812764280807492 -0.13747873212161871 0 0.0026997577518843752 -0.13067008757766649 0 -0.01496725314324907 -0.1211223232700802 0 -0.002867853252260967 -0.124711792585839 0 -0.0058812764280807492 -0.13747873212161871 0 -0.029149457069571259 -0.1222194372970743 0 -0.01496725314324907 -0.1211223232700802 0 -0.029077129694826769 -0.14035063788729121 0 -0.01496725314324907 -0.1211223232700802 0 -0.0058812764280807492 -0.13747873212161871 0 -0.029077129694826769 -0.14035063788729121 0 -0.029077129694826769 -0.14035063788729121 0 -0.013320356271184891 -0.16211256190558529 0 -0.037274984665554553 -0.1605274349938996 0 -0.0058812764280807492 -0.13747873212161871 0 -0.029077129694826769 -0.14035063788729121 0 -0.013320356271184891 -0.16211256190558529 0 -0.029077129694826769 -0.14035063788729121 0 -0.013320356271184891 -0.16211256190558529 0 -0.0058812764280807492 -0.13747873212161871 0 -0.013320356271184891 -0.16211256190558529 0 0.0015128397872320701 -0.1492119739186559 0 -0.013320356271184891 -0.16211256190558529 0 0.0067519459956744054 -0.1627814159684321 0 0.0015128397872320701 -0.1492119739186559 0 -0.013320356271184891 -0.16211256190558529 0 0.0067519459956744054 -0.1627814159684321 0 0.0024364171524568871 -0.1838744859238792 0 -0.013320356271184891 -0.16211256190558529 0 -0.01635033696382834 -0.1900480636531677 0 0.0024364171524568871 -0.1838744859238792 0 -0.013320356271184891 -0.16211256190558529 0 0.0024364171524568871 -0.1838744859238792 0 -0.013320356271184891 -0.16211256190558529 0 -0.032583449702560538 -0.17920759470112341 0 -0.01635033696382834 -0.1900480636531677 0 -0.013320356271184891 -0.16211256190558529 0 -0.037274984665554553 -0.1605274349938996 0 -0.032583449702560538 -0.17920759470112341 0 -0.037274984665554553 -0.1605274349938996 0 -0.032583449702560538 -0.17920759470112341 0 -0.056961293078948289 -0.17386626017156301 0 -0.037274984665554553 -0.1605274349938996 0 -0.056961293078948289 -0.17386626017156301 0 -0.049260244619565553 -0.1423433344817184 0 -0.032583449702560538 -0.17920759470112341 0 -0.056961293078948289 -0.17386626017156301 0 -0.041528938941354579 -0.1962394779337755 0 -0.049260244619565553 -0.1423433344817184 0 -0.065613179181117698 -0.1303470642693462 0 -0.068935690494021179 -0.1509682654341451 0 -0.056961293078948289 -0.17386626017156301 0 -0.049260244619565553 -0.1423433344817184 0 -0.068935690494021179 -0.1509682654341451 0 -0.044833903118468119 -0.1185887138689969 0 -0.049260244619565553 -0.1423433344817184 0 -0.065613179181117698 -0.1303470642693462 0 -0.044833903118468119 -0.1185887138689969 0 -0.029077129694826769 -0.14035063788729121 0 -0.049260244619565553 -0.1423433344817184 0 -0.044833903118468119 -0.1185887138689969 0 -0.029149457069571259 -0.1222194372970743 0 -0.029077129694826769 -0.14035063788729121 0 -0.044833903118468119 -0.1185887138689969 0 -0.029077129694826769 -0.14035063788729121 0 -0.029077129694826769 -0.14035063788729121 0 -0.037274984665554553 -0.1605274349938996 0 -0.049260244619565553 -0.1423433344817184 0 -0.031594604406692657 -0.25700172888382072 0 -0.01788603194823192 -0.2494753129263366 0 -0.02439724643580991 -0.23331010287424339 0 -0.01788603194823192 -0.2494753129263366 0 -0.0027879324552719381 -0.24539863686431981 0 -0.02439724643580991 -0.23331010287424339 0 -0.0027879324552719381 -0.24539863686431981 0 -0.0098766684170926988 -0.22311394066580281 0 -0.02439724643580991 -0.23331010287424339 0 -0.0027879324552719381 -0.24539863686431981 0 -0.0098766684170926988 -0.22311394066580281 0 0.0077026290604160132 -0.22551752340324691 0 -0.0098766684170926988 -0.22311394066580281 0 -0.02439724643580991 -0.23331010287424339 0 -0.025914395233363471 -0.21095373540230181 0 -0.0098766684170926988 -0.22311394066580281 0 -0.025914395233363471 -0.21095373540230181 0 -0.0046935374609555604 -0.2061930603991465 0 -0.0098766684170926988 -0.22311394066580281 0 -0.0046935374609555604 -0.2061930603991465 0 0.0077026290604160132 -0.22551752340324691 0 -0.0046935374609555604 -0.2061930603991465 0 -0.01635033696382834 -0.1900480636531677 0 0.0024364171524568871 -0.1838744859238792 0 -0.032583449702560538 -0.17920759470112341 0 -0.01635033696382834 -0.1900480636531677 0 -0.041528938941354579 -0.1962394779337755 0 -0.025914395233363471 -0.21095373540230181 0 -0.01635033696382834 -0.1900480636531677 0 -0.041528938941354579 -0.1962394779337755 0 -0.025914395233363471 -0.21095373540230181 0 -0.0046935374609555604 -0.2061930603991465 0 -0.01635033696382834 -0.1900480636531677 0 -0.056961293078948289 -0.17386626017156301 0 -0.041528938941354579 -0.1962394779337755 0 -0.060916082165128602 -0.1991955957986373 0 -0.041528938941354579 -0.1962394779337755 0 -0.060916082165128602 -0.1991955957986373 0 -0.050304332119699723 -0.2175006884964677 0 -0.025914395233363471 -0.21095373540230181 0 -0.041528938941354579 -0.1962394779337755 0 -0.050304332119699723 -0.2175006884964677 0 -0.02439724643580991 -0.23331010287424339 0 -0.050304332119699723 -0.2175006884964677 0 -0.05132256102027493 -0.24310343780616009 0 -0.02439724643580991 -0.23331010287424339 0 -0.025914395233363471 -0.21095373540230181 0 -0.050304332119699723 -0.2175006884964677 0 -0.050304332119699723 -0.2175006884964677 0 -0.05132256102027493 -0.24310343780616009 0 -0.071050517633857183 -0.22920514672849959 0 -0.05132256102027493 -0.24310343780616009 0 -0.071050517633857183 -0.22920514672849959 0 -0.066578389776785984 -0.26142320985948869 0 -0.05132256102027493 -0.24310343780616009 0 -0.067406794775839135 -0.24418288511786759 0 -0.031594604406692657 -0.25700172888382072 0 -0.02439724643580991 -0.23331010287424339 0 -0.05132256102027493 -0.24310343780616009 0 -0.097254442924579007 -0.26444654837757708 0 -0.081401658111284914 -0.24466263126014121 0 -0.09996194098761424 -0.23665031630931771 0 -0.081401658111284914 -0.24466263126014121 0 -0.087867173532627726 -0.22375960483317289 0 -0.09996194098761424 -0.23665031630931771 0 -0.05132256102027493 -0.24310343780616009 0 -0.067406794775839135 -0.24418288511786759 0 -0.071050517633857183 -0.22920514672849959 0 -0.081401658111284914 -0.24466263126014121 0 -0.067406794775839135 -0.24418288511786759 0 -0.071050517633857183 -0.22920514672849959 0 -0.050304332119699723 -0.2175006884964677 0 -0.071050517633857183 -0.22920514672849959 0 -0.076640238040206421 -0.2101064088117125 0 -0.081401658111284914 -0.24466263126014121 0 -0.071050517633857183 -0.22920514672849959 0 -0.087867173532627726 -0.22375960483317289 0 -0.071050517633857183 -0.22920514672849959 0 -0.087867173532627726 -0.22375960483317289 0 -0.076640238040206421 -0.2101064088117125 0 -0.087867173532627726 -0.22375960483317289 0 -0.076640238040206421 -0.2101064088117125 0 -0.1026694390506494 -0.20885408424105831 0 -0.060916082165128602 -0.1991955957986373 0 -0.050304332119699723 -0.2175006884964677 0 -0.076640238040206421 -0.2101064088117125 0 -0.056961293078948289 -0.17386626017156301 0 -0.060916082165128602 -0.1991955957986373 0 -0.081164486162264043 -0.18979796489165429 0 -0.060916082165128602 -0.1991955957986373 0 -0.076640238040206421 -0.2101064088117125 0 -0.081164486162264043 -0.18979796489165429 0 -0.076640238040206421 -0.2101064088117125 0 -0.081164486162264043 -0.18979796489165429 0 -0.1026694390506494 -0.20885408424105831 0 -0.1026694390506494 -0.20885408424105831 0 -0.10537693711368459 -0.18105785217279899 0 -0.081164486162264043 -0.18979796489165429 0 -0.1026694390506494 -0.20885408424105831 0 -0.10537693711368459 -0.18105785217279899 0 -0.1239705705065718 -0.2003253943144121 0 -0.1026694390506494 -0.20885408424105831 0 -0.10537693711368459 -0.18105785217279899 0 -0.1239705705065718 -0.2003253943144121 0 -0.1026694390506494 -0.20885408424105831 0 -0.1199485736304608 -0.22886648962252851 0 -0.1026694390506494 -0.20885408424105831 0 -0.1199485736304608 -0.22886648962252851 0 -0.09996194098761424 -0.23665031630931771 0 -0.1026694390506494 -0.20885408424105831 0 -0.09996194098761424 -0.23665031630931771 0 -0.087867173532627726 -0.22375960483317289 0 -0.1026694390506494 -0.20885408424105831 0 -0.09996194098761424 -0.23665031630931771 0 -0.11437414826144621 -0.25049231715679721 0 -0.1199485736304608 -0.22886648962252851 0 -0.09996194098761424 -0.23665031630931771 0 -0.11437414826144621 -0.25049231715679721 0 -0.1199485736304608 -0.22886648962252851 0 -0.13355881260256089 -0.2496977061671225 0 -0.086392455243764585 -0.14210541466970009 0 -0.084422927524966954 -0.16570758815415609 0 -0.1056879960141557 -0.15291930458211389 0 -0.086392455243764585 -0.14210541466970009 0 -0.068935690494021179 -0.1509682654341451 0 -0.084422927524966954 -0.16570758815415609 0 -0.089101494505283665 -0.12100450891030209 0 -0.086392455243764585 -0.14210541466970009 0 -0.1028934165763854 -0.12684356447062309 0 -0.089101494505283665 -0.12100450891030209 0 -0.086392455243764585 -0.14210541466970009 0 -0.074673213010391343 -0.12550637003487361 0 -0.086392455243764585 -0.14210541466970009 0 -0.065613179181117698 -0.1303470642693462 0 -0.086392455243764585 -0.14210541466970009 0 -0.074673213010391343 -0.12550637003487361 0 -0.065613179181117698 -0.1303470642693462 0 -0.086392455243764585 -0.14210541466970009 0 -0.065613179181117698 -0.1303470642693462 0 -0.068935690494021179 -0.1509682654341451 0 -0.056961293078948289 -0.17386626017156301 0 -0.068935690494021179 -0.1509682654341451 0 -0.084422927524966954 -0.16570758815415609 0 -0.056961293078948289 -0.17386626017156301 0 -0.081164486162264043 -0.18979796489165429 0 -0.084422927524966954 -0.16570758815415609 0 -0.081164486162264043 -0.18979796489165429 0 -0.084422927524966954 -0.16570758815415609 0 -0.10537693711368459 -0.18105785217279899 0 -0.084422927524966954 -0.16570758815415609 0 -0.10537693711368459 -0.18105785217279899 0 -0.1056879960141557 -0.15291930458211389 0 -0.1239705705065718 -0.2003253943144121 0 -0.10537693711368459 -0.18105785217279899 0 -0.1280661556913259 -0.1709879448821324 0 -0.10537693711368459 -0.18105785217279899 0 -0.1056879960141557 -0.15291930458211389 0 -0.1280661556913259 -0.1709879448821324 0 -0.1241035102962549 -0.1488124665458023 0 -0.1056879960141557 -0.15291930458211389 0 -0.1280661556913259 -0.1709879448821324 0 -0.1241035102962549 -0.1488124665458023 0 -0.1056879960141557 -0.15291930458211389 0 -0.117653585260247 -0.1353123826336235 0 -0.086392455243764585 -0.14210541466970009 0 -0.1056879960141557 -0.15291930458211389 0 -0.1028934165763854 -0.12684356447062309 0 -0.1056879960141557 -0.15291930458211389 0 -0.1028934165763854 -0.12684356447062309 0 -0.117653585260247 -0.1353123826336235 0 -0.12161011897544639 -0.1143980493063277 0 -0.117653585260247 -0.1353123826336235 0 -0.13397288443899269 -0.1335885282632506 0 -0.12161011897544639 -0.1143980493063277 0 -0.1028934165763854 -0.12684356447062309 0 -0.117653585260247 -0.1353123826336235 0 -0.1241035102962549 -0.1488124665458023 0 -0.117653585260247 -0.1353123826336235 0 -0.13397288443899269 -0.1335885282632506 0 -0.13397288443899269 -0.1335885282632506 0 -0.15905868006981611 -0.14022358826645809 0 -0.14238347132438051 -0.11563086419790421 0 -0.1402056809656306 -0.15168210142992999 0 -0.15298767155255161 -0.16657135195346581 0 -0.15905868006981611 -0.14022358826645809 0 -0.15298767155255161 -0.16657135195346581 0 -0.15905868006981611 -0.14022358826645809 0 -0.13397288443899269 -0.1335885282632506 0 -0.1402056809656306 -0.15168210142992999 0 -0.15905868006981611 -0.14022358826645809 0 -0.1241035102962549 -0.1488124665458023 0 -0.13397288443899269 -0.1335885282632506 0 -0.1402056809656306 -0.15168210142992999 0 -0.1402056809656306 -0.15168210142992999 0 -0.1280661556913259 -0.1709879448821324 0 -0.15298767155255161 -0.16657135195346581 0 -0.1241035102962549 -0.1488124665458023 0 -0.1402056809656306 -0.15168210142992999 0 -0.1280661556913259 -0.1709879448821324 0 -0.15298767155255161 -0.16657135195346581 0 -0.14691666303528719 -0.1929191156404734 0 -0.15298767155255161 -0.16657135195346581 0 -0.16495446390537599 -0.18320203838914051 0 -0.14691666303528719 -0.1929191156404734 0 -0.1280661556913259 -0.1709879448821324 0 -0.15298767155255161 -0.16657135195346581 0 -0.14691666303528719 -0.1929191156404734 0 -0.15298767155255161 -0.16657135195346581 0 -0.16495446390537599 -0.18320203838914051 0 -0.1773842602197058 -0.16147342872486159 0 -0.16495446390537599 -0.18320203838914051 0 -0.18488705326963789 -0.18618750428614089 0 -0.1773842602197058 -0.16147342872486159 0 -0.1773842602197058 -0.16147342872486159 0 -0.17951018254850981 -0.1396491989681411 0 -0.20046662441571661 -0.14657930116866469 0 -0.1773842602197058 -0.16147342872486159 0 -0.17951018254850981 -0.1396491989681411 0 -0.15905868006981611 -0.14022358826645809 0 -0.17951018254850981 -0.1396491989681411 0 -0.19304281467934639 -0.1243044362031622 0 -0.16512968858708049 -0.1138758245794506 0 -0.17951018254850981 -0.1396491989681411 0 -0.15905868006981611 -0.14022358826645809 0 -0.16512968858708049 -0.1138758245794506 0 -0.15905868006981611 -0.14022358826645809 0 -0.16512968858708049 -0.1138758245794506 0 -0.15298767155255161 -0.16657135195346581 0 -0.1773842602197058 -0.16147342872486159 0 -0.15905868006981611 -0.14022358826645809 0 -0.14084565451802281 -0.21926687932748101 0 -0.16857334917224809 -0.20704595331678491 0 -0.1574723052227173 -0.23960148641780851 0 -0.13355881260256089 -0.2496977061671225 0 -0.1574723052227173 -0.23960148641780851 0 -0.13355881260256089 -0.2496977061671225 0 -0.14084565451802281 -0.21926687932748101 0 -0.1574723052227173 -0.23960148641780851 0 -0.1199485736304608 -0.22886648962252851 0 -0.13355881260256089 -0.2496977061671225 0 -0.14084565451802281 -0.21926687932748101 0 -0.14084565451802281 -0.21926687932748101 0 -0.14691666303528719 -0.1929191156404734 0 -0.14084565451802281 -0.21926687932748101 0 -0.14691666303528719 -0.1929191156404734 0 -0.16857334917224809 -0.20704595331678491 0 -0.1239705705065718 -0.2003253943144121 0 -0.14084565451802281 -0.21926687932748101 0 -0.14691666303528719 -0.1929191156404734 0 -0.1239705705065718 -0.2003253943144121 0 -0.1199485736304608 -0.22886648962252851 0 -0.14084565451802281 -0.21926687932748101 0 -0.1239705705065718 -0.2003253943144121 0 -0.1280661556913259 -0.1709879448821324 0 -0.14691666303528719 -0.1929191156404734 0 -0.16495446390537599 -0.18320203838914051 0 -0.14691666303528719 -0.1929191156404734 0 -0.16857334917224809 -0.20704595331678491 0 -0.18488705326963789 -0.18618750428614089 0 -0.16857334917224809 -0.20704595331678491 0 -0.1889798730131336 -0.20715689860868261 0 -0.16495446390537599 -0.18320203838914051 0 -0.18488705326963789 -0.18618750428614089 0 -0.16857334917224809 -0.20704595331678491 0 -0.16857334917224809 -0.20704595331678491 0 -0.18138579784287381 -0.22950526666849441 0 -0.1889798730131336 -0.20715689860868261 0 -0.16857334917224809 -0.20704595331678491 0 -0.18138579784287381 -0.22950526666849441 0 -0.1574723052227173 -0.23960148641780851 0 -0.18174050912316109 -0.25437182043704609 0 -0.18138579784287381 -0.22950526666849441 0 -0.1574723052227173 -0.23960148641780851 0 -0.18138579784287381 -0.22950526666849441 0 -0.1574723052227173 -0.23960148641780851 0 -0.21930230117124799 -0.25295044087590401 0 -0.2075298900228397 -0.23862318425924861 0 -0.22672497109612619 -0.23623414455485209 0 -0.21930230117124799 -0.25295044087590401 0 -0.201941962032301 -0.25777820069528129 0 -0.2075298900228397 -0.23862318425924861 0 -0.18174050912316109 -0.25437182043704609 0 -0.18138579784287381 -0.22950526666849441 0 -0.2075298900228397 -0.23862318425924861 0 -0.18138579784287381 -0.22950526666849441 0 -0.20529929046303019 -0.21940904691918039 0 -0.18138579784287381 -0.22950526666849441 0 -0.2075298900228397 -0.23862318425924861 0 -0.20529929046303019 -0.21940904691918039 0 -0.2075298900228397 -0.23862318425924861 0 -0.20529929046303019 -0.21940904691918039 0 -0.22672497109612619 -0.23623414455485209 0 -0.20529929046303019 -0.21940904691918039 0 -0.20907371647745951 -0.1920646474351001 0 -0.2288699898506357 -0.20569333232027201 0 -0.18138579784287381 -0.22950526666849441 0 -0.20529929046303019 -0.21940904691918039 0 -0.1889798730131336 -0.20715689860868261 0 -0.20529929046303019 -0.21940904691918039 0 -0.1889798730131336 -0.20715689860868261 0 -0.20907371647745951 -0.1920646474351001 0 -0.18488705326963789 -0.18618750428614089 0 -0.1889798730131336 -0.20715689860868261 0 -0.20907371647745951 -0.1920646474351001 0 -0.20907371647745951 -0.1920646474351001 0 -0.2288699898506357 -0.20569333232027201 0 -0.23070678941040901 -0.1866295773046984 0 -0.2288699898506357 -0.20569333232027201 0 -0.23070678941040901 -0.1866295773046984 0 -0.25209658637131283 -0.19166369008343151 0 -0.2288699898506357 -0.20569333232027201 0 -0.25058635712221711 -0.2189374614689433 0 -0.25209658637131283 -0.19166369008343151 0 -0.20529929046303019 -0.21940904691918039 0 -0.2288699898506357 -0.20569333232027201 0 -0.22672497109612619 -0.23623414455485209 0 -0.2288699898506357 -0.20569333232027201 0 -0.22672497109612619 -0.23623414455485209 0 -0.25058635712221711 -0.2189374614689433 0 -0.23411881780064081 -0.26067207465961989 0 -0.22672497109612619 -0.23623414455485209 0 -0.25346419334368148 -0.24821555279875021 0 -0.22672497109612619 -0.23623414455485209 0 -0.25346419334368148 -0.24821555279875021 0 -0.25058635712221711 -0.2189374614689433 0 -0.21930230117124799 -0.25295044087590401 0 -0.23411881780064081 -0.26067207465961989 0 -0.22672497109612619 -0.23623414455485209 0 -0.21607095680350999 -0.14434609997719239 0 -0.20046662441571661 -0.14657930116866469 0 -0.21337044663761509 -0.1571064476685694 0 -0.21607095680350999 -0.14434609997719239 0 -0.21048048439836151 -0.1303445953140262 0 -0.2253312149575965 -0.13416461095830989 0 -0.21607095680350999 -0.14434609997719239 0 -0.21048048439836151 -0.1303445953140262 0 -0.20046662441571661 -0.14657930116866469 0 -0.17951018254850981 -0.1396491989681411 0 -0.20046662441571661 -0.14657930116866469 0 -0.19304281467934639 -0.1243044362031622 0 -0.21048048439836151 -0.1303445953140262 0 -0.20046662441571661 -0.14657930116866469 0 -0.19304281467934639 -0.1243044362031622 0 -0.1773842602197058 -0.16147342872486159 0 -0.20046662441571661 -0.14657930116866469 0 -0.20136436571209609 -0.1698515596453751 0 -0.18488705326963789 -0.18618750428614089 0 -0.1773842602197058 -0.16147342872486159 0 -0.20136436571209609 -0.1698515596453751 0 -0.18488705326963789 -0.18618750428614089 0 -0.20907371647745951 -0.1920646474351001 0 -0.20136436571209609 -0.1698515596453751 0 -0.20907371647745951 -0.1920646474351001 0 -0.20136436571209609 -0.1698515596453751 0 -0.2206241829504671 -0.17345888068206861 0 -0.20136436571209609 -0.1698515596453751 0 -0.21337044663761509 -0.1571064476685694 0 -0.2206241829504671 -0.17345888068206861 0 -0.20046662441571661 -0.14657930116866469 0 -0.20136436571209609 -0.1698515596453751 0 -0.21337044663761509 -0.1571064476685694 0 -0.2206241829504671 -0.17345888068206861 0 -0.24286947140217 -0.1702673360026199 0 -0.22832610330628539 -0.1512963968695463 0 -0.2206241829504671 -0.17345888068206861 0 -0.22832610330628539 -0.1512963968695463 0 -0.21337044663761509 -0.1571064476685694 0 -0.2206241829504671 -0.17345888068206861 0 -0.22832610330628539 -0.1512963968695463 0 -0.20907371647745951 -0.1920646474351001 0 -0.23070678941040901 -0.1866295773046984 0 -0.2206241829504671 -0.17345888068206861 0 -0.23070678941040901 -0.1866295773046984 0 -0.2206241829504671 -0.17345888068206861 0 -0.24286947140217 -0.1702673360026199 0 -0.23070678941040901 -0.1866295773046984 0 -0.24286947140217 -0.1702673360026199 0 -0.25209658637131283 -0.19166369008343151 0 -0.24286947140217 -0.1702673360026199 0 -0.2459939955575822 -0.15311321343151971 0 -0.22832610330628539 -0.1512963968695463 0 -0.2459939955575822 -0.15311321343151971 0 -0.24175861083520159 -0.14098927652468499 0 -0.22832610330628539 -0.1512963968695463 0 -0.2459939955575822 -0.15311321343151971 0 -0.24175861083520159 -0.14098927652468499 0 -0.25055362556030181 -0.14063164118122709 0 -0.21607095680350999 -0.14434609997719239 0 -0.22832610330628539 -0.1512963968695463 0 -0.2253312149575965 -0.13416461095830989 0 -0.21607095680350999 -0.14434609997719239 0 -0.21337044663761509 -0.1571064476685694 0 -0.22832610330628539 -0.1512963968695463 0 -0.22832610330628539 -0.1512963968695463 0 -0.2253312149575965 -0.13416461095830989 0 -0.23602802366210371 -0.12913391305702401 0 -0.22832610330628539 -0.1512963968695463 0 -0.23602802366210371 -0.12913391305702401 0 -0.21048048439836151 -0.1303445953140262 0 -0.2253312149575965 -0.13416461095830989 0 -0.22224905467747841 -0.122704346423952 0 -0.2253312149575965 -0.13416461095830989 0 -0.23453057948775929 -0.1205680201014058 0 -0.2253312149575965 -0.13416461095830989 0 -0.23602802366210371 -0.12913391305702401 0 -0.23453057948775929 -0.1205680201014058 0 -0.2253312149575965 -0.13416461095830989 0 -0.23453057948775929 -0.1205680201014058 0 -0.22224905467747841 -0.122704346423952 0 -0.24175861083520159 -0.14098927652468499 0 -0.22832610330628539 -0.1512963968695463 0 -0.23602802366210371 -0.12913391305702401 0 -0.24175861083520159 -0.14098927652468499 0 -0.23602802366210371 -0.12913391305702401 0 -0.2478913060897347 -0.13077121808410791 0 -0.24175861083520159 -0.14098927652468499 0 -0.2478913060897347 -0.13077121808410791 0 -0.25055362556030181 -0.14063164118122709 0 -0.23602802366210371 -0.12913391305702401 0 -0.2478913060897347 -0.13077121808410791 0 -0.24700144371182431 -0.1205517999847413 0 -0.23602802366210371 -0.12913391305702401 0 -0.23453057948775929 -0.1205680201014058 0 -0.24372994401792211 -0.1069714292445017 0 -0.23602802366210371 -0.12913391305702401 0 -0.24372994401792211 -0.1069714292445017 0 -0.23602802366210371 -0.12913391305702401 0 -0.24700144371182431 -0.1205517999847413 0 -0.24372994401792211 -0.1069714292445017 0 -0.23453057948775929 -0.1205680201014058 0 -0.24372994401792211 -0.1069714292445017 0 -0.23453057948775929 -0.1205680201014058 0 -0.234867534392318 -0.1112912468584057 0 -0.24372994401792211 -0.1069714292445017 0 -0.24700144371182431 -0.1205517999847413 0 -0.24372994401792211 -0.1069714292445017 0 -0.25512470820440092 -0.11284709536980329 0 -0.24372994401792211 -0.1069714292445017 0 -0.24724085371486371 -0.096868691780212762 0 -0.23365605371917891 -0.1026665008865574 0 -0.24208940322989869 -0.093288509277156484 0 -0.25396267323909438 -0.091847533228253647 0 -0.23365605371917891 -0.1026665008865574 0 -0.25396267323909438 -0.091847533228253647 0 -0.24724085371486371 -0.096868691780212762 0 -0.23365605371917891 -0.1026665008865574 0 -0.25396267323909438 -0.091847533228253647 0 -0.24372994401792211 -0.1069714292445017 0 -0.25396267323909438 -0.091847533228253647 0 -0.24372994401792211 -0.1069714292445017 0 -0.24724085371486371 -0.096868691780212762 0 -0.25396267323909438 -0.091847533228253647 0 -0.23695106785883149 -0.093887156951559886 0 -0.23365605371917891 -0.1026665008865574 0 -0.24208940322989869 -0.093288509277156484 0 -0.24372994401792211 -0.1069714292445017 0 -0.24724085371486371 -0.096868691780212762 0 -0.23365605371917891 -0.1026665008865574 0 -0.234867534392318 -0.1112912468584057 0 -0.24372994401792211 -0.1069714292445017 0 -0.23365605371917891 -0.1026665008865574 0 -0.23365605371917891 -0.1026665008865574 0 -0.21958709952781361 -0.089666335046522772 0 -0.21334943419926261 -0.1134854685448598 0 -0.23365605371917891 -0.1026665008865574 0 -0.21334943419926261 -0.1134854685448598 0 -0.23695106785883149 -0.093887156951559886 0 -0.23365605371917891 -0.1026665008865574 0 -0.2322263005588189 -0.090713657606851197 0 -0.23365605371917891 -0.1026665008865574 0 -0.2322263005588189 -0.090713657606851197 0 -0.21958709952781361 -0.089666335046522772 0 -0.22224905467747841 -0.122704346423952 0 -0.22755356034441149 -0.11495903720115799 0 -0.21334943419926261 -0.1134854685448598 0 -0.23365605371917891 -0.1026665008865574 0 -0.22755356034441149 -0.11495903720115799 0 -0.21334943419926261 -0.1134854685448598 0 -0.23453057948775929 -0.1205680201014058 0 -0.22224905467747841 -0.122704346423952 0 -0.22755356034441149 -0.11495903720115799 0 -0.23453057948775929 -0.1205680201014058 0 -0.234867534392318 -0.1112912468584057 0 -0.22755356034441149 -0.11495903720115799 0 -0.234867534392318 -0.1112912468584057 0 -0.23365605371917891 -0.1026665008865574 0 -0.22755356034441149 -0.11495903720115799 0 -0.24117365102844129 -0.071048865850714751 0 -0.23893376461108021 -0.054234459717009527 0 -0.24117365102844129 -0.071048865850714751 0 -0.23078616057516951 -0.063946591692023033 0 -0.23893376461108021 -0.054234459717009527 0 -0.24117365102844129 -0.071048865850714751 0 -0.24121532486973199 -0.073531373669831979 0 -0.23078616057516951 -0.063946591692023033 0 -0.24720656655496381 -0.068274509552894186 0 -0.24117365102844129 -0.071048865850714751 0 -0.24652884175494191 -0.06211859860982015 0 -0.24720656655496381 -0.068274509552894186 0 -0.24121532486973199 -0.073531373669831979 0 -0.25410679719507839 -0.067894430157233496 0 -0.24720656655496381 -0.068274509552894186 0 -0.24652884175494191 -0.06211859860982015 0 -0.25024480965728291 -0.064690907136105272 0 -0.24121532486973199 -0.073531373669831979 0 -0.2464857450906428 -0.078799841592908801 0 -0.25533347010654661 -0.080097302684604632 0 -0.24720656655496381 -0.068274509552894186 0 -0.24117365102844129 -0.071048865850714751 0 -0.24121532486973199 -0.073531373669831979 0 -0.24121532486973199 -0.073531373669831979 0 -0.24162992986563961 -0.078488051119227339 0 -0.2464857450906428 -0.078799841592908801 0 -0.24121532486973199 -0.073531373669831979 0 -0.24162992986563961 -0.078488051119227339 0 -0.23393874903104489 -0.078989542230348569 0 -0.23519550329772351 -0.084791917388262777 0 -0.24021816786555131 -0.082505281418027113 0 -0.23393874903104489 -0.078989542230348569 0 -0.24021816786555131 -0.082505281418027113 0 -0.24482756637949679 -0.085122979071469346 0 -0.23956216737141389 -0.088864700009041037 0 -0.23519550329772351 -0.084791917388262777 0 -0.24021816786555131 -0.082505281418027113 0 -0.23956216737141389 -0.088864700009041037 0 -0.24021816786555131 -0.082505281418027113 0 -0.24162992986563961 -0.078488051119227339 0 -0.24430434982773749 -0.081413756563901665 0 -0.24021816786555131 -0.082505281418027113 0 -0.24162992986563961 -0.078488051119227339 0 -0.23393874903104489 -0.078989542230348569 0 -0.24162992986563961 -0.078488051119227339 0 -0.24430434982773749 -0.081413756563901665 0 -0.2464857450906428 -0.078799841592908801 0 -0.24430434982773749 -0.081413756563901665 0 -0.2464857450906428 -0.078799841592908801 0 -0.24836033993735729 -0.0821526296178757 0 -0.24836033993735729 -0.0821526296178757 0 -0.24482756637949679 -0.085122979071469346 0 -0.25080385271298261 -0.086164853568068411 0 -0.24430434982773749 -0.081413756563901665 0 -0.24836033993735729 -0.0821526296178757 0 -0.24482756637949679 -0.085122979071469346 0 -0.24021816786555131 -0.082505281418027113 0 -0.24430434982773749 -0.081413756563901665 0 -0.24482756637949679 -0.085122979071469346 0 -0.24631505396097481 -0.089176655310370542 0 -0.24208940322989869 -0.093288509277156484 0 -0.25396267323909438 -0.091847533228253647 0 -0.24482756637949679 -0.085122979071469346 0 -0.24631505396097481 -0.089176655310370542 0 -0.23956216737141389 -0.088864700009041037 0 -0.24482756637949679 -0.085122979071469346 0 -0.24631505396097481 -0.089176655310370542 0 -0.25080385271298261 -0.086164853568068411 0 -0.24631505396097481 -0.089176655310370542 0 -0.24208940322989869 -0.093288509277156484 0 -0.23956216737141389 -0.088864700009041037 0 -0.23695106785883149 -0.093887156951559886 0 -0.24208940322989869 -0.093288509277156484 0 -0.23956216737141389 -0.088864700009041037 0 -0.23519550329772351 -0.084791917388262777 0 -0.23956216737141389 -0.088864700009041037 0 -0.2322263005588189 -0.090713657606851197 0 -0.23695106785883149 -0.093887156951559886 0 -0.23956216737141389 -0.088864700009041037 0 -0.2322263005588189 -0.090713657606851197 0 -0.21958709952781361 -0.089666335046522772 0 -0.22779651611747229 -0.083308712290444731 0 -0.217577052170151 -0.071311917496297492 0 -0.23519550329772351 -0.084791917388262777 0 -0.2322263005588189 -0.090713657606851197 0 -0.22779651611747229 -0.083308712290444731 0 -0.2322263005588189 -0.090713657606851197 0 -0.21958709952781361 -0.089666335046522772 0 -0.22779651611747229 -0.083308712290444731 0 -0.23519550329772351 -0.084791917388262777 0 -0.22779651611747229 -0.083308712290444731 0 -0.23393874903104489 -0.078989542230348569 0 -0.22779651611747229 -0.083308712290444731 0 -0.23393874903104489 -0.078989542230348569 0 -0.217577052170151 -0.071311917496297492 0 -0.24121532486973199 -0.073531373669831979 0 -0.23393874903104489 -0.078989542230348569 0 -0.217577052170151 -0.071311917496297492 0 -0.24121532486973199 -0.073531373669831979 0 -0.217577052170151 -0.071311917496297492 0 -0.24121532486973199 -0.073531373669831979 0 -0.23078616057516951 -0.063946591692023033 0 -0.217577052170151 -0.071311917496297492 0 -0.21958709952781361 -0.089666335046522772 0 -0.217577052170151 -0.071311917496297492 0 -0.20282934745621081 -0.073274435803878213 0 -0.217577052170151 -0.071311917496297492 0 -0.20282934745621081 -0.073274435803878213 0 -0.2150310101964428 -0.049606341726261438 0 -0.21958709952781361 -0.089666335046522772 0 -0.19567118775350789 -0.087103601448553072 0 -0.20282934745621081 -0.073274435803878213 0 -0.21958709952781361 -0.089666335046522772 0 -0.19567118775350789 -0.087103601448553072 0 -0.20150664123959131 -0.1034968062963266 0 -0.19567118775350789 -0.087103601448553072 0 -0.20282934745621081 -0.073274435803878213 0 -0.1871336000353129 -0.074477296896217432 0 -0.20282934745621081 -0.073274435803878213 0 -0.1871336000353129 -0.074477296896217432 0 -0.19336814219916421 -0.061792629869218213 0 -0.21334943419926261 -0.1134854685448598 0 -0.19304281467934639 -0.1243044362031622 0 -0.21048048439836151 -0.1303445953140262 0 -0.21334943419926261 -0.1134854685448598 0 -0.19304281467934639 -0.1243044362031622 0 -0.21048048439836151 -0.1303445953140262 0 -0.22224905467747841 -0.122704346423952 0 -0.21334943419926261 -0.1134854685448598 0 -0.21958709952781361 -0.089666335046522772 0 -0.21334943419926261 -0.1134854685448598 0 -0.20150664123959131 -0.1034968062963266 0 -0.19567118775350789 -0.087103601448553072 0 -0.20150664123959131 -0.1034968062963266 0 -0.1858826700380258 -0.1029241902385352 0 -0.21334943419926261 -0.1134854685448598 0 -0.20150664123959131 -0.1034968062963266 0 -0.19304281467934639 -0.1243044362031622 0 -0.20150664123959131 -0.1034968062963266 0 -0.19304281467934639 -0.1243044362031622 0 -0.1858826700380258 -0.1029241902385352 0 -0.19304281467934639 -0.1243044362031622 0 -0.16512968858708049 -0.1138758245794506 0 -0.1858826700380258 -0.1029241902385352 0 -0.16512968858708049 -0.1138758245794506 0 -0.17120069710434491 -0.087528060892443083 0 -0.16512968858708049 -0.1138758245794506 0 -0.17120069710434491 -0.087528060892443083 0 -0.1468530566993658 -0.096484912393901293 0 -0.16512968858708049 -0.1138758245794506 0 -0.1858826700380258 -0.1029241902385352 0 -0.17120069710434491 -0.087528060892443083 0 -0.19567118775350789 -0.087103601448553072 0 -0.1858826700380258 -0.1029241902385352 0 -0.17120069710434491 -0.087528060892443083 0 -0.19567118775350789 -0.087103601448553072 0 -0.1871336000353129 -0.074477296896217432 0 -0.17120069710434491 -0.087528060892443083 0 -0.17120069710434491 -0.087528060892443083 0 -0.13994822908535109 -0.070361261062693692 0 -0.15970142564849071 -0.062475865951303937 0 -0.17120069710434491 -0.087528060892443083 0 -0.17727170562160929 -0.061180297205435732 0 -0.1871336000353129 -0.074477296896217432 0 -0.17727170562160929 -0.061180297205435732 0 -0.19336814219916421 -0.061792629869218213 0 -0.1871336000353129 -0.074477296896217432 0 -0.17120069710434491 -0.087528060892443083 0 -0.17727170562160929 -0.061180297205435732 0 -0.17120069710434491 -0.087528060892443083 0 -0.15970142564849071 -0.062475865951303937 0 -0.17727170562160929 -0.061180297205435732 0 -0.17120069710434491 -0.087528060892443083 0 -0.13994822908535109 -0.070361261062693692 0 -0.1468530566993658 -0.096484912393901293 0 -0.13994822908535109 -0.070361261062693692 0 -0.12767639917558171 -0.095214282378036696 0 -0.1468530566993658 -0.096484912393901293 0 -0.1132605409186659 -0.080905517023447962 0 -0.13994822908535109 -0.070361261062693692 0 -0.12767639917558171 -0.095214282378036696 0 -0.12767639917558171 -0.095214282378036696 0 -0.14238347132438051 -0.11563086419790421 0 -0.1468530566993658 -0.096484912393901293 0 -0.12161011897544639 -0.1143980493063277 0 -0.12767639917558171 -0.095214282378036696 0 -0.14238347132438051 -0.11563086419790421 0 -0.12161011897544639 -0.1143980493063277 0 -0.13397288443899269 -0.1335885282632506 0 -0.14238347132438051 -0.11563086419790421 0 -0.15905868006981611 -0.14022358826645809 0 -0.16512968858708049 -0.1138758245794506 0 -0.14238347132438051 -0.11563086419790421 0 -0.16512968858708049 -0.1138758245794506 0 -0.14238347132438051 -0.11563086419790421 0 -0.1468530566993658 -0.096484912393901293 0 -0.14222019587267981 -0.02846549158252842 0 -0.15716088152878491 -0.02973392966550583 0 -0.15718115217602721 -0.011749852868622681 0 -0.14222019587267981 -0.02846549158252842 0 -0.15718115217602721 -0.011749852868622681 0 -0.14222019587267981 -0.02846549158252842 0 -0.1308871796528614 -0.016470598670949719 0 -0.15718115217602721 -0.011749852868622681 0 -0.13334388803410099 -0.0001525321026195833 0 -0.15718115217602721 -0.011749852868622681 0 -0.15201470086044461 0.0079273161326678838 0 -0.13334388803410099 -0.0001525321026195833 0 -0.1308871796528614 -0.016470598670949719 0 -0.15718115217602721 -0.011749852868622681 0 -0.1203328952813548 -0.0044339126386656706 0 -0.13334388803410099 -0.0001525321026195833 0 -0.1308871796528614 -0.016470598670949719 0 -0.14222019587267981 -0.02846549158252842 0 -0.1308871796528614 -0.016470598670949719 0 -0.12725923956933161 -0.045181130296433343 0 -0.14222019587267981 -0.02846549158252842 0 -0.12725923956933161 -0.045181130296433343 0 -0.14222019587267981 -0.02846549158252842 0 -0.12725923956933161 -0.045181130296433343 0 -0.14857060993045371 -0.046612040670519127 0 -0.13994822908535109 -0.070361261062693692 0 -0.12725923956933161 -0.045181130296433343 0 -0.1118173875218271 -0.062434066182754072 0 -0.13994822908535109 -0.070361261062693692 0 -0.12725923956933161 -0.045181130296433343 0 -0.13994822908535109 -0.070361261062693692 0 -0.12725923956933161 -0.045181130296433343 0 -0.14857060993045371 -0.046612040670519127 0 -0.13994822908535109 -0.070361261062693692 0 -0.14857060993045371 -0.046612040670519127 0 -0.15970142564849071 -0.062475865951303937 0 -0.14222019587267981 -0.02846549158252842 0 -0.14857060993045371 -0.046612040670519127 0 -0.15716088152878491 -0.02973392966550583 0 -0.14857060993045371 -0.046612040670519127 0 -0.16513368787808391 -0.043454565464649611 0 -0.15716088152878491 -0.02973392966550583 0 -0.16513368787808391 -0.043454565464649611 0 -0.17019292326150709 -0.022317804577464288 0 -0.15716088152878491 -0.02973392966550583 0 -0.16513368787808391 -0.043454565464649611 0 -0.15970142564849071 -0.062475865951303937 0 -0.17727170562160929 -0.061180297205435732 0 -0.14857060993045371 -0.046612040670519127 0 -0.16513368787808391 -0.043454565464649611 0 -0.15970142564849071 -0.062475865951303937 0 -0.17727170562160929 -0.061180297205435732 0 -0.18334271413887371 -0.034832533518428369 0 -0.17727170562160929 -0.061180297205435732 0 -0.18334271413887371 -0.034832533518428369 0 -0.19564859033806201 -0.046446360384608538 0 -0.16513368787808391 -0.043454565464649611 0 -0.18334271413887371 -0.034832533518428369 0 -0.17019292326150709 -0.022317804577464288 0 -0.16513368787808391 -0.043454565464649611 0 -0.17727170562160929 -0.061180297205435732 0 -0.18334271413887371 -0.034832533518428369 0 -0.18334271413887371 -0.034832533518428369 0 -0.18233154612736821 -0.01182615749080209 0 -0.19295790804361559 -0.02051320971132567 0 -0.18334271413887371 -0.034832533518428369 0 -0.17019292326150709 -0.022317804577464288 0 -0.18233154612736821 -0.01182615749080209 0 -0.17019292326150709 -0.022317804577464288 0 -0.15716088152878491 -0.02973392966550583 0 -0.15718115217602721 -0.011749852868622681 0 -0.17019292326150709 -0.022317804577464288 0 -0.172142108479374 0.0049657858452834486 0 -0.15718115217602721 -0.011749852868622681 0 -0.1610711125221512 0.0045908812410209391 0 -0.172142108479374 0.0049657858452834486 0 -0.17019292326150709 -0.022317804577464288 0 -0.15718115217602721 -0.011749852868622681 0 -0.172142108479374 0.0049657858452834486 0 -0.15718115217602721 -0.011749852868622681 0 -0.172142108479374 0.0049657858452834486 0 -0.17019292326150709 -0.022317804577464288 0 -0.18233154612736821 -0.01182615749080209 0 -0.172142108479374 0.0049657858452834486 0 -0.18233154612736821 -0.01182615749080209 0 -0.1810383977361181 0.001838255785446235 0 -0.172142108479374 0.0049657858452834486 0 -0.18233154612736821 -0.01182615749080209 0 -0.18768795508738781 -0.002083437595672367 0 -0.1810383977361181 0.001838255785446235 0 -0.18768795508738781 -0.002083437595672367 0 -0.19293596815609701 -0.0093128882042926766 0 -0.19736635287963419 0.0018705876172133949 0 -0.18233154612736821 -0.01182615749080209 0 -0.18768795508738781 -0.002083437595672367 0 -0.19293596815609701 -0.0093128882042926766 0 -0.19293596815609701 -0.0093128882042926766 0 -0.20822551237540271 -0.01030358335887274 0 -0.19736635287963419 0.0018705876172133949 0 -0.19293596815609701 -0.0093128882042926766 0 -0.19295790804361559 -0.02051320971132567 0 -0.20822551237540271 -0.01030358335887274 0 -0.18233154612736821 -0.01182615749080209 0 -0.19293596815609701 -0.0093128882042926766 0 -0.19295790804361559 -0.02051320971132567 0 -0.18334271413887371 -0.034832533518428369 0 -0.19295790804361559 -0.02051320971132567 0 -0.20157824881075759 -0.031725129937917047 0 -0.19295790804361559 -0.02051320971132567 0 -0.20822551237540271 -0.01030358335887274 0 -0.20157824881075759 -0.031725129937917047 0 -0.2144819968999721 -0.02780444172447671 0 -0.20822551237540271 -0.01030358335887274 0 -0.20157824881075759 -0.031725129937917047 0 -0.2144819968999721 -0.02780444172447671 0 -0.20822551237540271 -0.01030358335887274 0 -0.2204132420584354 -0.017896050987631949 0 -0.20822551237540271 -0.01030358335887274 0 -0.22185675074697531 -0.0057896427325692494 0 -0.208897403785512 0.011744623124039909 0 -0.20822551237540271 -0.01030358335887274 0 -0.22185675074697531 -0.0057896427325692494 0 -0.2204132420584354 -0.017896050987631949 0 -0.17727170562160929 -0.061180297205435732 0 -0.19336814219916421 -0.061792629869218213 0 -0.19564859033806201 -0.046446360384608538 0 -0.19336814219916421 -0.061792629869218213 0 -0.19564859033806201 -0.046446360384608538 0 -0.2150310101964428 -0.049606341726261438 0 -0.18334271413887371 -0.034832533518428369 0 -0.20157824881075759 -0.031725129937917047 0 -0.19564859033806201 -0.046446360384608538 0 -0.20157824881075759 -0.031725129937917047 0 -0.19564859033806201 -0.046446360384608538 0 -0.2150310101964428 -0.049606341726261438 0 -0.2144819968999721 -0.02780444172447671 0 -0.20157824881075759 -0.031725129937917047 0 -0.2150310101964428 -0.049606341726261438 0 -0.2144819968999721 -0.02780444172447671 0 -0.2150310101964428 -0.049606341726261438 0 -0.2253044080319567 -0.034751588418723223 0 -0.20282934745621081 -0.073274435803878213 0 -0.19336814219916421 -0.061792629869218213 0 -0.2150310101964428 -0.049606341726261438 0 -0.19336814219916421 -0.061792629869218213 0 -0.2150310101964428 -0.049606341726261438 0 -0.23078616057516951 -0.063946591692023033 0 -0.2150310101964428 -0.049606341726261438 0 -0.23893376461108021 -0.054234459717009527 0 -0.23078616057516951 -0.063946591692023033 0 -0.217577052170151 -0.071311917496297492 0 -0.2150310101964428 -0.049606341726261438 0 -0.2150310101964428 -0.049606341726261438 0 -0.23669387819372101 -0.03742005358330408 0 -0.23893376461108021 -0.054234459717009527 0 -0.2150310101964428 -0.049606341726261438 0 -0.23669387819372101 -0.03742005358330408 0 -0.2150310101964428 -0.049606341726261438 0 -0.2253044080319567 -0.034751588418723223 0 -0.23669387819372101 -0.03742005358330408 0 -0.2253044080319567 -0.034751588418723223 0 -0.23596448489160221 -0.031944635223712062 0 -0.2240410329704913 -0.02809917908863601 0 -0.2253044080319567 -0.034751588418723223 0 -0.23596448489160221 -0.031944635223712062 0 -0.23669387819372101 -0.03742005358330408 0 -0.23669387819372101 -0.03742005358330408 0 -0.2430756493628411 -0.044920035937042198 0 -0.23893376461108021 -0.054234459717009527 0 -0.23669387819372101 -0.03742005358330408 0 -0.23893376461108021 -0.054234459717009527 0 -0.23596448489160221 -0.031944635223712062 0 -0.23669387819372101 -0.03742005358330408 0 -0.23596448489160221 -0.031944635223712062 0 -0.23669387819372101 -0.03742005358330408 0 -0.23997953863919741 -0.03557172930170166 0 -0.23596448489160221 -0.031944635223712062 0 -0.23997953863919741 -0.03557172930170166 0 -0.23669387819372101 -0.03742005358330408 0 -0.23997953863919741 -0.03557172930170166 0 -0.23997953863919741 -0.03557172930170166 0 -0.24272629061635889 -0.034026564042185507 0 -0.23596448489160221 -0.031944635223712062 0 -0.23997953863919741 -0.03557172930170166 0 -0.24272629061635889 -0.034026564042185507 0 -0.24272629061635889 -0.034026564042185507 0 -0.24455394929324889 -0.036499424228045682 0 -0.25759444059757519 -0.034859945494417358 0 -0.23997953863919741 -0.03557172930170166 0 -0.24272629061635889 -0.034026564042185507 0 -0.24455394929324889 -0.036499424228045682 0 -0.24272629061635889 -0.034026564042185507 0 -0.24455394929324889 -0.036499424228045682 0 -0.23997953863919741 -0.03557172930170166 0 -0.25268944054759868 -0.047053520789873612 0 -0.23997953863919741 -0.03557172930170166 0 -0.2430756493628411 -0.044920035937042198 0 -0.25268944054759868 -0.047053520789873612 0 -0.23997953863919741 -0.03557172930170166 0 -0.24455394929324889 -0.036499424228045682 0 -0.25268944054759868 -0.047053520789873612 0 -0.23669387819372101 -0.03742005358330408 0 -0.23997953863919741 -0.03557172930170166 0 -0.2430756493628411 -0.044920035937042198 0 -0.24117365102844129 -0.071048865850714751 0 -0.23893376461108021 -0.054234459717009527 0 -0.24652884175494191 -0.06211859860982015 0 -0.2430756493628411 -0.044920035937042198 0 -0.24846099788831619 -0.053977821433680247 0 -0.25268944054759868 -0.047053520789873612 0 -0.2430756493628411 -0.044920035937042198 0 -0.23893376461108021 -0.054234459717009527 0 -0.24846099788831619 -0.053977821433680247 0 -0.23893376461108021 -0.054234459717009527 0 -0.24846099788831619 -0.053977821433680247 0 -0.24652884175494191 -0.06211859860982015 0 -0.24846099788831619 -0.053977821433680247 0 -0.24652884175494191 -0.06211859860982015 0 -0.2531370331241472 -0.060476090224473228 0 -0.24652884175494191 -0.06211859860982015 0 -0.2531370331241472 -0.060476090224473228 0 -0.25024480965728291 -0.064690907136105272 0 -0.22185675074697531 -0.0057896427325692494 0 -0.2348160977084375 -0.02332390858917922 0 -0.23668738209484411 -0.018348833574703481 0 -0.2348160977084375 -0.02332390858917922 0 -0.2313270265146895 0.002867892756796941 0 -0.2348160977084375 -0.02332390858917922 0 -0.2313270265146895 0.002867892756796941 0 -0.22185675074697531 -0.0057896427325692494 0 -0.2348160977084375 -0.02332390858917922 0 -0.2313270265146895 0.002867892756796941 0 -0.22185675074697531 -0.0057896427325692494 0 -0.2204132420584354 -0.017896050987631949 0 -0.2348160977084375 -0.02332390858917922 0 -0.2144819968999721 -0.02780444172447671 0 -0.2204132420584354 -0.017896050987631949 0 -0.2240410329704913 -0.02809917908863601 0 -0.2144819968999721 -0.02780444172447671 0 -0.2253044080319567 -0.034751588418723223 0 -0.2240410329704913 -0.02809917908863601 0 -0.23596448489160221 -0.031944635223712062 0 -0.2204132420584354 -0.017896050987631949 0 -0.23596448489160221 -0.031944635223712062 0 -0.2204132420584354 -0.017896050987631949 0 -0.2348160977084375 -0.02332390858917922 0 -0.23596448489160221 -0.031944635223712062 0 -0.2204132420584354 -0.017896050987631949 0 -0.2240410329704913 -0.02809917908863601 0 -0.23668738209484411 -0.018348833574703481 0 -0.2348160977084375 -0.02332390858917922 0 -0.24530362311450379 -0.02162835477438706 0 -0.24272629061635889 -0.034026564042185507 0 -0.2348160977084375 -0.02332390858917922 0 -0.24530362311450379 -0.02162835477438706 0 -0.23596448489160221 -0.031944635223712062 0 -0.2348160977084375 -0.02332390858917922 0 -0.23596448489160221 -0.031944635223712062 0 -0.24272629061635889 -0.034026564042185507 0 -0.2348160977084375 -0.02332390858917922 0 -0.24272629061635889 -0.034026564042185507 0 -0.2348160977084375 -0.02332390858917922 0 -0.23668738209484411 -0.018348833574703481 0 -0.24530362311450379 -0.02162835477438706 0 -0.2489231760662057 -0.01002615393856717 0 -0.23668738209484411 -0.018348833574703481 0 -0.2489231760662057 -0.01002615393856717 0 -0.24106058317087861 0.0025102444037685551 0 -0.23668738209484411 -0.018348833574703481 0 -0.2313270265146895 0.002867892756796941 0 -0.24106058317087861 0.0025102444037685551 0 -0.23668738209484411 -0.018348833574703481 0 -0.24106058317087861 0.0025102444037685551 0 -0.2489231760662057 -0.01002615393856717 0 -0.25283005323772689 0.00055530769458268315 0 -0.24106058317087861 0.0025102444037685551 0 -0.2489231760662057 -0.01002615393856717 0 -0.26451735172234209 -0.0056585011065514454 0 -0.26336516908667401 -0.02241631372729987 0 -0.2489231760662057 -0.01002615393856717 0 -0.26451735172234209 -0.0056585011065514454 0 -0.25283005323772689 0.00055530769458268315 0 -0.24272629061635889 -0.034026564042185507 0 -0.26336516908667401 -0.02241631372729987 0 -0.25759444059757519 -0.034859945494417358 0 -0.24272629061635889 -0.034026564042185507 0 -0.24530362311450379 -0.02162835477438706 0 -0.26336516908667401 -0.02241631372729987 0 -0.24272629061635889 -0.034026564042185507 0 -0.26336516908667401 -0.02241631372729987 0 -0.24530362311450379 -0.02162835477438706 0 -0.2489231760662057 -0.01002615393856717 0 -0.26336516908667401 -0.02241631372729987 0 -0.26336516908667401 -0.02241631372729987 0 -0.27993537768371551 -0.029277082582652981 0 -0.26881319335380088 -0.03994996050952232 0 -0.26336516908667401 -0.02241631372729987 0 -0.28400404755698899 -0.01080606341241439 0 -0.26336516908667401 -0.02241631372729987 0 -0.27993537768371551 -0.029277082582652981 0 -0.28400404755698899 -0.01080606341241439 0 -0.26451735172234209 -0.0056585011065514454 0 -0.28400404755698899 -0.01080606341241439 0 -0.27596627589349532 0.0018974693142803909 0 -0.26451735172234209 -0.0056585011065514454 0 -0.26336516908667401 -0.02241631372729987 0 -0.28400404755698899 -0.01080606341241439 0 -0.28400404755698899 -0.01080606341241439 0 -0.29744749907900719 -0.011313064093400131 0 -0.30464292602730408 0.00080418690247109799 0 -0.28400404755698899 -0.01080606341241439 0 -0.29074293809310919 0.0040245865018172684 0 -0.30464292602730408 0.00080418690247109799 0 -0.28400404755698899 -0.01080606341241439 0 -0.30464292602730408 0.00080418690247109799 0 -0.28400404755698899 -0.01080606341241439 0 -0.27596627589349532 0.0018974693142803909 0 -0.29074293809310919 0.0040245865018172684 0 -0.28400404755698899 -0.01080606341241439 0 -0.29175222203181977 -0.022803280208201122 0 -0.29744749907900719 -0.011313064093400131 0 -0.27993537768371551 -0.029277082582652981 0 -0.28400404755698899 -0.01080606341241439 0 -0.29175222203181977 -0.022803280208201122 0 -0.27993537768371551 -0.029277082582652981 0 -0.29175222203181977 -0.022803280208201122 0 -0.29035697168298702 -0.036300130378090427 0 -0.29175222203181977 -0.022803280208201122 0 -0.29827687385039819 -0.030032388228296999 0 -0.29035697168298702 -0.036300130378090427 0 -0.29175222203181977 -0.022803280208201122 0 -0.30417398276235003 -0.019218574984577921 0 -0.29744749907900719 -0.011313064093400131 0 -0.30417398276235003 -0.019218574984577921 0 -0.29827687385039819 -0.030032388228296999 0 -0.30868008975053679 -0.02971665335758325 0 -0.29175222203181977 -0.022803280208201122 0 -0.30417398276235003 -0.019218574984577921 0 -0.29827687385039819 -0.030032388228296999 0 -0.30417398276235003 -0.019218574984577921 0 -0.30868008975053679 -0.02971665335758325 0 -0.31720209072894218 -0.024058493162663279 0 -0.30417398276235003 -0.019218574984577921 0 -0.31350486428597168 -0.010952588748162181 0 -0.31720209072894218 -0.024058493162663279 0 -0.30417398276235003 -0.019218574984577921 0 -0.30585971326432582 -0.0083758810737886834 0 -0.31350486428597168 -0.010952588748162181 0 -0.30585971326432582 -0.0083758810737886834 0 -0.31050293175726001 -0.0045374794725471269 0 -0.31350486428597168 -0.010952588748162181 0 -0.31050293175726001 -0.0045374794725471269 0 -0.30464292602730408 0.00080418690247109799 0 -0.31800422345143847 0.00037436502929125799 0 -0.30585971326432582 -0.0083758810737886834 0 -0.31050293175726001 -0.0045374794725471269 0 -0.30464292602730408 0.00080418690247109799 0 -0.30585971326432582 -0.0083758810737886834 0 -0.29744749907900719 -0.011313064093400131 0 -0.30464292602730408 0.00080418690247109799 0 -0.30417398276235003 -0.019218574984577921 0 -0.30585971326432582 -0.0083758810737886834 0 -0.29744749907900719 -0.011313064093400131 0 -0.30203877052231032 -0.052792781657539548 0 -0.30761843971034131 -0.04586492845381928 0 -0.29685337539963719 -0.045768237922710488 0 -0.29818611099959719 -0.060617270195454057 0 -0.30808078837497432 -0.060349139806054608 0 -0.30199290267118939 -0.066358187361428178 0 -0.30203877052231032 -0.052792781657539548 0 -0.29818611099959719 -0.060617270195454057 0 -0.2913986854121155 -0.054193039556278827 0 -0.30203877052231032 -0.052792781657539548 0 -0.29818611099959719 -0.060617270195454057 0 -0.30808078837497432 -0.060349139806054608 0 -0.30203877052231032 -0.052792781657539548 0 -0.30808078837497432 -0.060349139806054608 0 -0.31512163107114982 -0.051022841404941371 0 -0.30203877052231032 -0.052792781657539548 0 -0.30761843971034131 -0.04586492845381928 0 -0.31512163107114982 -0.051022841404941371 0 -0.30761843971034131 -0.04586492845381928 0 -0.30313275672741369 -0.037790063925319813 0 -0.31646027977837021 -0.037986693334049672 0 -0.30868008975053679 -0.02971665335758325 0 -0.30313275672741369 -0.037790063925319813 0 -0.31646027977837021 -0.037986693334049672 0 -0.29827687385039819 -0.030032388228296999 0 -0.30868008975053679 -0.02971665335758325 0 -0.30313275672741369 -0.037790063925319813 0 -0.29827687385039819 -0.030032388228296999 0 -0.30313275672741369 -0.037790063925319813 0 -0.29035697168298702 -0.036300130378090427 0 -0.30761843971034131 -0.04586492845381928 0 -0.30313275672741369 -0.037790063925319813 0 -0.29685337539963719 -0.045768237922710488 0 -0.29685337539963719 -0.045768237922710488 0 -0.29035697168298702 -0.036300130378090427 0 -0.28767750391676311 -0.046215418839919711 0 -0.30313275672741369 -0.037790063925319813 0 -0.29685337539963719 -0.045768237922710488 0 -0.29035697168298702 -0.036300130378090427 0 -0.27993537768371551 -0.029277082582652981 0 -0.29035697168298702 -0.036300130378090427 0 -0.27972275563510052 -0.041533494838674252 0 -0.29035697168298702 -0.036300130378090427 0 -0.28767750391676311 -0.046215418839919711 0 -0.27972275563510052 -0.041533494838674252 0 -0.28767750391676311 -0.046215418839919711 0 -0.28005573145397539 -0.053282191503844577 0 -0.27972275563510052 -0.041533494838674252 0 -0.28767750391676311 -0.046215418839919711 0 -0.2913986854121155 -0.054193039556278827 0 -0.28005573145397539 -0.053282191503844577 0 -0.29685337539963719 -0.045768237922710488 0 -0.28767750391676311 -0.046215418839919711 0 -0.2913986854121155 -0.054193039556278827 0 -0.30203877052231032 -0.052792781657539548 0 -0.29685337539963719 -0.045768237922710488 0 -0.2913986854121155 -0.054193039556278827 0 -0.29818611099959719 -0.060617270195454057 0 -0.29159658297350788 -0.061067110867911209 0 -0.29539746243910842 -0.065275827002812772 0 -0.29818611099959719 -0.060617270195454057 0 -0.2913986854121155 -0.054193039556278827 0 -0.29159658297350788 -0.061067110867911209 0 -0.2913986854121155 -0.054193039556278827 0 -0.29159658297350788 -0.061067110867911209 0 -0.28647732448149699 -0.058625134718300047 0 -0.28647732448149699 -0.058625134718300047 0 -0.2819697568258851 -0.059917839522372243 0 -0.28736586574200079 -0.064665492141093406 0 -0.2913986854121155 -0.054193039556278827 0 -0.28647732448149699 -0.058625134718300047 0 -0.28005573145397539 -0.053282191503844577 0 -0.29159658297350788 -0.061067110867911209 0 -0.28647732448149699 -0.058625134718300047 0 -0.28736586574200079 -0.064665492141093406 0 -0.28647732448149699 -0.058625134718300047 0 -0.2819697568258851 -0.059917839522372243 0 -0.28005573145397539 -0.053282191503844577 0 -0.27383807409101479 -0.062471841829739853 0 -0.28005573145397539 -0.053282191503844577 0 -0.2819697568258851 -0.059917839522372243 0 -0.27383807409101479 -0.062471841829739853 0 -0.28736586574200079 -0.064665492141093406 0 -0.2819697568258851 -0.059917839522372243 0 -0.27383807409101479 -0.062471841829739853 0 -0.28005573145397539 -0.053282191503844577 0 -0.27383807409101479 -0.062471841829739853 0 -0.28005573145397539 -0.053282191503844577 0 -0.27159008933200868 -0.050935816401840611 0 -0.28005573145397539 -0.053282191503844577 0 -0.27159008933200868 -0.050935816401840611 0 -0.27972275563510052 -0.041533494838674252 0 -0.27159008933200868 -0.050935816401840611 0 -0.26321730125739567 -0.046266911094741008 0 -0.26539934245599561 -0.058535312278050318 0 -0.27383807409101479 -0.062471841829739853 0 -0.26539934245599561 -0.058535312278050318 0 -0.27228988758059142 -0.064760049725333405 0 -0.27383807409101479 -0.062471841829739853 0 -0.26539934245599561 -0.058535312278050318 0 -0.27383807409101479 -0.062471841829739853 0 -0.27159008933200868 -0.050935816401840611 0 -0.26539934245599561 -0.058535312278050318 0 -0.26539934245599561 -0.058535312278050318 0 -0.27228988758059142 -0.064760049725333405 0 -0.27993537768371551 -0.029277082582652981 0 -0.27972275563510052 -0.041533494838674252 0 -0.26881319335380088 -0.03994996050952232 0 -0.27159008933200868 -0.050935816401840611 0 -0.26881319335380088 -0.03994996050952232 0 -0.26321730125739567 -0.046266911094741008 0 -0.27159008933200868 -0.050935816401840611 0 -0.27972275563510052 -0.041533494838674252 0 -0.26881319335380088 -0.03994996050952232 0 -0.26336516908667401 -0.02241631372729987 0 -0.26881319335380088 -0.03994996050952232 0 -0.25759444059757519 -0.034859945494417358 0 -0.26881319335380088 -0.03994996050952232 0 -0.26321730125739567 -0.046266911094741008 0 -0.25759444059757519 -0.034859945494417358 0 -0.26321730125739567 -0.046266911094741008 0 -0.25759444059757519 -0.034859945494417358 0 -0.25268944054759868 -0.047053520789873612 0 -0.24455394929324889 -0.036499424228045682 0 -0.25759444059757519 -0.034859945494417358 0 -0.25268944054759868 -0.047053520789873612 0 -0.25883862165671823 -0.061868545190702652 0 -0.26539934245599561 -0.058535312278050318 0 -0.26295157035783617 -0.067074125101857313 0 -0.25859836515053419 -0.055362768191897997 0 -0.25883862165671823 -0.061868545190702652 0 -0.26539934245599561 -0.058535312278050318 0 -0.25859836515053419 -0.055362768191897997 0 -0.26539934245599561 -0.058535312278050318 0 -0.25859836515053419 -0.055362768191897997 0 -0.26539934245599561 -0.058535312278050318 0 -0.25268944054759868 -0.047053520789873612 0 -0.26539934245599561 -0.058535312278050318 0 -0.25268944054759868 -0.047053520789873612 0 -0.26321730125739567 -0.046266911094741008 0 -0.26539934245599561 -0.058535312278050318 0 -0.25268944054759868 -0.047053520789873612 0 -0.24846099788831619 -0.053977821433680247 0 -0.25859836515053419 -0.055362768191897997 0 -0.25268944054759868 -0.047053520789873612 0 -0.24846099788831619 -0.053977821433680247 0 -0.25859836515053419 -0.055362768191897997 0 -0.2531370331241472 -0.060476090224473228 0 -0.25859836515053419 -0.055362768191897997 0 -0.25883862165671823 -0.061868545190702652 0 -0.2531370331241472 -0.060476090224473228 0 -0.2531370331241472 -0.060476090224473228 0 -0.25024480965728291 -0.064690907136105272 0 -0.25410679719507839 -0.067894430157233496 0 -0.24121532486973199 -0.073531373669831979 0 -0.26485359756931298 -0.075750829843365924 0 -0.25533347010654661 -0.080097302684604632 0 -0.24121532486973199 -0.073531373669831979 0 -0.25410679719507839 -0.067894430157233496 0 -0.26485359756931298 -0.075750829843365924 0 -0.24121532486973199 -0.073531373669831979 0 -0.26485359756931298 -0.075750829843365924 0 -0.24720656655496381 -0.068274509552894186 0 -0.25024480965728291 -0.064690907136105272 0 -0.25410679719507839 -0.067894430157233496 0 -0.25883862165671823 -0.061868545190702652 0 -0.2531370331241472 -0.060476090224473228 0 -0.25410679719507839 -0.067894430157233496 0 -0.25883862165671823 -0.061868545190702652 0 -0.25410679719507839 -0.067894430157233496 0 -0.26295157035783617 -0.067074125101857313 0 -0.25410679719507839 -0.067894430157233496 0 -0.26295157035783617 -0.067074125101857313 0 -0.26485359756931298 -0.075750829843365924 0 -0.26485359756931298 -0.075750829843365924 0 -0.25396267323909438 -0.091847533228253647 0 -0.2464857450906428 -0.078799841592908801 0 -0.24836033993735729 -0.0821526296178757 0 -0.25533347010654661 -0.080097302684604632 0 -0.26485359756931298 -0.075750829843365924 0 -0.25533347010654661 -0.080097302684604632 0 -0.25396267323909438 -0.091847533228253647 0 -0.25396267323909438 -0.091847533228253647 0 -0.27054623600833061 -0.083012137012561882 0 -0.25396267323909438 -0.091847533228253647 0 -0.27054623600833061 -0.083012137012561882 0 -0.26662136533568409 -0.095626291298684316 0 -0.26485359756931298 -0.075750829843365924 0 -0.25396267323909438 -0.091847533228253647 0 -0.27054623600833061 -0.083012137012561882 0 -0.24836033993735729 -0.0821526296178757 0 -0.25533347010654661 -0.080097302684604632 0 -0.25080385271298261 -0.086164853568068411 0 -0.25533347010654661 -0.080097302684604632 0 -0.25080385271298261 -0.086164853568068411 0 -0.25396267323909438 -0.091847533228253647 0 -0.24631505396097481 -0.089176655310370542 0 -0.25080385271298261 -0.086164853568068411 0 -0.25396267323909438 -0.091847533228253647 0 -0.27054623600833061 -0.083012137012561882 0 -0.2867299897500501 -0.07780485867606865 0 -0.28126877342018158 -0.087679243180768904 0 -0.26485359756931298 -0.075750829843365924 0 -0.27054623600833061 -0.083012137012561882 0 -0.2867299897500501 -0.07780485867606865 0 -0.27054623600833061 -0.083012137012561882 0 -0.27528599811465881 -0.093357797899983191 0 -0.26662136533568409 -0.095626291298684316 0 -0.27054623600833061 -0.083012137012561882 0 -0.27528599811465881 -0.093357797899983191 0 -0.28126877342018158 -0.087679243180768904 0 -0.27528599811465881 -0.093357797899983191 0 -0.2837143810928735 -0.096185083881864308 0 -0.28126877342018158 -0.087679243180768904 0 -0.26485359756931298 -0.075750829843365924 0 -0.27228988758059142 -0.064760049725333405 0 -0.2867299897500501 -0.07780485867606865 0 -0.27228988758059142 -0.064760049725333405 0 -0.2867299897500501 -0.07780485867606865 0 -0.26485359756931298 -0.075750829843365924 0 -0.2867299897500501 -0.07780485867606865 0 -0.27383807409101479 -0.062471841829739853 0 -0.27228988758059142 -0.064760049725333405 0 -0.2867299897500501 -0.07780485867606865 0 -0.26539934245599561 -0.058535312278050318 0 -0.26295157035783617 -0.067074125101857313 0 -0.27228988758059142 -0.064760049725333405 0 -0.26295157035783617 -0.067074125101857313 0 -0.26485359756931298 -0.075750829843365924 0 -0.27228988758059142 -0.064760049725333405 0 -0.26485359756931298 -0.075750829843365924 0 -0.27228988758059142 -0.064760049725333405 0 -0.27383807409101479 -0.062471841829739853 0 -0.27228988758059142 -0.064760049725333405 0 -0.2572974049490574 -0.1243517742112923 0 -0.2670639227585056 -0.1163347544349653 0 -0.27199264417346192 -0.13361772844391509 0 -0.2572974049490574 -0.1243517742112923 0 -0.25512470820440092 -0.11284709536980329 0 -0.2670639227585056 -0.1163347544349653 0 -0.24700144371182431 -0.1205517999847413 0 -0.2572974049490574 -0.1243517742112923 0 -0.25512470820440092 -0.11284709536980329 0 -0.25512470820440092 -0.11284709536980329 0 -0.26194314538610802 -0.10503393639020631 0 -0.2670639227585056 -0.1163347544349653 0 -0.26194314538610802 -0.10503393639020631 0 -0.25416101504085692 -0.1028446311457844 0 -0.25917204975043578 -0.098838098015732151 0 -0.25512470820440092 -0.11284709536980329 0 -0.26194314538610802 -0.10503393639020631 0 -0.25416101504085692 -0.1028446311457844 0 -0.24372994401792211 -0.1069714292445017 0 -0.25512470820440092 -0.11284709536980329 0 -0.25416101504085692 -0.1028446311457844 0 -0.25396267323909438 -0.091847533228253647 0 -0.25416101504085692 -0.1028446311457844 0 -0.25917204975043578 -0.098838098015732151 0 -0.24372994401792211 -0.1069714292445017 0 -0.25396267323909438 -0.091847533228253647 0 -0.25416101504085692 -0.1028446311457844 0 -0.26194314538610802 -0.10503393639020631 0 -0.25917204975043578 -0.098838098015732151 0 -0.26662136533568409 -0.095626291298684316 0 -0.25396267323909438 -0.091847533228253647 0 -0.25917204975043578 -0.098838098015732151 0 -0.26662136533568409 -0.095626291298684316 0 -0.27528599811465881 -0.093357797899983191 0 -0.26662136533568409 -0.095626291298684316 0 -0.27427923471622417 -0.1042862341260366 0 -0.27528599811465881 -0.093357797899983191 0 -0.27427923471622417 -0.1042862341260366 0 -0.2837143810928735 -0.096185083881864308 0 -0.26194314538610802 -0.10503393639020631 0 -0.26662136533568409 -0.095626291298684316 0 -0.27427923471622417 -0.1042862341260366 0 -0.26194314538610802 -0.10503393639020631 0 -0.27427923471622417 -0.1042862341260366 0 -0.2670639227585056 -0.1163347544349653 0 -0.2670639227585056 -0.1163347544349653 0 -0.28174639912178151 -0.1178717580685382 0 -0.27199264417346192 -0.13361772844391509 0 -0.27427923471622417 -0.1042862341260366 0 -0.28174639912178151 -0.1178717580685382 0 -0.28673655320141811 -0.10659246814687739 0 -0.27427923471622417 -0.1042862341260366 0 -0.2670639227585056 -0.1163347544349653 0 -0.28174639912178151 -0.1178717580685382 0 -0.28174639912178151 -0.1178717580685382 0 -0.29770805701214381 -0.1139602483082842 0 -0.29281587701708961 -0.1343833721279174 0 -0.28174639912178151 -0.1178717580685382 0 -0.28673655320141811 -0.10659246814687739 0 -0.29770805701214381 -0.1139602483082842 0 -0.28673655320141811 -0.10659246814687739 0 -0.29623469406406738 -0.1006590163496635 0 -0.29770805701214381 -0.1139602483082842 0 -0.27427923471622417 -0.1042862341260366 0 -0.28673655320141811 -0.10659246814687739 0 -0.2837143810928735 -0.096185083881864308 0 -0.28673655320141811 -0.10659246814687739 0 -0.2837143810928735 -0.096185083881864308 0 -0.29623469406406738 -0.1006590163496635 0 -0.2837143810928735 -0.096185083881864308 0 -0.29623469406406738 -0.1006590163496635 0 -0.28992851158577021 -0.090730360916199571 0 -0.29623469406406738 -0.1006590163496635 0 -0.28992851158577021 -0.090730360916199571 0 -0.30169471960167799 -0.091323602492633174 0 -0.29623469406406738 -0.1006590163496635 0 -0.30169471960167799 -0.091323602492633174 0 -0.31665944945330649 -0.104842346309197 0 -0.29623469406406738 -0.1006590163496635 0 -0.29770805701214381 -0.1139602483082842 0 -0.31665944945330649 -0.104842346309197 0 -0.30169471960167799 -0.091323602492633174 0 -0.31665944945330649 -0.104842346309197 0 -0.31020590029444078 -0.1223007067826585 0 -0.29770805701214381 -0.1139602483082842 0 -0.29281587701708961 -0.1343833721279174 0 -0.31020590029444078 -0.1223007067826585 0 -0.29770805701214381 -0.1139602483082842 0 -0.31665944945330649 -0.104842346309197 0 -0.27383807409101479 -0.062471841829739853 0 -0.28736586574200079 -0.064665492141093406 0 -0.29784584980924628 -0.073671074448177026 0 -0.27383807409101479 -0.062471841829739853 0 -0.2867299897500501 -0.07780485867606865 0 -0.29784584980924628 -0.073671074448177026 0 -0.27383807409101479 -0.062471841829739853 0 -0.29784584980924628 -0.073671074448177026 0 -0.2867299897500501 -0.07780485867606865 0 -0.30115444169810379 -0.079159206319520128 0 -0.29784584980924628 -0.073671074448177026 0 -0.29159658297350788 -0.061067110867911209 0 -0.29539746243910842 -0.065275827002812772 0 -0.28736586574200079 -0.064665492141093406 0 -0.29539746243910842 -0.065275827002812772 0 -0.28736586574200079 -0.064665492141093406 0 -0.29784584980924628 -0.073671074448177026 0 -0.2867299897500501 -0.07780485867606865 0 -0.28126877342018158 -0.087679243180768904 0 -0.28992851158577021 -0.090730360916199571 0 -0.2837143810928735 -0.096185083881864308 0 -0.28126877342018158 -0.087679243180768904 0 -0.28992851158577021 -0.090730360916199571 0 -0.2867299897500501 -0.07780485867606865 0 -0.28992851158577021 -0.090730360916199571 0 -0.30169471960167799 -0.091323602492633174 0 -0.2867299897500501 -0.07780485867606865 0 -0.30115444169810379 -0.079159206319520128 0 -0.30169471960167799 -0.091323602492633174 0 -0.2867299897500501 -0.07780485867606865 0 -0.30169471960167799 -0.091323602492633174 0 -0.2867299897500501 -0.07780485867606865 0 -0.30115444169810379 -0.079159206319520128 0 -0.30115444169810379 -0.079159206319520128 0 -0.29784584980924628 -0.073671074448177026 0 -0.32185362552747793 -0.084870307066613804 0 -0.29784584980924628 -0.073671074448177026 0 -0.32185362552747793 -0.084870307066613804 0 -0.30115444169810379 -0.079159206319520128 0 -0.30169471960167799 -0.091323602492633174 0 -0.32185362552747793 -0.084870307066613804 0 -0.29784584980924628 -0.073671074448177026 0 -0.3124367732289281 -0.069998114348299029 0 -0.32185362552747793 -0.084870307066613804 0 -0.29539746243910842 -0.065275827002812772 0 -0.29784584980924628 -0.073671074448177026 0 -0.30199290267118939 -0.066358187361428178 0 -0.29784584980924628 -0.073671074448177026 0 -0.30199290267118939 -0.066358187361428178 0 -0.3124367732289281 -0.069998114348299029 0 -0.29818611099959719 -0.060617270195454057 0 -0.29539746243910842 -0.065275827002812772 0 -0.30199290267118939 -0.066358187361428178 0 -0.30808078837497432 -0.060349139806054608 0 -0.30199290267118939 -0.066358187361428178 0 -0.3124367732289281 -0.069998114348299029 0 -0.30808078837497432 -0.060349139806054608 0 -0.3124367732289281 -0.069998114348299029 0 -0.32230233763581151 -0.061182055278555608 0 -0.3124367732289281 -0.069998114348299029 0 -0.32243368884480261 -0.071633178708387035 0 -0.32230233763581151 -0.061182055278555608 0 -0.32243368884480261 -0.071633178708387035 0 -0.33314201898699308 -0.0704822381400797 0 -0.32230233763581151 -0.061182055278555608 0 -0.32243368884480261 -0.071633178708387035 0 -0.32185362552747793 -0.084870307066613804 0 -0.33314201898699308 -0.0704822381400797 0 -0.3124367732289281 -0.069998114348299029 0 -0.32243368884480261 -0.071633178708387035 0 -0.32185362552747793 -0.084870307066613804 0 -0.30169471960167799 -0.091323602492633174 0 -0.32185362552747793 -0.084870307066613804 0 -0.31665944945330649 -0.104842346309197 0 -0.32185362552747793 -0.084870307066613804 0 -0.34586140124570952 -0.096069539685050553 0 -0.32185362552747793 -0.084870307066613804 0 -0.34143269263996479 -0.080437270276784961 0 -0.34586140124570952 -0.096069539685050553 0 -0.32185362552747793 -0.084870307066613804 0 -0.34143269263996479 -0.080437270276784961 0 -0.33314201898699308 -0.0704822381400797 0 -0.32185362552747793 -0.084870307066613804 0 -0.33155619401235698 -0.098997268578744482 0 -0.34586140124570952 -0.096069539685050553 0 -0.33314201898699308 -0.0704822381400797 0 -0.32230233763581151 -0.061182055278555608 0 -0.3392446953782865 -0.056720499856252063 0 -0.33314201898699308 -0.0704822381400797 0 -0.35215004413143192 -0.067750125511625986 0 -0.3392446953782865 -0.056720499856252063 0 -0.34143269263996479 -0.080437270276784961 0 -0.33314201898699308 -0.0704822381400797 0 -0.35215004413143192 -0.067750125511625986 0 -0.31020590029444078 -0.1223007067826585 0 -0.31665944945330649 -0.104842346309197 0 -0.33162417930493571 -0.1183610901257599 0 -0.31665944945330649 -0.104842346309197 0 -0.33200868846753701 -0.1075592436300198 0 -0.33162417930493571 -0.1183610901257599 0 -0.31665944945330649 -0.104842346309197 0 -0.33162417930493571 -0.1183610901257599 0 -0.32185362552747793 -0.084870307066613804 0 -0.31665944945330649 -0.104842346309197 0 -0.33155619401235698 -0.098997268578744482 0 -0.31665944945330649 -0.104842346309197 0 -0.33155619401235698 -0.098997268578744482 0 -0.33200868846753701 -0.1075592436300198 0 -0.33155619401235698 -0.098997268578744482 0 -0.34270786814959109 -0.1060245484991322 0 -0.34586140124570952 -0.096069539685050553 0 -0.33155619401235698 -0.098997268578744482 0 -0.34270786814959109 -0.1060245484991322 0 -0.33200868846753701 -0.1075592436300198 0 -0.34270786814959109 -0.1060245484991322 0 -0.33200868846753701 -0.1075592436300198 0 -0.33162417930493571 -0.1183610901257599 0 -0.34270786814959109 -0.1060245484991322 0 -0.33162417930493571 -0.1183610901257599 0 -0.34270786814959109 -0.1060245484991322 0 -0.3418966595306776 -0.1166261352256648 0 -0.33162417930493571 -0.1183610901257599 0 -0.3418966595306776 -0.1166261352256648 0 -0.33868769426367401 -0.1247420839771979 0 -0.33162417930493571 -0.1183610901257599 0 -0.3418966595306776 -0.1166261352256648 0 -0.33868769426367401 -0.1247420839771979 0 -0.3472223384570407 -0.12170132815957579 0 -0.33868769426367401 -0.1247420839771979 0 -0.33162417930493571 -0.1183610901257599 0 -0.3472223384570407 -0.12170132815957579 0 -0.35988166893383672 -0.12163115697077059 0 -0.35114797256527192 -0.12989338382384899 0 -0.3472223384570407 -0.12170132815957579 0 -0.3512398522134661 -0.11155358014061351 0 -0.35988166893383672 -0.12163115697077059 0 -0.34270786814959109 -0.1060245484991322 0 -0.3418966595306776 -0.1166261352256648 0 -0.3512398522134661 -0.11155358014061351 0 -0.3418966595306776 -0.1166261352256648 0 -0.3472223384570407 -0.12170132815957579 0 -0.3512398522134661 -0.11155358014061351 0 -0.34586140124570952 -0.096069539685050553 0 -0.36986917696394112 -0.1072687723034873 0 -0.36223469653247059 -0.093075199474969075 0 -0.3512398522134661 -0.11155358014061351 0 -0.34586140124570952 -0.096069539685050553 0 -0.36986917696394112 -0.1072687723034873 0 -0.34586140124570952 -0.096069539685050553 0 -0.36986917696394112 -0.1072687723034873 0 -0.34270786814959109 -0.1060245484991322 0 -0.3512398522134661 -0.11155358014061351 0 -0.34586140124570952 -0.096069539685050553 0 -0.37254702165361481 -0.094453154848385179 0 -0.36986917696394112 -0.1072687723034873 0 -0.36223469653247059 -0.093075199474969075 0 -0.3512398522134661 -0.11155358014061351 0 -0.36986917696394112 -0.1072687723034873 0 -0.35988166893383672 -0.12163115697077059 0 -0.36986917696394112 -0.1072687723034873 0 -0.37469506225613652 -0.1239532177657803 0 -0.35988166893383672 -0.12163115697077059 0 -0.35215004413143192 -0.067750125511625986 0 -0.35455639799272048 -0.083296656057509216 0 -0.36264949359775428 -0.077552613846828461 0 -0.34143269263996479 -0.080437270276784961 0 -0.35215004413143192 -0.067750125511625986 0 -0.35455639799272048 -0.083296656057509216 0 -0.34143269263996479 -0.080437270276784961 0 -0.34586140124570952 -0.096069539685050553 0 -0.35455639799272048 -0.083296656057509216 0 -0.34586140124570952 -0.096069539685050553 0 -0.35455639799272048 -0.083296656057509216 0 -0.36223469653247059 -0.093075199474969075 0 -0.35455639799272048 -0.083296656057509216 0 -0.36983989846659687 -0.084117297864896134 0 -0.36264949359775428 -0.077552613846828461 0 -0.35455639799272048 -0.083296656057509216 0 -0.36223469653247059 -0.093075199474969075 0 -0.36983989846659687 -0.084117297864896134 0 -0.37254702165361481 -0.094453154848385179 0 -0.36223469653247059 -0.093075199474969075 0 -0.36983989846659687 -0.084117297864896134 0 -0.37254702165361481 -0.094453154848385179 0 -0.36983989846659687 -0.084117297864896134 0 -0.3803385567372764 -0.088319055883598105 0 -0.36983989846659687 -0.084117297864896134 0 -0.37367540951124961 -0.07241881559753717 0 -0.38026999091325903 -0.078935168810278067 0 -0.36983989846659687 -0.084117297864896134 0 -0.37367540951124961 -0.07241881559753717 0 -0.36264949359775428 -0.077552613846828461 0 -0.37367540951124961 -0.07241881559753717 0 -0.36264949359775428 -0.077552613846828461 0 -0.36652885076777458 -0.06855489602988582 0 -0.35215004413143192 -0.067750125511625986 0 -0.36264949359775428 -0.077552613846828461 0 -0.36652885076777458 -0.06855489602988582 0 -0.36652885076777458 -0.06855489602988582 0 -0.37113265406072049 -0.064552487381263846 0 -0.36246790775047161 -0.0606933403211527 0 -0.35215004413143192 -0.067750125511625986 0 -0.36652885076777458 -0.06855489602988582 0 -0.36246790775047161 -0.0606933403211527 0 -0.37367540951124961 -0.07241881559753717 0 -0.36652885076777458 -0.06855489602988582 0 -0.37113265406072049 -0.064552487381263846 0 -0.371219239290419 -0.056883170543900408 0 -0.37139958221676461 -0.044031696238546428 0 -0.38214055169650618 -0.064642048278483313 0 -0.37113265406072049 -0.064552487381263846 0 -0.371219239290419 -0.056883170543900408 0 -0.38214055169650618 -0.064642048278483313 0 -0.37113265406072049 -0.064552487381263846 0 -0.371219239290419 -0.056883170543900408 0 -0.36246790775047161 -0.0606933403211527 0 -0.371219239290419 -0.056883170543900408 0 -0.35654707973373673 -0.051833101687894942 0 -0.37139958221676461 -0.044031696238546428 0 -0.371219239290419 -0.056883170543900408 0 -0.36246790775047161 -0.0606933403211527 0 -0.35654707973373673 -0.051833101687894942 0 -0.35654707973373673 -0.051833101687894942 0 -0.3392446953782865 -0.056720499856252063 0 -0.3431108456539691 -0.042057072858378931 0 -0.35215004413143192 -0.067750125511625986 0 -0.35654707973373673 -0.051833101687894942 0 -0.3392446953782865 -0.056720499856252063 0 -0.35215004413143192 -0.067750125511625986 0 -0.36246790775047161 -0.0606933403211527 0 -0.35654707973373673 -0.051833101687894942 0 -0.35552839478311288 -0.037869977414133449 0 -0.346671348231194 -0.029669028949958889 0 -0.3431108456539691 -0.042057072858378931 0 -0.35654707973373673 -0.051833101687894942 0 -0.35552839478311288 -0.037869977414133449 0 -0.3431108456539691 -0.042057072858378931 0 -0.37139958221676461 -0.044031696238546428 0 -0.3606586127370231 -0.023421344198609442 0 -0.35654707973373673 -0.051833101687894942 0 -0.35552839478311288 -0.037869977414133449 0 -0.37139958221676461 -0.044031696238546428 0 -0.35552839478311288 -0.037869977414133449 0 -0.37139958221676461 -0.044031696238546428 0 -0.3606586127370231 -0.023421344198609442 0 -0.3606586127370231 -0.023421344198609442 0 -0.36848648692226638 -0.011058815079748549 0 -0.3783112042546668 -0.02240315150685588 0 -0.37139958221676461 -0.044031696238546428 0 -0.3606586127370231 -0.023421344198609442 0 -0.3783112042546668 -0.02240315150685588 0 -0.3606586127370231 -0.023421344198609442 0 -0.36848648692226638 -0.011058815079748549 0 -0.35431291256067188 -0.0070001533375129051 0 -0.36848648692226638 -0.011058815079748549 0 -0.3808204899099874 -0.0031860702741812281 0 -0.36457784417838562 0.001044263584331449 0 -0.36848648692226638 -0.011058815079748549 0 -0.35431291256067188 -0.0070001533375129051 0 -0.36457784417838562 0.001044263584331449 0 -0.3606586127370231 -0.023421344198609442 0 -0.35431291256067188 -0.0070001533375129051 0 -0.34179635408094527 -0.01541701315804698 0 -0.35431291256067188 -0.0070001533375129051 0 -0.34179635408094527 -0.01541701315804698 0 -0.34222897702701371 0.0021564326969536521 0 -0.35431291256067188 -0.0070001533375129051 0 -0.3547260469056448 0.0055725142601272823 0 -0.36457784417838562 0.001044263584331449 0 -0.3606586127370231 -0.023421344198609442 0 -0.346671348231194 -0.029669028949958889 0 -0.34179635408094527 -0.01541701315804698 0 -0.35552839478311288 -0.037869977414133449 0 -0.3606586127370231 -0.023421344198609442 0 -0.346671348231194 -0.029669028949958889 0 -0.346671348231194 -0.029669028949958889 0 -0.33226253390091959 -0.02957973712062564 0 -0.34179635408094527 -0.01541701315804698 0 -0.33226253390091959 -0.02957973712062564 0 -0.34179635408094527 -0.01541701315804698 0 -0.32548678213511312 -0.01335665344170686 0 -0.34179635408094527 -0.01541701315804698 0 -0.32994479933062693 -0.001554818251230301 0 -0.34222897702701371 0.0021564326969536521 0 -0.34179635408094527 -0.01541701315804698 0 -0.32994479933062693 -0.001554818251230301 0 -0.32548678213511312 -0.01335665344170686 0 -0.32994479933062693 -0.001554818251230301 0 -0.32548678213511312 -0.01335665344170686 0 -0.31800422345143847 0.00037436502929125799 0 -0.32548678213511312 -0.01335665344170686 0 -0.31350486428597168 -0.010952588748162181 0 -0.31800422345143847 0.00037436502929125799 0 -0.31050293175726001 -0.0045374794725471269 0 -0.31350486428597168 -0.010952588748162181 0 -0.31800422345143847 0.00037436502929125799 0 -0.33226253390091959 -0.02957973712062564 0 -0.32548678213511312 -0.01335665344170686 0 -0.31720209072894218 -0.024058493162663279 0 -0.33226253390091959 -0.02957973712062564 0 -0.31720209072894218 -0.024058493162663279 0 -0.31646027977837021 -0.037986693334049672 0 -0.32548678213511312 -0.01335665344170686 0 -0.31350486428597168 -0.010952588748162181 0 -0.31720209072894218 -0.024058493162663279 0 -0.30868008975053679 -0.02971665335758325 0 -0.31720209072894218 -0.024058493162663279 0 -0.31646027977837021 -0.037986693334049672 0 -0.33226253390091959 -0.02957973712062564 0 -0.31646027977837021 -0.037986693334049672 0 -0.32861587081228533 -0.047300920737931587 0 -0.31646027977837021 -0.037986693334049672 0 -0.31512163107114982 -0.051022841404941371 0 -0.32861587081228533 -0.047300920737931587 0 -0.30761843971034131 -0.04586492845381928 0 -0.31646027977837021 -0.037986693334049672 0 -0.31512163107114982 -0.051022841404941371 0 -0.30808078837497432 -0.060349139806054608 0 -0.31512163107114982 -0.051022841404941371 0 -0.32230233763581151 -0.061182055278555608 0 -0.31512163107114982 -0.051022841404941371 0 -0.32230233763581151 -0.061182055278555608 0 -0.32861587081228533 -0.047300920737931587 0 -0.32230233763581151 -0.061182055278555608 0 -0.32861587081228533 -0.047300920737931587 0 -0.3392446953782865 -0.056720499856252063 0 -0.32861587081228533 -0.047300920737931587 0 -0.3392446953782865 -0.056720499856252063 0 -0.3431108456539691 -0.042057072858378931 0 -0.33226253390091959 -0.02957973712062564 0 -0.32861587081228533 -0.047300920737931587 0 -0.3431108456539691 -0.042057072858378931 0 -0.346671348231194 -0.029669028949958889 0 -0.33226253390091959 -0.02957973712062564 0 -0.3431108456539691 -0.042057072858378931 0 -0.30403873960416522 -0.25992880783821931 0 -0.31184112631499722 -0.23694051566600499 0 -0.29302185169161937 -0.23374666861530821 0 -0.31184112631499722 -0.23694051566600499 0 -0.29302185169161937 -0.23374666861530821 0 -0.31186134660433679 -0.21688289558255069 0 -0.29302185169161937 -0.23374666861530821 0 -0.29350965049235328 -0.21221574172016119 0 -0.31186134660433679 -0.21688289558255069 0 -0.29302185169161937 -0.23374666861530821 0 -0.27318185143058332 -0.2274452532761472 0 -0.29350965049235328 -0.21221574172016119 0 -0.30403873960416522 -0.25992880783821931 0 -0.29302185169161937 -0.23374666861530821 0 -0.28191573780031948 -0.24961119708936949 0 -0.29302185169161937 -0.23374666861530821 0 -0.28191573780031948 -0.24961119708936949 0 -0.27318185143058332 -0.2274452532761472 0 -0.28191573780031948 -0.24961119708936949 0 -0.25346419334368148 -0.24821555279875021 0 -0.27318185143058332 -0.2274452532761472 0 -0.25346419334368148 -0.24821555279875021 0 -0.25058635712221711 -0.2189374614689433 0 -0.27318185143058332 -0.2274452532761472 0 -0.25058635712221711 -0.2189374614689433 0 -0.27318185143058332 -0.2274452532761472 0 -0.27324518785734098 -0.20482918950366599 0 -0.27318185143058332 -0.2274452532761472 0 -0.27324518785734098 -0.20482918950366599 0 -0.29350965049235328 -0.21221574172016119 0 -0.25058635712221711 -0.2189374614689433 0 -0.27324518785734098 -0.20482918950366599 0 -0.25209658637131283 -0.19166369008343151 0 -0.27324518785734098 -0.20482918950366599 0 -0.29558910481668321 -0.19010105587476539 0 -0.27341745744431373 -0.18314725087488259 0 -0.27324518785734098 -0.20482918950366599 0 -0.25209658637131283 -0.19166369008343151 0 -0.27341745744431373 -0.18314725087488259 0 -0.27324518785734098 -0.20482918950366599 0 -0.29558910481668321 -0.19010105587476539 0 -0.29350965049235328 -0.21221574172016119 0 -0.29350965049235328 -0.21221574172016119 0 -0.31186134660433679 -0.21688289558255069 0 -0.31403177662214671 -0.19671907299209959 0 -0.29558910481668321 -0.19010105587476539 0 -0.3182740058051915 -0.17780905465393079 0 -0.31403177662214671 -0.19671907299209959 0 -0.29558910481668321 -0.19010105587476539 0 -0.29350965049235328 -0.21221574172016119 0 -0.31403177662214671 -0.19671907299209959 0 -0.29558910481668321 -0.19010105587476539 0 -0.29281969806452102 -0.1615518639585084 0 -0.3182740058051915 -0.17780905465393079 0 -0.29281969806452102 -0.1615518639585084 0 -0.32366132924779578 -0.15737329769446351 0 -0.3182740058051915 -0.17780905465393079 0 -0.29558910481668321 -0.19010105587476539 0 -0.29281969806452102 -0.1615518639585084 0 -0.27341745744431373 -0.18314725087488259 0 -0.29281969806452102 -0.1615518639585084 0 -0.27341745744431373 -0.18314725087488259 0 -0.24286947140217 -0.1702673360026199 0 -0.25209658637131283 -0.19166369008343151 0 -0.26369810320412501 -0.16521967912572971 0 -0.25209658637131283 -0.19166369008343151 0 -0.27341745744431373 -0.18314725087488259 0 -0.26369810320412501 -0.16521967912572971 0 -0.24286947140217 -0.1702673360026199 0 -0.2459939955575822 -0.15311321343151971 0 -0.26369810320412501 -0.16521967912572971 0 -0.29281969806452102 -0.1615518639585084 0 -0.27341745744431373 -0.18314725087488259 0 -0.26369810320412501 -0.16521967912572971 0 -0.29281969806452102 -0.1615518639585084 0 -0.26369810320412501 -0.16521967912572971 0 -0.27716382579177168 -0.14966204650320339 0 -0.26369810320412501 -0.16521967912572971 0 -0.27716382579177168 -0.14966204650320339 0 -0.2615256877972042 -0.14713235302594219 0 -0.27716382579177168 -0.14966204650320339 0 -0.2615256877972042 -0.14713235302594219 0 -0.27199264417346192 -0.13361772844391509 0 -0.2459939955575822 -0.15311321343151971 0 -0.26369810320412501 -0.16521967912572971 0 -0.2615256877972042 -0.14713235302594219 0 -0.2615256877972042 -0.14713235302594219 0 -0.25055362556030181 -0.14063164118122709 0 -0.26003541848970052 -0.135352235462988 0 -0.2459939955575822 -0.15311321343151971 0 -0.2615256877972042 -0.14713235302594219 0 -0.25055362556030181 -0.14063164118122709 0 -0.2478913060897347 -0.13077121808410791 0 -0.2572974049490574 -0.1243517742112923 0 -0.26003541848970052 -0.135352235462988 0 -0.2478913060897347 -0.13077121808410791 0 -0.24700144371182431 -0.1205517999847413 0 -0.2572974049490574 -0.1243517742112923 0 -0.2478913060897347 -0.13077121808410791 0 -0.25055362556030181 -0.14063164118122709 0 -0.26003541848970052 -0.135352235462988 0 -0.2615256877972042 -0.14713235302594219 0 -0.26003541848970052 -0.135352235462988 0 -0.27199264417346192 -0.13361772844391509 0 -0.2572974049490574 -0.1243517742112923 0 -0.26003541848970052 -0.135352235462988 0 -0.27199264417346192 -0.13361772844391509 0 -0.27716382579177168 -0.14966204650320339 0 -0.27199264417346192 -0.13361772844391509 0 -0.29281587701708961 -0.1343833721279174 0 -0.28174639912178151 -0.1178717580685382 0 -0.27199264417346192 -0.13361772844391509 0 -0.29281587701708961 -0.1343833721279174 0 -0.29281969806452102 -0.1615518639585084 0 -0.27716382579177168 -0.14966204650320339 0 -0.29281587701708961 -0.1343833721279174 0 -0.29281969806452102 -0.1615518639585084 0 -0.31222193868472842 -0.13995647704213421 0 -0.32366132924779578 -0.15737329769446351 0 -0.29281969806452102 -0.1615518639585084 0 -0.31222193868472842 -0.13995647704213421 0 -0.29281969806452102 -0.1615518639585084 0 -0.29281587701708961 -0.1343833721279174 0 -0.31222193868472842 -0.13995647704213421 0 -0.31020590029444078 -0.1223007067826585 0 -0.29281587701708961 -0.1343833721279174 0 -0.31222193868472842 -0.13995647704213421 0 -0.33162417930493571 -0.1183610901257599 0 -0.31222193868472842 -0.13995647704213421 0 -0.31020590029444078 -0.1223007067826585 0 -0.33162417930493571 -0.1183610901257599 0 -0.31222193868472842 -0.13995647704213421 0 -0.33162417930493571 -0.1183610901257599 0 -0.31222193868472842 -0.13995647704213421 0 -0.33049409831663012 -0.13716732274640869 0 -0.31222193868472842 -0.13995647704213421 0 -0.33049409831663012 -0.13716732274640869 0 -0.32366132924779578 -0.15737329769446351 0 -0.33049409831663012 -0.13716732274640869 0 -0.34643986336936822 -0.14361145539454839 0 -0.32366132924779578 -0.15737329769446351 0 -0.34643986336936822 -0.14361145539454839 0 -0.34343983828518188 -0.16538993218481021 0 -0.32366132924779578 -0.15737329769446351 0 -0.33868769426367401 -0.1247420839771979 0 -0.33162417930493571 -0.1183610901257599 0 -0.33049409831663012 -0.13716732274640869 0 -0.33868769426367401 -0.1247420839771979 0 -0.33049409831663012 -0.13716732274640869 0 -0.34643986336936822 -0.14361145539454839 0 -0.33868769426367401 -0.1247420839771979 0 -0.35114797256527192 -0.12989338382384899 0 -0.34643986336936822 -0.14361145539454839 0 -0.35114797256527192 -0.12989338382384899 0 -0.36474538649336802 -0.1357592334688783 0 -0.34643986336936822 -0.14361145539454839 0 -0.33868769426367401 -0.1247420839771979 0 -0.3472223384570407 -0.12170132815957579 0 -0.35114797256527192 -0.12989338382384899 0 -0.35988166893383672 -0.12163115697077059 0 -0.35114797256527192 -0.12989338382384899 0 -0.36474538649336802 -0.1357592334688783 0 -0.36474538649336802 -0.1357592334688783 0 -0.37405041125331279 -0.14592149214871461 0 -0.38510212620736378 -0.1366389211638413 0 -0.37469506225613652 -0.1239532177657803 0 -0.35988166893383672 -0.12163115697077059 0 -0.36474538649336802 -0.1357592334688783 0 -0.37469506225613652 -0.1239532177657803 0 -0.36474538649336802 -0.1357592334688783 0 -0.38510212620736378 -0.1366389211638413 0 -0.36307082326667039 -0.15449020045514411 0 -0.37405041125331279 -0.14592149214871461 0 -0.38237154529337442 -0.15738528485430511 0 -0.36474538649336802 -0.1357592334688783 0 -0.36307082326667039 -0.15449020045514411 0 -0.37405041125331279 -0.14592149214871461 0 -0.36474538649336802 -0.1357592334688783 0 -0.36307082326667039 -0.15449020045514411 0 -0.34643986336936822 -0.14361145539454839 0 -0.36307082326667039 -0.15449020045514411 0 -0.34643986336936822 -0.14361145539454839 0 -0.34343983828518188 -0.16538993218481021 0 -0.36307082326667039 -0.15449020045514411 0 -0.36885121174972613 -0.17749894001734251 0 -0.34343983828518188 -0.16538993218481021 0 -0.36307082326667039 -0.15449020045514411 0 -0.36885121174972613 -0.17749894001734251 0 -0.38237154529337442 -0.15738528485430511 0 -0.36885121174972613 -0.17749894001734251 0 -0.34343983828518188 -0.16538993218481021 0 -0.34016904823848892 -0.19261869466410569 0 -0.34343983828518188 -0.16538993218481021 0 -0.3182740058051915 -0.17780905465393079 0 -0.34016904823848892 -0.19261869466410569 0 -0.34343983828518188 -0.16538993218481021 0 -0.32366132924779578 -0.15737329769446351 0 -0.3182740058051915 -0.17780905465393079 0 -0.3182740058051915 -0.17780905465393079 0 -0.31403177662214671 -0.19671907299209959 0 -0.34016904823848892 -0.19261869466410569 0 -0.31403177662214671 -0.19671907299209959 0 -0.32863294715577729 -0.20807964377321589 0 -0.34016904823848892 -0.19261869466410569 0 -0.31186134660433679 -0.21688289558255069 0 -0.31403177662214671 -0.19671907299209959 0 -0.32863294715577729 -0.20807964377321589 0 -0.31186134660433679 -0.21688289558255069 0 -0.32863294715577729 -0.20807964377321589 0 -0.32693424484022621 -0.22763211303290659 0 -0.32863294715577729 -0.20807964377321589 0 -0.34409507035060649 -0.21596673863278029 0 -0.32693424484022621 -0.22763211303290659 0 -0.32863294715577729 -0.20807964377321589 0 -0.34016904823848892 -0.19261869466410569 0 -0.34409507035060649 -0.21596673863278029 0 -0.36885121174972613 -0.17749894001734251 0 -0.34016904823848892 -0.19261869466410569 0 -0.36433487583290369 -0.203673522352285 0 -0.36433487583290369 -0.203673522352285 0 -0.36239414019208011 -0.22812537861052881 0 -0.37999800554071961 -0.21506646510205929 0 -0.34016904823848892 -0.19261869466410569 0 -0.36433487583290369 -0.203673522352285 0 -0.34409507035060649 -0.21596673863278029 0 -0.36433487583290369 -0.203673522352285 0 -0.34409507035060649 -0.21596673863278029 0 -0.36239414019208011 -0.22812537861052881 0 -0.34409507035060649 -0.21596673863278029 0 -0.36239414019208011 -0.22812537861052881 0 -0.34163111826847081 -0.23802455308120049 0 -0.36239414019208011 -0.22812537861052881 0 -0.38243464749489292 -0.22982431047056739 0 -0.37999800554071961 -0.21506646510205929 0 -0.36239414019208011 -0.22812537861052881 0 -0.37105134606721413 -0.24673755009235079 0 -0.35537346118664881 -0.2470184445464203 0 -0.36239414019208011 -0.22812537861052881 0 -0.37105134606721413 -0.24673755009235079 0 -0.38243464749489292 -0.22982431047056739 0 -0.34212265676594322 -0.25855395123388702 0 -0.35537346118664881 -0.2470184445464203 0 -0.34163111826847081 -0.23802455308120049 0 -0.36239414019208011 -0.22812537861052881 0 -0.35537346118664881 -0.2470184445464203 0 -0.34163111826847081 -0.23802455308120049 0 -0.34163111826847081 -0.23802455308120049 0 -0.32693424484022621 -0.22763211303290659 0 -0.3235438603471687 -0.24989833146168711 0 -0.34212265676594322 -0.25855395123388702 0 -0.34163111826847081 -0.23802455308120049 0 -0.3235438603471687 -0.24989833146168711 0 -0.34409507035060649 -0.21596673863278029 0 -0.34163111826847081 -0.23802455308120049 0 -0.32693424484022621 -0.22763211303290659 0 -0.31184112631499722 -0.23694051566600499 0 -0.31186134660433679 -0.21688289558255069 0 -0.32693424484022621 -0.22763211303290659 0 -0.30403873960416522 -0.25992880783821931 0 -0.31184112631499722 -0.23694051566600499 0 -0.3235438603471687 -0.24989833146168711 0 -0.31184112631499722 -0.23694051566600499 0 -0.32693424484022621 -0.22763211303290659 0 -0.3235438603471687 -0.24989833146168711 0 -0.43146755196554731 -0.23562370164918961 0 -0.42450417649405608 -0.22936607216044669 0 -0.42127657638668742 -0.2452010714524766 0 -0.43527656859499569 -0.2429182587076664 0 -0.43146755196554731 -0.23562370164918961 0 -0.42127657638668742 -0.2452010714524766 0 -0.42875470656841969 -0.25725464290850703 0 -0.43527656859499569 -0.2429182587076664 0 -0.42127657638668742 -0.2452010714524766 0 -0.42875470656841969 -0.25725464290850703 0 -0.43527656859499569 -0.2429182587076664 0 -0.44175431771453882 -0.2496538524987241 0 -0.43527656859499569 -0.2429182587076664 0 -0.43146755196554731 -0.23562370164918961 0 -0.44179843062157148 -0.22858187450682591 0 -0.43146755196554731 -0.23562370164918961 0 -0.42450417649405608 -0.22936607216044669 0 -0.44179843062157148 -0.22858187450682591 0 -0.41721905222507999 -0.21366151370843611 0 -0.44179843062157148 -0.22858187450682591 0 -0.42450417649405608 -0.22936607216044669 0 -0.41721905222507999 -0.21366151370843611 0 -0.44179843062157148 -0.22858187450682591 0 -0.42450417649405608 -0.22936607216044669 0 -0.39998115203644719 -0.22207499009776699 0 -0.41721905222507999 -0.21366151370843611 0 -0.42450417649405608 -0.22936607216044669 0 -0.40677663811025228 -0.2389351936723724 0 -0.39998115203644719 -0.22207499009776699 0 -0.42450417649405608 -0.22936607216044669 0 -0.40677663811025228 -0.2389351936723724 0 -0.42127657638668742 -0.2452010714524766 0 -0.40567112408393652 -0.25303076231511862 0 -0.40677663811025228 -0.2389351936723724 0 -0.42127657638668742 -0.2452010714524766 0 -0.40677663811025228 -0.2389351936723724 0 -0.39061584230541252 -0.2487733851209307 0 -0.38243464749489292 -0.22982431047056739 0 -0.40567112408393652 -0.25303076231511862 0 -0.40677663811025228 -0.2389351936723724 0 -0.39061584230541252 -0.2487733851209307 0 -0.37105134606721413 -0.24673755009235079 0 -0.38243464749489292 -0.22982431047056739 0 -0.37105134606721413 -0.24673755009235079 0 -0.39061584230541252 -0.2487733851209307 0 -0.38243464749489292 -0.22982431047056739 0 -0.38243464749489292 -0.22982431047056739 0 -0.39998115203644719 -0.22207499009776699 0 -0.37999800554071961 -0.21506646510205929 0 -0.40677663811025228 -0.2389351936723724 0 -0.38243464749489292 -0.22982431047056739 0 -0.39998115203644719 -0.22207499009776699 0 -0.39998115203644719 -0.22207499009776699 0 -0.3926396738285895 -0.19874115291004499 0 -0.41721905222507999 -0.21366151370843611 0 -0.39998115203644719 -0.22207499009776699 0 -0.37999800554071961 -0.21506646510205929 0 -0.3926396738285895 -0.19874115291004499 0 -0.3926396738285895 -0.19874115291004499 0 -0.41721905222507999 -0.21366151370843611 0 -0.36433487583290369 -0.203673522352285 0 -0.37999800554071961 -0.21506646510205929 0 -0.3926396738285895 -0.19874115291004499 0 -0.36885121174972613 -0.17749894001734251 0 -0.36433487583290369 -0.203673522352285 0 -0.3926396738285895 -0.19874115291004499 0 -0.3926396738285895 -0.19874115291004499 0 -0.41821609146359678 -0.19681668643615091 0 -0.41270564608465438 -0.17838793744081949 0 -0.3926396738285895 -0.19874115291004499 0 -0.41821609146359678 -0.19681668643615091 0 -0.41721905222507999 -0.21366151370843611 0 -0.41721905222507999 -0.21366151370843611 0 -0.43068458717960639 -0.21022516324002891 0 -0.44179843062157148 -0.22858187450682591 0 -0.41821609146359678 -0.19681668643615091 0 -0.41721905222507999 -0.21366151370843611 0 -0.43068458717960639 -0.21022516324002891 0 -0.43068458717960639 -0.21022516324002891 0 -0.43143400921581587 -0.19687757513501741 0 -0.43827755019902609 -0.20455875835003909 0 -0.43068458717960639 -0.21022516324002891 0 -0.43827755019902609 -0.20455875835003909 0 -0.44076121638623078 -0.2156722515839308 0 -0.43143400921581587 -0.19687757513501741 0 -0.44107688052996719 -0.19546493851823801 0 -0.43827755019902609 -0.20455875835003909 0 -0.43143400921581587 -0.19687757513501741 0 -0.43583672049460848 -0.1878910863533732 0 -0.42601173669212422 -0.1841495180290354 0 -0.43143400921581587 -0.19687757513501741 0 -0.43583672049460848 -0.1878910863533732 0 -0.44107688052996719 -0.19546493851823801 0 -0.41821609146359678 -0.19681668643615091 0 -0.43143400921581587 -0.19687757513501741 0 -0.42601173669212422 -0.1841495180290354 0 -0.41821609146359678 -0.19681668643615091 0 -0.43068458717960639 -0.21022516324002891 0 -0.43143400921581587 -0.19687757513501741 0 -0.42601173669212422 -0.1841495180290354 0 -0.43562394795004622 -0.17462510786305471 0 -0.42121321096122383 -0.1702771219102393 0 -0.43583672049460848 -0.1878910863533732 0 -0.42601173669212422 -0.1841495180290354 0 -0.43562394795004622 -0.17462510786305471 0 -0.43562394795004622 -0.17462510786305471 0 -0.42809730124638612 -0.1617337251371091 0 -0.44009447015904518 -0.15646164970920909 0 -0.42809730124638612 -0.1617337251371091 0 -0.42121321096122383 -0.1702771219102393 0 -0.41764364455353831 -0.15641260604608581 0 -0.43562394795004622 -0.17462510786305471 0 -0.42809730124638612 -0.1617337251371091 0 -0.42121321096122383 -0.1702771219102393 0 -0.42121321096122383 -0.1702771219102393 0 -0.40769946045162059 -0.162456385585559 0 -0.41270564608465438 -0.17838793744081949 0 -0.40769946045162059 -0.162456385585559 0 -0.41270564608465438 -0.17838793744081949 0 -0.42121321096122383 -0.1702771219102393 0 -0.41764364455353831 -0.15641260604608581 0 -0.40769946045162059 -0.162456385585559 0 -0.41821609146359678 -0.19681668643615091 0 -0.42601173669212422 -0.1841495180290354 0 -0.41270564608465438 -0.17838793744081949 0 -0.42601173669212422 -0.1841495180290354 0 -0.42121321096122383 -0.1702771219102393 0 -0.41270564608465438 -0.17838793744081949 0 -0.3926396738285895 -0.19874115291004499 0 -0.41270564608465438 -0.17838793744081949 0 -0.39223133042252067 -0.1748844990303329 0 -0.40769946045162059 -0.162456385585559 0 -0.41270564608465438 -0.17838793744081949 0 -0.39223133042252067 -0.1748844990303329 0 -0.36885121174972613 -0.17749894001734251 0 -0.3926396738285895 -0.19874115291004499 0 -0.39223133042252067 -0.1748844990303329 0 -0.36885121174972613 -0.17749894001734251 0 -0.39223133042252067 -0.1748844990303329 0 -0.38237154529337442 -0.15738528485430511 0 -0.40769946045162059 -0.162456385585559 0 -0.39223133042252067 -0.1748844990303329 0 -0.38237154529337442 -0.15738528485430511 0 -0.40769946045162059 -0.162456385585559 0 -0.40269327481858691 -0.14652483373029859 0 -0.40769946045162059 -0.162456385585559 0 -0.38237154529337442 -0.15738528485430511 0 -0.40269327481858691 -0.14652483373029859 0 -0.38237154529337442 -0.15738528485430511 0 -0.40269327481858691 -0.14652483373029859 0 -0.38237154529337442 -0.15738528485430511 0 -0.40269327481858691 -0.14652483373029859 0 -0.38510212620736378 -0.1366389211638413 0 -0.37405041125331279 -0.14592149214871461 0 -0.38237154529337442 -0.15738528485430511 0 -0.38510212620736378 -0.1366389211638413 0 -0.37469506225613652 -0.1239532177657803 0 -0.38510212620736378 -0.1366389211638413 0 -0.39387695268217249 -0.1184680049219243 0 -0.40269327481858691 -0.14652483373029859 0 -0.38510212620736378 -0.1366389211638413 0 -0.39387695268217249 -0.1184680049219243 0 -0.40269327481858691 -0.14652483373029859 0 -0.4059945249364828 -0.12412065313221519 0 -0.39387695268217249 -0.1184680049219243 0 -0.40269327481858691 -0.14652483373029859 0 -0.39387695268217249 -0.1184680049219243 0 -0.40269327481858691 -0.14652483373029859 0 -0.42570040537270659 -0.13422923573128689 0 -0.40269327481858691 -0.14652483373029859 0 -0.4059945249364828 -0.12412065313221519 0 -0.41811544243225762 -0.12475370251898341 0 -0.40269327481858691 -0.14652483373029859 0 -0.42570040537270659 -0.13422923573128689 0 -0.41811544243225762 -0.12475370251898341 0 -0.41658942629163143 -0.14521779890273431 0 -0.42570040537270659 -0.13422923573128689 0 -0.40269327481858691 -0.14652483373029859 0 -0.41658942629163143 -0.14521779890273431 0 -0.42570040537270659 -0.13422923573128689 0 -0.41764364455353831 -0.15641260604608581 0 -0.40769946045162059 -0.162456385585559 0 -0.40269327481858691 -0.14652483373029859 0 -0.41764364455353831 -0.15641260604608581 0 -0.40269327481858691 -0.14652483373029859 0 -0.41658942629163143 -0.14521779890273431 0 -0.41764364455353831 -0.15641260604608581 0 -0.41658942629163143 -0.14521779890273431 0 -0.4308310512063942 -0.14775461068145809 0 -0.41658942629163143 -0.14521779890273431 0 -0.4308310512063942 -0.14775461068145809 0 -0.42570040537270659 -0.13422923573128689 0 -0.42809730124638612 -0.1617337251371091 0 -0.41764364455353831 -0.15641260604608581 0 -0.4308310512063942 -0.14775461068145809 0 -0.42809730124638612 -0.1617337251371091 0 -0.4308310512063942 -0.14775461068145809 0 -0.44009447015904518 -0.15646164970920909 0 -0.42570040537270659 -0.13422923573128689 0 -0.44730960769294759 -0.1226807262731434 0 -0.4308310512063942 -0.14775461068145809 0 -0.42570040537270659 -0.13422923573128689 0 -0.44006857659304799 -0.1366010333528887 0 -0.42570040537270659 -0.13422923573128689 0 -0.41811544243225762 -0.12475370251898341 0 -0.42537881517662562 -0.1221950856713504 0 -0.42570040537270659 -0.13422923573128689 0 -0.44006857659304799 -0.1366010333528887 0 -0.44730960769294759 -0.1226807262731434 0 -0.45034416210474532 -0.1333937736039994 0 -0.44579364834569091 -0.1444057743396408 0 -0.46100268830493479 -0.1375517243469925 0 -0.45034416210474532 -0.1333937736039994 0 -0.44006857659304799 -0.1366010333528887 0 -0.44579364834569091 -0.1444057743396408 0 -0.45034416210474532 -0.1333937736039994 0 -0.45977610207809011 -0.1258957236936003 0 -0.44730960769294759 -0.1226807262731434 0 -0.45034416210474532 -0.1333937736039994 0 -0.44006857659304799 -0.1366010333528887 0 -0.44730960769294759 -0.1226807262731434 0 -0.44579364834569091 -0.1444057743396408 0 -0.45871855903335229 -0.154696835264481 0 -0.44009447015904518 -0.15646164970920909 0 -0.4308310512063942 -0.14775461068145809 0 -0.44006857659304799 -0.1366010333528887 0 -0.44579364834569091 -0.1444057743396408 0 -0.4308310512063942 -0.14775461068145809 0 -0.44579364834569091 -0.1444057743396408 0 -0.44009447015904518 -0.15646164970920909 0 -0.45871855903335229 -0.154696835264481 0 -0.46100268830493479 -0.1375517243469925 0 -0.47990716401105749 -0.1441126071139337 0 -0.44579364834569091 -0.1444057743396408 0 -0.45871855903335229 -0.154696835264481 0 -0.46100268830493479 -0.1375517243469925 0 -0.45034416210474532 -0.1333937736039994 0 -0.46100268830493479 -0.1375517243469925 0 -0.45977610207809011 -0.1258957236936003 0 -0.46100268830493479 -0.1375517243469925 0 -0.45977610207809011 -0.1258957236936003 0 -0.47122068558364671 -0.12595589849173211 0 -0.46100268830493479 -0.1375517243469925 0 -0.47122068558364671 -0.12595589849173211 0 -0.47990716401105749 -0.1441126071139337 0 -0.47122068558364671 -0.12595589849173211 0 -0.47990716401105749 -0.1441126071139337 0 -0.4857613291655562 -0.1218627081573231 0 -0.5 -0.13586535607526701 0 -0.47990716401105749 -0.1441126071139337 0 -0.4857613291655562 -0.1218627081573231 0 -0.5 -0.13586535607526701 0 -0.47990716401105749 -0.1441126071139337 0 -0.5 -0.1638706519111548 0 -0.47990716401105749 -0.1441126071139337 0 -0.47148216207405702 -0.16589897848594301 0 -0.45871855903335229 -0.154696835264481 0 -0.47990716401105749 -0.1441126071139337 0 -0.47148216207405702 -0.16589897848594301 0 -0.47990716401105749 -0.1441126071139337 0 -0.47148216207405702 -0.16589897848594301 0 -0.5 -0.1638706519111548 0 -0.47148216207405702 -0.16589897848594301 0 -0.5 -0.1638706519111548 0 -0.47434869799738222 -0.17952969666450211 0 -0.5 -0.1638706519111548 0 -0.48724032014436219 -0.1855657566488067 0 -0.5 -0.1918759477470425 0 -0.5 -0.1638706519111548 0 -0.48724032014436219 -0.1855657566488067 0 -0.47434869799738222 -0.17952969666450211 0 -0.47148216207405702 -0.16589897848594301 0 -0.47434869799738222 -0.17952969666450211 0 -0.46305716013705661 -0.18768534985795229 0 -0.48724032014436219 -0.1855657566488067 0 -0.47434869799738222 -0.17952969666450211 0 -0.47556546047432252 -0.1935568351269453 0 -0.47434869799738222 -0.17952969666450211 0 -0.46305716013705661 -0.18768534985795229 0 -0.46943996725677051 -0.1898771463308021 0 -0.47148216207405702 -0.16589897848594301 0 -0.46305716013705661 -0.18768534985795229 0 -0.47148216207405702 -0.16589897848594301 0 -0.45931722536473191 -0.17360005725673319 0 -0.46305716013705661 -0.18768534985795229 0 -0.46055034876651618 -0.18736133013879711 0 -0.45657040503261798 -0.1821876160500929 0 -0.46305716013705661 -0.18768534985795229 0 -0.45657040503261798 -0.1821876160500929 0 -0.45931722536473191 -0.17360005725673319 0 -0.46305716013705661 -0.18768534985795229 0 -0.46055034876651618 -0.18736133013879711 0 -0.45657040503261798 -0.1821876160500929 0 -0.45193583157801048 -0.1858879369240507 0 -0.45657040503261798 -0.1821876160500929 0 -0.45931722536473191 -0.17360005725673319 0 -0.4481600319835059 -0.1791993718094716 0 -0.45871855903335229 -0.154696835264481 0 -0.45931722536473191 -0.17360005725673319 0 -0.44772879752919748 -0.16725759263030951 0 -0.45871855903335229 -0.154696835264481 0 -0.47148216207405702 -0.16589897848594301 0 -0.45931722536473191 -0.17360005725673319 0 -0.43562394795004622 -0.17462510786305471 0 -0.44772879752919748 -0.16725759263030951 0 -0.44009447015904518 -0.15646164970920909 0 -0.45871855903335229 -0.154696835264481 0 -0.44772879752919748 -0.16725759263030951 0 -0.44009447015904518 -0.15646164970920909 0 -0.43562394795004622 -0.17462510786305471 0 -0.44113899445797178 -0.18244065401958379 0 -0.4481600319835059 -0.1791993718094716 0 -0.43562394795004622 -0.17462510786305471 0 -0.44772879752919748 -0.16725759263030951 0 -0.4481600319835059 -0.1791993718094716 0 -0.44113899445797178 -0.18244065401958379 0 -0.4481600319835059 -0.1791993718094716 0 -0.44493527740372629 -0.18804705005243549 0 -0.43583672049460848 -0.1878910863533732 0 -0.44113899445797178 -0.18244065401958379 0 -0.44493527740372629 -0.18804705005243549 0 -0.43583672049460848 -0.1878910863533732 0 -0.43562394795004622 -0.17462510786305471 0 -0.44113899445797178 -0.18244065401958379 0 -0.45657040503261798 -0.1821876160500929 0 -0.45193583157801048 -0.1858879369240507 0 -0.4481600319835059 -0.1791993718094716 0 -0.45193583157801048 -0.1858879369240507 0 -0.4481600319835059 -0.1791993718094716 0 -0.44493527740372629 -0.18804705005243549 0 -0.45931722536473191 -0.17360005725673319 0 -0.44772879752919748 -0.16725759263030951 0 -0.4481600319835059 -0.1791993718094716 0 -0.45111772285957019 -0.19905002629426871 0 -0.44937160267098081 -0.19382967089283021 0 -0.44530231626152911 -0.20202790960635009 0 -0.45111772285957019 -0.19905002629426871 0 -0.44530231626152911 -0.20202790960635009 0 -0.4481338786760663 -0.20397689157454191 0 -0.45193583157801048 -0.1858879369240507 0 -0.44937160267098081 -0.19382967089283021 0 -0.44493527740372629 -0.18804705005243549 0 -0.44937160267098081 -0.19382967089283021 0 -0.44493527740372629 -0.18804705005243549 0 -0.44107688052996719 -0.19546493851823801 0 -0.43583672049460848 -0.1878910863533732 0 -0.44493527740372629 -0.18804705005243549 0 -0.44107688052996719 -0.19546493851823801 0 -0.44937160267098081 -0.19382967089283021 0 -0.44107688052996719 -0.19546493851823801 0 -0.44530231626152911 -0.20202790960635009 0 -0.44107688052996719 -0.19546493851823801 0 -0.44530231626152911 -0.20202790960635009 0 -0.43827755019902609 -0.20455875835003909 0 -0.45117438969404389 -0.20797160232281151 0 -0.44179843062157148 -0.22858187450682591 0 -0.44076121638623078 -0.2156722515839308 0 -0.45117438969404389 -0.20797160232281151 0 -0.44179843062157148 -0.22858187450682591 0 -0.45117438969404389 -0.20797160232281151 0 -0.44841897060212849 -0.2192321345487078 0 -0.44179843062157148 -0.22858187450682591 0 -0.43827755019902609 -0.20455875835003909 0 -0.44494108588912212 -0.20685802807473719 0 -0.44076121638623078 -0.2156722515839308 0 -0.43068458717960639 -0.21022516324002891 0 -0.44076121638623078 -0.2156722515839308 0 -0.44179843062157148 -0.22858187450682591 0 -0.44530231626152911 -0.20202790960635009 0 -0.43827755019902609 -0.20455875835003909 0 -0.44494108588912212 -0.20685802807473719 0 -0.45117438969404389 -0.20797160232281151 0 -0.45463215820005598 -0.20947172122996169 0 -0.44841897060212849 -0.2192321345487078 0 -0.44494108588912212 -0.20685802807473719 0 -0.44076121638623078 -0.2156722515839308 0 -0.45117438969404389 -0.20797160232281151 0 -0.45111772285957019 -0.19905002629426871 0 -0.4481338786760663 -0.20397689157454191 0 -0.45117438969404389 -0.20797160232281151 0 -0.44530231626152911 -0.20202790960635009 0 -0.44494108588912212 -0.20685802807473719 0 -0.4481338786760663 -0.20397689157454191 0 -0.44494108588912212 -0.20685802807473719 0 -0.4481338786760663 -0.20397689157454191 0 -0.45117438969404389 -0.20797160232281151 0 -0.45463215820005598 -0.20947172122996169 0 -0.45983693974007323 -0.20791524365630751 0 -0.46142102066612051 -0.2009429348364811 0 -0.45117438969404389 -0.20797160232281151 0 -0.45463215820005598 -0.20947172122996169 0 -0.45735351419941822 -0.19812250088738059 0 -0.45983693974007323 -0.20791524365630751 0 -0.45844100877002369 -0.2128373321894432 0 -0.46139771475499969 -0.21103587805160029 0 -0.45463215820005598 -0.20947172122996169 0 -0.45983693974007323 -0.20791524365630751 0 -0.45844100877002369 -0.2128373321894432 0 -0.45463215820005598 -0.20947172122996169 0 -0.45844100877002369 -0.2128373321894432 0 -0.45614462377500092 -0.21899725435058329 0 -0.45844100877002369 -0.2128373321894432 0 -0.4601936073799886 -0.2167665636587631 0 -0.46139771475499969 -0.21103587805160029 0 -0.45844100877002369 -0.2128373321894432 0 -0.4601936073799886 -0.2167665636587631 0 -0.45614462377500092 -0.21899725435058329 0 -0.4601936073799886 -0.2167665636587631 0 -0.46750509685054731 -0.21274001098665701 0 -0.46193536290467729 -0.22537150403817691 0 -0.4601936073799886 -0.2167665636587631 0 -0.46139771475499969 -0.21103587805160029 0 -0.46750509685054731 -0.21274001098665701 0 -0.46750509685054731 -0.21274001098665701 0 -0.46397897095196272 -0.2060072939394508 0 -0.47144014244871218 -0.20358161553063989 0 -0.45983693974007323 -0.20791524365630751 0 -0.46397897095196272 -0.2060072939394508 0 -0.46142102066612051 -0.2009429348364811 0 -0.45983693974007323 -0.20791524365630751 0 -0.46139771475499969 -0.21103587805160029 0 -0.46397897095196272 -0.2060072939394508 0 -0.46139771475499969 -0.21103587805160029 0 -0.46750509685054731 -0.21274001098665701 0 -0.46397897095196272 -0.2060072939394508 0 -0.46397897095196272 -0.2060072939394508 0 -0.46537619097907551 -0.200891079008888 0 -0.47144014244871218 -0.20358161553063989 0 -0.45463215820005598 -0.20947172122996169 0 -0.46142102066612051 -0.2009429348364811 0 -0.46305716013705661 -0.18768534985795229 0 -0.45463215820005598 -0.20947172122996169 0 -0.45735351419941822 -0.19812250088738059 0 -0.46305716013705661 -0.18768534985795229 0 -0.45463215820005598 -0.20947172122996169 0 -0.46305716013705661 -0.18768534985795229 0 -0.46055034876651618 -0.18736133013879711 0 -0.45117438969404389 -0.20797160232281151 0 -0.45735351419941822 -0.19812250088738059 0 -0.46055034876651618 -0.18736133013879711 0 -0.45117438969404389 -0.20797160232281151 0 -0.46055034876651618 -0.18736133013879711 0 -0.45111772285957019 -0.19905002629426871 0 -0.45117438969404389 -0.20797160232281151 0 -0.46537619097907551 -0.200891079008888 0 -0.46856107499223321 -0.19545397476782819 0 -0.47144014244871218 -0.20358161553063989 0 -0.46537619097907551 -0.200891079008888 0 -0.46856107499223321 -0.19545397476782819 0 -0.46480617938422331 -0.19511078817813529 0 -0.46537619097907551 -0.200891079008888 0 -0.46142102066612051 -0.2009429348364811 0 -0.46480617938422331 -0.19511078817813529 0 -0.46397897095196272 -0.2060072939394508 0 -0.46537619097907551 -0.200891079008888 0 -0.46142102066612051 -0.2009429348364811 0 -0.46055034876651618 -0.18736133013879711 0 -0.45735351419941822 -0.19812250088738059 0 -0.46305716013705661 -0.18768534985795229 0 -0.46055034876651618 -0.18736133013879711 0 -0.45193583157801048 -0.1858879369240507 0 -0.44937160267098081 -0.19382967089283021 0 -0.46055034876651618 -0.18736133013879711 0 -0.45111772285957019 -0.19905002629426871 0 -0.44937160267098081 -0.19382967089283021 0 -0.46305716013705661 -0.18768534985795229 0 -0.46480617938422331 -0.19511078817813529 0 -0.46583688009663587 -0.19095836490498941 0 -0.46142102066612051 -0.2009429348364811 0 -0.46305716013705661 -0.18768534985795229 0 -0.46480617938422331 -0.19511078817813529 0 -0.46856107499223321 -0.19545397476782819 0 -0.46480617938422331 -0.19511078817813529 0 -0.46583688009663587 -0.19095836490498941 0 -0.46856107499223321 -0.19545397476782819 0 -0.46583688009663587 -0.19095836490498941 0 -0.46943996725677051 -0.1898771463308021 0 -0.46305716013705661 -0.18768534985795229 0 -0.46583688009663587 -0.19095836490498941 0 -0.46943996725677051 -0.1898771463308021 0 -0.47434869799738222 -0.17952969666450211 0 -0.46943996725677051 -0.1898771463308021 0 -0.47556546047432252 -0.1935568351269453 0 -0.48724032014436219 -0.1855657566488067 0 -0.47556546047432252 -0.1935568351269453 0 -0.48129969818339458 -0.20556736859699151 0 -0.46856107499223321 -0.19545397476782819 0 -0.46943996725677051 -0.1898771463308021 0 -0.47556546047432252 -0.1935568351269453 0 -0.47556546047432252 -0.1935568351269453 0 -0.48129969818339458 -0.20556736859699151 0 -0.47144014244871218 -0.20358161553063989 0 -0.46856107499223321 -0.19545397476782819 0 -0.47556546047432252 -0.1935568351269453 0 -0.47144014244871218 -0.20358161553063989 0 -0.48724032014436219 -0.1855657566488067 0 -0.5 -0.1918759477470425 0 -0.48129969818339458 -0.20556736859699151 0 -0.48129969818339458 -0.20556736859699151 0 -0.47841258125720088 -0.2246937046510378 0 -0.5 -0.2198812435829304 0 -0.5 -0.1918759477470425 0 -0.48129969818339458 -0.20556736859699151 0 -0.5 -0.2198812435829304 0 -0.46750509685054731 -0.21274001098665701 0 -0.48129969818339458 -0.20556736859699151 0 -0.47841258125720088 -0.2246937046510378 0 -0.46750509685054731 -0.21274001098665701 0 -0.48129969818339458 -0.20556736859699151 0 -0.47144014244871218 -0.20358161553063989 0 -0.46750509685054731 -0.21274001098665701 0 -0.47841258125720088 -0.2246937046510378 0 -0.46193536290467729 -0.22537150403817691 0 -0.47841258125720088 -0.2246937046510378 0 -0.5 -0.2198812435829304 0 -0.48576833619632481 -0.2380649924091536 0 -0.48209271406877591 -0.25304161622392368 0 -0.48576833619632481 -0.2380649924091536 0 -0.5 -0.24788653941881841 0 -0.5 -0.2198812435829304 0 -0.48576833619632481 -0.2380649924091536 0 -0.5 -0.24788653941881841 0 -0.48209271406877591 -0.25304161622392368 0 -0.46414993516591568 -0.24214985441294731 0 -0.47841258125720088 -0.2246937046510378 0 -0.48576833619632481 -0.2380649924091536 0 -0.46414993516591568 -0.24214985441294731 0 -0.48209271406877591 -0.25304161622392368 0 -0.48576833619632481 -0.2380649924091536 0 -0.46414993516591568 -0.24214985441294731 0 -0.46414993516591568 -0.24214985441294731 0 -0.44620715626305552 -0.23125809260197111 0 -0.46414993516591568 -0.24214985441294731 0 -0.44620715626305552 -0.23125809260197111 0 -0.45276775536329861 -0.243963550497031 0 -0.46375679365384959 -0.25548994440738781 0 -0.46414993516591568 -0.24214985441294731 0 -0.45276775536329861 -0.243963550497031 0 -0.47841258125720088 -0.2246937046510378 0 -0.46414993516591568 -0.24214985441294731 0 -0.46193536290467729 -0.22537150403817691 0 -0.46414993516591568 -0.24214985441294731 0 -0.46193536290467729 -0.22537150403817691 0 -0.44620715626305552 -0.23125809260197111 0 -0.46193536290467729 -0.22537150403817691 0 -0.45614462377500092 -0.21899725435058329 0 -0.44620715626305552 -0.23125809260197111 0 -0.4601936073799886 -0.2167665636587631 0 -0.46193536290467729 -0.22537150403817691 0 -0.45614462377500092 -0.21899725435058329 0 -0.45463215820005598 -0.20947172122996169 0 -0.44620715626305552 -0.23125809260197111 0 -0.45463215820005598 -0.20947172122996169 0 -0.45614462377500092 -0.21899725435058329 0 -0.44620715626305552 -0.23125809260197111 0 -0.45463215820005598 -0.20947172122996169 0 -0.44620715626305552 -0.23125809260197111 0 -0.44841897060212849 -0.2192321345487078 0 -0.44620715626305552 -0.23125809260197111 0 -0.44841897060212849 -0.2192321345487078 0 -0.44179843062157148 -0.22858187450682591 0 -0.44620715626305552 -0.23125809260197111 0 -0.44179843062157148 -0.22858187450682591 0 -0.44348852972133451 -0.23828824023904371 0 -0.44620715626305552 -0.23125809260197111 0 -0.44179843062157148 -0.22858187450682591 0 -0.43527656859499569 -0.2429182587076664 0 -0.44179843062157148 -0.22858187450682591 0 -0.44348852972133451 -0.23828824023904371 0 -0.43527656859499569 -0.2429182587076664 0 -0.44179843062157148 -0.22858187450682591 0 -0.44620715626305552 -0.23125809260197111 0 -0.44348852972133451 -0.23828824023904371 0 -0.43527656859499569 -0.2429182587076664 0 -0.44348852972133451 -0.23828824023904371 0 -0.44175431771453882 -0.2496538524987241 0 -0.44348852972133451 -0.23828824023904371 0 -0.44175431771453882 -0.2496538524987241 0 -0.45276775536329861 -0.243963550497031 0 -0.4509344030745589 -0.25461266143952521 0 -0.44175431771453882 -0.2496538524987241 0 -0.45276775536329861 -0.243963550497031 0 -0.44620715626305552 -0.23125809260197111 0 -0.44348852972133451 -0.23828824023904371 0 -0.45276775536329861 -0.243963550497031 0 -0.41173360181563839 -0.037923017088027658 0 -0.42603470156772177 -0.040288704506370843 0 -0.42463445473125472 -0.022148372836748531 0 -0.41173360181563839 -0.037923017088027658 0 -0.41811106382493418 -0.051758945286922473 0 -0.42603470156772177 -0.040288704506370843 0 -0.41173360181563839 -0.037923017088027658 0 -0.41811106382493418 -0.051758945286922473 0 -0.4043995793998677 -0.051973564372110197 0 -0.41271643318969248 -0.061666836078869157 0 -0.40172799277378751 -0.060387178924856288 0 -0.4043995793998677 -0.051973564372110197 0 -0.41271643318969248 -0.061666836078869157 0 -0.41811106382493418 -0.051758945286922473 0 -0.4043995793998677 -0.051973564372110197 0 -0.41271643318969248 -0.061666836078869157 0 -0.41811106382493418 -0.051758945286922473 0 -0.42538680970179449 -0.064150627517658487 0 -0.43356583324580461 -0.051833276095337007 0 -0.42538680970179449 -0.064150627517658487 0 -0.44430751365430032 -0.064913749074256955 0 -0.41811106382493418 -0.051758945286922473 0 -0.43356583324580461 -0.051833276095337007 0 -0.42603470156772177 -0.040288704506370843 0 -0.41811106382493418 -0.051758945286922473 0 -0.43356583324580461 -0.051833276095337007 0 -0.42538680970179449 -0.064150627517658487 0 -0.43356583324580461 -0.051833276095337007 0 -0.42603470156772177 -0.040288704506370843 0 -0.43912687294723352 -0.039603514203383837 0 -0.42603470156772177 -0.040288704506370843 0 -0.43430026667755778 -0.030562529431060661 0 -0.43912687294723352 -0.039603514203383837 0 -0.43430026667755778 -0.030562529431060661 0 -0.43729812505268678 -0.02051125811870905 0 -0.42463445473125472 -0.022148372836748531 0 -0.42603470156772177 -0.040288704506370843 0 -0.43430026667755778 -0.030562529431060661 0 -0.42463445473125472 -0.022148372836748531 0 -0.43729812505268678 -0.02051125811870905 0 -0.42463445473125472 -0.022148372836748531 0 -0.43568559632565718 -0.0083090682592150619 0 -0.42463445473125472 -0.022148372836748531 0 -0.43568559632565718 -0.0083090682592150619 0 -0.42212331415545967 0.001715983753312897 0 -0.43568559632565718 -0.0083090682592150619 0 -0.43761352241791091 0.0061702165628683527 0 -0.42212331415545967 0.001715983753312897 0 -0.43568559632565718 -0.0083090682592150619 0 -0.42212331415545967 0.001715983753312897 0 -0.40867058683781321 -0.018895612101621499 0 -0.42212331415545967 0.001715983753312897 0 -0.40867058683781321 -0.018895612101621499 0 -0.40172918260307472 -0.00048808184188671628 0 -0.42212331415545967 0.001715983753312897 0 -0.42463445473125472 -0.022148372836748531 0 -0.40867058683781321 -0.018895612101621499 0 -0.42212331415545967 0.001715983753312897 0 -0.41173360181563839 -0.037923017088027658 0 -0.42463445473125472 -0.022148372836748531 0 -0.40867058683781321 -0.018895612101621499 0 -0.40867058683781321 -0.018895612101621499 0 -0.39294986462514181 -0.01689602473622024 0 -0.39521785952016658 -0.039507207956555858 0 -0.40867058683781321 -0.018895612101621499 0 -0.39521785952016658 -0.039507207956555858 0 -0.40867058683781321 -0.018895612101621499 0 -0.39294986462514181 -0.01689602473622024 0 -0.40172918260307472 -0.00048808184188671628 0 -0.39294986462514181 -0.01689602473622024 0 -0.40172918260307472 -0.00048808184188671628 0 -0.3808204899099874 -0.0031860702741812281 0 -0.36848648692226638 -0.011058815079748549 0 -0.3808204899099874 -0.0031860702741812281 0 -0.3783112042546668 -0.02240315150685588 0 -0.39294986462514181 -0.01689602473622024 0 -0.3808204899099874 -0.0031860702741812281 0 -0.3783112042546668 -0.02240315150685588 0 -0.39294986462514181 -0.01689602473622024 0 -0.3783112042546668 -0.02240315150685588 0 -0.39521785952016658 -0.039507207956555858 0 -0.37139958221676461 -0.044031696238546428 0 -0.3783112042546668 -0.02240315150685588 0 -0.39521785952016658 -0.039507207956555858 0 -0.41173360181563839 -0.037923017088027658 0 -0.39521785952016658 -0.039507207956555858 0 -0.4043995793998677 -0.051973564372110197 0 -0.41173360181563839 -0.037923017088027658 0 -0.40867058683781321 -0.018895612101621499 0 -0.39521785952016658 -0.039507207956555858 0 -0.39521785952016658 -0.039507207956555858 0 -0.4043995793998677 -0.051973564372110197 0 -0.39401696803769831 -0.058471129046523559 0 -0.40172799277378751 -0.060387178924856288 0 -0.4043995793998677 -0.051973564372110197 0 -0.39401696803769831 -0.058471129046523559 0 -0.40172799277378751 -0.060387178924856288 0 -0.39401696803769831 -0.058471129046523559 0 -0.39920674831949399 -0.067039336454921883 0 -0.37139958221676461 -0.044031696238546428 0 -0.38176513220252012 -0.060118803811490228 0 -0.38214055169650618 -0.064642048278483313 0 -0.39401696803769831 -0.058471129046523559 0 -0.38176513220252012 -0.060118803811490228 0 -0.38731726841149439 -0.062943980321670201 0 -0.39521785952016658 -0.039507207956555858 0 -0.39401696803769831 -0.058471129046523559 0 -0.38176513220252012 -0.060118803811490228 0 -0.37139958221676461 -0.044031696238546428 0 -0.39521785952016658 -0.039507207956555858 0 -0.38176513220252012 -0.060118803811490228 0 -0.37139958221676461 -0.044031696238546428 0 -0.38214055169650618 -0.064642048278483313 0 -0.39521785952016658 -0.039507207956555858 0 -0.38176513220252012 -0.060118803811490228 0 -0.38214055169650618 -0.064642048278483313 0 -0.38026999091325903 -0.078935168810278067 0 -0.39288152117624758 -0.085252400318420116 0 -0.37367540951124961 -0.07241881559753717 0 -0.37113265406072049 -0.064552487381263846 0 -0.38214055169650618 -0.064642048278483313 0 -0.38214055169650618 -0.064642048278483313 0 -0.39288152117624758 -0.085252400318420116 0 -0.38214055169650618 -0.064642048278483313 0 -0.39288152117624758 -0.085252400318420116 0 -0.39134642170925288 -0.068543940150183738 0 -0.38214055169650618 -0.064642048278483313 0 -0.38731726841149439 -0.062943980321670201 0 -0.39134642170925288 -0.068543940150183738 0 -0.38176513220252012 -0.060118803811490228 0 -0.38214055169650618 -0.064642048278483313 0 -0.38731726841149439 -0.062943980321670201 0 -0.37367540951124961 -0.07241881559753717 0 -0.38214055169650618 -0.064642048278483313 0 -0.38026999091325903 -0.078935168810278067 0 -0.36983989846659687 -0.084117297864896134 0 -0.38026999091325903 -0.078935168810278067 0 -0.3803385567372764 -0.088319055883598105 0 -0.3803385567372764 -0.088319055883598105 0 -0.39288152117624758 -0.085252400318420116 0 -0.38765476513689368 -0.098666680960494108 0 -0.38026999091325903 -0.078935168810278067 0 -0.3803385567372764 -0.088319055883598105 0 -0.39288152117624758 -0.085252400318420116 0 -0.39288152117624758 -0.085252400318420116 0 -0.41080426818389698 -0.082831180102711496 0 -0.40833045692488029 -0.093418786452780594 0 -0.39288152117624758 -0.085252400318420116 0 -0.40561087364088988 -0.074942349762109575 0 -0.41080426818389698 -0.082831180102711496 0 -0.39288152117624758 -0.085252400318420116 0 -0.39134642170925288 -0.068543940150183738 0 -0.3966822045221714 -0.073853055307182489 0 -0.40561087364088988 -0.074942349762109575 0 -0.39920674831949399 -0.067039336454921883 0 -0.3966822045221714 -0.073853055307182489 0 -0.40561087364088988 -0.074942349762109575 0 -0.39920674831949399 -0.067039336454921883 0 -0.40653724149829962 -0.066405122767471486 0 -0.40172799277378751 -0.060387178924856288 0 -0.39920674831949399 -0.067039336454921883 0 -0.40653724149829962 -0.066405122767471486 0 -0.39401696803769831 -0.058471129046523559 0 -0.39920674831949399 -0.067039336454921883 0 -0.39134642170925288 -0.068543940150183738 0 -0.39401696803769831 -0.058471129046523559 0 -0.38731726841149439 -0.062943980321670201 0 -0.39134642170925288 -0.068543940150183738 0 -0.39920674831949399 -0.067039336454921883 0 -0.39134642170925288 -0.068543940150183738 0 -0.3966822045221714 -0.073853055307182489 0 -0.39288152117624758 -0.085252400318420116 0 -0.40561087364088988 -0.074942349762109575 0 -0.3966822045221714 -0.073853055307182489 0 -0.36986917696394112 -0.1072687723034873 0 -0.37469506225613652 -0.1239532177657803 0 -0.39387695268217249 -0.1184680049219243 0 -0.36986917696394112 -0.1072687723034873 0 -0.39387695268217249 -0.1184680049219243 0 -0.36986917696394112 -0.1072687723034873 0 -0.38765476513689368 -0.098666680960494108 0 -0.39387695268217249 -0.1184680049219243 0 -0.37254702165361481 -0.094453154848385179 0 -0.36986917696394112 -0.1072687723034873 0 -0.38765476513689368 -0.098666680960494108 0 -0.37254702165361481 -0.094453154848385179 0 -0.3803385567372764 -0.088319055883598105 0 -0.38765476513689368 -0.098666680960494108 0 -0.39288152117624758 -0.085252400318420116 0 -0.40362249065598899 -0.1058627523583569 0 -0.40833045692488029 -0.093418786452780594 0 -0.39288152117624758 -0.085252400318420116 0 -0.38765476513689368 -0.098666680960494108 0 -0.40362249065598899 -0.1058627523583569 0 -0.38765476513689368 -0.098666680960494108 0 -0.40362249065598899 -0.1058627523583569 0 -0.39387695268217249 -0.1184680049219243 0 -0.38765476513689368 -0.098666680960494108 0 -0.39387695268217249 -0.1184680049219243 0 -0.39288152117624758 -0.085252400318420116 0 -0.40362249065598899 -0.1058627523583569 0 -0.40362249065598899 -0.1058627523583569 0 -0.4059945249364828 -0.12412065313221519 0 -0.39387695268217249 -0.1184680049219243 0 -0.4059945249364828 -0.12412065313221519 0 -0.39387695268217249 -0.1184680049219243 0 -0.40362249065598899 -0.1058627523583569 0 -0.4059945249364828 -0.12412065313221519 0 -0.41381834209002433 -0.11420018296885399 0 -0.41811544243225762 -0.12475370251898341 0 -0.41381834209002433 -0.11420018296885399 0 -0.42365526025169509 -0.11395426683961089 0 -0.4059945249364828 -0.12412065313221519 0 -0.41811544243225762 -0.12475370251898341 0 -0.41381834209002433 -0.11420018296885399 0 -0.41381834209002433 -0.11420018296885399 0 -0.41770399217369669 -0.1023095399951036 0 -0.42365526025169509 -0.11395426683961089 0 -0.40362249065598899 -0.1058627523583569 0 -0.41381834209002433 -0.11420018296885399 0 -0.41770399217369669 -0.1023095399951036 0 -0.40362249065598899 -0.1058627523583569 0 -0.41770399217369669 -0.1023095399951036 0 -0.40833045692488029 -0.093418786452780594 0 -0.41770399217369669 -0.1023095399951036 0 -0.40833045692488029 -0.093418786452780594 0 -0.41854289227862579 -0.089729161088452067 0 -0.41770399217369669 -0.1023095399951036 0 -0.41854289227862579 -0.089729161088452067 0 -0.42918214267482652 -0.092038227554770813 0 -0.41770399217369669 -0.1023095399951036 0 -0.43313973039924952 -0.1053227317865474 0 -0.42918214267482652 -0.092038227554770813 0 -0.43313973039924952 -0.1053227317865474 0 -0.42918214267482652 -0.092038227554770813 0 -0.44247093635469331 -0.095963052907745774 0 -0.41770399217369669 -0.1023095399951036 0 -0.43313973039924952 -0.1053227317865474 0 -0.42365526025169509 -0.11395426683961089 0 -0.42570040537270659 -0.13422923573128689 0 -0.43404415264984331 -0.1158431375955203 0 -0.44395822837384419 -0.11220885354888931 0 -0.42570040537270659 -0.13422923573128689 0 -0.43404415264984331 -0.1158431375955203 0 -0.42537881517662562 -0.1221950856713504 0 -0.42570040537270659 -0.13422923573128689 0 -0.44395822837384419 -0.11220885354888931 0 -0.43313973039924952 -0.1053227317865474 0 -0.42365526025169509 -0.11395426683961089 0 -0.43404415264984331 -0.1158431375955203 0 -0.43313973039924952 -0.1053227317865474 0 -0.43404415264984331 -0.1158431375955203 0 -0.44395822837384419 -0.11220885354888931 0 -0.41811544243225762 -0.12475370251898341 0 -0.42365526025169509 -0.11395426683961089 0 -0.42537881517662562 -0.1221950856713504 0 -0.42365526025169509 -0.11395426683961089 0 -0.43404415264984331 -0.1158431375955203 0 -0.42537881517662562 -0.1221950856713504 0 -0.41667593445084911 -0.071507675337518284 0 -0.41080426818389698 -0.082831180102711496 0 -0.42669360143582891 -0.07804807133689376 0 -0.41271643318969248 -0.061666836078869157 0 -0.41667593445084911 -0.071507675337518284 0 -0.42538680970179449 -0.064150627517658487 0 -0.41271643318969248 -0.061666836078869157 0 -0.40172799277378751 -0.060387178924856288 0 -0.40653724149829962 -0.066405122767471486 0 -0.41271643318969248 -0.061666836078869157 0 -0.41667593445084911 -0.071507675337518284 0 -0.40653724149829962 -0.066405122767471486 0 -0.40561087364088988 -0.074942349762109575 0 -0.41667593445084911 -0.071507675337518284 0 -0.40653724149829962 -0.066405122767471486 0 -0.40561087364088988 -0.074942349762109575 0 -0.41667593445084911 -0.071507675337518284 0 -0.41080426818389698 -0.082831180102711496 0 -0.41080426818389698 -0.082831180102711496 0 -0.41854289227862579 -0.089729161088452067 0 -0.42669360143582891 -0.07804807133689376 0 -0.41080426818389698 -0.082831180102711496 0 -0.40833045692488029 -0.093418786452780594 0 -0.41854289227862579 -0.089729161088452067 0 -0.42918214267482652 -0.092038227554770813 0 -0.42669360143582891 -0.07804807133689376 0 -0.44385852895056421 -0.080056980282029552 0 -0.41854289227862579 -0.089729161088452067 0 -0.42918214267482652 -0.092038227554770813 0 -0.42669360143582891 -0.07804807133689376 0 -0.42669360143582891 -0.07804807133689376 0 -0.42538680970179449 -0.064150627517658487 0 -0.44430751365430032 -0.064913749074256955 0 -0.41667593445084911 -0.071507675337518284 0 -0.42669360143582891 -0.07804807133689376 0 -0.42538680970179449 -0.064150627517658487 0 -0.44430751365430032 -0.064913749074256955 0 -0.44385852895056421 -0.080056980282029552 0 -0.46097649489324782 -0.07044848196453371 0 -0.42669360143582891 -0.07804807133689376 0 -0.44430751365430032 -0.064913749074256955 0 -0.44385852895056421 -0.080056980282029552 0 -0.42918214267482652 -0.092038227554770813 0 -0.44385852895056421 -0.080056980282029552 0 -0.44247093635469331 -0.095963052907745774 0 -0.44385852895056421 -0.080056980282029552 0 -0.4622160513749819 -0.09018847136649169 0 -0.44247093635469331 -0.095963052907745774 0 -0.44385852895056421 -0.080056980282029552 0 -0.4622160513749819 -0.09018847136649169 0 -0.46097649489324782 -0.07044848196453371 0 -0.44430751365430032 -0.064913749074256955 0 -0.46097649489324782 -0.07044848196453371 0 -0.45936769603157518 -0.057046051154632238 0 -0.4622160513749819 -0.09018847136649169 0 -0.46097649489324782 -0.07044848196453371 0 -0.48047387437611949 -0.068168089184094172 0 -0.46097649489324782 -0.07044848196453371 0 -0.47058099744727838 -0.061108768102882037 0 -0.45936769603157518 -0.057046051154632238 0 -0.42570040537270659 -0.13422923573128689 0 -0.44730960769294759 -0.1226807262731434 0 -0.44395822837384419 -0.11220885354888931 0 -0.43313973039924952 -0.1053227317865474 0 -0.44395822837384419 -0.11220885354888931 0 -0.44247093635469331 -0.095963052907745774 0 -0.4622160513749819 -0.09018847136649169 0 -0.44395822837384419 -0.11220885354888931 0 -0.44247093635469331 -0.095963052907745774 0 -0.4622160513749819 -0.09018847136649169 0 -0.44395822837384419 -0.11220885354888931 0 -0.4622160513749819 -0.09018847136649169 0 -0.44395822837384419 -0.11220885354888931 0 -0.46891881001318869 -0.111132216815 0 -0.44730960769294759 -0.1226807262731434 0 -0.46891881001318869 -0.111132216815 0 -0.45977610207809011 -0.1258957236936003 0 -0.44730960769294759 -0.1226807262731434 0 -0.46891881001318869 -0.111132216815 0 -0.44730960769294759 -0.1226807262731434 0 -0.44395822837384419 -0.11220885354888931 0 -0.46891881001318869 -0.111132216815 0 -0.45977610207809011 -0.1258957236936003 0 -0.47122068558364671 -0.12595589849173211 0 -0.46891881001318869 -0.111132216815 0 -0.47122068558364671 -0.12595589849173211 0 -0.46891881001318869 -0.111132216815 0 -0.4857613291655562 -0.1218627081573231 0 -0.46891881001318869 -0.111132216815 0 -0.48156058679024139 -0.10147478841369451 0 -0.4857613291655562 -0.1218627081573231 0 -0.4622160513749819 -0.09018847136649169 0 -0.46891881001318869 -0.111132216815 0 -0.48156058679024139 -0.10147478841369451 0 -0.48156058679024139 -0.10147478841369451 0 -0.5 -0.1078600602393792 0 -0.49360385857856659 -0.091568414897693712 0 -0.48156058679024139 -0.10147478841369451 0 -0.5 -0.1078600602393792 0 -0.4857613291655562 -0.1218627081573231 0 -0.5 -0.13586535607526701 0 -0.5 -0.1078600602393792 0 -0.4857613291655562 -0.1218627081573231 0 -0.46097649489324782 -0.07044848196453371 0 -0.48047387437611949 -0.068168089184094172 0 -0.47058099744727838 -0.061108768102882037 0 -0.4622160513749819 -0.09018847136649169 0 -0.48047387437611949 -0.068168089184094172 0 -0.47886347160915488 -0.086236859006279074 0 -0.48047387437611949 -0.068168089184094172 0 -0.47886347160915488 -0.086236859006279074 0 -0.49360385857856659 -0.091568414897693712 0 -0.4622160513749819 -0.09018847136649169 0 -0.48156058679024139 -0.10147478841369451 0 -0.47886347160915488 -0.086236859006279074 0 -0.4622160513749819 -0.09018847136649169 0 -0.48047387437611949 -0.068168089184094172 0 -0.5 -0.079854764403491485 0 -0.49360385857856659 -0.091568414897693712 0 -0.49359139791625478 -0.064210569776902676 0 -0.5 -0.1078600602393792 0 -0.5 -0.079854764403491485 0 -0.49360385857856659 -0.091568414897693712 0 -0.48156058679024139 -0.10147478841369451 0 -0.47886347160915488 -0.086236859006279074 0 -0.49360385857856659 -0.091568414897693712 0 -0.49360385857856659 -0.091568414897693712 0 -0.49359139791625478 -0.064210569776902676 0 -0.5 -0.079854764403491485 0 -0.49359139791625478 -0.064210569776902676 0 -0.5 -0.05184946856760364 0 -0.48047387437611949 -0.068168089184094172 0 -0.49360385857856659 -0.091568414897693712 0 -0.49359139791625478 -0.064210569776902676 0 -0.48047387437611949 -0.068168089184094172 0 -0.49359139791625478 -0.064210569776902676 0 -0.48067741220846211 -0.057535800900026447 0 -0.49359139791625478 -0.064210569776902676 0 -0.49357893725394247 -0.036852724656111703 0 -0.49359139791625478 -0.064210569776902676 0 -0.49357893725394247 -0.036852724656111703 0 -0.4873244867123282 -0.046479824146674772 0 -0.49359139791625478 -0.064210569776902676 0 -0.5 -0.05184946856760364 0 -0.49509650704673719 -0.04341862954378381 0 -0.49359139791625478 -0.064210569776902676 0 -0.49357893725394247 -0.036852724656111703 0 -0.49509650704673719 -0.04341862954378381 0 -0.49359139791625478 -0.064210569776902676 0 -0.4873244867123282 -0.046479824146674772 0 -0.48067741220846211 -0.057535800900026447 0 -0.5 -0.05184946856760364 0 -0.49509650704673719 -0.04341862954378381 0 -0.5 -0.02384417273171591 0 -0.49357893725394247 -0.036852724656111703 0 -0.49509650704673719 -0.04341862954378381 0 -0.5 -0.02384417273171591 0 -0.49357893725394247 -0.036852724656111703 0 -0.49509650704673719 -0.04341862954378381 0 -0.49357893725394247 -0.036852724656111703 0 -0.4873244867123282 -0.046479824146674772 0 -0.48322421712051999 -0.031288481025724672 0 -0.4873244867123282 -0.046479824146674772 0 -0.4711542563385569 -0.050515812886882339 0 -0.46828618260409222 -0.032406972209207942 0 -0.4873244867123282 -0.046479824146674772 0 -0.46828618260409222 -0.032406972209207942 0 -0.4873244867123282 -0.046479824146674772 0 -0.48322421712051999 -0.031288481025724672 0 -0.46828618260409222 -0.032406972209207942 0 -0.4873244867123282 -0.046479824146674772 0 -0.48067741220846211 -0.057535800900026447 0 -0.4711542563385569 -0.050515812886882339 0 -0.48047387437611949 -0.068168089184094172 0 -0.48067741220846211 -0.057535800900026447 0 -0.47058099744727838 -0.061108768102882037 0 -0.48067741220846211 -0.057535800900026447 0 -0.4711542563385569 -0.050515812886882339 0 -0.47058099744727838 -0.061108768102882037 0 -0.4711542563385569 -0.050515812886882339 0 -0.47058099744727838 -0.061108768102882037 0 -0.45936769603157518 -0.057046051154632238 0 -0.45936769603157518 -0.057046051154632238 0 -0.459779332424822 -0.045118304979021973 0 -0.44842803777884321 -0.050284115983429543 0 -0.4711542563385569 -0.050515812886882339 0 -0.45936769603157518 -0.057046051154632238 0 -0.459779332424822 -0.045118304979021973 0 -0.46828618260409222 -0.032406972209207942 0 -0.459779332424822 -0.045118304979021973 0 -0.45166048937104231 -0.035338572660957773 0 -0.4711542563385569 -0.050515812886882339 0 -0.46828618260409222 -0.032406972209207942 0 -0.459779332424822 -0.045118304979021973 0 -0.459779332424822 -0.045118304979021973 0 -0.45166048937104231 -0.035338572660957773 0 -0.44842803777884321 -0.050284115983429543 0 -0.45166048937104231 -0.035338572660957773 0 -0.43912687294723352 -0.039603514203383837 0 -0.44842803777884321 -0.050284115983429543 0 -0.43430026667755778 -0.030562529431060661 0 -0.43912687294723352 -0.039603514203383837 0 -0.44411508832300522 -0.02639733438217395 0 -0.45166048937104231 -0.035338572660957773 0 -0.43912687294723352 -0.039603514203383837 0 -0.44411508832300522 -0.02639733438217395 0 -0.43356583324580461 -0.051833276095337007 0 -0.43912687294723352 -0.039603514203383837 0 -0.44842803777884321 -0.050284115983429543 0 -0.43356583324580461 -0.051833276095337007 0 -0.44430751365430032 -0.064913749074256955 0 -0.44842803777884321 -0.050284115983429543 0 -0.44430751365430032 -0.064913749074256955 0 -0.45936769603157518 -0.057046051154632238 0 -0.44842803777884321 -0.050284115983429543 0 -0.43568559632565718 -0.0083090682592150619 0 -0.44924787849585501 -0.01833412027174262 0 -0.44729247784565462 0.0013143787143561261 0 -0.43568559632565718 -0.0083090682592150619 0 -0.44729247784565462 0.0013143787143561261 0 -0.43761352241791091 0.0061702165628683527 0 -0.43568559632565718 -0.0083090682592150619 0 -0.44924787849585501 -0.01833412027174262 0 -0.43729812505268678 -0.02051125811870905 0 -0.44411508832300522 -0.02639733438217395 0 -0.44924787849585501 -0.01833412027174262 0 -0.45166048937104231 -0.035338572660957773 0 -0.44411508832300522 -0.02639733438217395 0 -0.44924787849585501 -0.01833412027174262 0 -0.43729812505268678 -0.02051125811870905 0 -0.43568559632565718 -0.0083090682592150619 0 -0.44924787849585501 -0.01833412027174262 0 -0.43430026667755778 -0.030562529431060661 0 -0.43729812505268678 -0.02051125811870905 0 -0.44411508832300522 -0.02639733438217395 0 -0.44411508832300522 -0.02639733438217395 0 -0.44924787849585501 -0.01833412027174262 0 -0.46828618260409222 -0.032406972209207942 0 -0.45166048937104231 -0.035338572660957773 0 -0.44924787849585501 -0.01833412027174262 0 -0.46828618260409222 -0.032406972209207942 0 -0.44924787849585501 -0.01833412027174262 0 -0.46828618260409222 -0.032406972209207942 0 -0.44924787849585501 -0.01833412027174262 0 -0.46656961061874708 -0.01471248131809803 0 -0.44924787849585501 -0.01833412027174262 0 -0.46449651081669702 0.0056202949982542584 0 -0.46461560415421449 0.00017785565835271019 0 -0.44924787849585501 -0.01833412027174262 0 -0.46449651081669702 0.0056202949982542584 0 -0.44924787849585501 -0.01833412027174262 0 -0.46656961061874708 -0.01471248131809803 0 -0.46461560415421449 0.00017785565835271019 0 -0.44924787849585501 -0.01833412027174262 0 -0.46449651081669702 0.0056202949982542584 0 -0.44729247784565462 0.0013143787143561261 0 -0.46656961061874708 -0.01471248131809803 0 -0.47110656074802659 -0.0075167777090209926 0 -0.46461560415421449 0.00017785565835271019 0 -0.47979885681537682 -0.0042903443931472376 0 -0.48875788964126671 -0.015994020012639842 0 -0.48393684202859111 0.004864684630832089 0 -0.47979885681537682 -0.0042903443931472376 0 -0.4771785685629889 -0.018100149072212732 0 -0.4902583530808618 -0.022485912694336741 0 -0.47110656074802659 -0.0075167777090209926 0 -0.47979885681537682 -0.0042903443931472376 0 -0.46461560415421449 0.00017785565835271019 0 -0.46656961061874708 -0.01471248131809803 0 -0.47110656074802659 -0.0075167777090209926 0 -0.4771785685629889 -0.018100149072212732 0 -0.47110656074802659 -0.0075167777090209926 0 -0.47979885681537682 -0.0042903443931472376 0 -0.4771785685629889 -0.018100149072212732 0 -0.46828618260409222 -0.032406972209207942 0 -0.46656961061874708 -0.01471248131809803 0 -0.4771785685629889 -0.018100149072212732 0 -0.48322421712051999 -0.031288481025724672 0 -0.46828618260409222 -0.032406972209207942 0 -0.4771785685629889 -0.018100149072212732 0 -0.48322421712051999 -0.031288481025724672 0 -0.4771785685629889 -0.018100149072212732 0 -0.4902583530808618 -0.022485912694336741 0 -0.49357893725394247 -0.036852724656111703 0 -0.5 -0.02384417273171591 0 -0.49356695749776619 -0.01055072674754323 0 -0.49357893725394247 -0.036852724656111703 0 -0.4902583530808618 -0.022485912694336741 0 -0.49356695749776619 -0.01055072674754323 0 -0.49357893725394247 -0.036852724656111703 0 -0.49356695749776619 -0.01055072674754323 0 -0.49357893725394247 -0.036852724656111703 0 -0.4902583530808618 -0.022485912694336741 0 -0.49357893725394247 -0.036852724656111703 0 -0.48322421712051999 -0.031288481025724672 0 -0.4902583530808618 -0.022485912694336741 0 -0.4902583530808618 -0.022485912694336741 0 -0.48875788964126671 -0.015994020012639842 0 -0.49356695749776619 -0.01055072674754323 0 -0.4902583530808618 -0.022485912694336741 0 -0.48875788964126671 -0.015994020012639842 0 -0.5 -0.02384417273171591 0 -0.49356695749776619 -0.01055072674754323 0 -0.5 0.0041611231041719376 0 -0.48875788964126671 -0.015994020012639842 0 -0.48393684202859111 0.004864684630832089 0 -0.47979885681537682 -0.0042903443931472376 0 -0.4902583530808618 -0.022485912694336741 0 -0.47979885681537682 -0.0042903443931472376 0 -0.4902583530808618 -0.022485912694336741 0 -0.48875788964126671 -0.015994020012639842 0 -0.48875788964126671 -0.015994020012639842 0 -0.49168994828176821 -0.001598317885440321 0 -0.48393684202859111 0.004864684630832089 0 -0.48875788964126671 -0.015994020012639842 0 -0.49168994828176821 -0.001598317885440321 0 -0.49356695749776619 -0.01055072674754323 0 -0.49168994828176821 -0.001598317885440321 0 -0.49356695749776619 -0.01055072674754323 0 -0.5 0.0041611231041719376 0 -0.49168994828176821 -0.001598317885440321 0 -0.5 0.0041611231041719376 0 -0.4915267476286298 0.008434900002199 0 -0.49168994828176821 -0.001598317885440321 0 -0.4915267476286298 0.008434900002199 0 -0.48393684202859111 0.004864684630832089 0 -0.4915267476286298 0.008434900002199 0 -0.49616371311515328 0.018368740738610379 0 -0.48584323471763607 0.016378269422820911 0 -0.4915267476286298 0.008434900002199 0 -0.48584323471763607 0.016378269422820911 0 -0.48393684202859111 0.004864684630832089 0 -0.5 0.0041611231041719376 0 -0.4915267476286298 0.008434900002199 0 -0.49616371311515328 0.018368740738610379 0 -0.5 0.0041611231041719376 0 -0.49616371311515328 0.018368740738610379 0 -0.50000000000000067 0.032166418940059727 0 -0.48307654654332038 0.026945329144259879 0 -0.50000000000000067 0.032166418940059727 0 -0.48861276800719528 0.033837689076008662 0 -0.48307654654332038 0.026945329144259879 0 -0.50000000000000067 0.032166418940059727 0 -0.49616371311515328 0.018368740738610379 0 -0.48307654654332038 0.026945329144259879 0 -0.50000000000000067 0.032166418940059727 0 -0.49616371311515328 0.018368740738610379 0 -0.48584323471763607 0.016378269422820911 0 -0.48307654654332038 0.026945329144259879 0 -0.49616371311515328 0.018368740738610379 0 -0.48307654654332038 0.026945329144259879 0 -0.47684817708539751 0.025023801939162999 0 -0.47911579441591667 0.025723389274304231 0 -0.48393684202859111 0.004864684630832089 0 -0.48584323471763607 0.016378269422820911 0 -0.48307654654332038 0.026945329144259879 0 -0.47911579441591667 0.025723389274304231 0 -0.48584323471763607 0.016378269422820911 0 -0.47911579441591667 0.025723389274304231 0 -0.48393684202859111 0.004864684630832089 0 -0.48307654654332038 0.026945329144259879 0 -0.47954473226078242 0.029259880369708981 0 -0.48861276800719528 0.033837689076008662 0 -0.48307654654332038 0.026945329144259879 0 -0.47954473226078242 0.029259880369708981 0 -0.48307654654332038 0.026945329144259879 0 -0.47911579441591667 0.025723389274304231 0 -0.48307654654332038 0.026945329144259879 0 -0.47911579441591667 0.025723389274304231 0 -0.47863039274649638 0.027823524114136019 0 -0.47684817708539751 0.025023801939162999 0 -0.47911579441591667 0.025723389274304231 0 -0.47684817708539751 0.025023801939162999 0 -0.47911579441591667 0.025723389274304231 0 -0.47863039274649638 0.027823524114136019 0 -0.47684817708539751 0.025023801939162999 0 -0.47863039274649638 0.027823524114136019 0 -0.47911579441591667 0.025723389274304231 0 -0.47863039274649638 0.027823524114136019 0 -0.47684817708539751 0.025023801939162999 0 -0.47863039274649638 0.027823524114136019 0 -0.47807593211959609 0.030222448867022311 0 -0.48307654654332038 0.026945329144259879 0 -0.47954473226078242 0.029259880369708981 0 -0.47863039274649638 0.027823524114136019 0 -0.47954473226078242 0.029259880369708981 0 -0.47863039274649638 0.027823524114136019 0 -0.47807593211959609 0.030222448867022311 0 -0.47954473226078242 0.029259880369708981 0 -0.47863039274649638 0.027823524114136019 0 -0.47863039274649638 0.027823524114136019 0 -0.47807593211959609 0.030222448867022311 0 -0.47954473226078242 0.029259880369708981 0 -0.47807593211959609 0.030222448867022311 0 -0.47684817708539751 0.025023801939162999 0 -0.47807593211959609 0.030222448867022311 0 -0.46969733817023118 0.028215028799780949 0 -0.47684817708539751 0.025023801939162999 0 -0.46969733817023118 0.028215028799780949 0 -0.46572921132987533 0.0215934667067827 0 -0.47684817708539751 0.025023801939162999 0 -0.46572921132987533 0.0215934667067827 0 -0.47684817708539751 0.025023801939162999 0 -0.46984480316150562 0.014022046258122031 0 -0.47684817708539751 0.025023801939162999 0 -0.46984480316150562 0.014022046258122031 0 -0.46572921132987533 0.0215934667067827 0 -0.47979885681537682 -0.0042903443931472376 0 -0.46984480316150562 0.014022046258122031 0 -0.47979885681537682 -0.0042903443931472376 0 -0.46984480316150562 0.014022046258122031 0 -0.46449651081669702 0.0056202949982542584 0 -0.47979885681537682 -0.0042903443931472376 0 -0.46984480316150562 0.014022046258122031 0 -0.48393684202859111 0.004864684630832089 0 -0.47911579441591667 0.025723389274304231 0 -0.48393684202859111 0.004864684630832089 0 -0.47684817708539751 0.025023801939162999 0 -0.46984480316150562 0.014022046258122031 0 -0.48393684202859111 0.004864684630832089 0 -0.47979885681537682 -0.0042903443931472376 0 -0.46449651081669702 0.0056202949982542584 0 -0.46461560415421449 0.00017785565835271019 0 -0.4875931477811859 0.058240393085406787 0 -0.50000000000000222 0.061393514886853962 0 -0.48977236613039321 0.045326697628280947 0 -0.50000000000000222 0.061393514886853962 0 -0.48977236613039321 0.045326697628280947 0 -0.4875931477811859 0.058240393085406787 0 -0.50000000000000222 0.061393514886853962 0 -0.49451204366162488 0.067743398203061855 0 -0.50000000000000222 0.061393514886853962 0 -0.48977236613039321 0.045326697628280947 0 -0.50000000000000067 0.032166418940059727 0 -0.47954473226078242 0.029259880369708981 0 -0.48977236613039321 0.045326697628280947 0 -0.48861276800719528 0.033837689076008662 0 -0.47954473226078242 0.029259880369708981 0 -0.48977236613039321 0.045326697628280947 0 -0.48977236613039321 0.045326697628280947 0 -0.50000000000000067 0.032166418940059727 0 -0.48861276800719528 0.033837689076008662 0 -0.47807593211959609 0.030222448867022311 0 -0.48977236613039321 0.045326697628280947 0 -0.47319251685162328 0.05135099289100168 0 -0.47807593211959609 0.030222448867022311 0 -0.47319251685162328 0.05135099289100168 0 -0.47807593211959609 0.030222448867022311 0 -0.47319251685162328 0.05135099289100168 0 -0.46375275720087838 0.039609047201021069 0 -0.47954473226078242 0.029259880369708981 0 -0.47807593211959609 0.030222448867022311 0 -0.48977236613039321 0.045326697628280947 0 -0.47807593211959609 0.030222448867022311 0 -0.46375275720087838 0.039609047201021069 0 -0.47807593211959609 0.030222448867022311 0 -0.46969733817023118 0.028215028799780949 0 -0.46375275720087838 0.039609047201021069 0 -0.47319251685162328 0.05135099289100168 0 -0.46830910158364769 0.072479536914980491 0 -0.4875931477811859 0.058240393085406787 0 -0.48977236613039321 0.045326697628280947 0 -0.47319251685162328 0.05135099289100168 0 -0.4875931477811859 0.058240393085406787 0 -0.47319251685162328 0.05135099289100168 0 -0.48029426368036943 0.066915525783382807 0 -0.46375275720087838 0.039609047201021069 0 -0.45181002566261119 0.047200478116382699 0 -0.46320461218593789 0.064658693599934661 0 -0.45181002566261119 0.047200478116382699 0 -0.46320461218593789 0.064658693599934661 0 -0.47319251685162328 0.05135099289100168 0 -0.46375275720087838 0.039609047201021069 0 -0.46320461218593789 0.064658693599934661 0 -0.46375275720087838 0.039609047201021069 0 -0.46320461218593789 0.064658693599934661 0 -0.45181002566261119 0.047200478116382699 0 -0.45214573084209592 0.060815117056526528 0 -0.46320461218593789 0.064658693599934661 0 -0.46375275720087838 0.039609047201021069 0 -0.45181002566261119 0.047200478116382699 0 -0.46408061311540999 0.024626379284918409 0 -0.45181002566261119 0.047200478116382699 0 -0.46408061311540999 0.024626379284918409 0 -0.46375275720087838 0.039609047201021069 0 -0.45181002566261119 0.047200478116382699 0 -0.46375275720087838 0.039609047201021069 0 -0.46408061311540999 0.024626379284918409 0 -0.45181002566261119 0.047200478116382699 0 -0.43696666990903499 0.02445823093484804 0 -0.45181002566261119 0.047200478116382699 0 -0.43696666990903499 0.02445823093484804 0 -0.43474155658954777 0.042062898528228233 0 -0.45181002566261119 0.047200478116382699 0 -0.4330540984346874 0.059727211006599723 0 -0.45181002566261119 0.047200478116382699 0 -0.44724598738403032 0.055596901805763127 0 -0.4330540984346874 0.059727211006599723 0 -0.45181002566261119 0.047200478116382699 0 -0.43474155658954777 0.042062898528228233 0 -0.4330540984346874 0.059727211006599723 0 -0.45181002566261119 0.047200478116382699 0 -0.45214573084209592 0.060815117056526528 0 -0.44724598738403032 0.055596901805763127 0 -0.45181002566261119 0.047200478116382699 0 -0.44724598738403032 0.055596901805763127 0 -0.44724598738403032 0.055596901805763127 0 -0.4330540984346874 0.059727211006599723 0 -0.44340166754714327 0.064752242975285382 0 -0.45214573084209592 0.060815117056526528 0 -0.44724598738403032 0.055596901805763127 0 -0.44340166754714327 0.064752242975285382 0 -0.4555128362896379 0.01028436835062483 0 -0.46449651081669702 0.0056202949982542584 0 -0.44729247784565462 0.0013143787143561261 0 -0.46449651081669702 0.0056202949982542584 0 -0.46461560415421449 0.00017785565835271019 0 -0.46984480316150562 0.014022046258122031 0 -0.46449651081669702 0.0056202949982542584 0 -0.46984480316150562 0.014022046258122031 0 -0.46449651081669702 0.0056202949982542584 0 -0.46415759031898057 0.02110860264261059 0 -0.4555128362896379 0.01028436835062483 0 -0.46449651081669702 0.0056202949982542584 0 -0.46415759031898057 0.02110860264261059 0 -0.46449651081669702 0.0056202949982542584 0 -0.46415759031898057 0.02110860264261059 0 -0.46984480316150562 0.014022046258122031 0 -0.46572921132987533 0.0215934667067827 0 -0.46415759031898057 0.02110860264261059 0 -0.46984480316150562 0.014022046258122031 0 -0.46572921132987533 0.0215934667067827 0 -0.46415759031898057 0.02110860264261059 0 -0.46408061311540999 0.024626379284918409 0 -0.45538608076481912 0.01840248600133405 0 -0.45181002566261119 0.047200478116382699 0 -0.46408061311540999 0.024626379284918409 0 -0.45538608076481912 0.01840248600133405 0 -0.46572921132987533 0.0215934667067827 0 -0.46408061311540999 0.024626379284918409 0 -0.46572921132987533 0.0215934667067827 0 -0.46415759031898057 0.02110860264261059 0 -0.46572921132987533 0.0215934667067827 0 -0.46415759031898057 0.02110860264261059 0 -0.46408061311540999 0.024626379284918409 0 -0.46415759031898057 0.02110860264261059 0 -0.46408061311540999 0.024626379284918409 0 -0.46969733817023118 0.028215028799780949 0 -0.46375275720087838 0.039609047201021069 0 -0.46408061311540999 0.024626379284918409 0 -0.46969733817023118 0.028215028799780949 0 -0.46572921132987533 0.0215934667067827 0 -0.46408061311540999 0.024626379284918409 0 -0.4555128362896379 0.01028436835062483 0 -0.46415759031898057 0.02110860264261059 0 -0.45538608076481912 0.01840248600133405 0 -0.46415759031898057 0.02110860264261059 0 -0.45538608076481912 0.01840248600133405 0 -0.45538608076481912 0.01840248600133405 0 -0.44599955385374762 0.011671557671039791 0 -0.43696666990903499 0.02445823093484804 0 -0.45181002566261119 0.047200478116382699 0 -0.45538608076481912 0.01840248600133405 0 -0.43696666990903499 0.02445823093484804 0 -0.44599955385374762 0.011671557671039791 0 -0.43761352241791091 0.0061702165628683527 0 -0.43696666990903499 0.02445823093484804 0 -0.4555128362896379 0.01028436835062483 0 -0.45538608076481912 0.01840248600133405 0 -0.44599955385374762 0.011671557671039791 0 -0.4555128362896379 0.01028436835062483 0 -0.44599955385374762 0.011671557671039791 0 -0.44729247784565462 0.0013143787143561261 0 -0.44599955385374762 0.011671557671039791 0 -0.44729247784565462 0.0013143787143561261 0 -0.43761352241791091 0.0061702165628683527 0 -0.42212331415545967 0.001715983753312897 0 -0.43696666990903499 0.02445823093484804 0 -0.43761352241791091 0.0061702165628683527 0 -0.42212331415545967 0.001715983753312897 0 -0.43696666990903499 0.02445823093484804 0 -0.40172918260307472 -0.00048808184188671628 0 -0.42212331415545967 0.001715983753312897 0 -0.39938633158238429 0.018522847822532929 0 -0.42212331415545967 0.001715983753312897 0 -0.41367634112714191 0.02253514246540499 0 -0.39938633158238429 0.018522847822532929 0 -0.42212331415545967 0.001715983753312897 0 -0.39938633158238429 0.018522847822532929 0 -0.42212331415545967 0.001715983753312897 0 -0.41367634112714191 0.02253514246540499 0 -0.42493802743550912 0.025119922587853401 0 -0.41367634112714191 0.02253514246540499 0 -0.41718225539636111 0.034827357257472873 0 -0.40455686351902559 0.031671175492020129 0 -0.41367634112714191 0.02253514246540499 0 -0.42493802743550912 0.025119922587853401 0 -0.41718225539636111 0.034827357257472873 0 -0.43696666990903499 0.02445823093484804 0 -0.42493802743550912 0.025119922587853401 0 -0.43474155658954777 0.042062898528228233 0 -0.42212331415545967 0.001715983753312897 0 -0.43696666990903499 0.02445823093484804 0 -0.42493802743550912 0.025119922587853401 0 -0.43474155658954777 0.042062898528228233 0 -0.41583949132515491 0.053358009613538412 0 -0.41718225539636111 0.034827357257472873 0 -0.42493802743550912 0.025119922587853401 0 -0.43474155658954777 0.042062898528228233 0 -0.41718225539636111 0.034827357257472873 0 -0.43474155658954777 0.042062898528228233 0 -0.4330540984346874 0.059727211006599723 0 -0.41583949132515491 0.053358009613538412 0 -0.4330540984346874 0.059727211006599723 0 -0.41583949132515491 0.053358009613538412 0 -0.41449672725394932 0.071888661969603931 0 -0.41583949132515491 0.053358009613538412 0 -0.40095257851250737 0.047324637705385038 0 -0.4019645701675702 0.06359605045313621 0 -0.41583949132515491 0.053358009613538412 0 -0.40895082949276751 0.040924590394147843 0 -0.40095257851250737 0.047324637705385038 0 -0.41583949132515491 0.053358009613538412 0 -0.41718225539636111 0.034827357257472873 0 -0.40895082949276751 0.040924590394147843 0 -0.41583949132515491 0.053358009613538412 0 -0.41718225539636111 0.034827357257472873 0 -0.41718225539636111 0.034827357257472873 0 -0.40895082949276751 0.040924590394147843 0 -0.40455686351902559 0.031671175492020129 0 -0.40455686351902559 0.031671175492020129 0 -0.38927037520917679 0.041259700564907992 0 -0.37813184384522341 0.025252262733799082 0 -0.40895082949276751 0.040924590394147843 0 -0.40455686351902559 0.031671175492020129 0 -0.40095257851250737 0.047324637705385038 0 -0.40455686351902559 0.031671175492020129 0 -0.40095257851250737 0.047324637705385038 0 -0.38927037520917679 0.041259700564907992 0 -0.40095257851250737 0.047324637705385038 0 -0.38787840726809641 0.057492462487959778 0 -0.38927037520917679 0.041259700564907992 0 -0.40095257851250737 0.047324637705385038 0 -0.38787840726809641 0.057492462487959778 0 -0.4019645701675702 0.06359605045313621 0 -0.38787840726809641 0.057492462487959778 0 -0.38927037520917679 0.041259700564907992 0 -0.37483218290103132 0.044557964405375912 0 -0.38787840726809641 0.057492462487959778 0 -0.37483218290103132 0.044557964405375912 0 -0.37234180684841711 0.062861574713409973 0 -0.38927037520917679 0.041259700564907992 0 -0.37813184384522341 0.025252262733799082 0 -0.37483218290103132 0.044557964405375912 0 -0.37813184384522341 0.025252262733799082 0 -0.385502840193372 0.01160287616344677 0 -0.39938633158238429 0.018522847822532929 0 -0.37813184384522341 0.025252262733799082 0 -0.385502840193372 0.01160287616344677 0 -0.37469109724737659 0.0093115152352250263 0 -0.40172918260307472 -0.00048808184188671628 0 -0.3808204899099874 -0.0031860702741812281 0 -0.385502840193372 0.01160287616344677 0 -0.3808204899099874 -0.0031860702741812281 0 -0.385502840193372 0.01160287616344677 0 -0.37469109724737659 0.0093115152352250263 0 -0.40172918260307472 -0.00048808184188671628 0 -0.385502840193372 0.01160287616344677 0 -0.39938633158238429 0.018522847822532929 0 -0.40455686351902559 0.031671175492020129 0 -0.37813184384522341 0.025252262733799082 0 -0.39938633158238429 0.018522847822532929 0 -0.40455686351902559 0.031671175492020129 0 -0.37813184384522341 0.025252262733799082 0 -0.41367634112714191 0.02253514246540499 0 -0.40455686351902559 0.031671175492020129 0 -0.39938633158238429 0.018522847822532929 0 -0.39658872881943769 0.105548231404194 0 -0.40226433425203839 0.08566911200513054 0 -0.41294733639974812 0.093270842129568918 0 -0.39658872881943769 0.105548231404194 0 -0.38528925572950729 0.091029586038986698 0 -0.40226433425203839 0.08566911200513054 0 -0.39658872881943769 0.105548231404194 0 -0.40226433425203839 0.08566911200513054 0 -0.39658872881943769 0.105548231404194 0 -0.40329750346145149 0.12273577726860591 0 -0.41139794554554748 0.1146530222895339 0 -0.39658872881943769 0.105548231404194 0 -0.40329750346145149 0.12273577726860591 0 -0.39091312338683692 0.1254273508032574 0 -0.39658872881943769 0.105548231404194 0 -0.39091312338683692 0.1254273508032574 0 -0.37715944345331809 0.1135223301104122 0 -0.39091312338683692 0.1254273508032574 0 -0.37895625183438059 0.13321651121940231 0 -0.39658872881943769 0.105548231404194 0 -0.37715944345331809 0.1135223301104122 0 -0.39091312338683692 0.1254273508032574 0 -0.37715944345331809 0.1135223301104122 0 -0.38528925572950729 0.091029586038986698 0 -0.36668329576715208 0.094791004823607111 0 -0.39658872881943769 0.105548231404194 0 -0.37715944345331809 0.1135223301104122 0 -0.38528925572950729 0.091029586038986698 0 -0.37524325287169957 0.081069145775215415 0 -0.38528925572950729 0.091029586038986698 0 -0.36668329576715208 0.094791004823607111 0 -0.37524325287169957 0.081069145775215415 0 -0.3876228444192763 0.080058384741897692 0 -0.38528925572950729 0.091029586038986698 0 -0.37524325287169957 0.081069145775215415 0 -0.3836639475416056 0.071500861765413842 0 -0.37234180684841711 0.062861574713409973 0 -0.38787840726809641 0.057492462487959778 0 -0.3836639475416056 0.071500861765413842 0 -0.37234180684841711 0.062861574713409973 0 -0.37524325287169957 0.081069145775215415 0 -0.3876228444192763 0.080058384741897692 0 -0.3836639475416056 0.071500861765413842 0 -0.3876228444192763 0.080058384741897692 0 -0.3836639475416056 0.071500861765413842 0 -0.39402642836089641 0.071263098223932717 0 -0.38787840726809641 0.057492462487959778 0 -0.3836639475416056 0.071500861765413842 0 -0.39402642836089641 0.071263098223932717 0 -0.38787840726809641 0.057492462487959778 0 -0.39402642836089641 0.071263098223932717 0 -0.4019645701675702 0.06359605045313621 0 -0.3876228444192763 0.080058384741897692 0 -0.39402642836089641 0.071263098223932717 0 -0.39989299149172841 0.081459124004295433 0 -0.40259517931853611 0.072051733662742062 0 -0.39989299149172841 0.081459124004295433 0 -0.41449672725394932 0.071888661969603931 0 -0.39402642836089641 0.071263098223932717 0 -0.40259517931853611 0.072051733662742062 0 -0.39989299149172841 0.081459124004295433 0 -0.39402642836089641 0.071263098223932717 0 -0.40259517931853611 0.072051733662742062 0 -0.4019645701675702 0.06359605045313621 0 -0.38528925572950729 0.091029586038986698 0 -0.40226433425203839 0.08566911200513054 0 -0.39989299149172841 0.081459124004295433 0 -0.38528925572950729 0.091029586038986698 0 -0.39989299149172841 0.081459124004295433 0 -0.3876228444192763 0.080058384741897692 0 -0.38528925572950729 0.091029586038986698 0 -0.39989299149172841 0.081459124004295433 0 -0.40226433425203839 0.08566911200513054 0 -0.39989299149172841 0.081459124004295433 0 -0.41449672725394932 0.071888661969603931 0 -0.41294733639974812 0.093270842129568918 0 -0.41449672725394932 0.071888661969603931 0 -0.40226433425203839 0.08566911200513054 0 -0.41294733639974812 0.093270842129568918 0 -0.41449672725394932 0.071888661969603931 0 -0.41294733639974812 0.093270842129568918 0 -0.41449672725394932 0.071888661969603931 0 -0.42519667748350792 0.08275701310250036 0 -0.41583949132515491 0.053358009613538412 0 -0.4019645701675702 0.06359605045313621 0 -0.41449672725394932 0.071888661969603931 0 -0.41583949132515491 0.053358009613538412 0 -0.41449672725394932 0.071888661969603931 0 -0.40259517931853611 0.072051733662742062 0 -0.4019645701675702 0.06359605045313621 0 -0.41449672725394932 0.071888661969603931 0 -0.39989299149172841 0.081459124004295433 0 -0.41449672725394932 0.071888661969603931 0 -0.41449672725394932 0.071888661969603931 0 -0.4333602937939951 0.074703385712540163 0 -0.42519667748350792 0.08275701310250036 0 -0.4330540984346874 0.059727211006599723 0 -0.41449672725394932 0.071888661969603931 0 -0.4333602937939951 0.074703385712540163 0 -0.4330540984346874 0.059727211006599723 0 -0.41449672725394932 0.071888661969603931 0 -0.4330540984346874 0.059727211006599723 0 -0.4333602937939951 0.074703385712540163 0 -0.44340166754714327 0.064752242975285382 0 -0.4333602937939951 0.074703385712540163 0 -0.42519667748350792 0.08275701310250036 0 -0.43998235248633871 0.091165162598288441 0 -0.41294733639974812 0.093270842129568918 0 -0.42519667748350792 0.08275701310250036 0 -0.43998235248633871 0.091165162598288441 0 -0.41332830460998438 0.1026136930425979 0 -0.43998235248633871 0.091165162598288441 0 -0.41332830460998438 0.1026136930425979 0 -0.42495818346146191 0.11065282109458351 0 -0.43998235248633871 0.091165162598288441 0 -0.41294733639974812 0.093270842129568918 0 -0.41332830460998438 0.1026136930425979 0 -0.43998235248633871 0.091165162598288441 0 -0.42495818346146191 0.11065282109458351 0 -0.43513912617638989 0.1204625136163521 0 -0.43998235248633871 0.091165162598288441 0 -0.41294733639974812 0.093270842129568918 0 -0.41139794554554748 0.1146530222895339 0 -0.41294733639974812 0.093270842129568918 0 -0.41332830460998438 0.1026136930425979 0 -0.41139794554554748 0.1146530222895339 0 -0.39658872881943769 0.105548231404194 0 -0.41294733639974812 0.093270842129568918 0 -0.41139794554554748 0.1146530222895339 0 -0.41332830460998438 0.1026136930425979 0 -0.41139794554554748 0.1146530222895339 0 -0.42495818346146191 0.11065282109458351 0 -0.41995533147117059 0.1186776593857708 0 -0.43513912617638989 0.1204625136163521 0 -0.41018832206531219 0.13288449190933549 0 -0.40329750346145149 0.12273577726860591 0 -0.41120977563587041 0.12223773771331151 0 -0.41139794554554748 0.1146530222895339 0 -0.41120977563587041 0.12223773771331151 0 -0.41995533147117059 0.1186776593857708 0 -0.41018832206531219 0.13288449190933549 0 -0.41139794554554748 0.1146530222895339 0 -0.41995533147117059 0.1186776593857708 0 -0.42495818346146191 0.11065282109458351 0 -0.41120977563587041 0.12223773771331151 0 -0.41139794554554748 0.1146530222895339 0 -0.41995533147117059 0.1186776593857708 0 -0.41995533147117059 0.1186776593857708 0 -0.42495818346146191 0.11065282109458351 0 -0.43513912617638989 0.1204625136163521 0 -0.43513912617638989 0.1204625136163521 0 -0.46008993028746792 0.1080405353233691 0 -0.44177441572917542 0.13121750997573561 0 -0.46008993028746792 0.1080405353233691 0 -0.44177441572917542 0.13121750997573561 0 -0.45419639723632782 0.1335394465759914 0 -0.43513912617638989 0.1204625136163521 0 -0.46008993028746792 0.1080405353233691 0 -0.43513912617638989 0.1204625136163521 0 -0.46008993028746792 0.1080405353233691 0 -0.43998235248633871 0.091165162598288441 0 -0.46008993028746792 0.1080405353233691 0 -0.46663640036269288 0.079716632153979061 0 -0.46008993028746792 0.1080405353233691 0 -0.47203306004411599 0.1159475666415801 0 -0.46552079878816122 0.12870491534675779 0 -0.46008993028746792 0.1080405353233691 0 -0.45419639723632782 0.1335394465759914 0 -0.46008993028746792 0.1080405353233691 0 -0.45419639723632782 0.1335394465759914 0 -0.46552079878816122 0.12870491534675779 0 -0.45214573084209592 0.060815117056526528 0 -0.44855761951122142 0.074428521180809407 0 -0.45775892827938047 0.072093473699490818 0 -0.45214573084209592 0.060815117056526528 0 -0.44340166754714327 0.064752242975285382 0 -0.44855761951122142 0.074428521180809407 0 -0.4333602937939951 0.074703385712540163 0 -0.44340166754714327 0.064752242975285382 0 -0.44855761951122142 0.074428521180809407 0 -0.44855761951122142 0.074428521180809407 0 -0.43998235248633871 0.091165162598288441 0 -0.46287417436907241 0.079759351717095583 0 -0.4333602937939951 0.074703385712540163 0 -0.44855761951122142 0.074428521180809407 0 -0.43998235248633871 0.091165162598288441 0 -0.43998235248633871 0.091165162598288441 0 -0.46663640036269288 0.079716632153979061 0 -0.46287417436907241 0.079759351717095583 0 -0.43998235248633871 0.091165162598288441 0 -0.46663640036269288 0.079716632153979061 0 -0.46008993028746792 0.1080405353233691 0 -0.43998235248633871 0.091165162598288441 0 -0.46663640036269288 0.079716632153979061 0 -0.47319251685162328 0.05135099289100168 0 -0.46830910158364769 0.072479536914980491 0 -0.46320461218593789 0.064658693599934661 0 -0.44855761951122142 0.074428521180809407 0 -0.46287417436907241 0.079759351717095583 0 -0.45775892827938047 0.072093473699490818 0 -0.46287417436907241 0.079759351717095583 0 -0.46830910158364769 0.072479536914980491 0 -0.46320461218593789 0.064658693599934661 0 -0.46287417436907241 0.079759351717095583 0 -0.46320461218593789 0.064658693599934661 0 -0.46287417436907241 0.079759351717095583 0 -0.45775892827938047 0.072093473699490818 0 -0.46320461218593789 0.064658693599934661 0 -0.46663640036269288 0.079716632153979061 0 -0.46830910158364769 0.072479536914980491 0 -0.46663640036269288 0.079716632153979061 0 -0.46287417436907241 0.079759351717095583 0 -0.46830910158364769 0.072479536914980491 0 -0.46830910158364769 0.072479536914980491 0 -0.46320461218593789 0.064658693599934661 0 -0.45214573084209592 0.060815117056526528 0 -0.45775892827938047 0.072093473699490818 0 -0.46320461218593789 0.064658693599934661 0 -0.47319251685162328 0.05135099289100168 0 -0.46830910158364769 0.072479536914980491 0 -0.48029426368036943 0.066915525783382807 0 -0.48029426368036943 0.066915525783382807 0 -0.47163209728596861 0.077570864704998438 0 -0.49451204366162488 0.067743398203061855 0 -0.47163209728596861 0.077570864704998438 0 -0.49451204366162488 0.067743398203061855 0 -0.46830910158364769 0.072479536914980491 0 -0.48029426368036943 0.066915525783382807 0 -0.47163209728596861 0.077570864704998438 0 -0.46830910158364769 0.072479536914980491 0 -0.47163209728596861 0.077570864704998438 0 -0.46663640036269288 0.079716632153979061 0 -0.46830910158364769 0.072479536914980491 0 -0.47163209728596861 0.077570864704998438 0 -0.47163209728596861 0.077570864704998438 0 -0.48748878781623473 0.082429000852051307 0 -0.48381101031735191 0.096230786030097812 0 -0.47163209728596861 0.077570864704998438 0 -0.48381101031735191 0.096230786030097812 0 -0.46663640036269288 0.079716632153979061 0 -0.47163209728596861 0.077570864704998438 0 -0.48381101031735191 0.096230786030097812 0 -0.46663640036269288 0.079716632153979061 0 -0.47163209728596861 0.077570864704998438 0 -0.49999999999999661 0.088170954470047025 0 -0.48381101031735191 0.096230786030097812 0 -0.48748878781623473 0.082429000852051307 0 -0.49999999999999661 0.088170954470047025 0 -0.48381101031735191 0.096230786030097812 0 -0.48748878781623473 0.082429000852051307 0 -0.49999999999999661 0.088170954470047025 0 -0.49451204366162488 0.067743398203061855 0 -0.50000000000000222 0.061393514886853962 0 -0.49999999999999661 0.088170954470047025 0 -0.49451204366162488 0.067743398203061855 0 -0.47163209728596861 0.077570864704998438 0 -0.48748878781623473 0.082429000852051307 0 -0.49451204366162488 0.067743398203061855 0 -0.4875931477811859 0.058240393085406787 0 -0.48029426368036943 0.066915525783382807 0 -0.49451204366162488 0.067743398203061855 0 -0.47203306004411599 0.1159475666415801 0 -0.48392026323867993 0.1240299460739013 0 -0.46552079878816122 0.12870491534675779 0 -0.47203306004411599 0.1159475666415801 0 -0.48392026323867993 0.1240299460739013 0 -0.48381101031735191 0.096230786030097812 0 -0.46008993028746792 0.1080405353233691 0 -0.48381101031735191 0.096230786030097812 0 -0.46008993028746792 0.1080405353233691 0 -0.47203306004411599 0.1159475666415801 0 -0.48381101031735191 0.096230786030097812 0 -0.46008993028746792 0.1080405353233691 0 -0.46663640036269288 0.079716632153979061 0 -0.48381101031735191 0.096230786030097812 0 -0.48381101031735191 0.096230786030097812 0 -0.50000000000000577 0.1210347462055948 0 -0.48381101031735191 0.096230786030097812 0 -0.5 0.10460285033782089 0 -0.50000000000000577 0.1210347462055948 0 -0.49999999999999661 0.088170954470047025 0 -0.48381101031735191 0.096230786030097812 0 -0.5 0.10460285033782089 0 -0.48392026323867993 0.1240299460739013 0 -0.48381101031735191 0.096230786030097812 0 -0.50000000000000577 0.1210347462055948 0 -0.48392026323867993 0.1240299460739013 0 -0.50000000000000577 0.1210347462055948 0 -0.49999999999999728 0.1296122636657859 0 -0.48392026323867993 0.1240299460739013 0 -0.49999999999999728 0.1296122636657859 0 -0.48868868798174958 0.13518544405739391 0 -0.49999999999999728 0.1296122636657859 0 -0.48868868798174958 0.13518544405739391 0 -0.491078796100617 0.14862164374632161 0 -0.49999999999999728 0.1296122636657859 0 -0.491078796100617 0.14862164374632161 0 -0.48392026323867993 0.1240299460739013 0 -0.48868868798174958 0.13518544405739391 0 -0.47975569258770617 0.1384779227435676 0 -0.48392026323867993 0.1240299460739013 0 -0.47975569258770617 0.1384779227435676 0 -0.46552079878816122 0.12870491534675779 0 -0.47975569258770617 0.1384779227435676 0 -0.46900481864114779 0.15486602617041631 0 -0.46552079878816122 0.12870491534675779 0 -0.47975569258770617 0.1384779227435676 0 -0.46900481864114779 0.15486602617041631 0 -0.491078796100617 0.14862164374632161 0 -0.49999999999999728 0.1296122636657859 0 -0.491078796100617 0.14862164374632161 0 -0.5 0.15876868606358679 0 -0.48868868798174958 0.13518544405739391 0 -0.47975569258770617 0.1384779227435676 0 -0.491078796100617 0.14862164374632161 0 -0.5 0.15876868606358679 0 -0.4873393499650206 0.1792723356626886 0 -0.48215759220123888 0.16763102382685841 0 -0.491078796100617 0.14862164374632161 0 -0.5 0.15876868606358679 0 -0.48215759220123888 0.16763102382685841 0 -0.491078796100617 0.14862164374632161 0 -0.48215759220123888 0.16763102382685841 0 -0.5 0.15876868606358679 0 -0.4873393499650206 0.1792723356626886 0 -0.5 0.18792510846138771 0 -0.4873393499650206 0.1792723356626886 0 -0.5 0.18792510846138771 0 -0.48491655725597438 0.1923152475511791 0 -0.47498976011475968 0.17757432479608379 0 -0.47323638830186049 0.186640403907395 0 -0.48215759220123888 0.16763102382685841 0 -0.4873393499650206 0.1792723356626886 0 -0.47323638830186049 0.186640403907395 0 -0.48215759220123888 0.16763102382685841 0 -0.47323638830186049 0.186640403907395 0 -0.48215759220123888 0.16763102382685841 0 -0.4873393499650206 0.1792723356626886 0 -0.47323638830186049 0.186640403907395 0 -0.48491655725597438 0.1923152475511791 0 -0.47498976011475968 0.17757432479608379 0 -0.47248883849413459 0.18102713699407449 0 -0.47248883849413459 0.18102713699407449 0 -0.47323638830186049 0.186640403907395 0 -0.46334647980565752 0.19364922292337439 0 -0.47498976011475968 0.17757432479608379 0 -0.47248883849413459 0.18102713699407449 0 -0.47323638830186049 0.186640403907395 0 -0.47248883849413459 0.18102713699407449 0 -0.47323638830186049 0.186640403907395 0 -0.46900481864114779 0.15486602617041631 0 -0.491078796100617 0.14862164374632161 0 -0.48215759220123888 0.16763102382685841 0 -0.46900481864114779 0.15486602617041631 0 -0.47248883849413459 0.18102713699407449 0 -0.46900481864114779 0.15486602617041631 0 -0.47498976011475968 0.17757432479608379 0 -0.48215759220123888 0.16763102382685841 0 -0.46900481864114779 0.15486602617041631 0 -0.47498976011475968 0.17757432479608379 0 -0.47248883849413459 0.18102713699407449 0 -0.46900481864114779 0.15486602617041631 0 -0.47248883849413459 0.18102713699407449 0 -0.46327572531778272 0.17008119638943731 0 -0.46900481864114779 0.15486602617041631 0 -0.46327572531778272 0.17008119638943731 0 -0.45861702463861947 0.1594382858351536 0 -0.46327572531778272 0.17008119638943731 0 -0.45362239615182609 0.16660253149712129 0 -0.45653564479085679 0.17414421049096609 0 -0.46327572531778272 0.17008119638943731 0 -0.45362239615182609 0.16660253149712129 0 -0.45861702463861947 0.1594382858351536 0 -0.45362239615182609 0.16660253149712129 0 -0.45653564479085679 0.17414421049096609 0 -0.44931711525437962 0.1732200298062305 0 -0.45362239615182609 0.16660253149712129 0 -0.45861702463861947 0.1594382858351536 0 -0.44830286418518722 0.1590383578286137 0 -0.47248883849413459 0.18102713699407449 0 -0.46334647980565752 0.19364922292337439 0 -0.47248883849413459 0.18102713699407449 0 -0.46118378576247249 0.18485663332753621 0 -0.46380092958229607 0.17898940923770379 0 -0.47248883849413459 0.18102713699407449 0 -0.46118378576247249 0.18485663332753621 0 -0.46334647980565752 0.19364922292337439 0 -0.46118378576247249 0.18485663332753621 0 -0.46380092958229607 0.17898940923770379 0 -0.45899194997781639 0.17881762544651389 0 -0.47248883849413459 0.18102713699407449 0 -0.46327572531778272 0.17008119638943731 0 -0.46380092958229607 0.17898940923770379 0 -0.46327572531778272 0.17008119638943731 0 -0.46380092958229607 0.17898940923770379 0 -0.46065106241718801 0.1755081103911553 0 -0.46380092958229607 0.17898940923770379 0 -0.46065106241718801 0.1755081103911553 0 -0.45899194997781639 0.17881762544651389 0 -0.46327572531778272 0.17008119638943731 0 -0.46065106241718801 0.1755081103911553 0 -0.45653564479085679 0.17414421049096609 0 -0.45653564479085679 0.17414421049096609 0 -0.45409515760799463 0.17823137573283879 0 -0.44931711525437962 0.1732200298062305 0 -0.45653564479085679 0.17414421049096609 0 -0.45409515760799463 0.17823137573283879 0 -0.4562588517866546 0.17830677862953531 0 -0.45409515760799463 0.17823137573283879 0 -0.4562588517866546 0.17830677862953531 0 -0.45541265476995058 0.1820339028478225 0 -0.45653564479085679 0.17414421049096609 0 -0.4562588517866546 0.17830677862953531 0 -0.45899194997781639 0.17881762544651389 0 -0.46065106241718801 0.1755081103911553 0 -0.45653564479085679 0.17414421049096609 0 -0.45899194997781639 0.17881762544651389 0 -0.46118378576247249 0.18485663332753621 0 -0.45356038153900669 0.18306048971504221 0 -0.46334647980565752 0.19364922292337439 0 -0.46118378576247249 0.18485663332753621 0 -0.45899194997781639 0.17881762544651389 0 -0.45541265476995058 0.1820339028478225 0 -0.46118378576247249 0.18485663332753621 0 -0.45356038153900669 0.18306048971504221 0 -0.45541265476995058 0.1820339028478225 0 -0.45409515760799463 0.17823137573283879 0 -0.45356038153900669 0.18306048971504221 0 -0.45541265476995058 0.1820339028478225 0 -0.4562588517866546 0.17830677862953531 0 -0.45899194997781639 0.17881762544651389 0 -0.45541265476995058 0.1820339028478225 0 -0.45356038153900669 0.18306048971504221 0 -0.45541265476995058 0.1820339028478225 0 -0.45356038153900669 0.18306048971504221 0 -0.44770747251828202 0.1863043521405881 0 -0.44346157455165153 0.1787278973912079 0 -0.45356038153900669 0.18306048971504221 0 -0.44770747251828202 0.1863043521405881 0 -0.45356038153900669 0.18306048971504221 0 -0.43984094555392639 0.16821581480411571 0 -0.45356038153900669 0.18306048971504221 0 -0.44346157455165153 0.1787278973912079 0 -0.43984094555392639 0.16821581480411571 0 -0.45356038153900669 0.18306048971504221 0 -0.44931711525437962 0.1732200298062305 0 -0.43984094555392639 0.16821581480411571 0 -0.45409515760799463 0.17823137573283879 0 -0.45356038153900669 0.18306048971504221 0 -0.44931711525437962 0.1732200298062305 0 -0.44346157455165153 0.1787278973912079 0 -0.43984094555392639 0.16821581480411571 0 -0.4327374985953909 0.1773309329050855 0 -0.44770747251828202 0.1863043521405881 0 -0.44346157455165153 0.1787278973912079 0 -0.4327374985953909 0.1773309329050855 0 -0.44770747251828202 0.1863043521405881 0 -0.4327374985953909 0.1773309329050855 0 -0.44770747251828202 0.1863043521405881 0 -0.43724638296100488 0.19210221013307971 0 -0.4327374985953909 0.1773309329050855 0 -0.45362239615182609 0.16660253149712129 0 -0.44830286418518722 0.1590383578286137 0 -0.44650188848632089 0.16560999405029209 0 -0.45362239615182609 0.16660253149712129 0 -0.44931711525437962 0.1732200298062305 0 -0.44650188848632089 0.16560999405029209 0 -0.44931711525437962 0.1732200298062305 0 -0.44650188848632089 0.16560999405029209 0 -0.43984094555392639 0.16821581480411571 0 -0.44830286418518722 0.1590383578286137 0 -0.44650188848632089 0.16560999405029209 0 -0.43936488972716042 0.15783614885264691 0 -0.44650188848632089 0.16560999405029209 0 -0.43984094555392639 0.16821581480411571 0 -0.43936488972716042 0.15783614885264691 0 -0.44830286418518722 0.1590383578286137 0 -0.43936488972716042 0.15783614885264691 0 -0.44038708960528089 0.14377825598724389 0 -0.44830286418518722 0.1590383578286137 0 -0.44038708960528089 0.14377825598724389 0 -0.45419639723632782 0.1335394465759914 0 -0.44830286418518722 0.1590383578286137 0 -0.45419639723632782 0.1335394465759914 0 -0.44038708960528089 0.14377825598724389 0 -0.44177441572917542 0.13121750997573561 0 -0.45419639723632782 0.1335394465759914 0 -0.45419639723632782 0.1335394465759914 0 -0.46552079878816122 0.12870491534675779 0 -0.45887931889715389 0.14660331729017961 0 -0.46900481864114779 0.15486602617041631 0 -0.46552079878816122 0.12870491534675779 0 -0.44830286418518722 0.1590383578286137 0 -0.45419639723632782 0.1335394465759914 0 -0.45887931889715389 0.14660331729017961 0 -0.46900481864114779 0.15486602617041631 0 -0.46552079878816122 0.12870491534675779 0 -0.45887931889715389 0.14660331729017961 0 -0.46900481864114779 0.15486602617041631 0 -0.45861702463861947 0.1594382858351536 0 -0.45887931889715389 0.14660331729017961 0 -0.45861702463861947 0.1594382858351536 0 -0.44830286418518722 0.1590383578286137 0 -0.45887931889715389 0.14660331729017961 0 -0.47900800987493991 0.22997885718173941 0 -0.48261351521979851 0.25705218881654102 0 -0.46880019415069518 0.25173944969423673 0 -0.47900800987493991 0.22997885718173941 0 -0.48261351521979851 0.25705218881654102 0 -0.47900800987493991 0.22997885718173941 0 -0.46523556219591589 0.23544368000629959 0 -0.46880019415069518 0.25173944969423673 0 -0.5 0.24623795325698949 0 -0.47900800987493991 0.22997885718173941 0 -0.48261351521979851 0.25705218881654102 0 -0.5 0.24623795325698949 0 -0.49196083529324153 0.2275289885983082 0 -0.47900800987493991 0.22997885718173941 0 -0.5 0.24623795325698949 0 -0.49196083529324153 0.2275289885983082 0 -0.5 0.2170815308591886 0 -0.49196083529324153 0.2275289885983082 0 -0.5 0.2170815308591886 0 -0.49513681887908623 0.21473482310557199 0 -0.49196083529324153 0.2275289885983082 0 -0.48537704214433719 0.21878704860813941 0 -0.47900800987493991 0.22997885718173941 0 -0.49196083529324153 0.2275289885983082 0 -0.48537704214433719 0.21878704860813941 0 -0.49513681887908623 0.21473482310557199 0 -0.47900800987493991 0.22997885718173941 0 -0.47481666709973969 0.20606017055513329 0 -0.47540250453007948 0.20290552554693811 0 -0.47900800987493991 0.22997885718173941 0 -0.47540250453007948 0.20290552554693811 0 -0.47900800987493991 0.22997885718173941 0 -0.47481666709973969 0.20606017055513329 0 -0.45907951772437589 0.2168059887985927 0 -0.48537704214433719 0.21878704860813941 0 -0.47900800987493991 0.22997885718173941 0 -0.47540250453007948 0.20290552554693811 0 -0.49513681887908623 0.21473482310557199 0 -0.47540250453007948 0.20290552554693811 0 -0.49513681887908623 0.21473482310557199 0 -0.4904114374498949 0.2032922599259683 0 -0.47540250453007948 0.20290552554693811 0 -0.48537704214433719 0.21878704860813941 0 -0.49513681887908623 0.21473482310557199 0 -0.47540250453007948 0.20290552554693811 0 -0.5 0.2170815308591886 0 -0.49513681887908623 0.21473482310557199 0 -0.4904114374498949 0.2032922599259683 0 -0.5 0.2170815308591886 0 -0.4904114374498949 0.2032922599259683 0 -0.5 0.18792510846138771 0 -0.4904114374498949 0.2032922599259683 0 -0.5 0.18792510846138771 0 -0.48491655725597438 0.1923152475511791 0 -0.47323638830186049 0.186640403907395 0 -0.47540250453007948 0.20290552554693811 0 -0.46755209032732792 0.1981997686647651 0 -0.47323638830186049 0.186640403907395 0 -0.47540250453007948 0.20290552554693811 0 -0.47323638830186049 0.186640403907395 0 -0.48491655725597438 0.1923152475511791 0 -0.47540250453007948 0.20290552554693811 0 -0.4904114374498949 0.2032922599259683 0 -0.48491655725597438 0.1923152475511791 0 -0.47540250453007948 0.20290552554693811 0 -0.47540250453007948 0.20290552554693811 0 -0.46755209032732792 0.1981997686647651 0 -0.47481666709973969 0.20606017055513329 0 -0.46755209032732792 0.1981997686647651 0 -0.47481666709973969 0.20606017055513329 0 -0.47540250453007948 0.20290552554693811 0 -0.46755209032732792 0.1981997686647651 0 -0.47323638830186049 0.186640403907395 0 -0.46755209032732792 0.1981997686647651 0 -0.47323638830186049 0.186640403907395 0 -0.46334647980565752 0.19364922292337439 0 -0.46755209032732792 0.1981997686647651 0 -0.46334647980565752 0.19364922292337439 0 -0.46232145918825962 0.1950643827035794 0 -0.46232145918825962 0.1950643827035794 0 -0.46755209032732792 0.1981997686647651 0 -0.46334647980565752 0.19364922292337439 0 -0.46755209032732792 0.1981997686647651 0 -0.46334647980565752 0.19364922292337439 0 -0.46232145918825962 0.1950643827035794 0 -0.46755209032732792 0.1981997686647651 0 -0.45356038153900669 0.18306048971504221 0 -0.44770747251828202 0.1863043521405881 0 -0.46232145918825962 0.1950643827035794 0 -0.45356038153900669 0.18306048971504221 0 -0.46334647980565752 0.19364922292337439 0 -0.46232145918825962 0.1950643827035794 0 -0.45356038153900669 0.18306048971504221 0 -0.46334647980565752 0.19364922292337439 0 -0.44770747251828202 0.1863043521405881 0 -0.46232145918825962 0.1950643827035794 0 -0.44770747251828202 0.1863043521405881 0 -0.46232145918825962 0.1950643827035794 0 -0.43724638296100488 0.19210221013307971 0 -0.46232145918825962 0.1950643827035794 0 -0.44531681751352598 0.2185412616720277 0 -0.43724638296100488 0.19210221013307971 0 -0.44770747251828202 0.1863043521405881 0 -0.43724638296100488 0.19210221013307971 0 -0.44531681751352598 0.2185412616720277 0 -0.43724638296100488 0.19210221013307971 0 -0.47481666709973969 0.20606017055513329 0 -0.46755209032732792 0.1981997686647651 0 -0.45907951772437589 0.2168059887985927 0 -0.46232145918825962 0.1950643827035794 0 -0.44531681751352598 0.2185412616720277 0 -0.46232145918825962 0.1950643827035794 0 -0.44531681751352598 0.2185412616720277 0 -0.45907951772437589 0.2168059887985927 0 -0.46232145918825962 0.1950643827035794 0 -0.46755209032732792 0.1981997686647651 0 -0.45907951772437589 0.2168059887985927 0 -0.46755209032732792 0.1981997686647651 0 -0.45907951772437589 0.2168059887985927 0 -0.45907951772437589 0.2168059887985927 0 -0.45041968252199088 0.23525844215057939 0 -0.47900800987493991 0.22997885718173941 0 -0.45907951772437589 0.2168059887985927 0 -0.46523556219591589 0.23544368000629959 0 -0.45907951772437589 0.2168059887985927 0 -0.45041968252199088 0.23525844215057939 0 -0.46523556219591589 0.23544368000629959 0 -0.44531681751352598 0.2185412616720277 0 -0.42994445814438281 0.2397645857074315 0 -0.44531681751352598 0.2185412616720277 0 -0.45041968252199088 0.23525844215057939 0 -0.44087000169099338 0.23875587709351251 0 -0.44531681751352598 0.2185412616720277 0 -0.45907951772437589 0.2168059887985927 0 -0.45041968252199088 0.23525844215057939 0 -0.44531681751352598 0.2185412616720277 0 -0.44087000169099338 0.23875587709351251 0 -0.42994445814438281 0.2397645857074315 0 -0.44531681751352598 0.2185412616720277 0 -0.45041968252199088 0.23525844215057939 0 -0.45041968252199088 0.23525844215057939 0 -0.45304875956843632 0.24387139887288081 0 -0.44104817166580329 0.25522734027280197 0 -0.45041968252199088 0.23525844215057939 0 -0.44104817166580329 0.25522734027280197 0 -0.45041968252199088 0.23525844215057939 0 -0.45304875956843632 0.24387139887288081 0 -0.45041968252199088 0.23525844215057939 0 -0.44087000169099338 0.23875587709351251 0 -0.44104817166580329 0.25522734027280197 0 -0.44087000169099338 0.23875587709351251 0 -0.4361266132271851 0.24545863334425669 0 -0.44104817166580329 0.25522734027280197 0 -0.45304875956843632 0.24387139887288081 0 -0.4606986096508312 0.2467586123431659 0 -0.45570992268827742 0.2559799207992467 0 -0.4606986096508312 0.2467586123431659 0 -0.46523556219591589 0.23544368000629959 0 -0.46880019415069518 0.25173944969423673 0 -0.45041968252199088 0.23525844215057939 0 -0.45304875956843632 0.24387139887288081 0 -0.46523556219591589 0.23544368000629959 0 -0.45304875956843632 0.24387139887288081 0 -0.4606986096508312 0.2467586123431659 0 -0.46523556219591589 0.23544368000629959 0 -0.40704596667858661 0.24107303999636501 0 -0.41960010970278938 0.24891089497569449 0 -0.41758642021824788 0.226512655317606 0 -0.41960010970278938 0.24891089497569449 0 -0.42994445814438281 0.2397645857074315 0 -0.41457209877524059 0.26098790974283598 0 -0.41960010970278938 0.24891089497569449 0 -0.41758642021824788 0.226512655317606 0 -0.40704596667858661 0.24107303999636501 0 -0.41960010970278938 0.24891089497569449 0 -0.40800244746568659 0.25116761303474922 0 -0.41960010970278938 0.24891089497569449 0 -0.42994445814438281 0.2397645857074315 0 -0.41758642021824788 0.226512655317606 0 -0.43108664698666638 0.24385778762273441 0 -0.42994445814438281 0.2397645857074315 0 -0.41457209877524059 0.26098790974283598 0 -0.43108664698666638 0.24385778762273441 0 -0.4361266132271851 0.24545863334425669 0 -0.42994445814438281 0.2397645857074315 0 -0.43108664698666638 0.24385778762273441 0 -0.4361266132271851 0.24545863334425669 0 -0.43469525688392963 0.25062933138387528 0 -0.44087000169099338 0.23875587709351251 0 -0.4361266132271851 0.24545863334425669 0 -0.42994445814438281 0.2397645857074315 0 -0.42994445814438281 0.2397645857074315 0 -0.41758642021824788 0.226512655317606 0 -0.42905561613817422 0.21419189056138541 0 -0.44531681751352598 0.2185412616720277 0 -0.42994445814438281 0.2397645857074315 0 -0.42905561613817422 0.21419189056138541 0 -0.41758642021824788 0.226512655317606 0 -0.41557273073370699 0.2041144156595173 0 -0.39296378387048458 0.21664499027653369 0 -0.41758642021824788 0.226512655317606 0 -0.41557273073370699 0.2041144156595173 0 -0.42905561613817422 0.21419189056138541 0 -0.41758642021824788 0.226512655317606 0 -0.41557273073370699 0.2041144156595173 0 -0.41557273073370699 0.2041144156595173 0 -0.42905561613817422 0.21419189056138541 0 -0.43724638296100488 0.19210221013307971 0 -0.44531681751352598 0.2185412616720277 0 -0.42905561613817422 0.21419189056138541 0 -0.43724638296100488 0.19210221013307971 0 -0.41557273073370699 0.2041144156595173 0 -0.43724638296100488 0.19210221013307971 0 -0.41557273073370699 0.2041144156595173 0 -0.43724638296100488 0.19210221013307971 0 -0.42578261926478289 0.18752768697977201 0 -0.41557273073370699 0.2041144156595173 0 -0.41381132444141472 0.1845223183809237 0 -0.41557273073370699 0.2041144156595173 0 -0.42578261926478289 0.18752768697977201 0 -0.41381132444141472 0.1845223183809237 0 -0.41557273073370699 0.2041144156595173 0 -0.39771891879043508 0.1958512442965066 0 -0.41381132444141472 0.1845223183809237 0 -0.39771891879043508 0.1958512442965066 0 -0.38201106675532531 0.20146622002367581 0 -0.38205951858750847 0.18589126187519001 0 -0.38201106675532531 0.20146622002367581 0 -0.38205951858750847 0.18589126187519001 0 -0.37333899098095752 0.19527648031509559 0 -0.38201106675532531 0.20146622002367581 0 -0.37280550458180473 0.20370653366560079 0 -0.37333899098095752 0.19527648031509559 0 -0.38201106675532531 0.20146622002367581 0 -0.39296378387048458 0.21664499027653369 0 -0.37471030932431831 0.21352417941400839 0 -0.38201106675532531 0.20146622002367581 0 -0.37471030932431831 0.21352417941400839 0 -0.37280550458180473 0.20370653366560079 0 -0.39771891879043508 0.1958512442965066 0 -0.38201106675532531 0.20146622002367581 0 -0.39296378387048458 0.21664499027653369 0 -0.41557273073370699 0.2041144156595173 0 -0.39296378387048458 0.21664499027653369 0 -0.41557273073370699 0.2041144156595173 0 -0.39771891879043508 0.1958512442965066 0 -0.39296378387048458 0.21664499027653369 0 -0.41758642021824788 0.226512655317606 0 -0.39296378387048458 0.21664499027653369 0 -0.3940683155686236 0.2335156559902288 0 -0.40704596667858661 0.24107303999636501 0 -0.41758642021824788 0.226512655317606 0 -0.3940683155686236 0.2335156559902288 0 -0.39296378387048458 0.21664499027653369 0 -0.37035483700726152 0.22917556489354879 0 -0.39296378387048458 0.21664499027653369 0 -0.3940683155686236 0.2335156559902288 0 -0.37035483700726152 0.22917556489354879 0 -0.39296378387048458 0.21664499027653369 0 -0.37035483700726152 0.22917556489354879 0 -0.37471030932431831 0.21352417941400839 0 -0.3940683155686236 0.2335156559902288 0 -0.38153207996096372 0.2447317517231026 0 -0.37035483700726152 0.22917556489354879 0 -0.38153207996096372 0.2447317517231026 0 -0.39671949383857702 0.2469029856130685 0 -0.38871945684062692 0.25591908779214351 0 -0.3940683155686236 0.2335156559902288 0 -0.38153207996096372 0.2447317517231026 0 -0.39671949383857702 0.2469029856130685 0 -0.40704596667858661 0.24107303999636501 0 -0.3940683155686236 0.2335156559902288 0 -0.39671949383857702 0.2469029856130685 0 -0.40704596667858661 0.24107303999636501 0 -0.39671949383857702 0.2469029856130685 0 -0.40800244746568659 0.25116761303474922 0 -0.41240207358376602 0.13852646498226259 0 -0.4261215095688462 0.1533711398931891 0 -0.41087176891842458 0.15182568387116729 0 -0.41240207358376602 0.13852646498226259 0 -0.4261215095688462 0.1533711398931891 0 -0.41087176891842458 0.15182568387116729 0 -0.40716600056045749 0.14424056454902251 0 -0.40243128783346549 0.15143637902384369 0 -0.41087176891842458 0.15182568387116729 0 -0.40716600056045749 0.14424056454902251 0 -0.41240207358376602 0.13852646498226259 0 -0.41018832206531219 0.13288449190933549 0 -0.41240207358376602 0.13852646498226259 0 -0.42766875612146171 0.13670672939401979 0 -0.40716600056045749 0.14424056454902251 0 -0.41018832206531219 0.13288449190933549 0 -0.41240207358376602 0.13852646498226259 0 -0.40329750346145149 0.12273577726860591 0 -0.41120977563587041 0.12223773771331151 0 -0.41018832206531219 0.13288449190933549 0 -0.43513912617638989 0.1204625136163521 0 -0.41018832206531219 0.13288449190933549 0 -0.43513912617638989 0.1204625136163521 0 -0.41018832206531219 0.13288449190933549 0 -0.42766875612146171 0.13670672939401979 0 -0.43513912617638989 0.1204625136163521 0 -0.44177441572917542 0.13121750997573561 0 -0.42766875612146171 0.13670672939401979 0 -0.44038708960528089 0.14377825598724389 0 -0.44177441572917542 0.13121750997573561 0 -0.42766875612146171 0.13670672939401979 0 -0.41240207358376602 0.13852646498226259 0 -0.42766875612146171 0.13670672939401979 0 -0.4261215095688462 0.1533711398931891 0 -0.44038708960528089 0.14377825598724389 0 -0.42766875612146171 0.13670672939401979 0 -0.4261215095688462 0.1533711398931891 0 -0.43936488972716042 0.15783614885264691 0 -0.44038708960528089 0.14377825598724389 0 -0.4261215095688462 0.1533711398931891 0 -0.4327374985953909 0.1773309329050855 0 -0.41204991814912312 0.16493022110232999 0 -0.43021497600172681 0.1690670526359363 0 -0.4327374985953909 0.1773309329050855 0 -0.41204991814912312 0.16493022110232999 0 -0.43984094555392639 0.16821581480411571 0 -0.43936488972716042 0.15783614885264691 0 -0.4261215095688462 0.1533711398931891 0 -0.4261215095688462 0.1533711398931891 0 -0.43021497600172681 0.1690670526359363 0 -0.41204991814912312 0.16493022110232999 0 -0.43984094555392639 0.16821581480411571 0 -0.4261215095688462 0.1533711398931891 0 -0.43984094555392639 0.16821581480411571 0 -0.4261215095688462 0.1533711398931891 0 -0.43021497600172681 0.1690670526359363 0 -0.43984094555392639 0.16821581480411571 0 -0.43021497600172681 0.1690670526359363 0 -0.4327374985953909 0.1773309329050855 0 -0.42578261926478289 0.18752768697977201 0 -0.4327374985953909 0.1773309329050855 0 -0.41381132444141472 0.1845223183809237 0 -0.43724638296100488 0.19210221013307971 0 -0.4327374985953909 0.1773309329050855 0 -0.43724638296100488 0.19210221013307971 0 -0.42578261926478289 0.18752768697977201 0 -0.4327374985953909 0.1773309329050855 0 -0.43021497600172681 0.1690670526359363 0 -0.4327374985953909 0.1773309329050855 0 -0.4327374985953909 0.1773309329050855 0 -0.41381132444141472 0.1845223183809237 0 -0.41204991814912312 0.16493022110232999 0 -0.41381132444141472 0.1845223183809237 0 -0.41204991814912312 0.16493022110232999 0 -0.41381132444141472 0.1845223183809237 0 -0.41204991814912312 0.16493022110232999 0 -0.40409874144362312 0.17257506394227939 0 -0.41087176891842458 0.15182568387116729 0 -0.4261215095688462 0.1533711398931891 0 -0.41204991814912312 0.16493022110232999 0 -0.41204991814912312 0.16493022110232999 0 -0.40331375941810138 0.15969352428474379 0 -0.40409874144362312 0.17257506394227939 0 -0.41087176891842458 0.15182568387116729 0 -0.41204991814912312 0.16493022110232999 0 -0.40331375941810138 0.15969352428474379 0 -0.41087176891842458 0.15182568387116729 0 -0.41204991814912312 0.16493022110232999 0 -0.41204991814912312 0.16493022110232999 0 -0.40331375941810138 0.15969352428474379 0 -0.40331375941810138 0.15969352428474379 0 -0.39577561131488048 0.16769687817865189 0 -0.40409874144362312 0.17257506394227939 0 -0.39577561131488048 0.16769687817865189 0 -0.38696657058558631 0.1731030422556574 0 -0.38977082986178591 0.16398531458174359 0 -0.40331375941810138 0.15969352428474379 0 -0.39577561131488048 0.16769687817865189 0 -0.39363072794088372 0.15628860537995601 0 -0.39577561131488048 0.16769687817865189 0 -0.39363072794088372 0.15628860537995601 0 -0.38977082986178591 0.16398531458174359 0 -0.39771891879043508 0.1958512442965066 0 -0.41381132444141472 0.1845223183809237 0 -0.39674928047327429 0.18004052134154269 0 -0.39771891879043508 0.1958512442965066 0 -0.39674928047327429 0.18004052134154269 0 -0.38205951858750847 0.18589126187519001 0 -0.41381132444141472 0.1845223183809237 0 -0.40409874144362312 0.17257506394227939 0 -0.39674928047327429 0.18004052134154269 0 -0.39577561131488048 0.16769687817865189 0 -0.40409874144362312 0.17257506394227939 0 -0.39674928047327429 0.18004052134154269 0 -0.39577561131488048 0.16769687817865189 0 -0.39674928047327429 0.18004052134154269 0 -0.38696657058558631 0.1731030422556574 0 -0.39674928047327429 0.18004052134154269 0 -0.38696657058558631 0.1731030422556574 0 -0.38205951858750847 0.18589126187519001 0 -0.38696657058558631 0.1731030422556574 0 -0.37699548799831312 0.17417463229183641 0 -0.38205951858750847 0.18589126187519001 0 -0.38205951858750847 0.18589126187519001 0 -0.36968223276253759 0.18123413449923381 0 -0.37333899098095752 0.19527648031509559 0 -0.37699548799831312 0.17417463229183641 0 -0.38205951858750847 0.18589126187519001 0 -0.36968223276253759 0.18123413449923381 0 -0.37699548799831312 0.17417463229183641 0 -0.37820281425845731 0.15790901408884431 0 -0.3812925964193542 0.159123774301969 0 -0.38408662699415452 0.16394340582017691 0 -0.3872424686158516 0.15889421371898979 0 -0.3812925964193542 0.159123774301969 0 -0.39363072794088372 0.15628860537995601 0 -0.3872424686158516 0.15889421371898979 0 -0.38977082986178591 0.16398531458174359 0 -0.38408662699415452 0.16394340582017691 0 -0.3872424686158516 0.15889421371898979 0 -0.38977082986178591 0.16398531458174359 0 -0.38696657058558631 0.1731030422556574 0 -0.38408662699415452 0.16394340582017691 0 -0.38977082986178591 0.16398531458174359 0 -0.38696657058558631 0.1731030422556574 0 -0.38408662699415452 0.16394340582017691 0 -0.38233532049935193 0.16758621366740989 0 -0.37699548799831312 0.17417463229183641 0 -0.38233532049935193 0.16758621366740989 0 -0.3812925964193542 0.159123774301969 0 -0.37699548799831312 0.17417463229183641 0 -0.3812925964193542 0.159123774301969 0 -0.38696657058558631 0.1731030422556574 0 -0.37699548799831312 0.17417463229183641 0 -0.38233532049935193 0.16758621366740989 0 -0.38408662699415452 0.16394340582017691 0 -0.38233532049935193 0.16758621366740989 0 -0.3812925964193542 0.159123774301969 0 -0.38408662699415452 0.16394340582017691 0 -0.3812925964193542 0.159123774301969 0 -0.37820281425845731 0.15790901408884431 0 -0.3812925964193542 0.159123774301969 0 -0.37596008236300599 0.1499253234871967 0 -0.3812925964193542 0.159123774301969 0 -0.37596008236300599 0.1499253234871967 0 -0.38523751795423511 0.1453064702023206 0 -0.37596008236300599 0.1499253234871967 0 -0.38523751795423511 0.1453064702023206 0 -0.37895625183438059 0.13321651121940231 0 -0.3812925964193542 0.159123774301969 0 -0.37596008236300599 0.1499253234871967 0 -0.37596008236300599 0.1499253234871967 0 -0.38523751795423511 0.1453064702023206 0 -0.39363072794088372 0.15628860537995601 0 -0.3872424686158516 0.15889421371898979 0 -0.38523751795423511 0.1453064702023206 0 -0.3812925964193542 0.159123774301969 0 -0.38523751795423511 0.1453064702023206 0 -0.3872424686158516 0.15889421371898979 0 -0.3812925964193542 0.159123774301969 0 -0.38523751795423511 0.1453064702023206 0 -0.41018832206531219 0.13288449190933549 0 -0.38523751795423511 0.1453064702023206 0 -0.39954957758104082 0.1444642192729334 0 -0.39363072794088372 0.15628860537995601 0 -0.39521227782740648 0.1493739184697635 0 -0.40243128783346549 0.15143637902384369 0 -0.39363072794088372 0.15628860537995601 0 -0.38523751795423511 0.1453064702023206 0 -0.39521227782740648 0.1493739184697635 0 -0.38523751795423511 0.1453064702023206 0 -0.39521227782740648 0.1493739184697635 0 -0.39954957758104082 0.1444642192729334 0 -0.39521227782740648 0.1493739184697635 0 -0.39954957758104082 0.1444642192729334 0 -0.40243128783346549 0.15143637902384369 0 -0.40716600056045749 0.14424056454902251 0 -0.39954957758104082 0.1444642192729334 0 -0.40243128783346549 0.15143637902384369 0 -0.41087176891842458 0.15182568387116729 0 -0.40331375941810138 0.15969352428474379 0 -0.40243128783346549 0.15143637902384369 0 -0.40331375941810138 0.15969352428474379 0 -0.39363072794088372 0.15628860537995601 0 -0.40243128783346549 0.15143637902384369 0 -0.41018832206531219 0.13288449190933549 0 -0.38523751795423511 0.1453064702023206 0 -0.41018832206531219 0.13288449190933549 0 -0.38523751795423511 0.1453064702023206 0 -0.39740911671695922 0.13158852254587991 0 -0.38523751795423511 0.1453064702023206 0 -0.39091312338683692 0.1254273508032574 0 -0.39740911671695922 0.13158852254587991 0 -0.40329750346145149 0.12273577726860591 0 -0.41018832206531219 0.13288449190933549 0 -0.39740911671695922 0.13158852254587991 0 -0.40716600056045749 0.14424056454902251 0 -0.41018832206531219 0.13288449190933549 0 -0.39954957758104082 0.1444642192729334 0 -0.40329750346145149 0.12273577726860591 0 -0.39091312338683692 0.1254273508032574 0 -0.39740911671695922 0.13158852254587991 0 -0.38523751795423511 0.1453064702023206 0 -0.39091312338683692 0.1254273508032574 0 -0.37895625183438059 0.13321651121940231 0 -0.38523751795423511 0.1453064702023206 0 -0.39091312338683692 0.1254273508032574 0 -0.37715944345331809 0.1135223301104122 0 -0.37895625183438059 0.13321651121940231 0 -0.3655110920145061 0.1319010814938246 0 -0.37596008236300599 0.1499253234871967 0 -0.37895625183438059 0.13321651121940231 0 -0.3655110920145061 0.1319010814938246 0 -0.3655110920145061 0.1319010814938246 0 -0.35155646613361352 0.14191323404436981 0 -0.36277631525152559 0.1464523879795683 0 -0.3655110920145061 0.1319010814938246 0 -0.34941668540343063 0.1271861453710664 0 -0.35155646613361352 0.14191323404436981 0 -0.34941668540343063 0.1271861453710664 0 -0.35155646613361352 0.14191323404436981 0 -0.33739356488157107 0.13291326013319821 0 -0.35155646613361352 0.14191323404436981 0 -0.35714733540572879 0.15929141579004669 0 -0.34163525104661407 0.15309887967008931 0 -0.35155646613361352 0.14191323404436981 0 -0.36277631525152559 0.1464523879795683 0 -0.35714733540572879 0.15929141579004669 0 -0.35155646613361352 0.14191323404436981 0 -0.33872721894151031 0.1435897662593883 0 -0.34163525104661407 0.15309887967008931 0 -0.37596008236300599 0.1499253234871967 0 -0.35714733540572879 0.15929141579004669 0 -0.37596008236300599 0.1499253234871967 0 -0.36277631525152559 0.1464523879795683 0 -0.35714733540572879 0.15929141579004669 0 -0.37820281425845731 0.15790901408884431 0 -0.37596008236300599 0.1499253234871967 0 -0.35714733540572879 0.15929141579004669 0 -0.37596008236300599 0.1499253234871967 0 -0.3655110920145061 0.1319010814938246 0 -0.36277631525152559 0.1464523879795683 0 -0.37596008236300599 0.1499253234871967 0 -0.3655110920145061 0.1319010814938246 0 -0.37820281425845731 0.15790901408884431 0 -0.36968223276253759 0.18123413449923381 0 -0.37699548799831312 0.17417463229183641 0 -0.37820281425845731 0.15790901408884431 0 -0.36968223276253759 0.18123413449923381 0 -0.37820281425845731 0.15790901408884431 0 -0.36751934160945621 0.1679750069681461 0 -0.36968223276253759 0.18123413449923381 0 -0.37820281425845731 0.15790901408884431 0 -0.36751934160945621 0.1679750069681461 0 -0.35714733540572879 0.15929141579004669 0 -0.36751934160945621 0.1679750069681461 0 -0.3585784327907422 0.17228823351035549 0 -0.35714733540572879 0.15929141579004669 0 -0.36424049386179491 0.1759974371885667 0 -0.3582914056807629 0.18492334470750249 0 -0.3585784327907422 0.17228823351035549 0 -0.36751934160945621 0.1679750069681461 0 -0.36968223276253759 0.18123413449923381 0 -0.36424049386179491 0.1759974371885667 0 -0.36751934160945621 0.1679750069681461 0 -0.36424049386179491 0.1759974371885667 0 -0.3585784327907422 0.17228823351035549 0 -0.36968223276253759 0.18123413449923381 0 -0.36424049386179491 0.1759974371885667 0 -0.3582914056807629 0.18492334470750249 0 -0.35023129843358458 0.17861848153314999 0 -0.34473098855343037 0.17064309468892491 0 -0.33675132205709118 0.1903595234909097 0 -0.3582914056807629 0.18492334470750249 0 -0.35023129843358458 0.17861848153314999 0 -0.35058630745601788 0.1866449855346784 0 -0.3582914056807629 0.18492334470750249 0 -0.3585784327907422 0.17228823351035549 0 -0.35023129843358458 0.17861848153314999 0 -0.3585784327907422 0.17228823351035549 0 -0.35023129843358458 0.17861848153314999 0 -0.35267201379587149 0.17021030638061929 0 -0.35023129843358458 0.17861848153314999 0 -0.35267201379587149 0.17021030638061929 0 -0.34473098855343037 0.17064309468892491 0 -0.35023129843358458 0.17861848153314999 0 -0.35058630745601788 0.1866449855346784 0 -0.33675132205709118 0.1903595234909097 0 -0.35714733540572879 0.15929141579004669 0 -0.33833458844845171 0.1686575080928969 0 -0.35714733540572879 0.15929141579004669 0 -0.34473098855343037 0.17064309468892491 0 -0.33833458844845171 0.1686575080928969 0 -0.35714733540572879 0.15929141579004669 0 -0.33833458844845171 0.1686575080928969 0 -0.34163525104661407 0.15309887967008931 0 -0.3585784327907422 0.17228823351035549 0 -0.35714733540572879 0.15929141579004669 0 -0.35267201379587149 0.17021030638061929 0 -0.35714733540572879 0.15929141579004669 0 -0.35267201379587149 0.17021030638061929 0 -0.34473098855343037 0.17064309468892491 0 -0.33833458844845171 0.1686575080928969 0 -0.32844374772985391 0.16649416630433389 0 -0.31952184149117457 0.17802360039574699 0 -0.33833458844845171 0.1686575080928969 0 -0.33457119007749042 0.15966778674452481 0 -0.34163525104661407 0.15309887967008931 0 -0.33833458844845171 0.1686575080928969 0 -0.32844374772985391 0.16649416630433389 0 -0.33457119007749042 0.15966778674452481 0 -0.32844374772985391 0.16649416630433389 0 -0.33457119007749042 0.15966778674452481 0 -0.3279759517104549 0.15998114761160701 0 -0.33457119007749042 0.15966778674452481 0 -0.3279759517104549 0.15998114761160701 0 -0.33181054432822032 0.15402254376790731 0 -0.34473098855343037 0.17064309468892491 0 -0.33675132205709118 0.1903595234909097 0 -0.34473098855343037 0.17064309468892491 0 -0.3317900362249574 0.17908881268221941 0 -0.33675132205709118 0.1903595234909097 0 -0.33833458844845171 0.1686575080928969 0 -0.31952184149117457 0.17802360039574699 0 -0.33833458844845171 0.1686575080928969 0 -0.3317900362249574 0.17908881268221941 0 -0.31952184149117457 0.17802360039574699 0 -0.34473098855343037 0.17064309468892491 0 -0.33833458844845171 0.1686575080928969 0 -0.3317900362249574 0.17908881268221941 0 -0.3317900362249574 0.17908881268221941 0 -0.31952184149117457 0.17802360039574699 0 -0.31975657544808289 0.19637725513935689 0 -0.31952184149117457 0.17802360039574699 0 -0.31281393894784282 0.17242583979925441 0 -0.3218151669216977 0.16614078867689411 0 -0.31952184149117457 0.17802360039574699 0 -0.31281393894784282 0.17242583979925441 0 -0.31152192073993629 0.18182124277595579 0 -0.31952184149117457 0.17802360039574699 0 -0.31073360595140198 0.19075298862014739 0 -0.31152192073993629 0.18182124277595579 0 -0.32148779520676202 0.15937836753946999 0 -0.3279759517104549 0.15998114761160701 0 -0.3218151669216977 0.16614078867689411 0 -0.32148779520676202 0.15937836753946999 0 -0.3279759517104549 0.15998114761160701 0 -0.32571935592137907 0.15468575204968291 0 -0.32844374772985391 0.16649416630433389 0 -0.3279759517104549 0.15998114761160701 0 -0.3218151669216977 0.16614078867689411 0 -0.32844374772985391 0.16649416630433389 0 -0.31952184149117457 0.17802360039574699 0 -0.3218151669216977 0.16614078867689411 0 -0.31281393894784282 0.17242583979925441 0 -0.3218151669216977 0.16614078867689411 0 -0.31552858071914541 0.16266870975395861 0 -0.31552858071914541 0.16266870975395861 0 -0.3173269881778078 0.15716878774374179 0 -0.31495640228045352 0.15320228423701551 0 -0.31552858071914541 0.16266870975395861 0 -0.31495640228045352 0.15320228423701551 0 -0.30863678883475959 0.16259397311224441 0 -0.32148779520676202 0.15937836753946999 0 -0.3218151669216977 0.16614078867689411 0 -0.31552858071914541 0.16266870975395861 0 -0.32148779520676202 0.15937836753946999 0 -0.31552858071914541 0.16266870975395861 0 -0.3173269881778078 0.15716878774374179 0 -0.32148779520676202 0.15937836753946999 0 -0.3173269881778078 0.15716878774374179 0 -0.32066155966635451 0.15419372936586651 0 -0.31495640228045352 0.15320228423701551 0 -0.31468353131078741 0.13943568208894311 0 -0.30863678883475959 0.16259397311224441 0 -0.31495640228045352 0.15320228423701551 0 -0.31835502653015341 0.15115652379145009 0 -0.31745621172127569 0.1466806285262299 0 -0.3173269881778078 0.15716878774374179 0 -0.31835502653015341 0.15115652379145009 0 -0.32066155966635451 0.15419372936586651 0 -0.3173269881778078 0.15716878774374179 0 -0.31495640228045352 0.15320228423701551 0 -0.31835502653015341 0.15115652379145009 0 -0.32148779520676202 0.15937836753946999 0 -0.32066155966635451 0.15419372936586651 0 -0.32571935592137907 0.15468575204968291 0 -0.32066155966635451 0.15419372936586651 0 -0.32277673852569622 0.15074630390372831 0 -0.32571935592137907 0.15468575204968291 0 -0.31835502653015341 0.15115652379145009 0 -0.32066155966635451 0.15419372936586651 0 -0.32277673852569622 0.15074630390372831 0 -0.32277673852569622 0.15074630390372831 0 -0.32699328441396919 0.14855150304122819 0 -0.32092411479102129 0.1464925945660612 0 -0.31835502653015341 0.15115652379145009 0 -0.32277673852569622 0.15074630390372831 0 -0.32092411479102129 0.1464925945660612 0 -0.32277673852569622 0.15074630390372831 0 -0.32699328441396919 0.14855150304122819 0 -0.32571935592137907 0.15468575204968291 0 -0.32699328441396919 0.14855150304122819 0 -0.32092411479102129 0.1464925945660612 0 -0.32908257984633837 0.14187326395897271 0 -0.32092411479102129 0.1464925945660612 0 -0.32121888659315417 0.1397933325280967 0 -0.32908257984633837 0.14187326395897271 0 -0.31836198369396268 0.14311605794767979 0 -0.31745621172127569 0.1466806285262299 0 -0.31468353131078741 0.13943568208894311 0 -0.31836198369396268 0.14311605794767979 0 -0.31468353131078741 0.13943568208894311 0 -0.32121888659315417 0.1397933325280967 0 -0.31495640228045352 0.15320228423701551 0 -0.31745621172127569 0.1466806285262299 0 -0.31468353131078741 0.13943568208894311 0 -0.32092411479102129 0.1464925945660612 0 -0.31836198369396268 0.14311605794767979 0 -0.32121888659315417 0.1397933325280967 0 -0.31835502653015341 0.15115652379145009 0 -0.32092411479102129 0.1464925945660612 0 -0.31745621172127569 0.1466806285262299 0 -0.32092411479102129 0.1464925945660612 0 -0.31836198369396268 0.14311605794767979 0 -0.31745621172127569 0.1466806285262299 0 -0.31468353131078741 0.13943568208894311 0 -0.31982162690177979 0.13097018294753851 0 -0.32121888659315417 0.1397933325280967 0 -0.31982162690177979 0.13097018294753851 0 -0.31137014296592769 0.13572592035616141 0 -0.31817001170144749 0.11104153437936071 0 -0.31468353131078741 0.13943568208894311 0 -0.31982162690177979 0.13097018294753851 0 -0.31137014296592769 0.13572592035616141 0 -0.31982162690177979 0.13097018294753851 0 -0.3275628557273953 0.12543809845850201 0 -0.32592433311196728 0.1343865298741671 0 -0.31982162690177979 0.13097018294753851 0 -0.32592433311196728 0.1343865298741671 0 -0.32121888659315417 0.1397933325280967 0 -0.32592433311196728 0.1343865298741671 0 -0.32121888659315417 0.1397933325280967 0 -0.32908257984633837 0.14187326395897271 0 -0.33739356488157107 0.13291326013319821 0 -0.33872721894151031 0.1435897662593883 0 -0.32908257984633837 0.14187326395897271 0 -0.32592433311196728 0.1343865298741671 0 -0.33739356488157107 0.13291326013319821 0 -0.32908257984633837 0.14187326395897271 0 -0.34941668540343063 0.1271861453710664 0 -0.33739356488157107 0.13291326013319821 0 -0.33756020232145523 0.1153263116834876 0 -0.3275628557273953 0.12543809845850201 0 -0.32592433311196728 0.1343865298741671 0 -0.33739356488157107 0.13291326013319821 0 -0.35155646613361352 0.14191323404436981 0 -0.33739356488157107 0.13291326013319821 0 -0.33872721894151031 0.1435897662593883 0 -0.33872721894151031 0.1435897662593883 0 -0.34163525104661407 0.15309887967008931 0 -0.3339682327994144 0.14815019349031161 0 -0.33457119007749042 0.15966778674452481 0 -0.34163525104661407 0.15309887967008931 0 -0.33181054432822032 0.15402254376790731 0 -0.34163525104661407 0.15309887967008931 0 -0.33181054432822032 0.15402254376790731 0 -0.3339682327994144 0.14815019349031161 0 -0.32699328441396919 0.14855150304122819 0 -0.32571935592137907 0.15468575204968291 0 -0.33181054432822032 0.15402254376790731 0 -0.3279759517104549 0.15998114761160701 0 -0.32571935592137907 0.15468575204968291 0 -0.33181054432822032 0.15402254376790731 0 -0.32699328441396919 0.14855150304122819 0 -0.33181054432822032 0.15402254376790731 0 -0.3339682327994144 0.14815019349031161 0 -0.32699328441396919 0.14855150304122819 0 -0.32908257984633837 0.14187326395897271 0 -0.3339682327994144 0.14815019349031161 0 -0.33872721894151031 0.1435897662593883 0 -0.32908257984633837 0.14187326395897271 0 -0.3339682327994144 0.14815019349031161 0 -0.3476101438532766 0.24165655188516871 0 -0.37035483700726152 0.22917556489354879 0 -0.3476101438532766 0.24165655188516871 0 -0.35220065320425659 0.24999127972566529 0 -0.36378674211593609 0.2470265393455075 0 -0.3476101438532766 0.24165655188516871 0 -0.34412048827477831 0.25120949573040219 0 -0.3476101438532766 0.24165655188516871 0 -0.35220065320425659 0.24999127972566529 0 -0.34412048827477831 0.25120949573040219 0 -0.3476101438532766 0.24165655188516871 0 -0.35264106977069831 0.22788437532001279 0 -0.38153207996096372 0.2447317517231026 0 -0.36378674211593609 0.2470265393455075 0 -0.37035483700726152 0.22917556489354879 0 -0.3476101438532766 0.24165655188516871 0 -0.36378674211593609 0.2470265393455075 0 -0.37035483700726152 0.22917556489354879 0 -0.38153207996096372 0.2447317517231026 0 -0.36378674211593609 0.2470265393455075 0 -0.37596378635252209 0.25787488210020998 0 -0.37035483700726152 0.22917556489354879 0 -0.35264106977069831 0.22788437532001279 0 -0.37471030932431831 0.21352417941400839 0 -0.3476101438532766 0.24165655188516871 0 -0.37035483700726152 0.22917556489354879 0 -0.35264106977069831 0.22788437532001279 0 -0.3476101438532766 0.24165655188516871 0 -0.35264106977069831 0.22788437532001279 0 -0.33714887442812552 0.23021687369624419 0 -0.35264106977069831 0.22788437532001279 0 -0.3426900166407324 0.21721199498973889 0 -0.33714887442812552 0.23021687369624419 0 -0.35264106977069831 0.22788437532001279 0 -0.36116165126661792 0.20455925490962329 0 -0.35264106977069831 0.22788437532001279 0 -0.36116165126661792 0.20455925490962329 0 -0.3426900166407324 0.21721199498973889 0 -0.34732744992129683 0.20361096131406051 0 -0.36116165126661792 0.20455925490962329 0 -0.3426900166407324 0.21721199498973889 0 -0.35264106977069831 0.22788437532001279 0 -0.37471030932431831 0.21352417941400839 0 -0.36116165126661792 0.20455925490962329 0 -0.37471030932431831 0.21352417941400839 0 -0.37280550458180473 0.20370653366560079 0 -0.36116165126661792 0.20455925490962329 0 -0.36968223276253759 0.18123413449923381 0 -0.36116165126661792 0.20455925490962329 0 -0.36968223276253759 0.18123413449923381 0 -0.36116165126661792 0.20455925490962329 0 -0.37333899098095752 0.19527648031509559 0 -0.36968223276253759 0.18123413449923381 0 -0.3582914056807629 0.18492334470750249 0 -0.36116165126661792 0.20455925490962329 0 -0.37280550458180473 0.20370653366560079 0 -0.36116165126661792 0.20455925490962329 0 -0.37333899098095752 0.19527648031509559 0 -0.3582914056807629 0.18492334470750249 0 -0.36116165126661792 0.20455925490962329 0 -0.35355942319404532 0.19512088577690981 0 -0.35058630745601788 0.1866449855346784 0 -0.35355942319404532 0.19512088577690981 0 -0.33675132205709118 0.1903595234909097 0 -0.34732744992129683 0.20361096131406051 0 -0.35355942319404532 0.19512088577690981 0 -0.33675132205709118 0.1903595234909097 0 -0.3582914056807629 0.18492334470750249 0 -0.35058630745601788 0.1866449855346784 0 -0.35355942319404532 0.19512088577690981 0 -0.34732744992129683 0.20361096131406051 0 -0.36116165126661792 0.20455925490962329 0 -0.35355942319404532 0.19512088577690981 0 -0.33675132205709118 0.1903595234909097 0 -0.32877165556075322 0.21007595229289491 0 -0.3317900362249574 0.17908881268221941 0 -0.33675132205709118 0.1903595234909097 0 -0.31975657544808289 0.19637725513935689 0 -0.33675132205709118 0.1903595234909097 0 -0.31975657544808289 0.19637725513935689 0 -0.32877165556075322 0.21007595229289491 0 -0.34732744992129683 0.20361096131406051 0 -0.33675132205709118 0.1903595234909097 0 -0.32877165556075322 0.21007595229289491 0 -0.31952184149117457 0.17802360039574699 0 -0.31975657544808289 0.19637725513935689 0 -0.31073360595140198 0.19075298862014739 0 -0.31975657544808289 0.19637725513935689 0 -0.31319691754384299 0.2155023187863267 0 -0.32877165556075322 0.21007595229289491 0 -0.31319691754384299 0.2155023187863267 0 -0.32877165556075322 0.21007595229289491 0 -0.34732744992129683 0.20361096131406051 0 -0.32877165556075322 0.21007595229289491 0 -0.34732744992129683 0.20361096131406051 0 -0.32877165556075322 0.21007595229289491 0 -0.3426900166407324 0.21721199498973889 0 -0.32877165556075322 0.21007595229289491 0 -0.33714887442812552 0.23021687369624419 0 -0.31879954813088218 0.2347153712757554 0 -0.32877165556075322 0.21007595229289491 0 -0.3426900166407324 0.21721199498973889 0 -0.33714887442812552 0.23021687369624419 0 -0.31319691754384299 0.2155023187863267 0 -0.32877165556075322 0.21007595229289491 0 -0.31879954813088218 0.2347153712757554 0 -0.32877165556075322 0.21007595229289491 0 -0.31879954813088218 0.2347153712757554 0 -0.31879954813088218 0.2347153712757554 0 -0.31556053223240471 0.2427184408752304 0 -0.32772294389005391 0.25109503919567761 0 -0.31556053223240471 0.2427184408752304 0 -0.30951648038044849 0.24087881725500659 0 -0.32141607343252149 0.26083327442965071 0 -0.31879954813088218 0.2347153712757554 0 -0.31556053223240471 0.2427184408752304 0 -0.31879954813088218 0.2347153712757554 0 -0.31556053223240471 0.2427184408752304 0 -0.30951648038044849 0.24087881725500659 0 -0.3476101438532766 0.24165655188516871 0 -0.33714887442812552 0.23021687369624419 0 -0.34412048827477831 0.25120949573040219 0 -0.33714887442812552 0.23021687369624419 0 -0.31879954813088218 0.2347153712757554 0 -0.34412048827477831 0.25120949573040219 0 -0.31879954813088218 0.2347153712757554 0 -0.34412048827477831 0.25120949573040219 0 -0.31879954813088218 0.2347153712757554 0 -0.34412048827477831 0.25120949573040219 0 -0.32772294389005391 0.25109503919567761 0 -0.28650837652995048 0.2473431110274103 0 -0.29720767462479958 0.23615475724223031 0 -0.29298330853539067 0.22254490598848381 0 -0.28650837652995048 0.2473431110274103 0 -0.29298330853539067 0.22254490598848381 0 -0.28650837652995048 0.2473431110274103 0 -0.28514467421293771 0.23092769825810661 0 -0.28037406685549249 0.239288889529639 0 -0.28650837652995048 0.2473431110274103 0 -0.29940802815127748 0.24907826666049679 0 -0.29720767462479958 0.23615475724223031 0 -0.29940802815127748 0.24907826666049679 0 -0.30951648038044849 0.24087881725500659 0 -0.29720767462479958 0.23615475724223031 0 -0.31319691754384299 0.2155023187863267 0 -0.31879954813088218 0.2347153712757554 0 -0.29762002142428662 0.22092249110113649 0 -0.30951648038044849 0.24087881725500659 0 -0.29720767462479958 0.23615475724223031 0 -0.29762002142428662 0.22092249110113649 0 -0.31879954813088218 0.2347153712757554 0 -0.29762002142428662 0.22092249110113649 0 -0.31879954813088218 0.2347153712757554 0 -0.30951648038044849 0.24087881725500659 0 -0.29762002142428662 0.22092249110113649 0 -0.30951648038044849 0.24087881725500659 0 -0.29762002142428662 0.22092249110113649 0 -0.29298330853539067 0.22254490598848381 0 -0.29402013218163692 0.21857399705119571 0 -0.29298330853539067 0.22254490598848381 0 -0.2868668656620823 0.2246759248621627 0 -0.28938035623915809 0.2155516352667548 0 -0.29720767462479958 0.23615475724223031 0 -0.29762002142428662 0.22092249110113649 0 -0.29298330853539067 0.22254490598848381 0 -0.29762002142428662 0.22092249110113649 0 -0.29298330853539067 0.22254490598848381 0 -0.29762002142428662 0.22092249110113649 0 -0.29402013218163692 0.21857399705119571 0 -0.29762002142428662 0.22092249110113649 0 -0.29298330853539067 0.22254490598848381 0 -0.29402013218163692 0.21857399705119571 0 -0.28650837652995048 0.2473431110274103 0 -0.29298330853539067 0.22254490598848381 0 -0.28514467421293771 0.23092769825810661 0 -0.29298330853539067 0.22254490598848381 0 -0.28938035623915809 0.2155516352667548 0 -0.29402013218163692 0.21857399705119571 0 -0.29298330853539067 0.22254490598848381 0 -0.2868668656620823 0.2246759248621627 0 -0.28514467421293771 0.23092769825810661 0 -0.2868668656620823 0.2246759248621627 0 -0.2746153504589412 0.23472719560717159 0 -0.28514467421293771 0.23092769825810661 0 -0.2868668656620823 0.2246759248621627 0 -0.29298330853539067 0.22254490598848381 0 -0.28514467421293771 0.23092769825810661 0 -0.2868668656620823 0.2246759248621627 0 -0.2868668656620823 0.2246759248621627 0 -0.28938035623915809 0.2155516352667548 0 -0.2868668656620823 0.2246759248621627 0 -0.28705213255633449 0.21403502447092679 0 -0.28938035623915809 0.2155516352667548 0 -0.28705213255633449 0.21403502447092679 0 -0.28971400929861452 0.2076720042635532 0 -0.29027792204785152 0.21229335753772219 0 -0.28705213255633449 0.21403502447092679 0 -0.29027792204785152 0.21229335753772219 0 -0.28938035623915809 0.2155516352667548 0 -0.28705213255633449 0.21403502447092679 0 -0.28938035623915809 0.2155516352667548 0 -0.28705213255633449 0.21403502447092679 0 -0.29027792204785152 0.21229335753772219 0 -0.28705213255633449 0.21403502447092679 0 -0.28971400929861452 0.2076720042635532 0 -0.28429727541272448 0.201341164484372 0 -0.28971400929861452 0.2076720042635532 0 -0.29010499864891731 0.20240311962322069 0 -0.28429727541272448 0.201341164484372 0 -0.29097053675936951 0.2097790782865635 0 -0.28971400929861452 0.2076720042635532 0 -0.29027792204785152 0.21229335753772219 0 -0.29097053675936951 0.2097790782865635 0 -0.28971400929861452 0.2076720042635532 0 -0.29097053675936951 0.2097790782865635 0 -0.29193602831881071 0.2113981134830622 0 -0.29097053675936951 0.2097790782865635 0 -0.28971400929861452 0.2076720042635532 0 -0.29010499864891731 0.20240311962322069 0 -0.29654330388270389 0.20891055515884691 0 -0.29193602831881071 0.2113981134830622 0 -0.29097053675936951 0.2097790782865635 0 -0.29654330388270389 0.20891055515884691 0 -0.29193602831881071 0.2113981134830622 0 -0.29762002142428662 0.22092249110113649 0 -0.29654330388270389 0.20891055515884691 0 -0.29468858883623228 0.21601388905833799 0 -0.29654330388270389 0.20891055515884691 0 -0.29193602831881071 0.2113981134830622 0 -0.29468858883623228 0.21601388905833799 0 -0.29193602831881071 0.2113981134830622 0 -0.29468858883623228 0.21601388905833799 0 -0.29654330388270389 0.20891055515884691 0 -0.29468858883623228 0.21601388905833799 0 -0.29193602831881071 0.2113981134830622 0 -0.29206060552473789 0.2147661984794148 0 -0.29027792204785152 0.21229335753772219 0 -0.29193602831881071 0.2113981134830622 0 -0.29206060552473789 0.2147661984794148 0 -0.29468858883623228 0.21601388905833799 0 -0.29097053675936951 0.2097790782865635 0 -0.29193602831881071 0.2113981134830622 0 -0.29027792204785152 0.21229335753772219 0 -0.29193602831881071 0.2113981134830622 0 -0.29027792204785152 0.21229335753772219 0 -0.29027792204785152 0.21229335753772219 0 -0.28938035623915809 0.2155516352667548 0 -0.29206060552473789 0.2147661984794148 0 -0.29027792204785152 0.21229335753772219 0 -0.28938035623915809 0.2155516352667548 0 -0.29097053675936951 0.2097790782865635 0 -0.29027792204785152 0.21229335753772219 0 -0.28938035623915809 0.2155516352667548 0 -0.29402013218163692 0.21857399705119571 0 -0.29206060552473789 0.2147661984794148 0 -0.28938035623915809 0.2155516352667548 0 -0.29402013218163692 0.21857399705119571 0 -0.29402013218163692 0.21857399705119571 0 -0.29468858883623228 0.21601388905833799 0 -0.29762002142428662 0.22092249110113649 0 -0.29468858883623228 0.21601388905833799 0 -0.29762002142428662 0.22092249110113649 0 -0.29402013218163692 0.21857399705119571 0 -0.29468858883623228 0.21601388905833799 0 -0.29206060552473789 0.2147661984794148 0 -0.29402013218163692 0.21857399705119571 0 -0.29468858883623228 0.21601388905833799 0 -0.31975657544808289 0.19637725513935689 0 -0.31319691754384299 0.2155023187863267 0 -0.29654330388270389 0.20891055515884691 0 -0.31319691754384299 0.2155023187863267 0 -0.29762002142428662 0.22092249110113649 0 -0.29654330388270389 0.20891055515884691 0 -0.31319691754384299 0.2155023187863267 0 -0.29762002142428662 0.22092249110113649 0 -0.29654330388270389 0.20891055515884691 0 -0.31073360595140198 0.19075298862014739 0 -0.30259004635873188 0.1857522641355456 0 -0.29654330388270389 0.20891055515884691 0 -0.30259004635873188 0.1857522641355456 0 -0.29654330388270389 0.20891055515884691 0 -0.30259004635873188 0.1857522641355456 0 -0.29777040549488831 0.18509469230976269 0 -0.31975657544808289 0.19637725513935689 0 -0.29654330388270389 0.20891055515884691 0 -0.31975657544808289 0.19637725513935689 0 -0.29654330388270389 0.20891055515884691 0 -0.31073360595140198 0.19075298862014739 0 -0.29097053675936951 0.2097790782865635 0 -0.29777040549488831 0.18509469230976269 0 -0.29097053675936951 0.2097790782865635 0 -0.29255472328286142 0.19595961128387099 0 -0.29777040549488831 0.18509469230976269 0 -0.29097053675936951 0.2097790782865635 0 -0.29654330388270389 0.20891055515884691 0 -0.29777040549488831 0.18509469230976269 0 -0.29255472328286142 0.19595961128387099 0 -0.29777040549488831 0.18509469230976269 0 -0.29021613828326459 0.18726008670828551 0 -0.29097053675936951 0.2097790782865635 0 -0.29255472328286142 0.19595961128387099 0 -0.29010499864891731 0.20240311962322069 0 -0.29255472328286142 0.19595961128387099 0 -0.28429727541272448 0.201341164484372 0 -0.28085850988873012 0.1889877590575583 0 -0.29255472328286142 0.19595961128387099 0 -0.29010499864891731 0.20240311962322069 0 -0.28429727541272448 0.201341164484372 0 -0.29255472328286142 0.19595961128387099 0 -0.28085850988873012 0.1889877590575583 0 -0.29021613828326459 0.18726008670828551 0 -0.28429727541272448 0.201341164484372 0 -0.28085850988873012 0.1889877590575583 0 -0.26508594023407511 0.1997261912325434 0 -0.28085850988873012 0.1889877590575583 0 -0.26508594023407511 0.1997261912325434 0 -0.26867105505441152 0.18002394511793579 0 -0.26508594023407511 0.1997261912325434 0 -0.25382205123979462 0.21202334682955021 0 -0.2431197479118164 0.1854173579941589 0 -0.26508594023407511 0.1997261912325434 0 -0.2431197479118164 0.1854173579941589 0 -0.26428387497053007 0.21042389576480719 0 -0.25382205123979462 0.21202334682955021 0 -0.26041614939884428 0.22841631352303901 0 -0.26508594023407511 0.1997261912325434 0 -0.26428387497053007 0.21042389576480719 0 -0.25382205123979462 0.21202334682955021 0 -0.26428387497053007 0.21042389576480719 0 -0.25382205123979462 0.21202334682955021 0 -0.28705213255633449 0.21403502447092679 0 -0.26508594023407511 0.1997261912325434 0 -0.26428387497053007 0.21042389576480719 0 -0.28705213255633449 0.21403502447092679 0 -0.26508594023407511 0.1997261912325434 0 -0.28705213255633449 0.21403502447092679 0 -0.26428387497053007 0.21042389576480719 0 -0.26041614939884428 0.22841631352303901 0 -0.28705213255633449 0.21403502447092679 0 -0.28429727541272448 0.201341164484372 0 -0.26508594023407511 0.1997261912325434 0 -0.2868668656620823 0.2246759248621627 0 -0.28705213255633449 0.21403502447092679 0 -0.26041614939884428 0.22841631352303901 0 -0.2868668656620823 0.2246759248621627 0 -0.26234785653272052 0.2332185487860603 0 -0.28705213255633449 0.21403502447092679 0 -0.26041614939884428 0.22841631352303901 0 -0.2868668656620823 0.2246759248621627 0 -0.26041614939884428 0.22841631352303901 0 -0.26234785653272052 0.2332185487860603 0 -0.2868668656620823 0.2246759248621627 0 -0.26234785653272052 0.2332185487860603 0 -0.2746153504589412 0.23472719560717159 0 -0.25382205123979462 0.21202334682955021 0 -0.26041614939884428 0.22841631352303901 0 -0.24583336088181401 0.22389194151097541 0 -0.25382205123979462 0.21202334682955021 0 -0.26041614939884428 0.22841631352303901 0 -0.25020845078822918 0.2339276499512129 0 -0.26041614939884428 0.22841631352303901 0 -0.24583336088181401 0.22389194151097541 0 -0.25020845078822918 0.2339276499512129 0 -0.26041614939884428 0.22841631352303901 0 -0.25020845078822918 0.2339276499512129 0 -0.26041614939884428 0.22841631352303901 0 -0.26234785653272052 0.2332185487860603 0 -0.26041614939884428 0.22841631352303901 0 -0.26234785653272052 0.2332185487860603 0 -0.26234785653272052 0.2332185487860603 0 -0.26639366242262502 0.243276445954381 0 -0.26234785653272052 0.2332185487860603 0 -0.25355414777238738 0.24563073474758021 0 -0.26639366242262502 0.243276445954381 0 -0.26234785653272052 0.2332185487860603 0 -0.25355414777238738 0.24563073474758021 0 -0.23621598375468131 0.24232310763638509 0 -0.25355414777238738 0.24563073474758021 0 -0.26012650635371831 0.24996441057044549 0 -0.26639366242262502 0.243276445954381 0 -0.26639366242262502 0.243276445954381 0 -0.27522786622014028 0.24415755322586771 0 -0.26746969881204902 0.25764483835000601 0 -0.28650837652995048 0.2473431110274103 0 -0.27522786622014028 0.24415755322586771 0 -0.26746969881204902 0.25764483835000601 0 -0.26639366242262502 0.243276445954381 0 -0.2746153504589412 0.23472719560717159 0 -0.27522786622014028 0.24415755322586771 0 -0.26234785653272052 0.2332185487860603 0 -0.26639366242262502 0.243276445954381 0 -0.2746153504589412 0.23472719560717159 0 -0.2746153504589412 0.23472719560717159 0 -0.28037406685549249 0.239288889529639 0 -0.27522786622014028 0.24415755322586771 0 -0.28514467421293771 0.23092769825810661 0 -0.2746153504589412 0.23472719560717159 0 -0.28037406685549249 0.239288889529639 0 -0.28650837652995048 0.2473431110274103 0 -0.28037406685549249 0.239288889529639 0 -0.27522786622014028 0.24415755322586771 0 -0.29374284710146392 0.1512155169296695 0 -0.29054286337699908 0.16006536301122609 0 -0.27765586984683699 0.15493852421889859 0 -0.28268584479449599 0.14352815199566879 0 -0.29374284710146392 0.1512155169296695 0 -0.27765586984683699 0.15493852421889859 0 -0.29374284710146392 0.1512155169296695 0 -0.29248204472642619 0.1239125914114026 0 -0.28268584479449599 0.14352815199566879 0 -0.27257735712673531 0.13419873071746019 0 -0.29248204472642619 0.1239125914114026 0 -0.28268584479449599 0.14352815199566879 0 -0.29374284710146392 0.1512155169296695 0 -0.29248204472642619 0.1239125914114026 0 -0.29374284710146392 0.1512155169296695 0 -0.30031495570910521 0.13813146505412821 0 -0.29248204472642619 0.1239125914114026 0 -0.30031495570910521 0.13813146505412821 0 -0.30258771998673839 0.1296555493006929 0 -0.29248204472642619 0.1239125914114026 0 -0.30258771998673839 0.1296555493006929 0 -0.31137014296592769 0.13572592035616141 0 -0.30618373654549452 0.1208522203810795 0 -0.30031495570910521 0.13813146505412821 0 -0.30258771998673839 0.1296555493006929 0 -0.31137014296592769 0.13572592035616141 0 -0.31468353131078741 0.13943568208894311 0 -0.30863678883475959 0.16259397311224441 0 -0.31137014296592769 0.13572592035616141 0 -0.301414666133485 0.1493558025941219 0 -0.304570274230408 0.1604103063329621 0 -0.31468353131078741 0.13943568208894311 0 -0.31137014296592769 0.13572592035616141 0 -0.304570274230408 0.1604103063329621 0 -0.31137014296592769 0.13572592035616141 0 -0.304570274230408 0.1604103063329621 0 -0.31468353131078741 0.13943568208894311 0 -0.30863678883475959 0.16259397311224441 0 -0.304570274230408 0.1604103063329621 0 -0.29374284710146392 0.1512155169296695 0 -0.30031495570910521 0.13813146505412821 0 -0.301414666133485 0.1493558025941219 0 -0.30031495570910521 0.13813146505412821 0 -0.31137014296592769 0.13572592035616141 0 -0.301414666133485 0.1493558025941219 0 -0.29374284710146392 0.1512155169296695 0 -0.301414666133485 0.1493558025941219 0 -0.29758970135666929 0.15909305068719021 0 -0.30863678883475959 0.16259397311224441 0 -0.304570274230408 0.1604103063329621 0 -0.29777040549488831 0.18509469230976269 0 -0.29773877552428329 0.16923181358200509 0 -0.304570274230408 0.1604103063329621 0 -0.29777040549488831 0.18509469230976269 0 -0.31281393894784282 0.17242583979925441 0 -0.31552858071914541 0.16266870975395861 0 -0.30863678883475959 0.16259397311224441 0 -0.29773877552428329 0.16923181358200509 0 -0.304570274230408 0.1604103063329621 0 -0.29758970135666929 0.15909305068719021 0 -0.301414666133485 0.1493558025941219 0 -0.304570274230408 0.1604103063329621 0 -0.29758970135666929 0.15909305068719021 0 -0.30863678883475959 0.16259397311224441 0 -0.30259004635873188 0.1857522641355456 0 -0.31281393894784282 0.17242583979925441 0 -0.30863678883475959 0.16259397311224441 0 -0.30259004635873188 0.1857522641355456 0 -0.30863678883475959 0.16259397311224441 0 -0.30259004635873188 0.1857522641355456 0 -0.29777040549488831 0.18509469230976269 0 -0.304570274230408 0.1604103063329621 0 -0.29777040549488831 0.18509469230976269 0 -0.31281393894784282 0.17242583979925441 0 -0.31152192073993629 0.18182124277595579 0 -0.30259004635873188 0.1857522641355456 0 -0.31073360595140198 0.19075298862014739 0 -0.31152192073993629 0.18182124277595579 0 -0.30259004635873188 0.1857522641355456 0 -0.29773877552428329 0.16923181358200509 0 -0.29777040549488831 0.18509469230976269 0 -0.29462307124226539 0.17598205111438081 0 -0.28085850988873012 0.1889877590575583 0 -0.28706109989350598 0.1800394304715989 0 -0.27792500778525642 0.1726322723105479 0 -0.29777040549488831 0.18509469230976269 0 -0.29241767872848112 0.18209406515100701 0 -0.29462307124226539 0.17598205111438081 0 -0.29777040549488831 0.18509469230976269 0 -0.29021613828326459 0.18726008670828551 0 -0.29241767872848112 0.18209406515100701 0 -0.29021613828326459 0.18726008670828551 0 -0.29241767872848112 0.18209406515100701 0 -0.28706109989350598 0.1800394304715989 0 -0.29462307124226539 0.17598205111438081 0 -0.28706109989350598 0.1800394304715989 0 -0.28725127165414849 0.16886489383967951 0 -0.29241767872848112 0.18209406515100701 0 -0.29462307124226539 0.17598205111438081 0 -0.28706109989350598 0.1800394304715989 0 -0.28706109989350598 0.1800394304715989 0 -0.28725127165414849 0.16886489383967951 0 -0.27792500778525642 0.1726322723105479 0 -0.28085850988873012 0.1889877590575583 0 -0.29021613828326459 0.18726008670828551 0 -0.28706109989350598 0.1800394304715989 0 -0.29374284710146392 0.1512155169296695 0 -0.29758970135666929 0.15909305068719021 0 -0.29054286337699908 0.16006536301122609 0 -0.29758970135666929 0.15909305068719021 0 -0.29054286337699908 0.16006536301122609 0 -0.29414042529718548 0.16557896746572959 0 -0.29462307124226539 0.17598205111438081 0 -0.29414042529718548 0.16557896746572959 0 -0.28725127165414849 0.16886489383967951 0 -0.29773877552428329 0.16923181358200509 0 -0.29758970135666929 0.15909305068719021 0 -0.29414042529718548 0.16557896746572959 0 -0.29054286337699908 0.16006536301122609 0 -0.29414042529718548 0.16557896746572959 0 -0.28725127165414849 0.16886489383967951 0 -0.29773877552428329 0.16923181358200509 0 -0.29462307124226539 0.17598205111438081 0 -0.29414042529718548 0.16557896746572959 0 -0.29054286337699908 0.16006536301122609 0 -0.28725127165414849 0.16886489383967951 0 -0.27765586984683699 0.15493852421889859 0 -0.26605224037390568 0.16293908115761629 0 -0.26867105505441152 0.18002394511793579 0 -0.27792500778525642 0.1726322723105479 0 -0.26605224037390568 0.16293908115761629 0 -0.27792500778525642 0.1726322723105479 0 -0.27765586984683699 0.15493852421889859 0 -0.28725127165414849 0.16886489383967951 0 -0.27792500778525642 0.1726322723105479 0 -0.27765586984683699 0.15493852421889859 0 -0.28085850988873012 0.1889877590575583 0 -0.26867105505441152 0.18002394511793579 0 -0.27792500778525642 0.1726322723105479 0 -0.26508594023407511 0.1997261912325434 0 -0.25477079641615608 0.17556754903091679 0 -0.2431197479118164 0.1854173579941589 0 -0.26508594023407511 0.1997261912325434 0 -0.26867105505441152 0.18002394511793579 0 -0.25477079641615608 0.17556754903091679 0 -0.26605224037390568 0.16293908115761629 0 -0.26867105505441152 0.18002394511793579 0 -0.25477079641615608 0.17556754903091679 0 -0.26605224037390568 0.16293908115761629 0 -0.25477079641615608 0.17556754903091679 0 -0.25370880345582669 0.159728138447183 0 -0.26605224037390568 0.16293908115761629 0 -0.25370880345582669 0.159728138447183 0 -0.2567994101475965 0.14293011260178351 0 -0.2567994101475965 0.14293011260178351 0 -0.27765586984683699 0.15493852421889859 0 -0.27257735712673531 0.13419873071746019 0 -0.26605224037390568 0.16293908115761629 0 -0.2567994101475965 0.14293011260178351 0 -0.27765586984683699 0.15493852421889859 0 -0.28268584479449599 0.14352815199566879 0 -0.27765586984683699 0.15493852421889859 0 -0.27257735712673531 0.13419873071746019 0 -0.2567994101475965 0.14293011260178351 0 -0.26104522839842298 0.12711346172008581 0 -0.24652085095421339 0.119878352835588 0 -0.2567994101475965 0.14293011260178351 0 -0.27257735712673531 0.13419873071746019 0 -0.26104522839842298 0.12711346172008581 0 -0.25149407947967251 0.098937901634065836 0 -0.26929359156424282 0.1130190188870247 0 -0.24652085095421339 0.119878352835588 0 -0.26104522839842298 0.12711346172008581 0 -0.26929359156424282 0.1130190188870247 0 -0.24652085095421339 0.119878352835588 0 -0.25149407947967251 0.098937901634065836 0 -0.26929359156424282 0.1130190188870247 0 -0.27028653272937331 0.086133491524785805 0 -0.26929359156424282 0.1130190188870247 0 -0.29122124235138852 0.096609665893135716 0 -0.27028653272937331 0.086133491524785805 0 -0.27257735712673531 0.13419873071746019 0 -0.26929359156424282 0.1130190188870247 0 -0.29248204472642619 0.1239125914114026 0 -0.27257735712673531 0.13419873071746019 0 -0.26104522839842298 0.12711346172008581 0 -0.26929359156424282 0.1130190188870247 0 -0.26929359156424282 0.1130190188870247 0 -0.29248204472642619 0.1239125914114026 0 -0.29122124235138852 0.096609665893135716 0 -0.29248204472642619 0.1239125914114026 0 -0.29122124235138852 0.096609665893135716 0 -0.29248204472642619 0.1239125914114026 0 -0.29122124235138852 0.096609665893135716 0 -0.30618373654549452 0.1208522203810795 0 -0.29122124235138852 0.096609665893135716 0 -0.30903411996307212 0.082759198348279522 0 -0.31817001170144749 0.11104153437936071 0 -0.29122124235138852 0.096609665893135716 0 -0.30618373654549452 0.1208522203810795 0 -0.31817001170144749 0.11104153437936071 0 -0.31137014296592769 0.13572592035616141 0 -0.30618373654549452 0.1208522203810795 0 -0.31817001170144749 0.11104153437936071 0 -0.30258771998673839 0.1296555493006929 0 -0.29248204472642619 0.1239125914114026 0 -0.30618373654549452 0.1208522203810795 0 -0.30903411996307212 0.082759198348279522 0 -0.28996043997635079 0.069306740374868697 0 -0.30975992535872698 0.055873485142201362 0 -0.29122124235138852 0.096609665893135716 0 -0.28996043997635079 0.069306740374868697 0 -0.29122124235138852 0.096609665893135716 0 -0.30903411996307212 0.082759198348279522 0 -0.28996043997635079 0.069306740374868697 0 -0.29122124235138852 0.096609665893135716 0 -0.28996043997635079 0.069306740374868697 0 -0.27028653272937331 0.086133491524785805 0 -0.28996043997635079 0.069306740374868697 0 -0.27268117692811378 0.06906488717521235 0 -0.27028653272937331 0.086133491524785805 0 -0.28996043997635079 0.069306740374868697 0 -0.27268117692811378 0.06906488717521235 0 -0.27664251596886669 0.0530431542111056 0 -0.27268117692811378 0.06906488717521235 0 -0.27028653272937331 0.086133491524785805 0 -0.26274145539055982 0.074961699384691119 0 -0.27268117692811378 0.06906488717521235 0 -0.26274145539055982 0.074961699384691119 0 -0.26377494057541839 0.061879350380610501 0 -0.27028653272937331 0.086133491524785805 0 -0.25257355536909432 0.082348312818626632 0 -0.26274145539055982 0.074961699384691119 0 -0.25149407947967251 0.098937901634065836 0 -0.27028653272937331 0.086133491524785805 0 -0.25257355536909432 0.082348312818626632 0 -0.26274145539055982 0.074961699384691119 0 -0.25315120101487221 0.068954177185853227 0 -0.26377494057541839 0.061879350380610501 0 -0.25257355536909432 0.082348312818626632 0 -0.26274145539055982 0.074961699384691119 0 -0.25315120101487221 0.068954177185853227 0 -0.25315120101487221 0.068954177185853227 0 -0.25239598045762301 0.056577261174826282 0 -0.26377494057541839 0.061879350380610501 0 -0.25239598045762301 0.056577261174826282 0 -0.26377494057541839 0.061879350380610501 0 -0.26299712564628458 0.04998870864609891 0 -0.25239598045762301 0.056577261174826282 0 -0.24980698532294751 0.04422840036071244 0 -0.25239598045762301 0.056577261174826282 0 -0.26299712564628458 0.04998870864609891 0 -0.24980698532294751 0.04422840036071244 0 -0.27293014685267419 0.034216310051292123 0 -0.24980698532294751 0.04422840036071244 0 -0.26299712564628458 0.04998870864609891 0 -0.27293014685267419 0.034216310051292123 0 -0.24980698532294751 0.04422840036071244 0 -0.27293014685267419 0.034216310051292123 0 -0.25718064476893909 0.030692254923712262 0 -0.24980698532294751 0.04422840036071244 0 -0.25718064476893909 0.030692254923712262 0 -0.24543378424691301 0.023369322382240511 0 -0.24980698532294751 0.04422840036071244 0 -0.26299712564628458 0.04998870864609891 0 -0.27293014685267419 0.034216310051292123 0 -0.27664251596886669 0.0530431542111056 0 -0.27293014685267419 0.034216310051292123 0 -0.27664251596886669 0.0530431542111056 0 -0.28283387464172161 0.043092733283018908 0 -0.27268117692811378 0.06906488717521235 0 -0.26377494057541839 0.061879350380610501 0 -0.27664251596886669 0.0530431542111056 0 -0.26377494057541839 0.061879350380610501 0 -0.26299712564628458 0.04998870864609891 0 -0.27664251596886669 0.0530431542111056 0 -0.26451735172234209 -0.0056585011065514454 0 -0.26201538849296202 0.0068447474301096848 0 -0.25283005323772689 0.00055530769458268315 0 -0.26201538849296202 0.0068447474301096848 0 -0.25283005323772689 0.00055530769458268315 0 -0.25221396866587598 0.01086439825930755 0 -0.26201538849296202 0.0068447474301096848 0 -0.25221396866587598 0.01086439825930755 0 -0.26055166265322183 0.020954986900603979 0 -0.27293014685267419 0.034216310051292123 0 -0.26055166265322183 0.020954986900603979 0 -0.25718064476893909 0.030692254923712262 0 -0.25221396866587598 0.01086439825930755 0 -0.26055166265322183 0.020954986900603979 0 -0.24543378424691301 0.023369322382240511 0 -0.26055166265322183 0.020954986900603979 0 -0.25718064476893909 0.030692254923712262 0 -0.24543378424691301 0.023369322382240511 0 -0.27293014685267419 0.034216310051292123 0 -0.26055166265322183 0.020954986900603979 0 -0.27918803886455867 0.017260209662709729 0 -0.26201538849296202 0.0068447474301096848 0 -0.27918803886455867 0.017260209662709729 0 -0.27596627589349532 0.0018974693142803909 0 -0.26201538849296202 0.0068447474301096848 0 -0.26055166265322183 0.020954986900603979 0 -0.27918803886455867 0.017260209662709729 0 -0.26451735172234209 -0.0056585011065514454 0 -0.26201538849296202 0.0068447474301096848 0 -0.27596627589349532 0.0018974693142803909 0 -0.27918803886455867 0.017260209662709729 0 -0.27596627589349532 0.0018974693142803909 0 -0.29074293809310919 0.0040245865018172684 0 -0.27918803886455867 0.017260209662709729 0 -0.29074293809310919 0.0040245865018172684 0 -0.29316026164468939 0.015192651565793251 0 -0.29074293809310919 0.0040245865018172684 0 -0.29316026164468939 0.015192651565793251 0 -0.30152911725312731 0.0146522928949242 0 -0.27293014685267419 0.034216310051292123 0 -0.29605330838240113 0.024204219741872389 0 -0.27293014685267419 0.034216310051292123 0 -0.27918803886455867 0.017260209662709729 0 -0.29605330838240113 0.024204219741872389 0 -0.27918803886455867 0.017260209662709729 0 -0.29316026164468939 0.015192651565793251 0 -0.29605330838240113 0.024204219741872389 0 -0.27918803886455867 0.017260209662709729 0 -0.29605330838240113 0.024204219741872389 0 -0.29316026164468939 0.015192651565793251 0 -0.29605330838240113 0.024204219741872389 0 -0.29824364835220007 0.019319985522929229 0 -0.29605330838240113 0.024204219741872389 0 -0.29872368575489111 0.023047973898099441 0 -0.31707212592057421 0.032858388042164413 0 -0.30753562387707511 0.02108648877049886 0 -0.29872368575489111 0.023047973898099441 0 -0.31707212592057421 0.032858388042164413 0 -0.29605330838240113 0.024204219741872389 0 -0.31707212592057421 0.032858388042164413 0 -0.29605330838240113 0.024204219741872389 0 -0.29872368575489111 0.023047973898099441 0 -0.30753562387707511 0.02108648877049886 0 -0.31189356333727219 0.01555608553848852 0 -0.31710889976317552 0.021407696950075661 0 -0.30753562387707511 0.02108648877049886 0 -0.30152911725312731 0.0146522928949242 0 -0.31189356333727219 0.01555608553848852 0 -0.29316026164468939 0.015192651565793251 0 -0.29824364835220007 0.019319985522929229 0 -0.30152911725312731 0.0146522928949242 0 -0.30753562387707511 0.02108648877049886 0 -0.30175186872589149 0.019502789513956859 0 -0.29872368575489111 0.023047973898099441 0 -0.30753562387707511 0.02108648877049886 0 -0.30175186872589149 0.019502789513956859 0 -0.30152911725312731 0.0146522928949242 0 -0.29605330838240113 0.024204219741872389 0 -0.29872368575489111 0.023047973898099441 0 -0.29824364835220007 0.019319985522929229 0 -0.30175186872589149 0.019502789513956859 0 -0.29872368575489111 0.023047973898099441 0 -0.29824364835220007 0.019319985522929229 0 -0.30175186872589149 0.019502789513956859 0 -0.29824364835220007 0.019319985522929229 0 -0.30152911725312731 0.0146522928949242 0 -0.29074293809310919 0.0040245865018172684 0 -0.30801237129536407 0.008219511859587126 0 -0.29074293809310919 0.0040245865018172684 0 -0.30152911725312731 0.0146522928949242 0 -0.30801237129536407 0.008219511859587126 0 -0.29074293809310919 0.0040245865018172684 0 -0.30801237129536407 0.008219511859587126 0 -0.30464292602730408 0.00080418690247109799 0 -0.30152911725312731 0.0146522928949242 0 -0.30801237129536407 0.008219511859587126 0 -0.31189356333727219 0.01555608553848852 0 -0.28996043997635079 0.069306740374868697 0 -0.27664251596886669 0.0530431542111056 0 -0.29156890364186477 0.048882592747249848 0 -0.27664251596886669 0.0530431542111056 0 -0.29156890364186477 0.048882592747249848 0 -0.28283387464172161 0.043092733283018908 0 -0.29156890364186477 0.048882592747249848 0 -0.28283387464172161 0.043092733283018908 0 -0.29019393210348071 0.036228876122428089 0 -0.27293014685267419 0.034216310051292123 0 -0.28283387464172161 0.043092733283018908 0 -0.29019393210348071 0.036228876122428089 0 -0.27293014685267419 0.034216310051292123 0 -0.29605330838240113 0.024204219741872389 0 -0.29019393210348071 0.036228876122428089 0 -0.29605330838240113 0.024204219741872389 0 -0.29019393210348071 0.036228876122428089 0 -0.301738107289937 0.038693765158864322 0 -0.29156890364186477 0.048882592747249848 0 -0.29019393210348071 0.036228876122428089 0 -0.301738107289937 0.038693765158864322 0 -0.29605330838240113 0.024204219741872389 0 -0.301738107289937 0.038693765158864322 0 -0.31707212592057421 0.032858388042164413 0 -0.301738107289937 0.038693765158864322 0 -0.30975992535872698 0.055873485142201362 0 -0.31707212592057421 0.032858388042164413 0 -0.29156890364186477 0.048882592747249848 0 -0.301738107289937 0.038693765158864322 0 -0.30975992535872698 0.055873485142201362 0 -0.28996043997635079 0.069306740374868697 0 -0.29156890364186477 0.048882592747249848 0 -0.30975992535872698 0.055873485142201362 0 -0.30975992535872698 0.055873485142201362 0 -0.32674348856586682 0.054252434373979183 0 -0.32423522421733281 0.071541023964305589 0 -0.30975992535872698 0.055873485142201362 0 -0.32674348856586682 0.054252434373979183 0 -0.31707212592057421 0.032858388042164413 0 -0.31707212592057421 0.032858388042164413 0 -0.33809094345874768 0.041512556342455598 0 -0.31707212592057421 0.032858388042164413 0 -0.33809094345874768 0.041512556342455598 0 -0.32760709157497259 0.025218558865876841 0 -0.32674348856586682 0.054252434373979183 0 -0.31707212592057421 0.032858388042164413 0 -0.33809094345874768 0.041512556342455598 0 -0.33809094345874768 0.041512556342455598 0 -0.33975728198932231 0.020557511335840741 0 -0.34940665873317511 0.032657665868670527 0 -0.32674348856586682 0.054252434373979183 0 -0.33809094345874768 0.041512556342455598 0 -0.3416623527767958 0.063391945962103763 0 -0.30801237129536407 0.008219511859587126 0 -0.31189356333727219 0.01555608553848852 0 -0.32528180449761912 0.01241443721735677 0 -0.30801237129536407 0.008219511859587126 0 -0.30464292602730408 0.00080418690247109799 0 -0.32528180449761912 0.01241443721735677 0 -0.30801237129536407 0.008219511859587126 0 -0.32528180449761912 0.01241443721735677 0 -0.30464292602730408 0.00080418690247109799 0 -0.32528180449761912 0.01241443721735677 0 -0.30464292602730408 0.00080418690247109799 0 -0.31800422345143847 0.00037436502929125799 0 -0.32528180449761912 0.01241443721735677 0 -0.32994479933062693 -0.001554818251230301 0 -0.31800422345143847 0.00037436502929125799 0 -0.32528180449761912 0.01241443721735677 0 -0.32528180449761912 0.01241443721735677 0 -0.31710889976317552 0.021407696950075661 0 -0.32760709157497259 0.025218558865876841 0 -0.31189356333727219 0.01555608553848852 0 -0.32528180449761912 0.01241443721735677 0 -0.31710889976317552 0.021407696950075661 0 -0.30753562387707511 0.02108648877049886 0 -0.31707212592057421 0.032858388042164413 0 -0.31710889976317552 0.021407696950075661 0 -0.31707212592057421 0.032858388042164413 0 -0.31710889976317552 0.021407696950075661 0 -0.32760709157497259 0.025218558865876841 0 -0.32528180449761912 0.01241443721735677 0 -0.33975728198932231 0.020557511335840741 0 -0.35170682417142118 0.018833349975578031 0 -0.33809094345874768 0.041512556342455598 0 -0.32760709157497259 0.025218558865876841 0 -0.33975728198932231 0.020557511335840741 0 -0.32528180449761912 0.01241443721735677 0 -0.33975728198932231 0.020557511335840741 0 -0.32528180449761912 0.01241443721735677 0 -0.32760709157497259 0.025218558865876841 0 -0.33975728198932231 0.020557511335840741 0 -0.32528180449761912 0.01241443721735677 0 -0.34222897702701371 0.0021564326969536521 0 -0.35170682417142118 0.018833349975578031 0 -0.32994479933062693 -0.001554818251230301 0 -0.32528180449761912 0.01241443721735677 0 -0.34222897702701371 0.0021564326969536521 0 -0.32528180449761912 0.01241443721735677 0 -0.35170682417142118 0.018833349975578031 0 -0.34222897702701371 0.0021564326969536521 0 -0.3547260469056448 0.0055725142601272823 0 -0.35170682417142118 0.018833349975578031 0 -0.35431291256067188 -0.0070001533375129051 0 -0.34222897702701371 0.0021564326969536521 0 -0.3547260469056448 0.0055725142601272823 0 -0.3547260469056448 0.0055725142601272823 0 -0.35170682417142118 0.018833349975578031 0 -0.36442246810991469 0.01184424396872906 0 -0.33975728198932231 0.020557511335840741 0 -0.35170682417142118 0.018833349975578031 0 -0.34940665873317511 0.032657665868670527 0 -0.35170682417142118 0.018833349975578031 0 -0.34940665873317511 0.032657665868670527 0 -0.36224936584954609 0.034104920209006573 0 -0.37813184384522341 0.025252262733799082 0 -0.35170682417142118 0.018833349975578031 0 -0.36224936584954609 0.034104920209006573 0 -0.37813184384522341 0.025252262733799082 0 -0.35170682417142118 0.018833349975578031 0 -0.37813184384522341 0.025252262733799082 0 -0.35170682417142118 0.018833349975578031 0 -0.36442246810991469 0.01184424396872906 0 -0.37813184384522341 0.025252262733799082 0 -0.36442246810991469 0.01184424396872906 0 -0.37469109724737659 0.0093115152352250263 0 -0.3808204899099874 -0.0031860702741812281 0 -0.37469109724737659 0.0093115152352250263 0 -0.36457784417838562 0.001044263584331449 0 -0.36442246810991469 0.01184424396872906 0 -0.37469109724737659 0.0093115152352250263 0 -0.36457784417838562 0.001044263584331449 0 -0.3547260469056448 0.0055725142601272823 0 -0.36442246810991469 0.01184424396872906 0 -0.36457784417838562 0.001044263584331449 0 -0.33809094345874768 0.041512556342455598 0 -0.35910976099692132 0.050166724642746817 0 -0.3416623527767958 0.063391945962103763 0 -0.33809094345874768 0.041512556342455598 0 -0.35910976099692132 0.050166724642746817 0 -0.34940665873317511 0.032657665868670527 0 -0.33809094345874768 0.041512556342455598 0 -0.35910976099692132 0.050166724642746817 0 -0.35910976099692132 0.050166724642746817 0 -0.34940665873317511 0.032657665868670527 0 -0.36224936584954609 0.034104920209006573 0 -0.37813184384522341 0.025252262733799082 0 -0.37483218290103132 0.044557964405375912 0 -0.36224936584954609 0.034104920209006573 0 -0.35910976099692132 0.050166724642746817 0 -0.37483218290103132 0.044557964405375912 0 -0.36224936584954609 0.034104920209006573 0 -0.35910976099692132 0.050166724642746817 0 -0.37483218290103132 0.044557964405375912 0 -0.37234180684841711 0.062861574713409973 0 -0.35910976099692132 0.050166724642746817 0 -0.37234180684841711 0.062861574713409973 0 -0.35868334008457192 0.076103713998065814 0 -0.37524325287169957 0.081069145775215415 0 -0.37234180684841711 0.062861574713409973 0 -0.35868334008457192 0.076103713998065814 0 -0.35868334008457192 0.076103713998065814 0 -0.3416623527767958 0.063391945962103763 0 -0.33943799377804412 0.079951076388716041 0 -0.35910976099692132 0.050166724642746817 0 -0.35868334008457192 0.076103713998065814 0 -0.3416623527767958 0.063391945962103763 0 -0.35868334008457192 0.076103713998065814 0 -0.36668329576715208 0.094791004823607111 0 -0.34461311131750749 0.095852597507079543 0 -0.35868334008457192 0.076103713998065814 0 -0.34461311131750749 0.095852597507079543 0 -0.33943799377804412 0.079951076388716041 0 -0.37524325287169957 0.081069145775215415 0 -0.35868334008457192 0.076103713998065814 0 -0.36668329576715208 0.094791004823607111 0 -0.37715944345331809 0.1135223301104122 0 -0.36668329576715208 0.094791004823607111 0 -0.35506210166600682 0.11387683950045201 0 -0.3655110920145061 0.1319010814938246 0 -0.35506210166600682 0.11387683950045201 0 -0.37715944345331809 0.1135223301104122 0 -0.3655110920145061 0.1319010814938246 0 -0.35506210166600682 0.11387683950045201 0 -0.3655110920145061 0.1319010814938246 0 -0.34941668540343063 0.1271861453710664 0 -0.35506210166600682 0.11387683950045201 0 -0.34941668540343063 0.1271861453710664 0 -0.35506210166600682 0.11387683950045201 0 -0.33756020232145523 0.1153263116834876 0 -0.35506210166600682 0.11387683950045201 0 -0.34461311131750749 0.095852597507079543 0 -0.36668329576715208 0.094791004823607111 0 -0.35506210166600682 0.11387683950045201 0 -0.34461311131750749 0.095852597507079543 0 -0.35506210166600682 0.11387683950045201 0 -0.34461311131750749 0.095852597507079543 0 -0.33756020232145523 0.1153263116834876 0 -0.34461311131750749 0.095852597507079543 0 -0.33756020232145523 0.1153263116834876 0 -0.32799594049401232 0.092866100512025554 0 -0.3275628557273953 0.12543809845850201 0 -0.33739356488157107 0.13291326013319821 0 -0.33756020232145523 0.1153263116834876 0 -0.31137014296592769 0.13572592035616141 0 -0.31817001170144749 0.11104153437936071 0 -0.3275628557273953 0.12543809845850201 0 -0.33756020232145523 0.1153263116834876 0 -0.31817001170144749 0.11104153437936071 0 -0.31982162690177979 0.13097018294753851 0 -0.3275628557273953 0.12543809845850201 0 -0.31817001170144749 0.11104153437936071 0 -0.33756020232145523 0.1153263116834876 0 -0.31817001170144749 0.11104153437936071 0 -0.32799594049401232 0.092866100512025554 0 -0.30903411996307212 0.082759198348279522 0 -0.31817001170144749 0.11104153437936071 0 -0.32799594049401232 0.092866100512025554 0 -0.30903411996307212 0.082759198348279522 0 -0.32799594049401232 0.092866100512025554 0 -0.32423522421733281 0.071541023964305589 0 -0.30903411996307212 0.082759198348279522 0 -0.30975992535872698 0.055873485142201362 0 -0.32423522421733281 0.071541023964305589 0 -0.32674348856586682 0.054252434373979183 0 -0.32423522421733281 0.071541023964305589 0 -0.3416623527767958 0.063391945962103763 0 -0.32423522421733281 0.071541023964305589 0 -0.3416623527767958 0.063391945962103763 0 -0.33943799377804412 0.079951076388716041 0 -0.32799594049401232 0.092866100512025554 0 -0.32423522421733281 0.071541023964305589 0 -0.33943799377804412 0.079951076388716041 0 -0.34461311131750749 0.095852597507079543 0 -0.32799594049401232 0.092866100512025554 0 -0.33943799377804412 0.079951076388716041 0 -0.38830524089476059 0.5 0 -0.42781576128675852 0.48014604276213568 0 -0.4519051533490881 0.49315580710187717 0 -0.38830524089476059 0.5 0 -0.37963697716209971 0.4541265140826527 0 -0.403726369224429 0.46713627842239408 0 -0.37963697716209971 0.4541265140826527 0 -0.39140954535566452 0.43301324168735011 0 -0.36929455244857479 0.43135082847567241 0 -0.40598740546494999 0.44914490390186068 0 -0.41276164475155203 0.43156661701311749 0 -0.39140954535566452 0.43301324168735011 0 -0.37963697716209971 0.4541265140826527 0 -0.40598740546494999 0.44914490390186068 0 -0.39140954535566452 0.43301324168735011 0 -0.37963697716209971 0.4541265140826527 0 -0.40598740546494999 0.44914490390186068 0 -0.403726369224429 0.46713627842239408 0 -0.37963697716209971 0.4541265140826527 0 -0.403726369224429 0.46713627842239408 0 -0.40598740546494999 0.44914490390186068 0 -0.403726369224429 0.46713627842239408 0 -0.42132122051489812 0.46323361704318777 0 -0.40598740546494999 0.44914490390186068 0 -0.42132122051489812 0.46323361704318777 0 -0.42409437025086089 0.45011426877683652 0 -0.40598740546494999 0.44914490390186068 0 -0.42409437025086089 0.45011426877683652 0 -0.41276164475155203 0.43156661701311749 0 -0.42409437025086089 0.45011426877683652 0 -0.43117293119472377 0.43595336774235149 0 -0.41276164475155203 0.43156661701311749 0 -0.42409437025086089 0.45011426877683652 0 -0.43308404514538318 0.45670255615162669 0 -0.43838262330539302 0.44592972340270742 0 -0.42409437025086089 0.45011426877683652 0 -0.43838262330539302 0.44592972340270742 0 -0.43117293119472377 0.43595336774235149 0 -0.42132122051489812 0.46323361704318777 0 -0.42409437025086089 0.45011426877683652 0 -0.43308404514538318 0.45670255615162669 0 -0.42132122051489812 0.46323361704318777 0 -0.43308404514538318 0.45670255615162669 0 -0.43581755509282782 0.4690718048617426 0 -0.42132122051489812 0.46323361704318777 0 -0.42781576128675852 0.48014604276213568 0 -0.43581755509282782 0.4690718048617426 0 -0.38830524089476059 0.5 0 -0.403726369224429 0.46713627842239408 0 -0.42781576128675852 0.48014604276213568 0 -0.403726369224429 0.46713627842239408 0 -0.42132122051489812 0.46323361704318777 0 -0.42781576128675852 0.48014604276213568 0 -0.403726369224429 0.46713627842239408 0 -0.42781576128675852 0.48014604276213568 0 -0.38830524089476059 0.5 0 -0.4519051533490881 0.49315580710187717 0 -0.5 0.5 0 -0.42781576128675852 0.48014604276213568 0 -0.4519051533490881 0.49315580710187717 0 -0.42781576128675852 0.48014604276213568 0 -0.43581755509282782 0.4690718048617426 0 -0.4519051533490881 0.49315580710187717 0 -0.43581755509282782 0.4690718048617426 0 -0.4519051533490881 0.49315580710187717 0 -0.45535313796654547 0.47182320420591761 0 -0.4519051533490881 0.49315580710187717 0 -0.45535313796654547 0.47182320420591761 0 -0.47555152761737202 0.47496817171892342 0 -0.4519051533490881 0.49315580710187717 0 -0.5 0.5 0 -0.47555152761737202 0.47496817171892342 0 -0.5 0.5 0 -0.47555152761737202 0.47496817171892342 0 -0.49999999999999878 0.46220273850155019 0 -0.49999999999999878 0.46220273850155019 0 -0.47789567901652158 0.45172883349356358 0 -0.5 0.43650363489131871 0 -0.47789567901652158 0.45172883349356358 0 -0.47764594089094498 0.4346669585540216 0 -0.5 0.43650363489131871 0 -0.47555152761737202 0.47496817171892342 0 -0.49999999999999878 0.46220273850155019 0 -0.47789567901652158 0.45172883349356358 0 -0.49999999999999878 0.46220273850155019 0 -0.47789567901652158 0.45172883349356358 0 -0.47555152761737202 0.47496817171892342 0 -0.47789567901652158 0.45172883349356358 0 -0.46212024790951128 0.45770545885259711 0 -0.47789567901652158 0.45172883349356358 0 -0.45579135803304449 0.44125492848557663 0 -0.47764594089094498 0.4346669585540216 0 -0.47789567901652158 0.45172883349356358 0 -0.45579135803304449 0.44125492848557663 0 -0.47789567901652158 0.45172883349356358 0 -0.45579135803304449 0.44125492848557663 0 -0.46212024790951128 0.45770545885259711 0 -0.45579135803304449 0.44125492848557663 0 -0.46212024790951128 0.45770545885259711 0 -0.44580445656293621 0.4551633666736597 0 -0.45535313796654547 0.47182320420591761 0 -0.46212024790951128 0.45770545885259711 0 -0.44580445656293621 0.4551633666736597 0 -0.45535313796654547 0.47182320420591761 0 -0.47555152761737202 0.47496817171892342 0 -0.46212024790951128 0.45770545885259711 0 -0.43581755509282782 0.4690718048617426 0 -0.45535313796654547 0.47182320420591761 0 -0.44580445656293621 0.4551633666736597 0 -0.43308404514538318 0.45670255615162669 0 -0.43581755509282782 0.4690718048617426 0 -0.44580445656293621 0.4551633666736597 0 -0.43581755509282782 0.4690718048617426 0 -0.44580445656293621 0.4551633666736597 0 -0.45579135803304449 0.44125492848557663 0 -0.44580445656293621 0.4551633666736597 0 -0.43838262330539302 0.44592972340270742 0 -0.45579135803304449 0.44125492848557663 0 -0.43838262330539302 0.44592972340270742 0 -0.44517854724185552 0.43622615731555298 0 -0.45579135803304449 0.44125492848557663 0 -0.44517854724185552 0.43622615731555298 0 -0.45579135803304449 0.44125492848557663 0 -0.44580445656293621 0.4551633666736597 0 -0.43308404514538318 0.45670255615162669 0 -0.44580445656293621 0.4551633666736597 0 -0.43838262330539302 0.44592972340270742 0 -0.43838262330539302 0.44592972340270742 0 -0.44517854724185552 0.43622615731555298 0 -0.43117293119472377 0.43595336774235149 0 -0.44517854724185552 0.43622615731555298 0 -0.43990267673387151 0.42305013017422233 0 -0.43117293119472377 0.43595336774235149 0 -0.44517854724185552 0.43622615731555298 0 -0.43990267673387151 0.42305013017422233 0 -0.4547584439700017 0.42681867924293998 0 -0.45579135803304449 0.44125492848557663 0 -0.44517854724185552 0.43622615731555298 0 -0.4547584439700017 0.42681867924293998 0 -0.43990267673387151 0.42305013017422233 0 -0.44982701782296269 0.40808878695048711 0 -0.43166283265247751 0.40836839632387362 0 -0.43990267673387151 0.42305013017422233 0 -0.44982701782296269 0.40808878695048711 0 -0.4547584439700017 0.42681867924293998 0 -0.44982701782296269 0.40808878695048711 0 -0.4547584439700017 0.42681867924293998 0 -0.46925358163638942 0.42250652034099939 0 -0.44982701782296269 0.40808878695048711 0 -0.46925358163638942 0.42250652034099939 0 -0.4671740110085012 0.39891317197124759 0 -0.45579135803304449 0.44125492848557663 0 -0.46925358163638942 0.42250652034099939 0 -0.45579135803304449 0.44125492848557663 0 -0.4547584439700017 0.42681867924293998 0 -0.46925358163638942 0.42250652034099939 0 -0.45579135803304449 0.44125492848557663 0 -0.46925358163638942 0.42250652034099939 0 -0.47764594089094498 0.4346669585540216 0 -0.46925358163638942 0.42250652034099939 0 -0.47764594089094498 0.4346669585540216 0 -0.48528908576876961 0.42134087555864991 0 -0.46925358163638942 0.42250652034099939 0 -0.48271580523973429 0.4037581121964221 0 -0.46925358163638942 0.42250652034099939 0 -0.48271580523973429 0.4037581121964221 0 -0.4671740110085012 0.39891317197124759 0 -0.46925358163638942 0.42250652034099939 0 -0.48528908576876961 0.42134087555864991 0 -0.48271580523973429 0.4037581121964221 0 -0.5 0.41080453128108713 0 -0.48528908576876961 0.42134087555864991 0 -0.48271580523973429 0.4037581121964221 0 -0.5 0.41080453128108713 0 -0.48528908576876961 0.42134087555864991 0 -0.5 0.43650363489131871 0 -0.47764594089094498 0.4346669585540216 0 -0.48528908576876961 0.42134087555864991 0 -0.5 0.43650363489131871 0 -0.48493717005190617 0.38144576797543439 0 -0.49617802884307899 0.38500970405184481 0 -0.48177320924665618 0.39005445176345988 0 -0.48493717005190617 0.38144576797543439 0 -0.49617802884307899 0.38500970405184481 0 -0.48579421822578073 0.37037269557654418 0 -0.49617802884307899 0.38500970405184481 0 -0.5 0.38510542767085543 0 -0.48579421822578073 0.37037269557654418 0 -0.49617802884307899 0.38500970405184481 0 -0.48271580523973429 0.4037581121964221 0 -0.48177320924665618 0.39005445176345988 0 -0.5 0.41080453128108713 0 -0.49617802884307899 0.38500970405184481 0 -0.5 0.38510542767085543 0 -0.49617802884307899 0.38500970405184481 0 -0.48271580523973429 0.4037581121964221 0 -0.5 0.41080453128108713 0 -0.49617802884307899 0.38500970405184481 0 -0.48271580523973429 0.4037581121964221 0 -0.48271580523973429 0.4037581121964221 0 -0.48177320924665618 0.39005445176345988 0 -0.4671740110085012 0.39891317197124759 0 -0.48177320924665618 0.39005445176345988 0 -0.47261925711814512 0.38188817520076912 0 -0.4671740110085012 0.39891317197124759 0 -0.48493717005190617 0.38144576797543439 0 -0.48177320924665618 0.39005445176345988 0 -0.47261925711814512 0.38188817520076912 0 -0.48493717005190617 0.38144576797543439 0 -0.47261925711814512 0.38188817520076912 0 -0.48579421822578073 0.37037269557654418 0 -0.47261925711814512 0.38188817520076912 0 -0.45693113587696621 0.38479026710767339 0 -0.4671740110085012 0.39891317197124759 0 -0.47261925711814512 0.38188817520076912 0 -0.45693113587696621 0.38479026710767339 0 -0.46961029808907528 0.36760807201773998 0 -0.44982701782296269 0.40808878695048711 0 -0.45693113587696621 0.38479026710767339 0 -0.4671740110085012 0.39891317197124759 0 -0.44982701782296269 0.40808878695048711 0 -0.4355343043878383 0.38468574276256351 0 -0.43166283265247751 0.40836839632387362 0 -0.44982701782296269 0.40808878695048711 0 -0.45693113587696621 0.38479026710767339 0 -0.4355343043878383 0.38468574276256351 0 -0.45693113587696621 0.38479026710767339 0 -0.4355343043878383 0.38468574276256351 0 -0.45225933257685652 0.36441622912641369 0 -0.4355343043878383 0.38468574276256351 0 -0.41654335158796058 0.38358105630463551 0 -0.41973211336751431 0.39895385514191339 0 -0.4355343043878383 0.38468574276256351 0 -0.41654335158796058 0.38358105630463551 0 -0.42129496208114459 0.36817473734102107 0 -0.41654335158796058 0.38358105630463551 0 -0.40104824626358482 0.38803461412665469 0 -0.40435639930432499 0.37115672143930423 0 -0.41654335158796058 0.38358105630463551 0 -0.41973211336751431 0.39895385514191339 0 -0.40104824626358482 0.38803461412665469 0 -0.41973211336751431 0.39895385514191339 0 -0.39971306467292711 0.41067405524364631 0 -0.40104824626358482 0.38803461412665469 0 -0.4355343043878383 0.38468574276256351 0 -0.41973211336751431 0.39895385514191339 0 -0.43166283265247751 0.40836839632387362 0 -0.43990267673387151 0.42305013017422233 0 -0.43166283265247751 0.40836839632387362 0 -0.42681628752120832 0.42284539347012839 0 -0.43166283265247751 0.40836839632387362 0 -0.42681628752120832 0.42284539347012839 0 -0.41645628210480629 0.41438437956652768 0 -0.41973211336751431 0.39895385514191339 0 -0.43166283265247751 0.40836839632387362 0 -0.41645628210480629 0.41438437956652768 0 -0.43117293119472377 0.43595336774235149 0 -0.42681628752120832 0.42284539347012839 0 -0.41276164475155203 0.43156661701311749 0 -0.43990267673387151 0.42305013017422233 0 -0.43117293119472377 0.43595336774235149 0 -0.42681628752120832 0.42284539347012839 0 -0.42681628752120832 0.42284539347012839 0 -0.41276164475155203 0.43156661701311749 0 -0.41645628210480629 0.41438437956652768 0 -0.41973211336751431 0.39895385514191339 0 -0.41645628210480629 0.41438437956652768 0 -0.39971306467292711 0.41067405524364631 0 -0.41276164475155203 0.43156661701311749 0 -0.41645628210480629 0.41438437956652768 0 -0.39971306467292711 0.41067405524364631 0 -0.41276164475155203 0.43156661701311749 0 -0.39971306467292711 0.41067405524364631 0 -0.39140954535566452 0.43301324168735011 0 -0.39140954535566452 0.43301324168735011 0 -0.37892855983090351 0.41546047286650628 0 -0.36929455244857479 0.43135082847567241 0 -0.39971306467292711 0.41067405524364631 0 -0.39140954535566452 0.43301324168735011 0 -0.37892855983090351 0.41546047286650628 0 -0.39971306467292711 0.41067405524364631 0 -0.37892855983090351 0.41546047286650628 0 -0.37735698467441608 0.39094108417503548 0 -0.37735698467441608 0.39094108417503548 0 -0.40104824626358482 0.38803461412665469 0 -0.38719826167224358 0.36997120420820878 0 -0.37735698467441608 0.39094108417503548 0 -0.38719826167224358 0.36997120420820878 0 -0.37735698467441608 0.39094108417503548 0 -0.38719826167224358 0.36997120420820878 0 -0.36759721303204917 0.37071006471903623 0 -0.40104824626358482 0.38803461412665469 0 -0.40435639930432499 0.37115672143930423 0 -0.38719826167224358 0.36997120420820878 0 -0.39971306467292711 0.41067405524364631 0 -0.37735698467441608 0.39094108417503548 0 -0.40104824626358482 0.38803461412665469 0 -0.39703953867007108 0.34900132424138208 0 -0.40435639930432499 0.37115672143930423 0 -0.41701339428319378 0.34866222667725899 0 -0.39703953867007108 0.34900132424138208 0 -0.40435639930432499 0.37115672143930423 0 -0.38719826167224358 0.36997120420820878 0 -0.39703953867007108 0.34900132424138208 0 -0.38719826167224358 0.36997120420820878 0 -0.39703953867007108 0.34900132424138208 0 -0.38719826167224358 0.36997120420820878 0 -0.37872220416441532 0.36076967198077592 0 -0.38719826167224358 0.36997120420820878 0 -0.37872220416441532 0.36076967198077592 0 -0.36759721303204917 0.37071006471903623 0 -0.39703953867007108 0.34900132424138208 0 -0.37678853557995873 0.34903971913367238 0 -0.38089814111255049 0.33771150002866679 0 -0.39703953867007108 0.34900132424138208 0 -0.37872220416441532 0.36076967198077592 0 -0.37678853557995873 0.34903971913367238 0 -0.37678853557995873 0.34903971913367238 0 -0.38089814111255049 0.33771150002866679 0 -0.37023750895959479 0.34345501545807727 0 -0.39703953867007108 0.34900132424138208 0 -0.38089814111255049 0.33771150002866679 0 -0.39078580027250398 0.33012379474772191 0 -0.38089814111255049 0.33771150002866679 0 -0.3815561681182717 0.32969392325661878 0 -0.37022416026342669 0.33041124590188331 0 -0.38089814111255049 0.33771150002866679 0 -0.3815561681182717 0.32969392325661878 0 -0.39078580027250398 0.33012379474772191 0 -0.38450515667004931 0.32208011841518758 0 -0.38375541072461428 0.31116825099135909 0 -0.37022416026342669 0.33041124590188331 0 -0.38375541072461428 0.31116825099135909 0 -0.37022416026342669 0.33041124590188331 0 -0.38375541072461428 0.31116825099135909 0 -0.37432104135374927 0.31655916031734738 0 -0.37022416026342669 0.33041124590188331 0 -0.38375541072461428 0.31116825099135909 0 -0.37432104135374927 0.31655916031734738 0 -0.3815561681182717 0.32969392325661878 0 -0.38450515667004931 0.32208011841518758 0 -0.37022416026342669 0.33041124590188331 0 -0.3815561681182717 0.32969392325661878 0 -0.38450515667004931 0.32208011841518758 0 -0.39078580027250398 0.33012379474772191 0 -0.38450515667004931 0.32208011841518758 0 -0.39710945602955972 0.31644801429988101 0 -0.38375541072461428 0.31116825099135909 0 -0.39710945602955972 0.31644801429988101 0 -0.39078580027250398 0.33012379474772191 0 -0.40688081566789869 0.32803144427455522 0 -0.38450515667004931 0.32208011841518758 0 -0.39710945602955972 0.31644801429988101 0 -0.39078580027250398 0.33012379474772191 0 -0.39703953867007108 0.34900132424138208 0 -0.39078580027250398 0.33012379474772191 0 -0.40688081566789869 0.32803144427455522 0 -0.39703953867007108 0.34900132424138208 0 -0.40688081566789869 0.32803144427455522 0 -0.39703953867007108 0.34900132424138208 0 -0.40688081566789869 0.32803144427455522 0 -0.41701339428319378 0.34866222667725899 0 -0.40688081566789869 0.32803144427455522 0 -0.42524899674642852 0.32718680851450072 0 -0.41701339428319378 0.34866222667725899 0 -0.40688081566789869 0.32803144427455522 0 -0.41672209266572569 0.30706156430772819 0 -0.39710945602955972 0.31644801429988101 0 -0.40688081566789869 0.32803144427455522 0 -0.41672209266572569 0.30706156430772819 0 -0.40688081566789869 0.32803144427455522 0 -0.42524899674642852 0.32718680851450072 0 -0.41672209266572569 0.30706156430772819 0 -0.42524899674642852 0.32718680851450072 0 -0.4444813951104854 0.31594344968861349 0 -0.41672209266572569 0.30706156430772819 0 -0.42524899674642852 0.32718680851450072 0 -0.41701339428319378 0.34866222667725899 0 -0.43871347947984562 0.3417517600975386 0 -0.42524899674642852 0.32718680851450072 0 -0.43871347947984562 0.3417517600975386 0 -0.4444813951104854 0.31594344968861349 0 -0.41701339428319378 0.34866222667725899 0 -0.43529221347535091 0.36098094388568103 0 -0.43871347947984562 0.3417517600975386 0 -0.41701339428319378 0.34866222667725899 0 -0.42129496208114459 0.36817473734102107 0 -0.43529221347535091 0.36098094388568103 0 -0.41654335158796058 0.38358105630463551 0 -0.40435639930432499 0.37115672143930423 0 -0.42129496208114459 0.36817473734102107 0 -0.40435639930432499 0.37115672143930423 0 -0.41701339428319378 0.34866222667725899 0 -0.42129496208114459 0.36817473734102107 0 -0.4355343043878383 0.38468574276256351 0 -0.42129496208114459 0.36817473734102107 0 -0.43529221347535091 0.36098094388568103 0 -0.4355343043878383 0.38468574276256351 0 -0.43529221347535091 0.36098094388568103 0 -0.45225933257685652 0.36441622912641369 0 -0.45225933257685652 0.36441622912641369 0 -0.45590109850333932 0.33858293722190558 0 -0.43871347947984562 0.3417517600975386 0 -0.43529221347535091 0.36098094388568103 0 -0.45225933257685652 0.36441622912641369 0 -0.43871347947984562 0.3417517600975386 0 -0.45225933257685652 0.36441622912641369 0 -0.47274650988082889 0.35034659325925432 0 -0.45590109850333932 0.33858293722190558 0 -0.45225933257685652 0.36441622912641369 0 -0.46961029808907528 0.36760807201773998 0 -0.47274650988082889 0.35034659325925432 0 -0.45693113587696621 0.38479026710767339 0 -0.45225933257685652 0.36441622912641369 0 -0.46961029808907528 0.36760807201773998 0 -0.47261925711814512 0.38188817520076912 0 -0.46961029808907528 0.36760807201773998 0 -0.48579421822578073 0.37037269557654418 0 -0.46961029808907528 0.36760807201773998 0 -0.47274650988082889 0.35034659325925432 0 -0.48579421822578073 0.37037269557654418 0 -0.47274650988082889 0.35034659325925432 0 -0.5 0.35940632406062378 0 -0.50000000000000244 0.33370722045039219 0 -0.5 0.38510542767085543 0 -0.5 0.35940632406062378 0 -0.48579421822578073 0.37037269557654418 0 -0.47274650988082889 0.35034659325925432 0 -0.5 0.35940632406062378 0 -0.48579421822578073 0.37037269557654418 0 -0.50000000000000244 0.33370722045039219 0 -0.47224069755524412 0.32482533506950251 0 -0.5 0.30455079805259122 0 -0.50000000000000244 0.33370722045039219 0 -0.47224069755524412 0.32482533506950251 0 -0.47274650988082889 0.35034659325925432 0 -0.50000000000000244 0.33370722045039219 0 -0.47224069755524412 0.32482533506950251 0 -0.47224069755524412 0.32482533506950251 0 -0.4444813951104854 0.31594344968861349 0 -0.47224069755524412 0.32482533506950251 0 -0.45590109850333932 0.33858293722190558 0 -0.4444813951104854 0.31594344968861349 0 -0.47274650988082889 0.35034659325925432 0 -0.47224069755524412 0.32482533506950251 0 -0.45590109850333932 0.33858293722190558 0 -0.45590109850333932 0.33858293722190558 0 -0.43871347947984562 0.3417517600975386 0 -0.4444813951104854 0.31594344968861349 0 -0.4444813951104854 0.31594344968861349 0 -0.44411473529633311 0.28867733910599253 0 -0.42419937673766861 0.29112890135137542 0 -0.4444813951104854 0.31594344968861349 0 -0.44411473529633311 0.28867733910599253 0 -0.46065488868663262 0.29657360802835508 0 -0.44411473529633311 0.28867733910599253 0 -0.46065488868663262 0.29657360802835508 0 -0.45799162234892099 0.28231908240182879 0 -0.46065488868663262 0.29657360802835508 0 -0.45799162234892099 0.28231908240182879 0 -0.47630543496641248 0.28578638248531191 0 -0.47224069755524412 0.32482533506950251 0 -0.4444813951104854 0.31594344968861349 0 -0.46065488868663262 0.29657360802835508 0 -0.47224069755524412 0.32482533506950251 0 -0.47822848553436231 0.30411333074739011 0 -0.5 0.30455079805259122 0 -0.47224069755524412 0.32482533506950251 0 -0.46065488868663262 0.29657360802835508 0 -0.47822848553436231 0.30411333074739011 0 -0.46065488868663262 0.29657360802835508 0 -0.47822848553436231 0.30411333074739011 0 -0.47630543496641248 0.28578638248531191 0 -0.47630543496641248 0.28578638248531191 0 -0.5 0.30455079805259122 0 -0.5 0.27539437565479041 0 -0.47822848553436231 0.30411333074739011 0 -0.47630543496641248 0.28578638248531191 0 -0.5 0.30455079805259122 0 -0.5 0.24623795325698949 0 -0.5 0.27539437565479041 0 -0.48261351521979851 0.25705218881654102 0 -0.5 0.27539437565479041 0 -0.47607534545298602 0.26951384659625532 0 -0.48261351521979851 0.25705218881654102 0 -0.47630543496641248 0.28578638248531191 0 -0.5 0.27539437565479041 0 -0.47607534545298602 0.26951384659625532 0 -0.47630543496641248 0.28578638248531191 0 -0.47607534545298602 0.26951384659625532 0 -0.46202981492694722 0.26863997546131502 0 -0.47607534545298602 0.26951384659625532 0 -0.48261351521979851 0.25705218881654102 0 -0.46880019415069518 0.25173944969423673 0 -0.47607534545298602 0.26951384659625532 0 -0.46880019415069518 0.25173944969423673 0 -0.46202981492694722 0.26863997546131502 0 -0.45570992268827742 0.2559799207992467 0 -0.46202981492694722 0.26863997546131502 0 -0.44685323786827968 0.2719181069281697 0 -0.4606986096508312 0.2467586123431659 0 -0.46880019415069518 0.25173944969423673 0 -0.45570992268827742 0.2559799207992467 0 -0.46880019415069518 0.25173944969423673 0 -0.45570992268827742 0.2559799207992467 0 -0.46202981492694722 0.26863997546131502 0 -0.45799162234892099 0.28231908240182879 0 -0.47630543496641248 0.28578638248531191 0 -0.46202981492694722 0.26863997546131502 0 -0.46202981492694722 0.26863997546131502 0 -0.44685323786827968 0.2719181069281697 0 -0.45799162234892099 0.28231908240182879 0 -0.46202981492694722 0.26863997546131502 0 -0.44685323786827968 0.2719181069281697 0 -0.44411473529633311 0.28867733910599253 0 -0.45799162234892099 0.28231908240182879 0 -0.44685323786827968 0.2719181069281697 0 -0.44685323786827968 0.2719181069281697 0 -0.44104817166580329 0.25522734027280197 0 -0.43167666080961192 0.27519623839502277 0 -0.44411473529633311 0.28867733910599253 0 -0.44685323786827968 0.2719181069281697 0 -0.43167666080961192 0.27519623839502277 0 -0.44685323786827968 0.2719181069281697 0 -0.43167666080961192 0.27519623839502277 0 -0.45570992268827742 0.2559799207992467 0 -0.44685323786827968 0.2719181069281697 0 -0.44104817166580329 0.25522734027280197 0 -0.45304875956843632 0.24387139887288081 0 -0.45570992268827742 0.2559799207992467 0 -0.44104817166580329 0.25522734027280197 0 -0.43108664698666638 0.24385778762273441 0 -0.43000374755496701 0.25678178028455512 0 -0.43469525688392963 0.25062933138387528 0 -0.43000374755496701 0.25678178028455512 0 -0.41804233680469127 0.26240829743430188 0 -0.43167666080961192 0.27519623839502277 0 -0.44104817166580329 0.25522734027280197 0 -0.43000374755496701 0.25678178028455512 0 -0.43167666080961192 0.27519623839502277 0 -0.44104817166580329 0.25522734027280197 0 -0.43167666080961192 0.27519623839502277 0 -0.43108664698666638 0.24385778762273441 0 -0.43000374755496701 0.25678178028455512 0 -0.41804233680469127 0.26240829743430188 0 -0.4361266132271851 0.24545863334425669 0 -0.44104817166580329 0.25522734027280197 0 -0.43469525688392963 0.25062933138387528 0 -0.42994445814438281 0.2397645857074315 0 -0.41457209877524059 0.26098790974283598 0 -0.44104817166580329 0.25522734027280197 0 -0.43000374755496701 0.25678178028455512 0 -0.43469525688392963 0.25062933138387528 0 -0.43108664698666638 0.24385778762273441 0 -0.41804233680469127 0.26240829743430188 0 -0.41457209877524059 0.26098790974283598 0 -0.40800244746568659 0.25116761303474922 0 -0.39760401715780419 0.26373738729706497 0 -0.43108664698666638 0.24385778762273441 0 -0.41804233680469127 0.26240829743430188 0 -0.41457209877524059 0.26098790974283598 0 -0.41960010970278938 0.24891089497569449 0 -0.41457209877524059 0.26098790974283598 0 -0.40800244746568659 0.25116761303474922 0 -0.41804233680469127 0.26240829743430188 0 -0.41457209877524059 0.26098790974283598 0 -0.40499802662271761 0.28095880724587019 0 -0.41804233680469127 0.26240829743430188 0 -0.40499802662271761 0.28095880724587019 0 -0.43167666080961192 0.27519623839502277 0 -0.40499802662271761 0.28095880724587019 0 -0.41457209877524059 0.26098790974283598 0 -0.39919973940609482 0.28221123377823792 0 -0.41804233680469127 0.26240829743430188 0 -0.43167666080961192 0.27519623839502277 0 -0.40499802662271761 0.28095880724587019 0 -0.41457209877524059 0.26098790974283598 0 -0.39919973940609482 0.28221123377823792 0 -0.40499802662271761 0.28095880724587019 0 -0.43167666080961192 0.27519623839502277 0 -0.42419937673766861 0.29112890135137542 0 -0.44411473529633311 0.28867733910599253 0 -0.43167666080961192 0.27519623839502277 0 -0.42419937673766861 0.29112890135137542 0 -0.4444813951104854 0.31594344968861349 0 -0.42419937673766861 0.29112890135137542 0 -0.41672209266572569 0.30706156430772819 0 -0.4444813951104854 0.31594344968861349 0 -0.41672209266572569 0.30706156430772819 0 -0.41672209266572569 0.30706156430772819 0 -0.40019604602200998 0.30177387912972398 0 -0.41672209266572569 0.30706156430772819 0 -0.40019604602200998 0.30177387912972398 0 -0.40247361342501969 0.30047245039921527 0 -0.42419937673766861 0.29112890135137542 0 -0.41672209266572569 0.30706156430772819 0 -0.42419937673766861 0.29112890135137542 0 -0.41672209266572569 0.30706156430772819 0 -0.41244452780178492 0.29514371543444878 0 -0.41672209266572569 0.30706156430772819 0 -0.41244452780178492 0.29514371543444878 0 -0.40247361342501969 0.30047245039921527 0 -0.43167666080961192 0.27519623839502277 0 -0.42419937673766861 0.29112890135137542 0 -0.40499802662271761 0.28095880724587019 0 -0.42419937673766861 0.29112890135137542 0 -0.41244452780178492 0.29514371543444878 0 -0.40499802662271761 0.28095880724587019 0 -0.41244452780178492 0.29514371543444878 0 -0.40247361342501969 0.30047245039921527 0 -0.40499802662271761 0.28095880724587019 0 -0.39216763327938953 0.29920510270199308 0 -0.40499802662271761 0.28095880724587019 0 -0.39919973940609482 0.28221123377823792 0 -0.39216763327938953 0.29920510270199308 0 -0.38788365614645898 0.29783439845087228 0 -0.40247361342501969 0.30047245039921527 0 -0.39216763327938953 0.29920510270199308 0 -0.40499802662271761 0.28095880724587019 0 -0.39919973940609482 0.28221123377823792 0 -0.39216763327938953 0.29920510270199308 0 -0.40499802662271761 0.28095880724587019 0 -0.39919973940609482 0.28221123377823792 0 -0.40499802662271761 0.28095880724587019 0 -0.39919973940609482 0.28221123377823792 0 -0.38788365614645898 0.29783439845087228 0 -0.39919973940609482 0.28221123377823792 0 -0.38438729537800459 0.28541071273068591 0 -0.40019604602200998 0.30177387912972398 0 -0.38375541072461428 0.31116825099135909 0 -0.39710945602955972 0.31644801429988101 0 -0.40019604602200998 0.30177387912972398 0 -0.38375541072461428 0.31116825099135909 0 -0.39710945602955972 0.31644801429988101 0 -0.41672209266572569 0.30706156430772819 0 -0.40019604602200998 0.30177387912972398 0 -0.40019604602200998 0.30177387912972398 0 -0.39216763327938953 0.29920510270199308 0 -0.38375541072461428 0.31116825099135909 0 -0.40019604602200998 0.30177387912972398 0 -0.40247361342501969 0.30047245039921527 0 -0.40019604602200998 0.30177387912972398 0 -0.39216763327938953 0.29920510270199308 0 -0.40019604602200998 0.30177387912972398 0 -0.40247361342501969 0.30047245039921527 0 -0.39216763327938953 0.29920510270199308 0 -0.38375541072461428 0.31116825099135909 0 -0.38788365614645898 0.29783439845087228 0 -0.37432104135374927 0.31655916031734738 0 -0.38788365614645898 0.29783439845087228 0 -0.37257143863931169 0.30164768493009347 0 -0.37432104135374927 0.31655916031734738 0 -0.38788365614645898 0.29783439845087228 0 -0.37432104135374927 0.31655916031734738 0 -0.39216763327938953 0.29920510270199308 0 -0.38375541072461428 0.31116825099135909 0 -0.39216763327938953 0.29920510270199308 0 -0.38375541072461428 0.31116825099135909 0 -0.38788365614645898 0.29783439845087228 0 -0.39216763327938953 0.29920510270199308 0 -0.38788365614645898 0.29783439845087228 0 -0.39919973940609482 0.28221123377823792 0 -0.38788365614645898 0.29783439845087228 0 -0.38438729537800459 0.28541071273068591 0 -0.38788365614645898 0.29783439845087228 0 -0.38438729537800459 0.28541071273068591 0 -0.37416152146389853 0.28455482825184097 0 -0.38438729537800459 0.28541071273068591 0 -0.37440248222425798 0.27354885100524451 0 -0.37416152146389853 0.28455482825184097 0 -0.38438729537800459 0.28541071273068591 0 -0.38713471198790361 0.27174179537213322 0 -0.37440248222425798 0.27354885100524451 0 -0.38713471198790361 0.27174179537213322 0 -0.37596378635252209 0.25787488210020998 0 -0.37440248222425798 0.27354885100524451 0 -0.39919973940609482 0.28221123377823792 0 -0.38438729537800459 0.28541071273068591 0 -0.38713471198790361 0.27174179537213322 0 -0.38713471198790361 0.27174179537213322 0 -0.37596378635252209 0.25787488210020998 0 -0.38871945684062692 0.25591908779214351 0 -0.38153207996096372 0.2447317517231026 0 -0.37596378635252209 0.25787488210020998 0 -0.38871945684062692 0.25591908779214351 0 -0.38713471198790361 0.27174179537213322 0 -0.38871945684062692 0.25591908779214351 0 -0.39760401715780419 0.26373738729706497 0 -0.39671949383857702 0.2469029856130685 0 -0.38871945684062692 0.25591908779214351 0 -0.39760401715780419 0.26373738729706497 0 -0.39671949383857702 0.2469029856130685 0 -0.40800244746568659 0.25116761303474922 0 -0.39760401715780419 0.26373738729706497 0 -0.39919973940609482 0.28221123377823792 0 -0.38713471198790361 0.27174179537213322 0 -0.39760401715780419 0.26373738729706497 0 -0.41457209877524059 0.26098790974283598 0 -0.39919973940609482 0.28221123377823792 0 -0.39760401715780419 0.26373738729706497 0 -0.35109752312501719 0.2656753128641941 0 -0.3642139479920159 0.26405805001253763 0 -0.36213843628054559 0.27642889683052962 0 -0.34846125146091278 0.28113499967215538 0 -0.35109752312501719 0.2656753128641941 0 -0.36213843628054559 0.27642889683052962 0 -0.34846125146091278 0.28113499967215538 0 -0.35109752312501719 0.2656753128641941 0 -0.33871807737968218 0.26599861366734939 0 -0.35109752312501719 0.2656753128641941 0 -0.348387383022429 0.25398896176139241 0 -0.33871807737968218 0.26599861366734939 0 -0.35220065320425659 0.24999127972566529 0 -0.34412048827477831 0.25120949573040219 0 -0.348387383022429 0.25398896176139241 0 -0.34412048827477831 0.25120949573040219 0 -0.348387383022429 0.25398896176139241 0 -0.35220065320425659 0.24999127972566529 0 -0.348387383022429 0.25398896176139241 0 -0.35696276246410108 0.25602526228046041 0 -0.35220065320425659 0.24999127972566529 0 -0.36378674211593609 0.2470265393455075 0 -0.35696276246410108 0.25602526228046041 0 -0.35109752312501719 0.2656753128641941 0 -0.35696276246410108 0.25602526228046041 0 -0.3642139479920159 0.26405805001253763 0 -0.35109752312501719 0.2656753128641941 0 -0.348387383022429 0.25398896176139241 0 -0.35696276246410108 0.25602526228046041 0 -0.35696276246410108 0.25602526228046041 0 -0.3642139479920159 0.26405805001253763 0 -0.36523180973114378 0.25624618343467892 0 -0.37596378635252209 0.25787488210020998 0 -0.3642139479920159 0.26405805001253763 0 -0.37440248222425798 0.27354885100524451 0 -0.36378674211593609 0.2470265393455075 0 -0.35696276246410108 0.25602526228046041 0 -0.36523180973114378 0.25624618343467892 0 -0.36378674211593609 0.2470265393455075 0 -0.37596378635252209 0.25787488210020998 0 -0.36523180973114378 0.25624618343467892 0 -0.37596378635252209 0.25787488210020998 0 -0.3642139479920159 0.26405805001253763 0 -0.36523180973114378 0.25624618343467892 0 -0.3642139479920159 0.26405805001253763 0 -0.36213843628054559 0.27642889683052962 0 -0.37440248222425798 0.27354885100524451 0 -0.36213843628054559 0.27642889683052962 0 -0.37440248222425798 0.27354885100524451 0 -0.37416152146389853 0.28455482825184097 0 -0.38788365614645898 0.29783439845087228 0 -0.36199573729022638 0.28955128224187371 0 -0.37257143863931169 0.30164768493009347 0 -0.38788365614645898 0.29783439845087228 0 -0.36199573729022638 0.28955128224187371 0 -0.38788365614645898 0.29783439845087228 0 -0.37416152146389853 0.28455482825184097 0 -0.36199573729022638 0.28955128224187371 0 -0.36213843628054559 0.27642889683052962 0 -0.37416152146389853 0.28455482825184097 0 -0.36199573729022638 0.28955128224187371 0 -0.36199573729022638 0.28955128224187371 0 -0.37257143863931169 0.30164768493009347 0 -0.36141213112647402 0.30602569602505508 0 -0.37257143863931169 0.30164768493009347 0 -0.36141213112647402 0.30602569602505508 0 -0.37432104135374927 0.31655916031734738 0 -0.36199573729022638 0.28955128224187371 0 -0.36141213112647402 0.30602569602505508 0 -0.35178384347941882 0.29846974857690772 0 -0.36141213112647402 0.30602569602505508 0 -0.35222221862684472 0.31020775645575538 0 -0.35734821863655031 0.31599916803058947 0 -0.36141213112647402 0.30602569602505508 0 -0.35222221862684472 0.31020775645575538 0 -0.35178384347941882 0.29846974857690772 0 -0.35178384347941882 0.29846974857690772 0 -0.3408977493304689 0.29350214517966039 0 -0.34167778461943149 0.3079887209006823 0 -0.35222221862684472 0.31020775645575538 0 -0.34167778461943149 0.3079887209006823 0 -0.34724359558122542 0.31762791645631783 0 -0.35222221862684472 0.31020775645575538 0 -0.35178384347941882 0.29846974857690772 0 -0.34167778461943149 0.3079887209006823 0 -0.34846125146091278 0.28113499967215538 0 -0.35178384347941882 0.29846974857690772 0 -0.3408977493304689 0.29350214517966039 0 -0.34846125146091278 0.28113499967215538 0 -0.36199573729022638 0.28955128224187371 0 -0.35178384347941882 0.29846974857690772 0 -0.34846125146091278 0.28113499967215538 0 -0.36213843628054559 0.27642889683052962 0 -0.36199573729022638 0.28955128224187371 0 -0.32420518991501429 0.30572769175643522 0 -0.33331566648458932 0.28078773160429787 0 -0.3408977493304689 0.29350214517966039 0 -0.33331566648458932 0.28078773160429787 0 -0.3408977493304689 0.29350214517966039 0 -0.32420518991501429 0.30572769175643522 0 -0.33331566648458932 0.28078773160429787 0 -0.34846125146091278 0.28113499967215538 0 -0.3408977493304689 0.29350214517966039 0 -0.33331566648458932 0.28078773160429787 0 -0.3408977493304689 0.29350214517966039 0 -0.34167778461943149 0.3079887209006823 0 -0.32420518991501429 0.30572769175643522 0 -0.34167778461943149 0.3079887209006823 0 -0.32420518991501429 0.30572769175643522 0 -0.33388499945798311 0.32290058417175083 0 -0.32420518991501429 0.30572769175643522 0 -0.31506610354108072 0.29394266944879782 0 -0.30866295761277263 0.31125440222161438 0 -0.32420518991501429 0.30572769175643522 0 -0.31506610354108072 0.29394266944879782 0 -0.33331566648458932 0.28078773160429787 0 -0.31506610354108072 0.29394266944879782 0 -0.33331566648458932 0.28078773160429787 0 -0.31150090665063151 0.27858300818318121 0 -0.33331566648458932 0.28078773160429787 0 -0.32141607343252149 0.26083327442965071 0 -0.31150090665063151 0.27858300818318121 0 -0.33331566648458932 0.28078773160429787 0 -0.32141607343252149 0.26083327442965071 0 -0.33331566648458932 0.28078773160429787 0 -0.33871807737968218 0.26599861366734939 0 -0.32141607343252149 0.26083327442965071 0 -0.33331566648458932 0.28078773160429787 0 -0.33871807737968218 0.26599861366734939 0 -0.34846125146091278 0.28113499967215538 0 -0.33331566648458932 0.28078773160429787 0 -0.33871807737968218 0.26599861366734939 0 -0.33871807737968218 0.26599861366734939 0 -0.32772294389005391 0.25109503919567761 0 -0.32141607343252149 0.26083327442965071 0 -0.34412048827477831 0.25120949573040219 0 -0.33871807737968218 0.26599861366734939 0 -0.32772294389005391 0.25109503919567761 0 -0.34412048827477831 0.25120949573040219 0 -0.348387383022429 0.25398896176139241 0 -0.33871807737968218 0.26599861366734939 0 -0.34412048827477831 0.25120949573040219 0 -0.33871807737968218 0.26599861366734939 0 -0.31556053223240471 0.2427184408752304 0 -0.32772294389005391 0.25109503919567761 0 -0.32141607343252149 0.26083327442965071 0 -0.30951648038044849 0.24087881725500659 0 -0.32141607343252149 0.26083327442965071 0 -0.29940802815127748 0.24907826666049679 0 -0.32141607343252149 0.26083327442965071 0 -0.29944806004686558 0.26433728186756622 0 -0.29940802815127748 0.24907826666049679 0 -0.30951648038044849 0.24087881725500659 0 -0.32141607343252149 0.26083327442965071 0 -0.32141607343252149 0.26083327442965071 0 -0.29944806004686558 0.26433728186756622 0 -0.31150090665063151 0.27858300818318121 0 -0.29944806004686558 0.26433728186756622 0 -0.31150090665063151 0.27858300818318121 0 -0.2971353323518019 0.27871793833344027 0 -0.2971353323518019 0.27871793833344027 0 -0.28003344452450829 0.27214131606633618 0 -0.28797650764944133 0.28916286695827198 0 -0.29944806004686558 0.26433728186756622 0 -0.2971353323518019 0.27871793833344027 0 -0.28003344452450829 0.27214131606633618 0 -0.28650837652995048 0.2473431110274103 0 -0.28003344452450829 0.27214131606633618 0 -0.28650837652995048 0.2473431110274103 0 -0.29944806004686558 0.26433728186756622 0 -0.28003344452450829 0.27214131606633618 0 -0.28650837652995048 0.2473431110274103 0 -0.29940802815127748 0.24907826666049679 0 -0.29944806004686558 0.26433728186756622 0 -0.28650837652995048 0.2473431110274103 0 -0.26746969881204902 0.25764483835000601 0 -0.28003344452450829 0.27214131606633618 0 -0.26746969881204902 0.25764483835000601 0 -0.28003344452450829 0.27214131606633618 0 -0.2656276850436195 0.27596536321284532 0 -0.28003344452450829 0.27214131606633618 0 -0.2656276850436195 0.27596536321284532 0 -0.26583437068794658 0.2908686019160393 0 -0.26746969881204902 0.25764483835000601 0 -0.2656276850436195 0.27596536321284532 0 -0.2498943307853857 0.27313514927493482 0 -0.2656276850436195 0.27596536321284532 0 -0.26583437068794658 0.2908686019160393 0 -0.2498943307853857 0.27313514927493482 0 -0.25466517866705962 0.2551558687183289 0 -0.24565678637246771 0.25432931140221188 0 -0.2498943307853857 0.27313514927493482 0 -0.26746969881204902 0.25764483835000601 0 -0.25466517866705962 0.2551558687183289 0 -0.2498943307853857 0.27313514927493482 0 -0.25355414777238738 0.24563073474758021 0 -0.25466517866705962 0.2551558687183289 0 -0.24565678637246771 0.25432931140221188 0 -0.25355414777238738 0.24563073474758021 0 -0.26012650635371831 0.24996441057044549 0 -0.25466517866705962 0.2551558687183289 0 -0.26012650635371831 0.24996441057044549 0 -0.26746969881204902 0.25764483835000601 0 -0.25466517866705962 0.2551558687183289 0 -0.26012650635371831 0.24996441057044549 0 -0.26639366242262502 0.243276445954381 0 -0.26746969881204902 0.25764483835000601 0 -0.25209251067084948 0.30983878725335651 0 -0.26586092560629598 0.30248932104900722 0 -0.26996891648945959 0.31689112501850358 0 -0.25209251067084948 0.30983878725335651 0 -0.2556824143928022 0.29450383255318441 0 -0.24425620720258351 0.292958432891613 0 -0.25209251067084948 0.30983878725335651 0 -0.2556824143928022 0.29450383255318441 0 -0.26586092560629598 0.30248932104900722 0 -0.26583437068794658 0.2908686019160393 0 -0.2498943307853857 0.27313514927493482 0 -0.2556824143928022 0.29450383255318441 0 -0.26583437068794658 0.2908686019160393 0 -0.2498943307853857 0.27313514927493482 0 -0.2556824143928022 0.29450383255318441 0 -0.26583437068794658 0.2908686019160393 0 -0.26586092560629598 0.30248932104900722 0 -0.28003344452450829 0.27214131606633618 0 -0.27355851251906599 0.29693952110526212 0 -0.28003344452450829 0.27214131606633618 0 -0.27355851251906599 0.29693952110526212 0 -0.28797650764944133 0.28916286695827198 0 -0.28003344452450829 0.27214131606633618 0 -0.26583437068794658 0.2908686019160393 0 -0.27355851251906599 0.29693952110526212 0 -0.26583437068794658 0.2908686019160393 0 -0.27355851251906599 0.29693952110526212 0 -0.26586092560629598 0.30248932104900722 0 -0.27355851251906599 0.29693952110526212 0 -0.27750896366170041 0.30717503642525251 0 -0.28773495946894689 0.30345305531216688 0 -0.27355851251906599 0.29693952110526212 0 -0.26586092560629598 0.30248932104900722 0 -0.27750896366170041 0.30717503642525251 0 -0.26586092560629598 0.30248932104900722 0 -0.27750896366170041 0.30717503642525251 0 -0.26996891648945959 0.31689112501850358 0 -0.27750896366170041 0.30717503642525251 0 -0.28773495946894689 0.30345305531216688 0 -0.28938177379282831 0.31866411559643287 0 -0.28773495946894689 0.30345305531216688 0 -0.30073409074238061 0.29523572746927262 0 -0.29717928307864239 0.30982778455149468 0 -0.28773495946894689 0.30345305531216688 0 -0.29717928307864239 0.30982778455149468 0 -0.28938177379282831 0.31866411559643287 0 -0.2971353323518019 0.27871793833344027 0 -0.28797650764944133 0.28916286695827198 0 -0.30073409074238061 0.29523572746927262 0 -0.27355851251906599 0.29693952110526212 0 -0.28773495946894689 0.30345305531216688 0 -0.28797650764944133 0.28916286695827198 0 -0.28773495946894689 0.30345305531216688 0 -0.28797650764944133 0.28916286695827198 0 -0.30073409074238061 0.29523572746927262 0 -0.31506610354108072 0.29394266944879782 0 -0.31150090665063151 0.27858300818318121 0 -0.30073409074238061 0.29523572746927262 0 -0.31150090665063151 0.27858300818318121 0 -0.2971353323518019 0.27871793833344027 0 -0.30073409074238061 0.29523572746927262 0 -0.31506610354108072 0.29394266944879782 0 -0.30073409074238061 0.29523572746927262 0 -0.30866295761277263 0.31125440222161438 0 -0.30073409074238061 0.29523572746927262 0 -0.29717928307864239 0.30982778455149468 0 -0.30866295761277263 0.31125440222161438 0 -0.30866295761277263 0.31125440222161438 0 -0.30161175327739059 0.32356947622827631 0 -0.31509471334544292 0.33066765190857378 0 -0.29717928307864239 0.30982778455149468 0 -0.30866295761277263 0.31125440222161438 0 -0.30161175327739059 0.32356947622827631 0 -0.297316816078119 0.33660871341807319 0 -0.30594725555961039 0.35564812359143899 0 -0.31509471334544292 0.33066765190857378 0 -0.30161175327739059 0.32356947622827631 0 -0.297316816078119 0.33660871341807319 0 -0.31509471334544292 0.33066765190857378 0 -0.30594725555961039 0.35564812359143899 0 -0.31509471334544292 0.33066765190857378 0 -0.297316816078119 0.33660871341807319 0 -0.27842771169941272 0.32971404272246202 0 -0.2823964692161044 0.34525016335444952 0 -0.297316816078119 0.33660871341807319 0 -0.28938177379282831 0.31866411559643287 0 -0.27842771169941272 0.32971404272246202 0 -0.30161175327739059 0.32356947622827631 0 -0.297316816078119 0.33660871341807319 0 -0.28938177379282831 0.31866411559643287 0 -0.29717928307864239 0.30982778455149468 0 -0.30161175327739059 0.32356947622827631 0 -0.28938177379282831 0.31866411559643287 0 -0.28938177379282831 0.31866411559643287 0 -0.26996891648945959 0.31689112501850358 0 -0.27842771169941272 0.32971404272246202 0 -0.27750896366170041 0.30717503642525251 0 -0.28938177379282831 0.31866411559643287 0 -0.26996891648945959 0.31689112501850358 0 -0.26996891648945959 0.31689112501850358 0 -0.27842771169941272 0.32971404272246202 0 -0.25888266408886079 0.33481169158673002 0 -0.27842771169941272 0.32971404272246202 0 -0.25888266408886079 0.33481169158673002 0 -0.2823964692161044 0.34525016335444952 0 -0.25888266408886079 0.33481169158673002 0 -0.2823964692161044 0.34525016335444952 0 -0.25209251067084948 0.30983878725335651 0 -0.26996891648945959 0.31689112501850358 0 -0.25888266408886079 0.33481169158673002 0 -0.25801636075578011 0.36597590002421032 0 -0.27311383260625288 0.36863091072770088 0 -0.25125573985850302 0.38688011717805648 0 -0.25888266408886079 0.33481169158673002 0 -0.26471938503857562 0.35180278336054988 0 -0.24775099256547911 0.35500491509708137 0 -0.25801636075578011 0.36597590002421032 0 -0.26471938503857562 0.35180278336054988 0 -0.24775099256547911 0.35500491509708137 0 -0.25801636075578011 0.36597590002421032 0 -0.26471938503857562 0.35180278336054988 0 -0.27295014926074201 0.35986702621101452 0 -0.26471938503857562 0.35180278336054988 0 -0.27295014926074201 0.35986702621101452 0 -0.2823964692161044 0.34525016335444952 0 -0.25888266408886079 0.33481169158673002 0 -0.26471938503857562 0.35180278336054988 0 -0.2823964692161044 0.34525016335444952 0 -0.27295014926074201 0.35986702621101452 0 -0.2813758053383339 0.36077803709551548 0 -0.2823964692161044 0.34525016335444952 0 -0.27926183473145888 0.36502370441747661 0 -0.27295014926074201 0.35986702621101452 0 -0.27311383260625288 0.36863091072770088 0 -0.27926183473145888 0.36502370441747661 0 -0.27295014926074201 0.35986702621101452 0 -0.2813758053383339 0.36077803709551548 0 -0.25801636075578011 0.36597590002421032 0 -0.27295014926074201 0.35986702621101452 0 -0.27311383260625288 0.36863091072770088 0 -0.27311383260625288 0.36863091072770088 0 -0.2772817316506464 0.37200856017672479 0 -0.27926183473145888 0.36502370441747661 0 -0.27311383260625288 0.36863091072770088 0 -0.2772817316506464 0.37200856017672479 0 -0.2772817316506464 0.37200856017672479 0 -0.2915876548013191 0.3638339878764269 0 -0.2772817316506464 0.37200856017672479 0 -0.2915876548013191 0.3638339878764269 0 -0.29497297720334231 0.37449626856593538 0 -0.27926183473145888 0.36502370441747661 0 -0.2772817316506464 0.37200856017672479 0 -0.2915876548013191 0.3638339878764269 0 -0.27926183473145888 0.36502370441747661 0 -0.2813758053383339 0.36077803709551548 0 -0.2915876548013191 0.3638339878764269 0 -0.2915876548013191 0.3638339878764269 0 -0.29497297720334231 0.37449626856593538 0 -0.30126798772675678 0.36851835964392188 0 -0.2813758053383339 0.36077803709551548 0 -0.2915876548013191 0.3638339878764269 0 -0.2823964692161044 0.34525016335444952 0 -0.2823964692161044 0.34525016335444952 0 -0.30594725555961039 0.35564812359143899 0 -0.2915876548013191 0.3638339878764269 0 -0.2823964692161044 0.34525016335444952 0 -0.30594725555961039 0.35564812359143899 0 -0.297316816078119 0.33660871341807319 0 -0.2823964692161044 0.34525016335444952 0 -0.30594725555961039 0.35564812359143899 0 -0.29497297720334231 0.37449626856593538 0 -0.30126798772675678 0.36851835964392188 0 -0.30931136752389798 0.38141581627294469 0 -0.2915876548013191 0.3638339878764269 0 -0.30594725555961039 0.35564812359143899 0 -0.2915876548013191 0.3638339878764269 0 -0.30594725555961039 0.35564812359143899 0 -0.30126798772675678 0.36851835964392188 0 -0.30594725555961039 0.35564812359143899 0 -0.30126798772675678 0.36851835964392188 0 -0.30594725555961039 0.35564812359143899 0 -0.30819030827110749 0.36600674540273792 0 -0.31585867615776753 0.36722946273718382 0 -0.30594725555961039 0.35564812359143899 0 -0.30126798772675678 0.36851835964392188 0 -0.30819030827110749 0.36600674540273792 0 -0.30126798772675678 0.36851835964392188 0 -0.31020383195356771 0.37247449390141468 0 -0.30931136752389798 0.38141581627294469 0 -0.30819030827110749 0.36600674540273792 0 -0.31020383195356771 0.37247449390141468 0 -0.31585867615776753 0.36722946273718382 0 -0.30126798772675678 0.36851835964392188 0 -0.30819030827110749 0.36600674540273792 0 -0.31020383195356771 0.37247449390141468 0 -0.31585867615776753 0.36722946273718382 0 -0.33156561067617563 0.36707779576853689 0 -0.32372951228327712 0.37697794045109623 0 -0.31020383195356771 0.37247449390141468 0 -0.31585867615776753 0.36722946273718382 0 -0.32372951228327712 0.37697794045109623 0 -0.30594725555961039 0.35564812359143899 0 -0.31585867615776753 0.36722946273718382 0 -0.33156561067617563 0.36707779576853689 0 -0.30594725555961039 0.35564812359143899 0 -0.33156561067617563 0.36707779576853689 0 -0.32263576794191229 0.35569627281181082 0 -0.30594725555961039 0.35564812359143899 0 -0.33156561067617563 0.36707779576853689 0 -0.33788559484865172 0.36686251772548423 0 -0.34316165934105108 0.36889723572293143 0 -0.3500307436836837 0.35009473192277152 0 -0.33156561067617563 0.36707779576853689 0 -0.33788559484865172 0.36686251772548423 0 -0.32372951228327712 0.37697794045109623 0 -0.33788559484865172 0.36686251772548423 0 -0.34316165934105108 0.36889723572293143 0 -0.32963040887986328 0.38814023063345532 0 -0.33156561067617563 0.36707779576853689 0 -0.33367983391109129 0.36048348908238442 0 -0.32263576794191229 0.35569627281181082 0 -0.33156561067617563 0.36707779576853689 0 -0.33367983391109129 0.36048348908238442 0 -0.33788559484865172 0.36686251772548423 0 -0.33367983391109129 0.36048348908238442 0 -0.33788559484865172 0.36686251772548423 0 -0.33691525335732708 0.35337733936211768 0 -0.33788559484865172 0.36686251772548423 0 -0.33691525335732708 0.35337733936211768 0 -0.3500307436836837 0.35009473192277152 0 -0.33691525335732708 0.35337733936211768 0 -0.32876317163516422 0.34259146147959119 0 -0.3500307436836837 0.35009473192277152 0 -0.33367983391109129 0.36048348908238442 0 -0.33691525335732708 0.35337733936211768 0 -0.32263576794191229 0.35569627281181082 0 -0.33691525335732708 0.35337733936211768 0 -0.32263576794191229 0.35569627281181082 0 -0.32876317163516422 0.34259146147959119 0 -0.30594725555961039 0.35564812359143899 0 -0.32263576794191229 0.35569627281181082 0 -0.32876317163516422 0.34259146147959119 0 -0.30594725555961039 0.35564812359143899 0 -0.32876317163516422 0.34259146147959119 0 -0.30594725555961039 0.35564812359143899 0 -0.31509471334544292 0.33066765190857378 0 -0.32876317163516422 0.34259146147959119 0 -0.31509471334544292 0.33066765190857378 0 -0.33388499945798311 0.32290058417175083 0 -0.32876317163516422 0.34259146147959119 0 -0.32420518991501429 0.30572769175643522 0 -0.31509471334544292 0.33066765190857378 0 -0.32420518991501429 0.30572769175643522 0 -0.30866295761277263 0.31125440222161438 0 -0.31509471334544292 0.33066765190857378 0 -0.32420518991501429 0.30572769175643522 0 -0.31509471334544292 0.33066765190857378 0 -0.33388499945798311 0.32290058417175083 0 -0.34167778461943149 0.3079887209006823 0 -0.33388499945798311 0.32290058417175083 0 -0.34724359558122542 0.31762791645631783 0 -0.32876317163516422 0.34259146147959119 0 -0.35154210649445722 0.32957531089847009 0 -0.3500307436836837 0.35009473192277152 0 -0.33388499945798311 0.32290058417175083 0 -0.32876317163516422 0.34259146147959119 0 -0.35154210649445722 0.32957531089847009 0 -0.32876317163516422 0.34259146147959119 0 -0.35154210649445722 0.32957531089847009 0 -0.36217589251871563 0.33332694612005892 0 -0.3500307436836837 0.35009473192277152 0 -0.35154210649445722 0.32957531089847009 0 -0.36217589251871563 0.33332694612005892 0 -0.3500307436836837 0.35009473192277152 0 -0.33388499945798311 0.32290058417175083 0 -0.35154210649445722 0.32957531089847009 0 -0.34724359558122542 0.31762791645631783 0 -0.35154210649445722 0.32957531089847009 0 -0.34724359558122542 0.31762791645631783 0 -0.35734821863655031 0.31599916803058947 0 -0.35222221862684472 0.31020775645575538 0 -0.34724359558122542 0.31762791645631783 0 -0.35734821863655031 0.31599916803058947 0 -0.35154210649445722 0.32957531089847009 0 -0.37432104135374927 0.31655916031734738 0 -0.36217589251871563 0.33332694612005892 0 -0.35154210649445722 0.32957531089847009 0 -0.37432104135374927 0.31655916031734738 0 -0.36141213112647402 0.30602569602505508 0 -0.35734821863655031 0.31599916803058947 0 -0.37432104135374927 0.31655916031734738 0 -0.35154210649445722 0.32957531089847009 0 -0.35734821863655031 0.31599916803058947 0 -0.37432104135374927 0.31655916031734738 0 -0.37432104135374927 0.31655916031734738 0 -0.36217589251871563 0.33332694612005892 0 -0.37432104135374927 0.31655916031734738 0 -0.36217589251871563 0.33332694612005892 0 -0.37022416026342669 0.33041124590188331 0 -0.37022416026342669 0.33041124590188331 0 -0.37023750895959479 0.34345501545807727 0 -0.35669290980223889 0.34965424081240742 0 -0.37022416026342669 0.33041124590188331 0 -0.35669290980223889 0.34965424081240742 0 -0.36217589251871563 0.33332694612005892 0 -0.37022416026342669 0.33041124590188331 0 -0.35669290980223889 0.34965424081240742 0 -0.38089814111255049 0.33771150002866679 0 -0.37022416026342669 0.33041124590188331 0 -0.37023750895959479 0.34345501545807727 0 -0.37678853557995873 0.34903971913367238 0 -0.37023750895959479 0.34345501545807727 0 -0.36658379803979868 0.35045837141375641 0 -0.37023750895959479 0.34345501545807727 0 -0.36658379803979868 0.35045837141375641 0 -0.35669290980223889 0.34965424081240742 0 -0.36658379803979868 0.35045837141375641 0 -0.36187870758255752 0.35672149192930258 0 -0.35669290980223889 0.34965424081240742 0 -0.36658379803979868 0.35045837141375641 0 -0.36187870758255752 0.35672149192930258 0 -0.36857252188203582 0.3579593029613975 0 -0.37872220416441532 0.36076967198077592 0 -0.37678853557995873 0.34903971913367238 0 -0.36857252188203582 0.3579593029613975 0 -0.37678853557995873 0.34903971913367238 0 -0.36658379803979868 0.35045837141375641 0 -0.36857252188203582 0.3579593029613975 0 -0.37872220416441532 0.36076967198077592 0 -0.36857252188203582 0.3579593029613975 0 -0.36759721303204917 0.37071006471903623 0 -0.36759721303204917 0.37071006471903623 0 -0.36174009891689651 0.36441780749702168 0 -0.35549846059536649 0.37426378437646263 0 -0.36857252188203582 0.3579593029613975 0 -0.36759721303204917 0.37071006471903623 0 -0.36174009891689651 0.36441780749702168 0 -0.36187870758255752 0.35672149192930258 0 -0.36857252188203582 0.3579593029613975 0 -0.36174009891689651 0.36441780749702168 0 -0.36187870758255752 0.35672149192930258 0 -0.36174009891689651 0.36441780749702168 0 -0.35515359149247311 0.3624343934989096 0 -0.34316165934105108 0.36889723572293143 0 -0.35515359149247311 0.3624343934989096 0 -0.35669290980223889 0.34965424081240742 0 -0.36174009891689651 0.36441780749702168 0 -0.35515359149247311 0.3624343934989096 0 -0.35549846059536649 0.37426378437646263 0 -0.34316165934105108 0.36889723572293143 0 -0.35515359149247311 0.3624343934989096 0 -0.35549846059536649 0.37426378437646263 0 -0.34316165934105108 0.36889723572293143 0 -0.35669290980223889 0.34965424081240742 0 -0.34316165934105108 0.36889723572293143 0 -0.3500307436836837 0.35009473192277152 0 -0.35669290980223889 0.34965424081240742 0 -0.36217589251871563 0.33332694612005892 0 -0.3500307436836837 0.35009473192277152 0 -0.35669290980223889 0.34965424081240742 0 -0.33788559484865172 0.36686251772548423 0 -0.3500307436836837 0.35009473192277152 0 -0.36187870758255752 0.35672149192930258 0 -0.35515359149247311 0.3624343934989096 0 -0.35669290980223889 0.34965424081240742 0 -0.3441265506172182 0.38372643659165162 0 -0.35312766050458733 0.39028404457668953 0 -0.3402972356931161 0.40106918488740012 0 -0.35312766050458733 0.39028404457668953 0 -0.35953565335401849 0.41119683984087868 0 -0.3402972356931161 0.40106918488740012 0 -0.35549846059536649 0.37426378437646263 0 -0.35312766050458733 0.39028404457668953 0 -0.3634173907719726 0.38187962123995212 0 -0.35549846059536649 0.37426378437646263 0 -0.3441265506172182 0.38372643659165162 0 -0.35312766050458733 0.39028404457668953 0 -0.34316165934105108 0.36889723572293143 0 -0.35549846059536649 0.37426378437646263 0 -0.3441265506172182 0.38372643659165162 0 -0.37735698467441608 0.39094108417503548 0 -0.35312766050458733 0.39028404457668953 0 -0.3634173907719726 0.38187962123995212 0 -0.37735698467441608 0.39094108417503548 0 -0.36759721303204917 0.37071006471903623 0 -0.3634173907719726 0.38187962123995212 0 -0.36759721303204917 0.37071006471903623 0 -0.35549846059536649 0.37426378437646263 0 -0.3634173907719726 0.38187962123995212 0 -0.37735698467441608 0.39094108417503548 0 -0.35312766050458733 0.39028404457668953 0 -0.35953565335401849 0.41119683984087868 0 -0.37892855983090351 0.41546047286650628 0 -0.37735698467441608 0.39094108417503548 0 -0.35953565335401849 0.41119683984087868 0 -0.37892855983090351 0.41546047286650628 0 -0.35953565335401849 0.41119683984087868 0 -0.36929455244857479 0.43135082847567241 0 -0.35953565335401849 0.41119683984087868 0 -0.36929455244857479 0.43135082847567241 0 -0.34981938230441761 0.43079279490846728 0 -0.36929455244857479 0.43135082847567241 0 -0.34981938230441761 0.43079279490846728 0 -0.35554758509977019 0.44111674974291132 0 -0.35953565335401849 0.41119683984087868 0 -0.34616007555570988 0.4167716102131292 0 -0.3402972356931161 0.40106918488740012 0 -0.35953565335401849 0.41119683984087868 0 -0.34981938230441761 0.43079279490846728 0 -0.34616007555570988 0.4167716102131292 0 -0.34616007555570988 0.4167716102131292 0 -0.33168496964097538 0.41609673622553089 0 -0.3402972356931161 0.40106918488740012 0 -0.34981938230441761 0.43079279490846728 0 -0.34616007555570988 0.4167716102131292 0 -0.33168496964097538 0.41609673622553089 0 -0.33168496964097538 0.41609673622553089 0 -0.33754682568267891 0.43229418330541602 0 -0.32717553709509611 0.44013143445449499 0 -0.34981938230441761 0.43079279490846728 0 -0.33168496964097538 0.41609673622553089 0 -0.34981938230441761 0.43079279490846728 0 -0.33168496964097538 0.41609673622553089 0 -0.33754682568267891 0.43229418330541602 0 -0.34981938230441761 0.43079279490846728 0 -0.33754682568267891 0.43229418330541602 0 -0.34150741369022658 0.44215576763317072 0 -0.33168496964097538 0.41609673622553089 0 -0.30488102026893282 0.42949982592955688 0 -0.32717553709509611 0.44013143445449499 0 -0.33168496964097538 0.41609673622553089 0 -0.31355055697753331 0.40140067754259467 0 -0.30488102026893282 0.42949982592955688 0 -0.33168496964097538 0.41609673622553089 0 -0.31355055697753331 0.40140067754259467 0 -0.31355055697753331 0.40140067754259467 0 -0.3402972356931161 0.40106918488740012 0 -0.32963040887986328 0.38814023063345532 0 -0.3441265506172182 0.38372643659165162 0 -0.3402972356931161 0.40106918488740012 0 -0.32963040887986328 0.38814023063345532 0 -0.33168496964097538 0.41609673622553089 0 -0.31355055697753331 0.40140067754259467 0 -0.3402972356931161 0.40106918488740012 0 -0.33788559484865172 0.36686251772548423 0 -0.32963040887986328 0.38814023063345532 0 -0.32372951228327712 0.37697794045109623 0 -0.34316165934105108 0.36889723572293143 0 -0.3441265506172182 0.38372643659165162 0 -0.32963040887986328 0.38814023063345532 0 -0.34316165934105108 0.36889723572293143 0 -0.32963040887986328 0.38814023063345532 0 -0.32963040887986328 0.38814023063345532 0 -0.32372951228327712 0.37697794045109623 0 -0.30931136752389798 0.38141581627294469 0 -0.31355055697753331 0.40140067754259467 0 -0.32963040887986328 0.38814023063345532 0 -0.30931136752389798 0.38141581627294469 0 -0.31020383195356771 0.37247449390141468 0 -0.32372951228327712 0.37697794045109623 0 -0.30931136752389798 0.38141581627294469 0 -0.31355055697753331 0.40140067754259467 0 -0.30931136752389798 0.38141581627294469 0 -0.29541614431409102 0.38670461885965829 0 -0.29497297720334231 0.37449626856593538 0 -0.30931136752389798 0.38141581627294469 0 -0.29541614431409102 0.38670461885965829 0 -0.31355055697753331 0.40140067754259467 0 -0.29541614431409102 0.38670461885965829 0 -0.31355055697753331 0.40140067754259467 0 -0.29126109503286152 0.40400032917300238 0 -0.29541614431409102 0.38670461885965829 0 -0.29126109503286152 0.40400032917300238 0 -0.28256238199203021 0.38602726634782653 0 -0.2733700388418866 0.39537208850392069 0 -0.29126109503286152 0.40400032917300238 0 -0.28256238199203021 0.38602726634782653 0 -0.29541614431409102 0.38670461885965829 0 -0.2772817316506464 0.37200856017672479 0 -0.28256238199203021 0.38602726634782653 0 -0.29541614431409102 0.38670461885965829 0 -0.2772817316506464 0.37200856017672479 0 -0.29541614431409102 0.38670461885965829 0 -0.2772817316506464 0.37200856017672479 0 -0.29497297720334231 0.37449626856593538 0 -0.29541614431409102 0.38670461885965829 0 -0.2772817316506464 0.37200856017672479 0 -0.28256238199203021 0.38602726634782653 0 -0.2733700388418866 0.39537208850392069 0 -0.27311383260625288 0.36863091072770088 0 -0.2772817316506464 0.37200856017672479 0 -0.25125573985850302 0.38688011717805648 0 -0.2772817316506464 0.37200856017672479 0 -0.2733700388418866 0.39537208850392069 0 -0.25125573985850302 0.38688011717805648 0 -0.2733700388418866 0.39537208850392069 0 -0.25125573985850302 0.38688011717805648 0 -0.25658003635958748 0.41050023803125851 0 -0.2772817316506464 0.37200856017672479 0 -0.25125573985850302 0.38688011717805648 0 -0.25556984409446543 0.43307776232123768 0 -0.25658003635958748 0.41050023803125851 0 -0.27840927073197508 0.42622713356338893 0 -0.2733700388418866 0.39537208850392069 0 -0.25658003635958748 0.41050023803125851 0 -0.27840927073197508 0.42622713356338893 0 -0.29126109503286152 0.40400032917300238 0 -0.2733700388418866 0.39537208850392069 0 -0.27840927073197508 0.42622713356338893 0 -0.27840927073197508 0.42622713356338893 0 -0.30488102026893282 0.42949982592955688 0 -0.28134531793956352 0.45340060711537972 0 -0.29126109503286152 0.40400032917300238 0 -0.27840927073197508 0.42622713356338893 0 -0.30488102026893282 0.42949982592955688 0 -0.31355055697753331 0.40140067754259467 0 -0.29126109503286152 0.40400032917300238 0 -0.30488102026893282 0.42949982592955688 0 -0.30488102026893282 0.42949982592955688 0 -0.30810759854753672 0.45796517311919288 0 -0.28134531793956352 0.45340060711537972 0 -0.25556984409446543 0.43307776232123768 0 -0.27840927073197508 0.42622713356338893 0 -0.28134531793956352 0.45340060711537972 0 -0.25556984409446543 0.43307776232123768 0 -0.28134531793956352 0.45340060711537972 0 -0.25190045545754441 0.45663845226315769 0 -0.28134531793956352 0.45340060711537972 0 -0.25190045545754441 0.45663845226315769 0 -0.28388063560316229 0.5 0 -0.25190045545754441 0.45663845226315769 0 -0.28388063560316229 0.5 0 -0.24611876192404011 0.47621856951055741 0 -0.28388063560316229 0.5 0 -0.22609104325913229 0.48764554555300432 0 -0.24611876192404011 0.47621856951055741 0 -0.30810759854753672 0.45796517311919288 0 -0.28388063560316229 0.5 0 -0.34024974713423062 0.46521022242584259 0 -0.30810759854753672 0.45796517311919288 0 -0.28134531793956352 0.45340060711537972 0 -0.28388063560316229 0.5 0 -0.38830524089476059 0.5 0 -0.28388063560316229 0.5 0 -0.34024974713423062 0.46521022242584259 0 -0.30810759854753672 0.45796517311919288 0 -0.32717553709509611 0.44013143445449499 0 -0.34024974713423062 0.46521022242584259 0 -0.30488102026893282 0.42949982592955688 0 -0.30810759854753672 0.45796517311919288 0 -0.32717553709509611 0.44013143445449499 0 -0.32717553709509611 0.44013143445449499 0 -0.34150741369022658 0.44215576763317072 0 -0.34024974713423062 0.46521022242584259 0 -0.33754682568267891 0.43229418330541602 0 -0.32717553709509611 0.44013143445449499 0 -0.34150741369022658 0.44215576763317072 0 -0.37963697716209971 0.4541265140826527 0 -0.34024974713423062 0.46521022242584259 0 -0.35554758509977019 0.44111674974291132 0 -0.34150741369022658 0.44215576763317072 0 -0.34024974713423062 0.46521022242584259 0 -0.35554758509977019 0.44111674974291132 0 -0.34981938230441761 0.43079279490846728 0 -0.34150741369022658 0.44215576763317072 0 -0.35554758509977019 0.44111674974291132 0 -0.37963697716209971 0.4541265140826527 0 -0.36929455244857479 0.43135082847567241 0 -0.35554758509977019 0.44111674974291132 0 -0.37963697716209971 0.4541265140826527 0 -0.35554758509977019 0.44111674974291132 0 -0.38830524089476059 0.5 0 -0.37963697716209971 0.4541265140826527 0 -0.34024974713423062 0.46521022242584259 0 -0.13429886875633179 0.45944833036229271 0 -0.1575896188456079 0.47852327377784409 0 -0.12103489197726459 0.47737874935941937 0 -0.14783955599987469 0.5 0 -0.1575896188456079 0.47852327377784409 0 -0.12103489197726459 0.47737874935941937 0 -0.13429886875633179 0.45944833036229271 0 -0.1438725930767096 0.44503848826693182 0 -0.1270439353142809 0.43695352111152291 0 -0.1438725930767096 0.44503848826693182 0 -0.1541223690331581 0.4594378792739614 0 -0.15854471564549361 0.43604223882750098 0 -0.13429886875633179 0.45944833036229271 0 -0.1541223690331581 0.4594378792739614 0 -0.1575896188456079 0.47852327377784409 0 -0.13429886875633179 0.45944833036229271 0 -0.1438725930767096 0.44503848826693182 0 -0.1541223690331581 0.4594378792739614 0 -0.1541223690331581 0.4594378792739614 0 -0.17811192710848281 0.46884043470030901 0 -0.1541223690331581 0.4594378792739614 0 -0.1803449069397505 0.44593792925865833 0 -0.17811192710848281 0.46884043470030901 0 -0.1541223690331581 0.4594378792739614 0 -0.1803449069397505 0.44593792925865833 0 -0.15854471564549361 0.43604223882750098 0 -0.1803449069397505 0.44593792925865833 0 -0.17811192710848281 0.46884043470030901 0 -0.1946459258113768 0.46196040617937162 0 -0.14783955599987469 0.5 0 -0.1575896188456079 0.47852327377784409 0 -0.20555974819216161 0.5 0 -0.17811192710848281 0.46884043470030901 0 -0.1575896188456079 0.47852327377784409 0 -0.20555974819216161 0.5 0 -0.1541223690331581 0.4594378792739614 0 -0.17811192710848281 0.46884043470030901 0 -0.1575896188456079 0.47852327377784409 0 -0.28388063560316229 0.5 0 -0.20555974819216161 0.5 0 -0.22609104325913229 0.48764554555300432 0 -0.17811192710848281 0.46884043470030901 0 -0.20210148518380749 0.47824299012665672 0 -0.17811192710848281 0.46884043470030901 0 -0.20210148518380749 0.47824299012665672 0 -0.20555974819216161 0.5 0 -0.17811192710848281 0.46884043470030901 0 -0.20210148518380749 0.47824299012665672 0 -0.1946459258113768 0.46196040617937162 0 -0.20210148518380749 0.47824299012665672 0 -0.22609104325913229 0.48764554555300432 0 -0.22260291337632121 0.46059028022606763 0 -0.20210148518380749 0.47824299012665672 0 -0.22609104325913229 0.48764554555300432 0 -0.20210148518380749 0.47824299012665672 0 -0.20555974819216161 0.5 0 -0.22609104325913229 0.48764554555300432 0 -0.22609104325913229 0.48764554555300432 0 -0.24611876192404011 0.47621856951055741 0 -0.22260291337632121 0.46059028022606763 0 -0.25190045545754441 0.45663845226315769 0 -0.23823527158833871 0.44176747767903912 0 -0.22260291337632121 0.46059028022606763 0 -0.25556984409446543 0.43307776232123768 0 -0.25190045545754441 0.45663845226315769 0 -0.23823527158833871 0.44176747767903912 0 -0.25190045545754441 0.45663845226315769 0 -0.24611876192404011 0.47621856951055741 0 -0.22260291337632121 0.46059028022606763 0 -0.23823527158833871 0.44176747767903912 0 -0.22260291337632121 0.46059028022606763 0 -0.2207298729459567 0.43687426637188959 0 -0.22260291337632121 0.46059028022606763 0 -0.20317649723527581 0.44651506569139893 0 -0.2207298729459567 0.43687426637188959 0 -0.20210148518380749 0.47824299012665672 0 -0.22260291337632121 0.46059028022606763 0 -0.1946459258113768 0.46196040617937162 0 -0.22260291337632121 0.46059028022606763 0 -0.20317649723527581 0.44651506569139893 0 -0.1946459258113768 0.46196040617937162 0 -0.1803449069397505 0.44593792925865833 0 -0.20317649723527581 0.44651506569139893 0 -0.1946459258113768 0.46196040617937162 0 -0.1803449069397505 0.44593792925865833 0 -0.20317649723527581 0.44651506569139893 0 -0.19702747297569609 0.42844411528060161 0 -0.1877558265573222 0.40867597777064762 0 -0.21182565062880909 0.414140964159393 0 -0.1877558265573222 0.40867597777064762 0 -0.21182565062880909 0.414140964159393 0 -0.20237582415177849 0.40002279675069891 0 -0.19702747297569609 0.42844411528060161 0 -0.1877558265573222 0.40867597777064762 0 -0.21182565062880909 0.414140964159393 0 -0.19702747297569609 0.42844411528060161 0 -0.21182565062880909 0.414140964159393 0 -0.2207298729459567 0.43687426637188959 0 -0.20317649723527581 0.44651506569139893 0 -0.19702747297569609 0.42844411528060161 0 -0.2207298729459567 0.43687426637188959 0 -0.21182565062880909 0.414140964159393 0 -0.2207298729459567 0.43687426637188959 0 -0.2358954747002959 0.41960595054813837 0 -0.23823527158833871 0.44176747767903912 0 -0.2207298729459567 0.43687426637188959 0 -0.2358954747002959 0.41960595054813837 0 -0.21182565062880909 0.414140964159393 0 -0.2358954747002959 0.41960595054813837 0 -0.21182565062880909 0.414140964159393 0 -0.2358954747002959 0.41960595054813837 0 -0.2273491821239107 0.39478675754356513 0 -0.25658003635958748 0.41050023803125851 0 -0.2358954747002959 0.41960595054813837 0 -0.2273491821239107 0.39478675754356513 0 -0.25556984409446543 0.43307776232123768 0 -0.25658003635958748 0.41050023803125851 0 -0.2358954747002959 0.41960595054813837 0 -0.25556984409446543 0.43307776232123768 0 -0.23823527158833871 0.44176747767903912 0 -0.2358954747002959 0.41960595054813837 0 -0.25125573985850302 0.38688011717805648 0 -0.2273491821239107 0.39478675754356513 0 -0.23820980057709781 0.3734503636087903 0 -0.25801636075578011 0.36597590002421032 0 -0.25125573985850302 0.38688011717805648 0 -0.23820980057709781 0.3734503636087903 0 -0.25125573985850302 0.38688011717805648 0 -0.25658003635958748 0.41050023803125851 0 -0.2273491821239107 0.39478675754356513 0 -0.2273491821239107 0.39478675754356513 0 -0.2201506021665274 0.37551437942317001 0 -0.23820980057709781 0.3734503636087903 0 -0.2273491821239107 0.39478675754356513 0 -0.2201506021665274 0.37551437942317001 0 -0.20524707637890041 0.3830966533213383 0 -0.2273491821239107 0.39478675754356513 0 -0.20524707637890041 0.3830966533213383 0 -0.20237582415177849 0.40002279675069891 0 -0.21182565062880909 0.414140964159393 0 -0.2273491821239107 0.39478675754356513 0 -0.20237582415177849 0.40002279675069891 0 -0.20524707637890041 0.3830966533213383 0 -0.20237582415177849 0.40002279675069891 0 -0.18741189920662199 0.38899480574885259 0 -0.1877558265573222 0.40867597777064762 0 -0.20237582415177849 0.40002279675069891 0 -0.18741189920662199 0.38899480574885259 0 -0.20524707637890041 0.3830966533213383 0 -0.18741189920662199 0.38899480574885259 0 -0.19073161862731711 0.37399795757179938 0 -0.18741189920662199 0.38899480574885259 0 -0.1707432455289139 0.3754701037722622 0 -0.19073161862731711 0.37399795757179938 0 -0.18741189920662199 0.38899480574885259 0 -0.1707432455289139 0.3754701037722622 0 -0.17296791386628169 0.39200904686923421 0 -0.1707432455289139 0.3754701037722622 0 -0.17296791386628169 0.39200904686923421 0 -0.15524259555271511 0.38369335567250618 0 -0.1636860024858352 0.40321099138190208 0 -0.17296791386628169 0.39200904686923421 0 -0.15524259555271511 0.38369335567250618 0 -0.1877558265573222 0.40867597777064762 0 -0.1636860024858352 0.40321099138190208 0 -0.17296791386628169 0.39200904686923421 0 -0.1877558265573222 0.40867597777064762 0 -0.18741189920662199 0.38899480574885259 0 -0.17296791386628169 0.39200904686923421 0 -0.1877558265573222 0.40867597777064762 0 -0.1636860024858352 0.40321099138190208 0 -0.19702747297569609 0.42844411528060161 0 -0.1877558265573222 0.40867597777064762 0 -0.17733955734670831 0.42275002935736578 0 -0.1877558265573222 0.40867597777064762 0 -0.1636860024858352 0.40321099138190208 0 -0.17733955734670831 0.42275002935736578 0 -0.1803449069397505 0.44593792925865833 0 -0.17733955734670831 0.42275002935736578 0 -0.15854471564549361 0.43604223882750098 0 -0.1803449069397505 0.44593792925865833 0 -0.19702747297569609 0.42844411528060161 0 -0.17733955734670831 0.42275002935736578 0 -0.17733955734670831 0.42275002935736578 0 -0.15854471564549361 0.43604223882750098 0 -0.15024119451998361 0.41477739066636521 0 -0.1636860024858352 0.40321099138190208 0 -0.17733955734670831 0.42275002935736578 0 -0.15024119451998361 0.41477739066636521 0 -0.17733955734670831 0.42275002935736578 0 -0.15024119451998361 0.41477739066636521 0 -0.15854471564549361 0.43604223882750098 0 -0.15024119451998361 0.41477739066636521 0 -0.1437098876447109 0.43039174603275782 0 -0.15024119451998361 0.41477739066636521 0 -0.1437098876447109 0.43039174603275782 0 -0.1334671919727361 0.42175198106784051 0 -0.1438725930767096 0.44503848826693182 0 -0.15854471564549361 0.43604223882750098 0 -0.1437098876447109 0.43039174603275782 0 -0.1270439353142809 0.43695352111152291 0 -0.1334671919727361 0.42175198106784051 0 -0.1176040665924666 0.42166973072099201 0 -0.1438725930767096 0.44503848826693182 0 -0.1437098876447109 0.43039174603275782 0 -0.1270439353142809 0.43695352111152291 0 -0.1437098876447109 0.43039174603275782 0 -0.1270439353142809 0.43695352111152291 0 -0.1334671919727361 0.42175198106784051 0 -0.15024119451998361 0.41477739066636521 0 -0.1396161784143482 0.39774600499315671 0 -0.1231428316932589 0.40680475197536448 0 -0.15024119451998361 0.41477739066636521 0 -0.1334671919727361 0.42175198106784051 0 -0.1231428316932589 0.40680475197536448 0 -0.15024119451998361 0.41477739066636521 0 -0.1231428316932589 0.40680475197536448 0 -0.1396161784143482 0.39774600499315671 0 -0.11906308739394331 0.3865806531226435 0 -0.1231428316932589 0.40680475197536448 0 -0.1396161784143482 0.39774600499315671 0 -0.13532528328201701 0.37584650447051487 0 -0.11906308739394331 0.3865806531226435 0 -0.1396161784143482 0.39774600499315671 0 -0.13532528328201701 0.37584650447051487 0 -0.15524259555271511 0.38369335567250618 0 -0.1636860024858352 0.40321099138190208 0 -0.1396161784143482 0.39774600499315671 0 -0.1636860024858352 0.40321099138190208 0 -0.1396161784143482 0.39774600499315671 0 -0.15524259555271511 0.38369335567250618 0 -0.1636860024858352 0.40321099138190208 0 -0.15024119451998361 0.41477739066636521 0 -0.1396161784143482 0.39774600499315671 0 -0.15387005815840721 0.34547014511867058 0 -0.14912175125945551 0.36145135015141061 0 -0.1367502033665807 0.34152098586960372 0 -0.13532528328201701 0.37584650447051487 0 -0.15524259555271511 0.38369335567250618 0 -0.14912175125945551 0.36145135015141061 0 -0.13532528328201701 0.37584650447051487 0 -0.14912175125945551 0.36145135015141061 0 -0.13050369970872611 0.35667342728772222 0 -0.13532528328201701 0.37584650447051487 0 -0.13050369970872611 0.35667342728772222 0 -0.11840438736291389 0.36893423559565047 0 -0.14912175125945551 0.36145135015141061 0 -0.13050369970872611 0.35667342728772222 0 -0.1367502033665807 0.34152098586960372 0 -0.13050369970872611 0.35667342728772222 0 -0.1367502033665807 0.34152098586960372 0 -0.11989828754680699 0.33755234214377011 0 -0.1367502033665807 0.34152098586960372 0 -0.12816643349291301 0.32155351161784551 0 -0.14891091947540741 0.33086968317415649 0 -0.1367502033665807 0.34152098586960372 0 -0.12816643349291301 0.32155351161784551 0 -0.11989828754680699 0.33755234214377011 0 -0.12816643349291301 0.32155351161784551 0 -0.14891091947540741 0.33086968317415649 0 -0.14081051317867191 0.30784232556217078 0 -0.14891091947540741 0.33086968317415649 0 -0.15655731153505151 0.31607522780324349 0 -0.14081051317867191 0.30784232556217078 0 -0.15387005815840721 0.34547014511867058 0 -0.1367502033665807 0.34152098586960372 0 -0.14891091947540741 0.33086968317415649 0 -0.15387005815840721 0.34547014511867058 0 -0.14891091947540741 0.33086968317415649 0 -0.16949406426994701 0.33286683160042191 0 -0.14891091947540741 0.33086968317415649 0 -0.16949406426994701 0.33286683160042191 0 -0.15655731153505151 0.31607522780324349 0 -0.16949406426994701 0.33286683160042191 0 -0.15655731153505151 0.31607522780324349 0 -0.17214039887192739 0.31020065460146801 0 -0.16949406426994701 0.33286683160042191 0 -0.18668038474105639 0.32308334363704039 0 -0.17214039887192739 0.31020065460146801 0 -0.18668038474105639 0.32308334363704039 0 -0.19858942785467301 0.30444231869426919 0 -0.17214039887192739 0.31020065460146801 0 -0.16949406426994701 0.33286683160042191 0 -0.18726639452205771 0.33987286431269481 0 -0.1691463331717569 0.35316149882263659 0 -0.16949406426994701 0.33286683160042191 0 -0.18668038474105639 0.32308334363704039 0 -0.18726639452205771 0.33987286431269481 0 -0.18726639452205771 0.33987286431269481 0 -0.18651625832782259 0.35839679228393428 0 -0.1691463331717569 0.35316149882263659 0 -0.15387005815840721 0.34547014511867058 0 -0.14912175125945551 0.36145135015141061 0 -0.1691463331717569 0.35316149882263659 0 -0.15387005815840721 0.34547014511867058 0 -0.16949406426994701 0.33286683160042191 0 -0.1691463331717569 0.35316149882263659 0 -0.1707432455289139 0.3754701037722622 0 -0.14912175125945551 0.36145135015141061 0 -0.1691463331717569 0.35316149882263659 0 -0.1707432455289139 0.3754701037722622 0 -0.15524259555271511 0.38369335567250618 0 -0.14912175125945551 0.36145135015141061 0 -0.1707432455289139 0.3754701037722622 0 -0.18651625832782259 0.35839679228393428 0 -0.1691463331717569 0.35316149882263659 0 -0.1707432455289139 0.3754701037722622 0 -0.18651625832782259 0.35839679228393428 0 -0.19073161862731711 0.37399795757179938 0 -0.20524707637890041 0.3830966533213383 0 -0.19073161862731711 0.37399795757179938 0 -0.2057092932049083 0.36576340440298988 0 -0.18651625832782259 0.35839679228393428 0 -0.19073161862731711 0.37399795757179938 0 -0.2057092932049083 0.36576340440298988 0 -0.18651625832782259 0.35839679228393428 0 -0.20824452344342609 0.34582549099678439 0 -0.2057092932049083 0.36576340440298988 0 -0.18726639452205771 0.33987286431269481 0 -0.18651625832782259 0.35839679228393428 0 -0.20824452344342609 0.34582549099678439 0 -0.20824452344342609 0.34582549099678439 0 -0.2057092932049083 0.36576340440298988 0 -0.22423765854781991 0.36047471823916621 0 -0.2201506021665274 0.37551437942317001 0 -0.20524707637890041 0.3830966533213383 0 -0.2057092932049083 0.36576340440298988 0 -0.2201506021665274 0.37551437942317001 0 -0.2057092932049083 0.36576340440298988 0 -0.22423765854781991 0.36047471823916621 0 -0.2201506021665274 0.37551437942317001 0 -0.22423765854781991 0.36047471823916621 0 -0.23820980057709781 0.3734503636087903 0 -0.20824452344342609 0.34582549099678439 0 -0.22423765854781991 0.36047471823916621 0 -0.23395538721902739 0.34305734413846151 0 -0.25888266408886079 0.33481169158673002 0 -0.24775099256547911 0.35500491509708137 0 -0.23395538721902739 0.34305734413846151 0 -0.22423765854781991 0.36047471823916621 0 -0.24775099256547911 0.35500491509708137 0 -0.23395538721902739 0.34305734413846151 0 -0.22423765854781991 0.36047471823916621 0 -0.24775099256547911 0.35500491509708137 0 -0.23820980057709781 0.3734503636087903 0 -0.25801636075578011 0.36597590002421032 0 -0.24775099256547911 0.35500491509708137 0 -0.23820980057709781 0.3734503636087903 0 -0.25209251067084948 0.30983878725335651 0 -0.25888266408886079 0.33481169158673002 0 -0.23536885896161741 0.32437321981901063 0 -0.25888266408886079 0.33481169158673002 0 -0.23536885896161741 0.32437321981901063 0 -0.23395538721902739 0.34305734413846151 0 -0.25888266408886079 0.33481169158673002 0 -0.23536885896161741 0.32437321981901063 0 -0.20824452344342609 0.34582549099678439 0 -0.21959630810027339 0.33063598981296538 0 -0.23395538721902739 0.34305734413846151 0 -0.23536885896161741 0.32437321981901063 0 -0.21959630810027339 0.33063598981296538 0 -0.23395538721902739 0.34305734413846151 0 -0.23536885896161741 0.32437321981901063 0 -0.21959630810027339 0.33063598981296538 0 -0.2191309248500454 0.31367704129262342 0 -0.23536885896161741 0.32437321981901063 0 -0.2191309248500454 0.31367704129262342 0 -0.23409804367780879 0.30326077286087127 0 -0.21959630810027339 0.33063598981296538 0 -0.2191309248500454 0.31367704129262342 0 -0.20351680317833709 0.32590322853535159 0 -0.2191309248500454 0.31367704129262342 0 -0.20351680317833709 0.32590322853535159 0 -0.19858942785467301 0.30444231869426919 0 -0.20824452344342609 0.34582549099678439 0 -0.21959630810027339 0.33063598981296538 0 -0.20351680317833709 0.32590322853535159 0 -0.18726639452205771 0.33987286431269481 0 -0.20824452344342609 0.34582549099678439 0 -0.20351680317833709 0.32590322853535159 0 -0.18668038474105639 0.32308334363704039 0 -0.18726639452205771 0.33987286431269481 0 -0.20351680317833709 0.32590322853535159 0 -0.18668038474105639 0.32308334363704039 0 -0.20351680317833709 0.32590322853535159 0 -0.19858942785467301 0.30444231869426919 0 -0.19858942785467301 0.30444231869426919 0 -0.19295173281484959 0.28926504373298689 0 -0.17966871424683931 0.29468873677274843 0 -0.19295173281484959 0.28926504373298689 0 -0.20172036935710361 0.27896527196014248 0 -0.18878155529593499 0.27649224234542319 0 -0.19858942785467301 0.30444231869426919 0 -0.19295173281484959 0.28926504373298689 0 -0.20680087962799629 0.28900610384560022 0 -0.19295173281484959 0.28926504373298689 0 -0.20680087962799629 0.28900610384560022 0 -0.20172036935710361 0.27896527196014248 0 -0.19858942785467301 0.30444231869426919 0 -0.20680087962799629 0.28900610384560022 0 -0.22208690671569989 0.29401405043834089 0 -0.20680087962799629 0.28900610384560022 0 -0.21621154702302409 0.27917666662023111 0 -0.20172036935710361 0.27896527196014248 0 -0.20680087962799629 0.28900610384560022 0 -0.22208690671569989 0.29401405043834089 0 -0.21621154702302409 0.27917666662023111 0 -0.2191309248500454 0.31367704129262342 0 -0.19858942785467301 0.30444231869426919 0 -0.22208690671569989 0.29401405043834089 0 -0.2191309248500454 0.31367704129262342 0 -0.23409804367780879 0.30326077286087127 0 -0.22208690671569989 0.29401405043834089 0 -0.23409804367780879 0.30326077286087127 0 -0.22208690671569989 0.29401405043834089 0 -0.2316528536660577 0.28470310547028332 0 -0.22208690671569989 0.29401405043834089 0 -0.2316528536660577 0.28470310547028332 0 -0.21621154702302409 0.27917666662023111 0 -0.23409804367780879 0.30326077286087127 0 -0.2316528536660577 0.28470310547028332 0 -0.24425620720258351 0.292958432891613 0 -0.2316528536660577 0.28470310547028332 0 -0.24425620720258351 0.292958432891613 0 -0.2498943307853857 0.27313514927493482 0 -0.2556824143928022 0.29450383255318441 0 -0.24425620720258351 0.292958432891613 0 -0.2498943307853857 0.27313514927493482 0 -0.25209251067084948 0.30983878725335651 0 -0.23536885896161741 0.32437321981901063 0 -0.23409804367780879 0.30326077286087127 0 -0.25209251067084948 0.30983878725335651 0 -0.23409804367780879 0.30326077286087127 0 -0.24425620720258351 0.292958432891613 0 -0.2498943307853857 0.27313514927493482 0 -0.23395429088282479 0.25540169663383039 0 -0.24565678637246771 0.25432931140221188 0 -0.2498943307853857 0.27313514927493482 0 -0.23395429088282479 0.25540169663383039 0 -0.24565678637246771 0.25432931140221188 0 -0.23395429088282479 0.25540169663383039 0 -0.23621598375468131 0.24232310763638509 0 -0.2316528536660577 0.28470310547028332 0 -0.2498943307853857 0.27313514927493482 0 -0.22793878400975731 0.26902276273186682 0 -0.2498943307853857 0.27313514927493482 0 -0.22793878400975731 0.26902276273186682 0 -0.23395429088282479 0.25540169663383039 0 -0.2316528536660577 0.28470310547028332 0 -0.22793878400975731 0.26902276273186682 0 -0.21621154702302409 0.27917666662023111 0 -0.22793878400975731 0.26902276273186682 0 -0.21619615738903419 0.26140441239500423 0 -0.2144410194261992 0.26985715190424492 0 -0.22793878400975731 0.26902276273186682 0 -0.21621154702302409 0.27917666662023111 0 -0.2144410194261992 0.26985715190424492 0 -0.22793878400975731 0.26902276273186682 0 -0.22473428255638639 0.25922997019891131 0 -0.21619615738903419 0.26140441239500423 0 -0.22793878400975731 0.26902276273186682 0 -0.22473428255638639 0.25922997019891131 0 -0.23395429088282479 0.25540169663383039 0 -0.22473428255638639 0.25922997019891131 0 -0.23395429088282479 0.25540169663383039 0 -0.21938876226052809 0.24971123941932449 0 -0.22473428255638639 0.25922997019891131 0 -0.21619615738903419 0.26140441239500423 0 -0.21938876226052809 0.24971123941932449 0 -0.21619615738903419 0.26140441239500423 0 -0.20814198958425389 0.26395363282407369 0 -0.19828096430522671 0.24268160811117781 0 -0.21619615738903419 0.26140441239500423 0 -0.19828096430522671 0.24268160811117781 0 -0.21619615738903419 0.26140441239500423 0 -0.21938876226052809 0.24971123941932449 0 -0.19828096430522671 0.24268160811117781 0 -0.21619615738903419 0.26140441239500423 0 -0.20814198958425389 0.26395363282407369 0 -0.2144410194261992 0.26985715190424492 0 -0.21621154702302409 0.27917666662023111 0 -0.2144410194261992 0.26985715190424492 0 -0.20734632271820719 0.27198715476552721 0 -0.20814198958425389 0.26395363282407369 0 -0.2144410194261992 0.26985715190424492 0 -0.20734632271820719 0.27198715476552721 0 -0.20814198958425389 0.26395363282407369 0 -0.20734632271820719 0.27198715476552721 0 -0.1978223556512694 0.27026440381800998 0 -0.21621154702302409 0.27917666662023111 0 -0.20734632271820719 0.27198715476552721 0 -0.20172036935710361 0.27896527196014248 0 -0.1978223556512694 0.27026440381800998 0 -0.18878155529593499 0.27649224234542319 0 -0.1831215413008474 0.25992371719488311 0 -0.20734632271820719 0.27198715476552721 0 -0.20172036935710361 0.27896527196014248 0 -0.1978223556512694 0.27026440381800998 0 -0.20172036935710361 0.27896527196014248 0 -0.1978223556512694 0.27026440381800998 0 -0.18878155529593499 0.27649224234542319 0 -0.20814198958425389 0.26395363282407369 0 -0.1978223556512694 0.27026440381800998 0 -0.1831215413008474 0.25992371719488311 0 -0.20814198958425389 0.26395363282407369 0 -0.1831215413008474 0.25992371719488311 0 -0.19828096430522671 0.24268160811117781 0 -0.20814198958425389 0.26395363282407369 0 -0.1831215413008474 0.25992371719488311 0 -0.1831215413008474 0.25992371719488311 0 -0.15810109301744099 0.25589380156569258 0 -0.1754675533648144 0.2408008616495303 0 -0.1831215413008474 0.25992371719488311 0 -0.15810109301744099 0.25589380156569258 0 -0.16312868085498561 0.27124699832650168 0 -0.1831215413008474 0.25992371719488311 0 -0.15810109301744099 0.25589380156569258 0 -0.16312868085498561 0.27124699832650168 0 -0.17554153086678381 0.27878060178853847 0 -0.1591204808259627 0.29075506504648002 0 -0.18878155529593499 0.27649224234542319 0 -0.1831215413008474 0.25992371719488311 0 -0.17554153086678381 0.27878060178853847 0 -0.1831215413008474 0.25992371719488311 0 -0.16312868085498561 0.27124699832650168 0 -0.17554153086678381 0.27878060178853847 0 -0.19295173281484959 0.28926504373298689 0 -0.18878155529593499 0.27649224234542319 0 -0.17554153086678381 0.27878060178853847 0 -0.19295173281484959 0.28926504373298689 0 -0.17554153086678381 0.27878060178853847 0 -0.17966871424683931 0.29468873677274843 0 -0.19858942785467301 0.30444231869426919 0 -0.17966871424683931 0.29468873677274843 0 -0.17214039887192739 0.31020065460146801 0 -0.17966871424683931 0.29468873677274843 0 -0.17214039887192739 0.31020065460146801 0 -0.1591204808259627 0.29075506504648002 0 -0.17214039887192739 0.31020065460146801 0 -0.1591204808259627 0.29075506504648002 0 -0.15655731153505151 0.31607522780324349 0 -0.17214039887192739 0.31020065460146801 0 -0.1591204808259627 0.29075506504648002 0 -0.17554153086678381 0.27878060178853847 0 -0.17966871424683931 0.29468873677274843 0 -0.1591204808259627 0.29075506504648002 0 -0.1591204808259627 0.29075506504648002 0 -0.13545730030778191 0.28816933091580998 0 -0.14610056277999789 0.27130947549149192 0 -0.1591204808259627 0.29075506504648002 0 -0.14081051317867191 0.30784232556217078 0 -0.13545730030778191 0.28816933091580998 0 -0.15655731153505151 0.31607522780324349 0 -0.1591204808259627 0.29075506504648002 0 -0.14081051317867191 0.30784232556217078 0 -0.14081051317867191 0.30784232556217078 0 -0.13545730030778191 0.28816933091580998 0 -0.1192955010994131 0.30034434214278249 0 -0.12816643349291301 0.32155351161784551 0 -0.14081051317867191 0.30784232556217078 0 -0.1192955010994131 0.30034434214278249 0 -0.13545730030778191 0.28816933091580998 0 -0.12057468794772699 0.2825717575497419 0 -0.1192955010994131 0.30034434214278249 0 -0.1272115954829113 0.27183588298069528 0 -0.12802988070776319 0.2605085735468804 0 -0.14610056277999789 0.27130947549149192 0 -0.13545730030778191 0.28816933091580998 0 -0.1272115954829113 0.27183588298069528 0 -0.14610056277999789 0.27130947549149192 0 -0.13545730030778191 0.28816933091580998 0 -0.1272115954829113 0.27183588298069528 0 -0.12057468794772699 0.2825717575497419 0 -0.12802988070776319 0.2605085735468804 0 -0.13308064473403439 0.25186388593650311 0 -0.14610056277999789 0.27130947549149192 0 -0.13308064473403439 0.25186388593650311 0 -0.14610056277999789 0.27130947549149192 0 -0.12802988070776319 0.2605085735468804 0 -0.12594884044955931 0.25071520269850439 0 -0.13308064473403439 0.25186388593650311 0 -0.12594884044955931 0.25071520269850439 0 -0.13308064473403439 0.25186388593650311 0 -0.15810109301744099 0.25589380156569258 0 -0.13308064473403439 0.25186388593650311 0 -0.14610056277999789 0.27130947549149192 0 -0.15810109301744099 0.25589380156569258 0 -0.13308064473403439 0.25186388593650311 0 -0.15810109301744099 0.25589380156569258 0 -0.13308064473403439 0.25186388593650311 0 -0.14042991150252279 0.2438277696377856 0 -0.1591204808259627 0.29075506504648002 0 -0.14610056277999789 0.27130947549149192 0 -0.15810109301744099 0.25589380156569258 0 -0.16312868085498561 0.27124699832650168 0 -0.14610056277999789 0.27130947549149192 0 -0.16312868085498561 0.27124699832650168 0 -0.1591204808259627 0.29075506504648002 0 -0.14610056277999789 0.27130947549149192 0 -0.09737639892554309 0.27052235011621029 0 -0.11388041772228991 0.26962383094249343 0 -0.1064318637666259 0.28394060515110447 0 -0.09737639892554309 0.27052235011621029 0 -0.1093113425500527 0.25762787717354679 0 -0.11388041772228991 0.26962383094249343 0 -0.09737639892554309 0.27052235011621029 0 -0.1064318637666259 0.28394060515110447 0 -0.09178642815772059 0.284692169729444 0 -0.1093113425500527 0.25762787717354679 0 -0.082083790945880891 0.25421675507308772 0 -0.1093113425500527 0.25762787717354679 0 -0.082083790945880891 0.25421675507308772 0 -0.097808993047078713 0.24307883669473671 0 -0.09737639892554309 0.27052235011621029 0 -0.1093113425500527 0.25762787717354679 0 -0.082083790945880891 0.25421675507308772 0 -0.1093113425500527 0.25762787717354679 0 -0.1189392722295104 0.25732248993651619 0 -0.11388041772228991 0.26962383094249343 0 -0.1093113425500527 0.25762787717354679 0 -0.1189392722295104 0.25732248993651619 0 -0.1133144768543244 0.24346474061285289 0 -0.12802988070776319 0.2605085735468804 0 -0.12594884044955931 0.25071520269850439 0 -0.1189392722295104 0.25732248993651619 0 -0.12594884044955931 0.25071520269850439 0 -0.1189392722295104 0.25732248993651619 0 -0.1219120720920598 0.245209269023206 0 -0.1272115954829113 0.27183588298069528 0 -0.12802988070776319 0.2605085735468804 0 -0.1189392722295104 0.25732248993651619 0 -0.1272115954829113 0.27183588298069528 0 -0.1189392722295104 0.25732248993651619 0 -0.11388041772228991 0.26962383094249343 0 -0.11388041772228991 0.26962383094249343 0 -0.12057468794772699 0.2825717575497419 0 -0.1064318637666259 0.28394060515110447 0 -0.1272115954829113 0.27183588298069528 0 -0.11388041772228991 0.26962383094249343 0 -0.12057468794772699 0.2825717575497419 0 -0.12057468794772699 0.2825717575497419 0 -0.1192955010994131 0.30034434214278249 0 -0.1064318637666259 0.28394060515110447 0 -0.1192955010994131 0.30034434214278249 0 -0.098184141985521639 0.30101548138848722 0 -0.1104330685736923 0.31827185421616833 0 -0.098184141985521639 0.30101548138848722 0 -0.1064318637666259 0.28394060515110447 0 -0.09178642815772059 0.284692169729444 0 -0.1192955010994131 0.30034434214278249 0 -0.098184141985521639 0.30101548138848722 0 -0.1064318637666259 0.28394060515110447 0 -0.098184141985521639 0.30101548138848722 0 -0.079896053930087169 0.29403163891796869 0 -0.09178642815772059 0.284692169729444 0 -0.079896053930087169 0.29403163891796869 0 -0.09178642815772059 0.284692169729444 0 -0.080989922437983974 0.27412419699552831 0 -0.079896053930087169 0.29403163891796869 0 -0.080989922437983974 0.27412419699552831 0 -0.079896053930087169 0.29403163891796869 0 -0.084509330384762174 0.30923756412801018 0 -0.070582160834362639 0.31501279540152072 0 -0.098184141985521639 0.30101548138848722 0 -0.084509330384762174 0.30923756412801018 0 -0.095633312527366968 0.32058478856536199 0 -0.098184141985521639 0.30101548138848722 0 -0.079896053930087169 0.29403163891796869 0 -0.084509330384762174 0.30923756412801018 0 -0.079896053930087169 0.29403163891796869 0 -0.058140619125593831 0.30252411498317572 0 -0.070582160834362639 0.31501279540152072 0 -0.079896053930087169 0.29403163891796869 0 -0.0670845583362083 0.27445855613263731 0 -0.060654062952679243 0.28660927550043469 0 -0.079896053930087169 0.29403163891796869 0 -0.060654062952679243 0.28660927550043469 0 -0.058140619125593831 0.30252411498317572 0 -0.079896053930087169 0.29403163891796869 0 -0.0670845583362083 0.27445855613263731 0 -0.080989922437983974 0.27412419699552831 0 -0.0670845583362083 0.27445855613263731 0 -0.069886286851312526 0.2622287860979205 0 -0.057842003791260518 0.26347149677716458 0 -0.0670845583362083 0.27445855613263731 0 -0.080989922437983974 0.27412419699552831 0 -0.069886286851312526 0.2622287860979205 0 -0.09737639892554309 0.27052235011621029 0 -0.080989922437983974 0.27412419699552831 0 -0.082083790945880891 0.25421675507308772 0 -0.09737639892554309 0.27052235011621029 0 -0.09178642815772059 0.284692169729444 0 -0.080989922437983974 0.27412419699552831 0 -0.080989922437983974 0.27412419699552831 0 -0.082083790945880891 0.25421675507308772 0 -0.082083790945880891 0.25421675507308772 0 -0.069886286851312526 0.2622287860979205 0 -0.060203154901558281 0.25147550524394302 0 -0.082083790945880891 0.25421675507308772 0 -0.060203154901558281 0.25147550524394302 0 -0.080989922437983974 0.27412419699552831 0 -0.082083790945880891 0.25421675507308772 0 -0.069886286851312526 0.2622287860979205 0 -0.069886286851312526 0.2622287860979205 0 -0.060203154901558281 0.25147550524394302 0 -0.057842003791260518 0.26347149677716458 0 -0.060203154901558281 0.25147550524394302 0 -0.049686439473911062 0.25631724582189669 0 -0.038322518857235421 0.2487342554147999 0 -0.060203154901558281 0.25147550524394302 0 -0.057842003791260518 0.26347149677716458 0 -0.049686439473911062 0.25631724582189669 0 -0.060203154901558281 0.25147550524394302 0 -0.038322518857235421 0.2487342554147999 0 -0.057842003791260518 0.26347149677716458 0 -0.049686439473911062 0.25631724582189669 0 -0.04237808034559002 0.26158772585167939 0 -0.057842003791260518 0.26347149677716458 0 -0.037181687169475737 0.27503524930187362 0 -0.057842003791260518 0.26347149677716458 0 -0.053880077548057508 0.27733082286456112 0 -0.037181687169475737 0.27503524930187362 0 -0.0670845583362083 0.27445855613263731 0 -0.053880077548057508 0.27733082286456112 0 -0.060654062952679243 0.28660927550043469 0 -0.0670845583362083 0.27445855613263731 0 -0.057842003791260518 0.26347149677716458 0 -0.053880077548057508 0.27733082286456112 0 -0.053880077548057508 0.27733082286456112 0 -0.037181687169475737 0.27503524930187362 0 -0.046638075490663747 0.28707953661069507 0 -0.057842003791260518 0.26347149677716458 0 -0.037181687169475737 0.27503524930187362 0 -0.04237808034559002 0.26158772585167939 0 -0.037181687169475737 0.27503524930187362 0 -0.04237808034559002 0.26158772585167939 0 -0.027220302379093571 0.26473944709709002 0 -0.04237808034559002 0.26158772585167939 0 -0.027220302379093571 0.26473944709709002 0 -0.038322518857235421 0.2487342554147999 0 -0.049686439473911062 0.25631724582189669 0 -0.04237808034559002 0.26158772585167939 0 -0.038322518857235421 0.2487342554147999 0 -0.018625722794162039 0.2527549559677339 0 -0.027220302379093571 0.26473944709709002 0 -0.011747290710393109 0.26931471444242389 0 -0.018625722794162039 0.2527549559677339 0 -0.027220302379093571 0.26473944709709002 0 -0.038322518857235421 0.2487342554147999 0 -0.018625722794162039 0.2527549559677339 0 -0.038322518857235421 0.2487342554147999 0 -0.037181687169475737 0.27503524930187362 0 -0.01652137054769125 0.28659900182658321 0 -0.023167662701663341 0.2739221031669925 0 -0.011747290710393109 0.26931471444242389 0 -0.01652137054769125 0.28659900182658321 0 -0.037181687169475737 0.27503524930187362 0 -0.027220302379093571 0.26473944709709002 0 -0.023167662701663341 0.2739221031669925 0 -0.037181687169475737 0.27503524930187362 0 -0.023167662701663341 0.2739221031669925 0 -0.01652137054769125 0.28659900182658321 0 -0.027220302379093571 0.26473944709709002 0 -0.023167662701663341 0.2739221031669925 0 -0.011747290710393109 0.26931471444242389 0 -0.011747290710393109 0.26931471444242389 0 -0.01652137054769125 0.28659900182658321 0 0.0013692637925755099 0.27360342369342261 0 -0.011747290710393109 0.26931471444242389 0 0.001071073268911413 0.25677565652066781 0 0.0013692637925755099 0.27360342369342261 0 -0.018625722794162039 0.2527549559677339 0 -0.011747290710393109 0.26931471444242389 0 0.001071073268911413 0.25677565652066781 0 -0.018625722794162039 0.2527549559677339 0 0.001071073268911413 0.25677565652066781 0 -0.018625722794162039 0.2527549559677339 0 -0.0088800879237758076 0.24504564880380281 0 0.001071073268911413 0.25677565652066781 0 -0.0070763024001717382 0.30691980919720979 0 -0.01652137054769125 0.28659900182658321 0 -0.019066607394054622 0.30022997835431042 0 -0.0070763024001717382 0.30691980919720979 0 -0.01652137054769125 0.28659900182658321 0 0.0048235759326871047 0.29854594742624441 0 -0.0070763024001717382 0.30691980919720979 0 -0.019066607394054622 0.30022997835431042 0 -0.017126522696249421 0.31666384217758847 0 -0.01652137054769125 0.28659900182658321 0 0.0048235759326871047 0.29854594742624441 0 -0.01652137054769125 0.28659900182658321 0 0.011897649909806339 0.28769702659914947 0 -0.01652137054769125 0.28659900182658321 0 0.011897649909806339 0.28769702659914947 0 0.0013692637925755099 0.27360342369342261 0 -0.021873425019193132 0.29274486704119851 0 -0.01652137054769125 0.28659900182658321 0 -0.019066607394054622 0.30022997835431042 0 -0.037181687169475737 0.27503524930187362 0 -0.01652137054769125 0.28659900182658321 0 -0.020552507301102502 0.28644325092646161 0 -0.037181687169475737 0.27503524930187362 0 -0.020552507301102502 0.28644325092646161 0 -0.029651629973764439 0.29439736925941717 0 -0.01652137054769125 0.28659900182658321 0 -0.020552507301102502 0.28644325092646161 0 -0.021873425019193132 0.29274486704119851 0 -0.01652137054769125 0.28659900182658321 0 -0.020552507301102502 0.28644325092646161 0 -0.021873425019193132 0.29274486704119851 0 -0.029651629973764439 0.29439736925941717 0 -0.019066607394054622 0.30022997835431042 0 -0.021873425019193132 0.29274486704119851 0 -0.020552507301102502 0.28644325092646161 0 -0.029651629973764439 0.29439736925941717 0 -0.019066607394054622 0.30022997835431042 0 -0.033354748617239693 0.3097657468872016 0 -0.017126522696249421 0.31666384217758847 0 -0.029651629973764439 0.29439736925941717 0 -0.019066607394054622 0.30022997835431042 0 -0.033354748617239693 0.3097657468872016 0 -0.029651629973764439 0.29439736925941717 0 -0.033354748617239693 0.3097657468872016 0 -0.041858192365962887 0.29951878068899568 0 -0.033354748617239693 0.3097657468872016 0 -0.041858192365962887 0.29951878068899568 0 -0.047318333037921448 0.30961601831277941 0 -0.037181687169475737 0.27503524930187362 0 -0.029651629973764439 0.29439736925941717 0 -0.046638075490663747 0.28707953661069507 0 -0.029651629973764439 0.29439736925941717 0 -0.041858192365962887 0.29951878068899568 0 -0.046638075490663747 0.28707953661069507 0 -0.041858192365962887 0.29951878068899568 0 -0.046638075490663747 0.28707953661069507 0 -0.058140619125593831 0.30252411498317572 0 -0.046638075490663747 0.28707953661069507 0 -0.060654062952679243 0.28660927550043469 0 -0.058140619125593831 0.30252411498317572 0 -0.053880077548057508 0.27733082286456112 0 -0.046638075490663747 0.28707953661069507 0 -0.060654062952679243 0.28660927550043469 0 -0.041858192365962887 0.29951878068899568 0 -0.047318333037921448 0.30961601831277941 0 -0.058140619125593831 0.30252411498317572 0 -0.047318333037921448 0.30961601831277941 0 -0.058140619125593831 0.30252411498317572 0 -0.057511781084156839 0.31636151128843187 0 -0.058140619125593831 0.30252411498317572 0 -0.057511781084156839 0.31636151128843187 0 -0.070582160834362639 0.31501279540152072 0 -0.057511781084156839 0.31636151128843187 0 -0.060794352793921237 0.33012729813730751 0 -0.046207917777891863 0.32164664745704918 0 -0.047318333037921448 0.30961601831277941 0 -0.057511781084156839 0.31636151128843187 0 -0.046207917777891863 0.32164664745704918 0 -0.060794352793921237 0.33012729813730751 0 -0.043397095437070987 0.33554584582718361 0 -0.046207917777891863 0.32164664745704918 0 -0.060794352793921237 0.33012729813730751 0 -0.043397095437070987 0.33554584582718361 0 -0.054038837895988491 0.34880148818320689 0 -0.043397095437070987 0.33554584582718361 0 -0.03049629409671906 0.32619365398532829 0 -0.025338947773331309 0.34147622369616792 0 -0.043397095437070987 0.33554584582718361 0 -0.025338947773331309 0.34147622369616792 0 -0.036975842887595471 0.34990762886361398 0 -0.043397095437070987 0.33554584582718361 0 -0.046207917777891863 0.32164664745704918 0 -0.03049629409671906 0.32619365398532829 0 -0.033354748617239693 0.3097657468872016 0 -0.046207917777891863 0.32164664745704918 0 -0.03049629409671906 0.32619365398532829 0 -0.033354748617239693 0.3097657468872016 0 -0.047318333037921448 0.30961601831277941 0 -0.046207917777891863 0.32164664745704918 0 -0.033354748617239693 0.3097657468872016 0 -0.03049629409671906 0.32619365398532829 0 -0.017126522696249421 0.31666384217758847 0 -0.03049629409671906 0.32619365398532829 0 -0.017126522696249421 0.31666384217758847 0 -0.01309315224043823 0.33096981185643792 0 -0.03049629409671906 0.32619365398532829 0 -0.025338947773331309 0.34147622369616792 0 -0.01309315224043823 0.33096981185643792 0 -0.01309315224043823 0.33096981185643792 0 -0.0025107411006645708 0.34572378359625211 0 0.0048746630775424772 0.32215067290176053 0 -0.025338947773331309 0.34147622369616792 0 -0.01309315224043823 0.33096981185643792 0 -0.0025107411006645708 0.34572378359625211 0 -0.0070763024001717382 0.30691980919720979 0 -0.017126522696249421 0.31666384217758847 0 0.0048746630775424772 0.32215067290176053 0 -0.017126522696249421 0.31666384217758847 0 -0.01309315224043823 0.33096981185643792 0 0.0048746630775424772 0.32215067290176053 0 -0.021693650473223421 0.3588953635848931 0 -0.023929182181737729 0.38035753061769451 0 0.0024647386837281168 0.37096252636441063 0 -0.0025107411006645708 0.34572378359625211 0 -0.021693650473223421 0.3588953635848931 0 0.0024647386837281168 0.37096252636441063 0 -0.025338947773331309 0.34147622369616792 0 -0.0025107411006645708 0.34572378359625211 0 -0.021693650473223421 0.3588953635848931 0 -0.025338947773331309 0.34147622369616792 0 -0.021693650473223421 0.3588953635848931 0 -0.036975842887595471 0.34990762886361398 0 -0.021693650473223421 0.3588953635848931 0 -0.040410682858363169 0.36481922302661818 0 -0.023929182181737729 0.38035753061769451 0 -0.040410682858363169 0.36481922302661818 0 -0.036975842887595471 0.34990762886361398 0 -0.054038837895988491 0.34880148818320689 0 -0.021693650473223421 0.3588953635848931 0 -0.040410682858363169 0.36481922302661818 0 -0.036975842887595471 0.34990762886361398 0 -0.043397095437070987 0.33554584582718361 0 -0.036975842887595471 0.34990762886361398 0 -0.054038837895988491 0.34880148818320689 0 -0.040410682858363169 0.36481922302661818 0 -0.062060628978046081 0.36484408317062622 0 -0.050641090289533681 0.377833478038336 0 -0.040410682858363169 0.36481922302661818 0 -0.054038837895988491 0.34880148818320689 0 -0.062060628978046081 0.36484408317062622 0 -0.062060628978046081 0.36484408317062622 0 -0.082862917015559048 0.37071238767068621 0 -0.07762512296661743 0.34790242979757402 0 -0.062060628978046081 0.36484408317062622 0 -0.082862917015559048 0.37071238767068621 0 -0.067275934800971771 0.38466938297571901 0 -0.07762512296661743 0.34790242979757402 0 -0.10111936955999271 0.33808097099315532 0 -0.10026513495021649 0.357835038780138 0 -0.082862917015559048 0.37071238767068621 0 -0.07762512296661743 0.34790242979757402 0 -0.10026513495021649 0.357835038780138 0 -0.054038837895988491 0.34880148818320689 0 -0.062060628978046081 0.36484408317062622 0 -0.07762512296661743 0.34790242979757402 0 -0.060794352793921237 0.33012729813730751 0 -0.07762512296661743 0.34790242979757402 0 -0.08169260707358747 0.3288200439088888 0 -0.060794352793921237 0.33012729813730751 0 -0.054038837895988491 0.34880148818320689 0 -0.07762512296661743 0.34790242979757402 0 -0.060794352793921237 0.33012729813730751 0 -0.070582160834362639 0.31501279540152072 0 -0.08169260707358747 0.3288200439088888 0 -0.057511781084156839 0.31636151128843187 0 -0.060794352793921237 0.33012729813730751 0 -0.070582160834362639 0.31501279540152072 0 -0.084509330384762174 0.30923756412801018 0 -0.08169260707358747 0.3288200439088888 0 -0.095633312527366968 0.32058478856536199 0 -0.084509330384762174 0.30923756412801018 0 -0.070582160834362639 0.31501279540152072 0 -0.08169260707358747 0.3288200439088888 0 -0.08169260707358747 0.3288200439088888 0 -0.10111936955999271 0.33808097099315532 0 -0.095633312527366968 0.32058478856536199 0 -0.07762512296661743 0.34790242979757402 0 -0.08169260707358747 0.3288200439088888 0 -0.10111936955999271 0.33808097099315532 0 -0.098184141985521639 0.30101548138848722 0 -0.095633312527366968 0.32058478856536199 0 -0.1104330685736923 0.31827185421616833 0 -0.10111936955999271 0.33808097099315532 0 -0.095633312527366968 0.32058478856536199 0 -0.1104330685736923 0.31827185421616833 0 -0.12816643349291301 0.32155351161784551 0 -0.1192955010994131 0.30034434214278249 0 -0.1104330685736923 0.31827185421616833 0 -0.12816643349291301 0.32155351161784551 0 -0.1104330685736923 0.31827185421616833 0 -0.11989828754680699 0.33755234214377011 0 -0.10111936955999271 0.33808097099315532 0 -0.11989828754680699 0.33755234214377011 0 -0.1145506234854948 0.35265891351241491 0 -0.10111936955999271 0.33808097099315532 0 -0.1104330685736923 0.31827185421616833 0 -0.11989828754680699 0.33755234214377011 0 -0.13050369970872611 0.35667342728772222 0 -0.11989828754680699 0.33755234214377011 0 -0.1145506234854948 0.35265891351241491 0 -0.1145506234854948 0.35265891351241491 0 -0.11840438736291389 0.36893423559565047 0 -0.10026513495021649 0.357835038780138 0 -0.13050369970872611 0.35667342728772222 0 -0.1145506234854948 0.35265891351241491 0 -0.11840438736291389 0.36893423559565047 0 -0.082862917015559048 0.37071238767068621 0 -0.10026513495021649 0.357835038780138 0 -0.1033279991178334 0.37657888569069642 0 -0.11840438736291389 0.36893423559565047 0 -0.10026513495021649 0.357835038780138 0 -0.1033279991178334 0.37657888569069642 0 -0.10111936955999271 0.33808097099315532 0 -0.1145506234854948 0.35265891351241491 0 -0.10026513495021649 0.357835038780138 0 -0.096044468866534283 0.3988321132843638 0 -0.1033279991178334 0.37657888569069642 0 -0.11906308739394331 0.3865806531226435 0 -0.082862917015559048 0.37071238767068621 0 -0.096044468866534283 0.3988321132843638 0 -0.1033279991178334 0.37657888569069642 0 -0.11840438736291389 0.36893423559565047 0 -0.1033279991178334 0.37657888569069642 0 -0.11906308739394331 0.3865806531226435 0 -0.13532528328201701 0.37584650447051487 0 -0.11840438736291389 0.36893423559565047 0 -0.11906308739394331 0.3865806531226435 0 -0.096044468866534283 0.3988321132843638 0 -0.11906308739394331 0.3865806531226435 0 -0.1231428316932589 0.40680475197536448 0 -0.096044468866534283 0.3988321132843638 0 -0.1231428316932589 0.40680475197536448 0 -0.096044468866534283 0.3988321132843638 0 -0.1231428316932589 0.40680475197536448 0 -0.1176040665924666 0.42166973072099201 0 -0.1334671919727361 0.42175198106784051 0 -0.1231428316932589 0.40680475197536448 0 -0.1176040665924666 0.42166973072099201 0 -0.096044468866534283 0.3988321132843638 0 -0.1176040665924666 0.42166973072099201 0 -0.1018585952074873 0.43106855587612358 0 -0.1270439353142809 0.43695352111152291 0 -0.1176040665924666 0.42166973072099201 0 -0.1018585952074873 0.43106855587612358 0 -0.096044468866534283 0.3988321132843638 0 -0.083258855245603086 0.41864805858120552 0 -0.066266815238952559 0.40511068331697192 0 -0.096044468866534283 0.3988321132843638 0 -0.1018585952074873 0.43106855587612358 0 -0.083258855245603086 0.41864805858120552 0 -0.1018585952074873 0.43106855587612358 0 -0.083258855245603086 0.41864805858120552 0 -0.084679631861398555 0.434453159275204 0 -0.084679631861398555 0.434453159275204 0 -0.065057625795955587 0.42471958052086978 0 -0.0715118902909192 0.44276391571046342 0 -0.083258855245603086 0.41864805858120552 0 -0.084679631861398555 0.434453159275204 0 -0.065057625795955587 0.42471958052086978 0 -0.083258855245603086 0.41864805858120552 0 -0.065057625795955587 0.42471958052086978 0 -0.066266815238952559 0.40511068331697192 0 -0.096044468866534283 0.3988321132843638 0 -0.066266815238952559 0.40511068331697192 0 -0.067275934800971771 0.38466938297571901 0 -0.082862917015559048 0.37071238767068621 0 -0.096044468866534283 0.3988321132843638 0 -0.067275934800971771 0.38466938297571901 0 -0.067275934800971771 0.38466938297571901 0 -0.050641090289533681 0.377833478038336 0 -0.049639071455094518 0.39186828522787909 0 -0.062060628978046081 0.36484408317062622 0 -0.067275934800971771 0.38466938297571901 0 -0.050641090289533681 0.377833478038336 0 -0.066266815238952559 0.40511068331697192 0 -0.049639071455094518 0.39186828522787909 0 -0.048131486223544608 0.4073908669408951 0 -0.066266815238952559 0.40511068331697192 0 -0.067275934800971771 0.38466938297571901 0 -0.049639071455094518 0.39186828522787909 0 -0.049639071455094518 0.39186828522787909 0 -0.038625794120758727 0.40315703140060011 0 -0.032653513920706458 0.38849433158559499 0 -0.038625794120758727 0.40315703140060011 0 -0.032653513920706458 0.38849433158559499 0 -0.02489634498304974 0.41216944014457191 0 -0.049639071455094518 0.39186828522787909 0 -0.038625794120758727 0.40315703140060011 0 -0.048131486223544608 0.4073908669408951 0 -0.050641090289533681 0.377833478038336 0 -0.049639071455094518 0.39186828522787909 0 -0.032653513920706458 0.38849433158559499 0 -0.040410682858363169 0.36481922302661818 0 -0.032653513920706458 0.38849433158559499 0 -0.023929182181737729 0.38035753061769451 0 -0.040410682858363169 0.36481922302661818 0 -0.032653513920706458 0.38849433158559499 0 -0.040410682858363169 0.36481922302661818 0 -0.050641090289533681 0.377833478038336 0 -0.032653513920706458 0.38849433158559499 0 -0.032653513920706458 0.38849433158559499 0 -0.023929182181737729 0.38035753061769451 0 -0.0175082681887339 0.3959876205492866 0 -0.023929182181737729 0.38035753061769451 0 -0.0175082681887339 0.3959876205492866 0 -0.0097408134845490945 0.3842850560440757 0 -0.0175082681887339 0.3959876205492866 0 -0.0062189795252348846 0.40611161009886648 0 -0.02489634498304974 0.41216944014457191 0 -0.032653513920706458 0.38849433158559499 0 -0.0175082681887339 0.3959876205492866 0 -0.02489634498304974 0.41216944014457191 0 -0.032653513920706458 0.38849433158559499 0 -0.02489634498304974 0.41216944014457191 0 -0.0175082681887339 0.3959876205492866 0 -0.0062189795252348846 0.40611161009886648 0 9.4577485471350172e-06 0.3898325466449114 0 -0.0175082681887339 0.3959876205492866 0 -0.0097408134845490945 0.3842850560440757 0 9.4577485471350172e-06 0.3898325466449114 0 -0.023929182181737729 0.38035753061769451 0 -0.0097408134845490945 0.3842850560440757 0 0.0024647386837281168 0.37096252636441063 0 -0.0097408134845490945 0.3842850560440757 0 9.4577485471350172e-06 0.3898325466449114 0 0.0024647386837281168 0.37096252636441063 0 -0.023929182181737729 0.38035753061769451 0 0.0024647386837281168 0.37096252636441063 0 -0.015398347945267 0.42469999563183369 0 -0.0082961280015614192 0.41716866767720079 0 0.0009558333416579321 0.42644653379215269 0 -0.015398347945267 0.42469999563183369 0 -0.0060715276852571108 0.43503514122775527 0 0.0009558333416579321 0.42644653379215269 0 -0.015398347945267 0.42469999563183369 0 -0.0060715276852571108 0.43503514122775527 0 -0.017139176045393459 0.43584454870354877 0 -0.0082961280015614192 0.41716866767720079 0 0.004077199104086591 0.4164157587185795 0 0.0009558333416579321 0.42644653379215269 0 -0.0062189795252348846 0.40611161009886648 0 -0.0082961280015614192 0.41716866767720079 0 -0.02489634498304974 0.41216944014457191 0 -0.0062189795252348846 0.40611161009886648 0 -0.0082961280015614192 0.41716866767720079 0 0.004077199104086591 0.4164157587185795 0 -0.015398347945267 0.42469999563183369 0 -0.0082961280015614192 0.41716866767720079 0 -0.02489634498304974 0.41216944014457191 0 -0.02489634498304974 0.41216944014457191 0 -0.017139176045393459 0.43584454870354877 0 -0.017139176045393459 0.43584454870354877 0 -0.035919203223314239 0.4286339587737707 0 -0.0290341286639587 0.43838703521212502 0 -0.015398347945267 0.42469999563183369 0 -0.02489634498304974 0.41216944014457191 0 -0.017139176045393459 0.43584454870354877 0 -0.02489634498304974 0.41216944014457191 0 -0.017139176045393459 0.43584454870354877 0 -0.035919203223314239 0.4286339587737707 0 -0.015398347945267 0.42469999563183369 0 -0.017139176045393459 0.43584454870354877 0 -0.035919203223314239 0.4286339587737707 0 -0.048511362902289142 0.44114466699646659 0 -0.0290341286639587 0.43838703521212502 0 -0.035919203223314239 0.4286339587737707 0 -0.047307130981008742 0.42341423552615798 0 -0.048511362902289142 0.44114466699646659 0 -0.035919203223314239 0.4286339587737707 0 -0.038915976759940123 0.41518210439878761 0 -0.047307130981008742 0.42341423552615798 0 -0.02489634498304974 0.41216944014457191 0 -0.035919203223314239 0.4286339587737707 0 -0.038915976759940123 0.41518210439878761 0 -0.038915976759940123 0.41518210439878761 0 -0.048131486223544608 0.4073908669408951 0 -0.047307130981008742 0.42341423552615798 0 -0.038625794120758727 0.40315703140060011 0 -0.02489634498304974 0.41216944014457191 0 -0.038915976759940123 0.41518210439878761 0 -0.038625794120758727 0.40315703140060011 0 -0.038915976759940123 0.41518210439878761 0 -0.048131486223544608 0.4073908669408951 0 -0.065057625795955587 0.42471958052086978 0 -0.066266815238952559 0.40511068331697192 0 -0.048131486223544608 0.4073908669408951 0 -0.065057625795955587 0.42471958052086978 0 -0.048131486223544608 0.4073908669408951 0 -0.047307130981008742 0.42341423552615798 0 -0.065057625795955587 0.42471958052086978 0 -0.047307130981008742 0.42341423552615798 0 -0.048511362902289142 0.44114466699646659 0 -0.065057625795955587 0.42471958052086978 0 -0.048511362902289142 0.44114466699646659 0 -0.0715118902909192 0.44276391571046342 0 -0.048511362902289142 0.44114466699646659 0 -0.060615565440421112 0.46019098698902838 0 -0.0715118902909192 0.44276391571046342 0 -0.060615565440421112 0.46019098698902838 0 -0.044958094678946993 0.45969614000107373 0 -0.048407044953963217 0.47250710324264372 0 -0.048511362902289142 0.44114466699646659 0 -0.060615565440421112 0.46019098698902838 0 -0.044958094678946993 0.45969614000107373 0 -0.03301916835720508 0.44987936283047342 0 -0.035780417500462881 0.47493968141523679 0 -0.044958094678946993 0.45969614000107373 0 -0.03301916835720508 0.44987936283047342 0 -0.035780417500462881 0.47493968141523679 0 -0.048511362902289142 0.44114466699646659 0 -0.03301916835720508 0.44987936283047342 0 -0.0290341286639587 0.43838703521212502 0 -0.048511362902289142 0.44114466699646659 0 -0.044958094678946993 0.45969614000107373 0 -0.03301916835720508 0.44987936283047342 0 -0.03301916835720508 0.44987936283047342 0 -0.0290341286639587 0.43838703521212502 0 -0.020479630396337229 0.45722969913569977 0 -0.017139176045393459 0.43584454870354877 0 -0.020479630396337229 0.45722969913569977 0 -0.017139176045393459 0.43584454870354877 0 -0.0290341286639587 0.43838703521212502 0 -0.020479630396337229 0.45722969913569977 0 -0.020479630396337229 0.45722969913569977 0 -0.023820084747280552 0.47861484956785072 0 -0.03301916835720508 0.44987936283047342 0 -0.020479630396337229 0.45722969913569977 0 -0.035780417500462881 0.47493968141523679 0 -0.020479630396337229 0.45722969913569977 0 -0.0089961342195608793 0.46069735270669371 0 -0.01113740460063027 0.47285528926081583 0 -0.0089961342195608793 0.46069735270669371 0 -0.01113740460063027 0.47285528926081583 0 0.001892583759287806 0.46891493070632789 0 -0.0089961342195608793 0.46069735270669371 0 0.001892583759287806 0.46891493070632789 0 0.006126683664170204 0.4551121289163319 0 -0.0089961342195608793 0.46069735270669371 0 -0.0040689949533659836 0.44571316907421982 0 0.006126683664170204 0.4551121289163319 0 -0.017139176045393459 0.43584454870354877 0 -0.020479630396337229 0.45722969913569977 0 -0.0089961342195608793 0.46069735270669371 0 -0.017139176045393459 0.43584454870354877 0 -0.0089961342195608793 0.46069735270669371 0 -0.017139176045393459 0.43584454870354877 0 -0.0089961342195608793 0.46069735270669371 0 -0.0040689949533659836 0.44571316907421982 0 -0.0060715276852571108 0.43503514122775527 0 -0.0040689949533659836 0.44571316907421982 0 0.0075351656714072726 0.44152041939626258 0 -0.0060715276852571108 0.43503514122775527 0 -0.017139176045393459 0.43584454870354877 0 -0.0040689949533659836 0.44571316907421982 0 -0.013329082676762079 0.48809175138458161 0 -0.027160539098224131 0.50000000000000167 0 0.002082438541431642 0.5 0 -0.013329082676762079 0.48809175138458161 0 -0.0020920793231286642 0.48358315206374081 0 0.002082438541431642 0.5 0 -0.0020920793231286642 0.48358315206374081 0 -0.01113740460063027 0.47285528926081583 0 0.001892583759287806 0.46891493070632789 0 -0.013329082676762079 0.48809175138458161 0 -0.0020920793231286642 0.48358315206374081 0 -0.01113740460063027 0.47285528926081583 0 -0.020479630396337229 0.45722969913569977 0 -0.023820084747280552 0.47861484956785072 0 -0.035780417500462881 0.47493968141523679 0 -0.020479630396337229 0.45722969913569977 0 -0.01113740460063027 0.47285528926081583 0 -0.023820084747280552 0.47861484956785072 0 -0.013329082676762079 0.48809175138458161 0 -0.01113740460063027 0.47285528926081583 0 -0.023820084747280552 0.47861484956785072 0 -0.023820084747280552 0.47861484956785072 0 -0.027160539098224131 0.50000000000000167 0 -0.023820084747280552 0.47861484956785072 0 -0.027160539098224131 0.50000000000000167 0 -0.038541666643720718 0.50000000000000022 0 -0.013329082676762079 0.48809175138458161 0 -0.023820084747280552 0.47861484956785072 0 -0.027160539098224131 0.50000000000000167 0 -0.038541666643720718 0.50000000000000022 0 -0.035780417500462881 0.47493968141523679 0 -0.023820084747280552 0.47861484956785072 0 -0.038541666643720718 0.50000000000000022 0 -0.035780417500462881 0.47493968141523679 0 -0.038541666643720718 0.50000000000000022 0 -0.035780417500462881 0.47493968141523679 0 -0.047587204854294907 0.48597394634099761 0 -0.035780417500462881 0.47493968141523679 0 -0.048407044953963217 0.47250710324264372 0 -0.047587204854294907 0.48597394634099761 0 -0.044958094678946993 0.45969614000107373 0 -0.035780417500462881 0.47493968141523679 0 -0.048407044953963217 0.47250710324264372 0 -0.060615565440421112 0.46019098698902838 0 -0.048407044953963217 0.47250710324264372 0 -0.060500753941801322 0.48260404851558769 0 -0.048407044953963217 0.47250710324264372 0 -0.060500753941801322 0.48260404851558769 0 -0.047587204854294907 0.48597394634099761 0 -0.038541666643720718 0.50000000000000022 0 -0.056249226991132877 0.5 0 -0.047587204854294907 0.48597394634099761 0 -0.060500753941801322 0.48260404851558769 0 -0.056249226991132877 0.5 0 -0.047587204854294907 0.48597394634099761 0 -0.14783955599987469 0.5 0 -0.073956787338544924 0.50000000000000033 0 -0.12103489197726459 0.47737874935941937 0 -0.060500753941801322 0.48260404851558769 0 -0.056249226991132877 0.5 0 -0.073956787338544924 0.50000000000000033 0 -0.060500753941801322 0.48260404851558769 0 -0.073956787338544924 0.50000000000000033 0 -0.08190462993618422 0.47632647737550721 0 -0.073956787338544924 0.50000000000000033 0 -0.08190462993618422 0.47632647737550721 0 -0.073956787338544924 0.50000000000000033 0 -0.08190462993618422 0.47632647737550721 0 -0.099690012622044674 0.4691265976498647 0 -0.060615565440421112 0.46019098698902838 0 -0.060500753941801322 0.48260404851558769 0 -0.08190462993618422 0.47632647737550721 0 -0.060615565440421112 0.46019098698902838 0 -0.08190462993618422 0.47632647737550721 0 -0.089852472533823419 0.45265295475101408 0 -0.060615565440421112 0.46019098698902838 0 -0.0715118902909192 0.44276391571046342 0 -0.089852472533823419 0.45265295475101408 0 -0.084679631861398555 0.434453159275204 0 -0.0715118902909192 0.44276391571046342 0 -0.089852472533823419 0.45265295475101408 0 -0.1018585952074873 0.43106855587612358 0 -0.084679631861398555 0.434453159275204 0 -0.089852472533823419 0.45265295475101408 0 -0.08190462993618422 0.47632647737550721 0 -0.089852472533823419 0.45265295475101408 0 -0.099690012622044674 0.4691265976498647 0 -0.08190462993618422 0.47632647737550721 0 -0.089852472533823419 0.45265295475101408 0 -0.089852472533823419 0.45265295475101408 0 -0.1121018480540986 0.45446630101983682 0 -0.099690012622044674 0.4691265976498647 0 -0.1018585952074873 0.43106855587612358 0 -0.089852472533823419 0.45265295475101408 0 -0.1121018480540986 0.45446630101983682 0 -0.1270439353142809 0.43695352111152291 0 -0.1018585952074873 0.43106855587612358 0 -0.1121018480540986 0.45446630101983682 0 -0.13429886875633179 0.45944833036229271 0 -0.1270439353142809 0.43695352111152291 0 -0.1121018480540986 0.45446630101983682 0 -0.13429886875633179 0.45944833036229271 0 -0.1121018480540986 0.45446630101983682 0 -0.12103489197726459 0.47737874935941937 0 -0.1121018480540986 0.45446630101983682 0 -0.12103489197726459 0.47737874935941937 0 -0.099690012622044674 0.4691265976498647 0 -0.073956787338544924 0.50000000000000033 0 -0.12103489197726459 0.47737874935941937 0 -0.099690012622044674 0.4691265976498647 0 -0.1627629860584022 0.081917553740947752 0 -0.17479407007718689 0.087737327066241849 0 -0.16410944305632 0.096840186149950158 0 -0.1627629860584022 0.081917553740947752 0 -0.16410944305632 0.096840186149950158 0 -0.1524760341836274 0.095185084319504287 0 -0.1627629860584022 0.081917553740947752 0 -0.16505719595472229 0.067009038850388877 0 -0.1531104106283806 0.071183246184920834 0 -0.16505719595472229 0.067009038850388877 0 -0.1531104106283806 0.071183246184920834 0 -0.15703261107325711 0.058693029804076861 0 -0.1627629860584022 0.081917553740947752 0 -0.16505719595472229 0.067009038850388877 0 -0.1769995615122682 0.072957661544142682 0 -0.1627629860584022 0.081917553740947752 0 -0.1769995615122682 0.072957661544142682 0 -0.18625518789196341 0.071745672788493142 0 -0.1769995615122682 0.072957661544142682 0 -0.18625518789196341 0.071745672788493142 0 -0.18758534349195979 0.05688657041695059 0 -0.1627629860584022 0.081917553740947752 0 -0.18625518789196341 0.071745672788493142 0 -0.16505719595472229 0.067009038850388877 0 -0.1769995615122682 0.072957661544142682 0 -0.17538041050130329 0.050293702977856271 0 -0.18625518789196341 0.071745672788493142 0 -0.18758534349195979 0.05688657041695059 0 -0.18499099827277199 0.08586787245346883 0 -0.17479407007718689 0.087737327066241849 0 -0.17585173510647609 0.102315350198349 0 -0.18625518789196341 0.071745672788493142 0 -0.18499099827277199 0.08586787245346883 0 -0.17479407007718689 0.087737327066241849 0 -0.18625518789196341 0.071745672788493142 0 -0.18499099827277199 0.08586787245346883 0 -0.1627629860584022 0.081917553740947752 0 -0.18625518789196341 0.071745672788493142 0 -0.17479407007718689 0.087737327066241849 0 -0.18499099827277199 0.08586787245346883 0 -0.18347747502585449 0.1027753657329817 0 -0.17585173510647609 0.102315350198349 0 -0.18499099827277199 0.08586787245346883 0 -0.17585173510647609 0.102315350198349 0 -0.18499099827277199 0.08586787245346883 0 -0.18347747502585449 0.1027753657329817 0 -0.18499099827277199 0.08586787245346883 0 -0.18347747502585449 0.1027753657329817 0 -0.19067755834818831 0.09664944466985799 0 -0.18347747502585449 0.1027753657329817 0 -0.17585173510647609 0.102315350198349 0 -0.18196395177893829 0.11968285901249461 0 -0.17585173510647609 0.102315350198349 0 -0.18196395177893829 0.11968285901249461 0 -0.1667124719401791 0.11876282794322859 0 -0.18347747502585449 0.1027753657329817 0 -0.18196395177893829 0.11968285901249461 0 -0.1898121447413777 0.1103156725357313 0 -0.18347747502585449 0.1027753657329817 0 -0.18196395177893829 0.11968285901249461 0 -0.18196395177893829 0.11968285901249461 0 -0.1885165756651753 0.1200781398392947 0 -0.18727046621823759 0.12745674582228969 0 -0.18196395177893829 0.11968285901249461 0 -0.1885165756651753 0.1200781398392947 0 -0.18196395177893829 0.11968285901249461 0 -0.1885165756651753 0.1200781398392947 0 -0.1898121447413777 0.1103156725357313 0 -0.18196395177893829 0.11968285901249461 0 -0.1667124719401791 0.11876282794322859 0 -0.17362273250058111 0.13108344186743751 0 -0.18196395177893829 0.11968285901249461 0 -0.1667124719401791 0.11876282794322859 0 -0.1667124719401791 0.11876282794322859 0 -0.1553671110122343 0.105105704337088 0 -0.14850171314463809 0.1105882956072808 0 -0.17585173510647609 0.102315350198349 0 -0.1667124719401791 0.11876282794322859 0 -0.1667124719401791 0.11876282794322859 0 -0.1655101902788024 0.10575601715715401 0 -0.1553671110122343 0.105105704337088 0 -0.17585173510647609 0.102315350198349 0 -0.1667124719401791 0.11876282794322859 0 -0.1655101902788024 0.10575601715715401 0 -0.17479407007718689 0.087737327066241849 0 -0.17585173510647609 0.102315350198349 0 -0.16410944305632 0.096840186149950158 0 -0.17585173510647609 0.102315350198349 0 -0.16410944305632 0.096840186149950158 0 -0.1655101902788024 0.10575601715715401 0 -0.16410944305632 0.096840186149950158 0 -0.1655101902788024 0.10575601715715401 0 -0.1553671110122343 0.105105704337088 0 -0.16410944305632 0.096840186149950158 0 -0.1524760341836274 0.095185084319504287 0 -0.1553671110122343 0.105105704337088 0 -0.1524760341836274 0.095185084319504287 0 -0.1553671110122343 0.105105704337088 0 -0.1435685642728369 0.1024641338296149 0 -0.1553671110122343 0.105105704337088 0 -0.1435685642728369 0.1024641338296149 0 -0.14850171314463809 0.1105882956072808 0 -0.1435685642728369 0.1024641338296149 0 -0.14850171314463809 0.1105882956072808 0 -0.1372464201140981 0.1088230095980308 0 -0.1524760341836274 0.095185084319504287 0 -0.1435685642728369 0.1024641338296149 0 -0.1392707842248411 0.0920894346934025 0 -0.1667124719401791 0.11876282794322859 0 -0.14850171314463809 0.1105882956072808 0 -0.13961829393823 0.11712839732917631 0 -0.1667124719401791 0.11876282794322859 0 -0.13961829393823 0.11712839732917631 0 -0.14481560132665361 0.13080787983555911 0 -0.1667124719401791 0.11876282794322859 0 -0.13961829393823 0.11712839732917631 0 -0.14850171314463809 0.1105882956072808 0 -0.13961829393823 0.11712839732917631 0 -0.1372464201140981 0.1088230095980308 0 -0.13961829393823 0.11712839732917631 0 -0.13114276804465411 0.1237362104859978 0 -0.1188837192841094 0.1158776037608457 0 -0.13961829393823 0.11712839732917631 0 -0.12783598980160399 0.11152836086208651 0 -0.1188837192841094 0.1158776037608457 0 -0.13961829393823 0.11712839732917631 0 -0.1188837192841094 0.1158776037608457 0 -0.13961829393823 0.11712839732917631 0 -0.13114276804465411 0.1237362104859978 0 -0.14481560132665361 0.13080787983555911 0 -0.13961829393823 0.11712839732917631 0 -0.12783598980160399 0.11152836086208651 0 -0.1372464201140981 0.1088230095980308 0 -0.13371666951954089 0.10160708163315151 0 -0.1392707842248411 0.0920894346934025 0 -0.1157785823912799 0.1022613156458573 0 -0.1392707842248411 0.0920894346934025 0 -0.1157785823912799 0.1022613156458573 0 -0.13371666951954089 0.10160708163315151 0 -0.12819454715255271 0.10686451578017481 0 -0.1157785823912799 0.1022613156458573 0 -0.1435685642728369 0.1024641338296149 0 -0.13371666951954089 0.10160708163315151 0 -0.1392707842248411 0.0920894346934025 0 -0.13371666951954089 0.10160708163315151 0 -0.1372464201140981 0.1088230095980308 0 -0.12819454715255271 0.10686451578017481 0 -0.1435685642728369 0.1024641338296149 0 -0.13371666951954089 0.10160708163315151 0 -0.1372464201140981 0.1088230095980308 0 -0.12783598980160399 0.11152836086208651 0 -0.1372464201140981 0.1088230095980308 0 -0.12819454715255271 0.10686451578017481 0 -0.12783598980160399 0.11152836086208651 0 -0.12819454715255271 0.10686451578017481 0 -0.12159657186685841 0.1093319148879265 0 -0.1392707842248411 0.0920894346934025 0 -0.14098105137258279 0.086127345383486903 0 -0.1247293894785861 0.080375583490691058 0 -0.1392707842248411 0.0920894346934025 0 -0.1247293894785861 0.080375583490691058 0 -0.1157785823912799 0.1022613156458573 0 -0.1627629860584022 0.081917553740947752 0 -0.14098105137258279 0.086127345383486903 0 -0.1531104106283806 0.071183246184920834 0 -0.1627629860584022 0.081917553740947752 0 -0.1524760341836274 0.095185084319504287 0 -0.1392707842248411 0.0920894346934025 0 -0.1627629860584022 0.081917553740947752 0 -0.1392707842248411 0.0920894346934025 0 -0.14098105137258279 0.086127345383486903 0 -0.1627629860584022 0.081917553740947752 0 -0.1392707842248411 0.0920894346934025 0 -0.14098105137258279 0.086127345383486903 0 -0.1531104106283806 0.071183246184920834 0 -0.13843533025975549 0.057367386221451537 0 -0.14098105137258279 0.086127345383486903 0 -0.13843533025975549 0.057367386221451537 0 -0.1247293894785861 0.080375583490691058 0 -0.13843533025975549 0.057367386221451537 0 -0.1247293894785861 0.080375583490691058 0 -0.11944240010931829 0.062079441005573152 0 -0.14098105137258279 0.086127345383486903 0 -0.13843533025975549 0.057367386221451537 0 -0.13843533025975549 0.057367386221451537 0 -0.1217776407636797 0.046883171440986422 0 -0.11944240010931829 0.062079441005573152 0 -0.13843533025975549 0.057367386221451537 0 -0.1358896091469283 0.028607427059415911 0 -0.13843533025975549 0.057367386221451537 0 -0.1358896091469283 0.028607427059415911 0 -0.1217776407636797 0.046883171440986422 0 -0.13843533025975549 0.057367386221451537 0 -0.1358896091469283 0.028607427059415911 0 -0.15626974918756181 0.037479098072229107 0 -0.1531104106283806 0.071183246184920834 0 -0.13843533025975549 0.057367386221451537 0 -0.15703261107325711 0.058693029804076861 0 -0.13843533025975549 0.057367386221451537 0 -0.15703261107325711 0.058693029804076861 0 -0.15626974918756181 0.037479098072229107 0 -0.13334388803410099 -0.0001525321026195833 0 -0.1358896091469283 0.028607427059415911 0 -0.13334388803410099 -0.0001525321026195833 0 -0.1358896091469283 0.028607427059415911 0 -0.11983629681939879 0.01154877613917666 0 -0.13334388803410099 -0.0001525321026195833 0 -0.1358896091469283 0.028607427059415911 0 -0.14976308853899001 0.0227983838584917 0 -0.1358896091469283 0.028607427059415911 0 -0.14976308853899001 0.0227983838584917 0 -0.15626974918756181 0.037479098072229107 0 -0.14976308853899001 0.0227983838584917 0 -0.15201470086044461 0.0079273161326678838 0 -0.1629464885727592 0.0172202758547551 0 -0.13334388803410099 -0.0001525321026195833 0 -0.14976308853899001 0.0227983838584917 0 -0.15201470086044461 0.0079273161326678838 0 -0.15718115217602721 -0.011749852868622681 0 -0.15201470086044461 0.0079273161326678838 0 -0.1610711125221512 0.0045908812410209391 0 -0.15201470086044461 0.0079273161326678838 0 -0.1610711125221512 0.0045908812410209391 0 -0.1629464885727592 0.0172202758547551 0 -0.1610711125221512 0.0045908812410209391 0 -0.1629464885727592 0.0172202758547551 0 -0.172142108479374 0.0049657858452834486 0 -0.14976308853899001 0.0227983838584917 0 -0.1629464885727592 0.0172202758547551 0 -0.15626974918756181 0.037479098072229107 0 -0.1629464885727592 0.0172202758547551 0 -0.17376125949033841 0.027629744411569911 0 -0.15626974918756181 0.037479098072229107 0 -0.1629464885727592 0.0172202758547551 0 -0.17376125949033841 0.027629744411569911 0 -0.172142108479374 0.0049657858452834486 0 -0.17376125949033841 0.027629744411569911 0 -0.172142108479374 0.0049657858452834486 0 -0.17376125949033841 0.027629744411569911 0 -0.1849850567867912 0.021319531940013819 0 -0.18792838067470599 0.040814556756480477 0 -0.17376125949033841 0.027629744411569911 0 -0.1849850567867912 0.021319531940013819 0 -0.17676647334294501 0.0101325152156128 0 -0.17376125949033841 0.027629744411569911 0 -0.17676647334294501 0.0101325152156128 0 -0.172142108479374 0.0049657858452834486 0 -0.1849850567867912 0.021319531940013819 0 -0.17676647334294501 0.0101325152156128 0 -0.18626390564351561 0.0080025729528093829 0 -0.17676647334294501 0.0101325152156128 0 -0.18626390564351561 0.0080025729528093829 0 -0.1810383977361181 0.001838255785446235 0 -0.18768795508738781 -0.002083437595672367 0 -0.18626390564351561 0.0080025729528093829 0 -0.1810383977361181 0.001838255785446235 0 -0.17676647334294501 0.0101325152156128 0 -0.1810383977361181 0.001838255785446235 0 -0.172142108479374 0.0049657858452834486 0 -0.17676647334294501 0.0101325152156128 0 -0.172142108479374 0.0049657858452834486 0 -0.15703261107325711 0.058693029804076861 0 -0.15626974918756181 0.037479098072229107 0 -0.17538041050130329 0.050293702977856271 0 -0.16505719595472229 0.067009038850388877 0 -0.15703261107325711 0.058693029804076861 0 -0.17538041050130329 0.050293702977856271 0 -0.17376125949033841 0.027629744411569911 0 -0.15626974918756181 0.037479098072229107 0 -0.17538041050130329 0.050293702977856271 0 -0.17376125949033841 0.027629744411569911 0 -0.17538041050130329 0.050293702977856271 0 -0.18792838067470599 0.040814556756480477 0 -0.17376125949033841 0.027629744411569911 0 -0.17538041050130329 0.050293702977856271 0 -0.17538041050130329 0.050293702977856271 0 -0.18758534349195979 0.05688657041695059 0 -0.18792838067470599 0.040814556756480477 0 -0.1769995615122682 0.072957661544142682 0 -0.17538041050130329 0.050293702977856271 0 -0.1769995615122682 0.072957661544142682 0 -0.17538041050130329 0.050293702977856271 0 -0.18758534349195979 0.05688657041695059 0 -0.2050147967898463 0.049832037344569022 0 -0.19492383628468171 0.067992237495622387 0 -0.18758534349195979 0.05688657041695059 0 -0.19473373041535849 0.049489388634081387 0 -0.18792838067470599 0.040814556756480477 0 -0.19473373041535849 0.049489388634081387 0 -0.2050147967898463 0.049832037344569022 0 -0.19492383628468171 0.067992237495622387 0 -0.18758534349195979 0.05688657041695059 0 -0.19473373041535849 0.049489388634081387 0 -0.19492383628468171 0.067992237495622387 0 -0.19473373041535849 0.049489388634081387 0 -0.18792838067470599 0.040814556756480477 0 -0.1997441443997936 0.040217341781858838 0 -0.18792838067470599 0.040814556756480477 0 -0.1997441443997936 0.040217341781858838 0 -0.19593805682404869 0.029278888980649051 0 -0.19473373041535849 0.049489388634081387 0 -0.1997441443997936 0.040217341781858838 0 -0.2050147967898463 0.049832037344569022 0 -0.21510575729500839 0.031671837193514213 0 -0.21719060872882559 0.043812914903054299 0 -0.2050147967898463 0.049832037344569022 0 -0.21510575729500839 0.031671837193514213 0 -0.2050147967898463 0.049832037344569022 0 -0.1997441443997936 0.040217341781858838 0 -0.21510575729500839 0.031671837193514213 0 -0.2050147967898463 0.049832037344569022 0 -0.1997441443997936 0.040217341781858838 0 -0.21510575729500839 0.031671837193514213 0 -0.19593805682404869 0.029278888980649051 0 -0.21719060872882559 0.043812914903054299 0 -0.21404766246295179 0.052629578542139573 0 -0.22434888412719639 0.055251495448749903 0 -0.21719060872882559 0.043812914903054299 0 -0.21404766246295179 0.052629578542139573 0 -0.2050147967898463 0.049832037344569022 0 -0.20963636020593859 0.061621866472185059 0 -0.2050147967898463 0.049832037344569022 0 -0.19492383628468171 0.067992237495622387 0 -0.21404766246295179 0.052629578542139573 0 -0.20963636020593859 0.061621866472185059 0 -0.22434888412719639 0.055251495448749903 0 -0.20963636020593859 0.061621866472185059 0 -0.22434888412719639 0.055251495448749903 0 -0.21404766246295179 0.052629578542139573 0 -0.20963636020593859 0.061621866472185059 0 -0.2050147967898463 0.049832037344569022 0 -0.18768795508738781 -0.002083437595672367 0 -0.18626390564351561 0.0080025729528093829 0 -0.19736635287963419 0.0018705876172133949 0 -0.1849850567867912 0.021319531940013819 0 -0.18626390564351561 0.0080025729528093829 0 -0.19418380032342211 0.01371911349298385 0 -0.18626390564351561 0.0080025729528093829 0 -0.19736635287963419 0.0018705876172133949 0 -0.19418380032342211 0.01371911349298385 0 -0.19736635287963419 0.0018705876172133949 0 -0.19418380032342211 0.01371911349298385 0 -0.208897403785512 0.011744623124039909 0 -0.1849850567867912 0.021319531940013819 0 -0.18792838067470599 0.040814556756480477 0 -0.19593805682404869 0.029278888980649051 0 -0.19418380032342211 0.01371911349298385 0 -0.19593805682404869 0.029278888980649051 0 -0.208897403785512 0.011744623124039909 0 -0.19593805682404869 0.029278888980649051 0 -0.208897403785512 0.011744623124039909 0 -0.1849850567867912 0.021319531940013819 0 -0.19418380032342211 0.01371911349298385 0 -0.19593805682404869 0.029278888980649051 0 -0.21510575729500839 0.031671837193514213 0 -0.19593805682404869 0.029278888980649051 0 -0.208897403785512 0.011744623124039909 0 -0.21510575729500839 0.031671837193514213 0 -0.208897403785512 0.011744623124039909 0 -0.2251967178001705 0.013511637042459451 0 -0.22185675074697531 -0.0057896427325692494 0 -0.208897403785512 0.011744623124039909 0 -0.22181947471183691 0.0055836275476817644 0 -0.208897403785512 0.011744623124039909 0 -0.22181947471183691 0.0055836275476817644 0 -0.2251967178001705 0.013511637042459451 0 -0.22185675074697531 -0.0057896427325692494 0 -0.208897403785512 0.011744623124039909 0 -0.20822551237540271 -0.01030358335887274 0 -0.19736635287963419 0.0018705876172133949 0 -0.208897403785512 0.011744623124039909 0 -0.2313270265146895 0.002867892756796941 0 -0.2251967178001705 0.013511637042459451 0 -0.2278379553209427 0.02905969410277336 0 -0.22185675074697531 -0.0057896427325692494 0 -0.2313270265146895 0.002867892756796941 0 -0.22181947471183691 0.0055836275476817644 0 -0.2313270265146895 0.002867892756796941 0 -0.22181947471183691 0.0055836275476817644 0 -0.2251967178001705 0.013511637042459451 0 -0.21510575729500839 0.031671837193514213 0 -0.2251967178001705 0.013511637042459451 0 -0.2313270265146895 0.002867892756796941 0 -0.2278379553209427 0.02905969410277336 0 -0.2313270265146895 0.002867892756796941 0 -0.2278379553209427 0.02905969410277336 0 -0.23680392219739549 0.017019974237364621 0 -0.21510575729500839 0.031671837193514213 0 -0.2251967178001705 0.013511637042459451 0 -0.2278379553209427 0.02905969410277336 0 -0.2278379553209427 0.02905969410277336 0 -0.23680392219739549 0.017019974237364621 0 -0.23872511279595349 0.032674888061233837 0 -0.24543378424691301 0.023369322382240511 0 -0.23680392219739549 0.017019974237364621 0 -0.23872511279595349 0.032674888061233837 0 -0.25221396866587598 0.01086439825930755 0 -0.24543378424691301 0.023369322382240511 0 -0.24106058317087861 0.0025102444037685551 0 -0.24543378424691301 0.023369322382240511 0 -0.24106058317087861 0.0025102444037685551 0 -0.24543378424691301 0.023369322382240511 0 -0.23680392219739549 0.017019974237364621 0 -0.24106058317087861 0.0025102444037685551 0 -0.25283005323772689 0.00055530769458268315 0 -0.25221396866587598 0.01086439825930755 0 -0.24106058317087861 0.0025102444037685551 0 -0.2313270265146895 0.002867892756796941 0 -0.23680392219739549 0.017019974237364621 0 -0.24106058317087861 0.0025102444037685551 0 -0.22434888412719639 0.055251495448749903 0 -0.23910898115920931 0.062393219272261151 0 -0.22260815440731591 0.068318826118827516 0 -0.20963636020593859 0.061621866472185059 0 -0.22434888412719639 0.055251495448749903 0 -0.22260815440731591 0.068318826118827516 0 -0.22434888412719639 0.055251495448749903 0 -0.22260815440731591 0.068318826118827516 0 -0.21719060872882559 0.043812914903054299 0 -0.2278379553209427 0.02905969410277336 0 -0.22434888412719639 0.055251495448749903 0 -0.2278379553209427 0.02905969410277336 0 -0.22434888412719639 0.055251495448749903 0 -0.2278379553209427 0.02905969410277336 0 -0.22434888412719639 0.055251495448749903 0 -0.23491847913408601 0.041143784079474027 0 -0.21510575729500839 0.031671837193514213 0 -0.21719060872882559 0.043812914903054299 0 -0.2278379553209427 0.02905969410277336 0 -0.2278379553209427 0.02905969410277336 0 -0.23491847913408601 0.041143784079474027 0 -0.23872511279595349 0.032674888061233837 0 -0.22434888412719639 0.055251495448749903 0 -0.23491847913408601 0.041143784079474027 0 -0.24980698532294751 0.04422840036071244 0 -0.24543378424691301 0.023369322382240511 0 -0.24980698532294751 0.04422840036071244 0 -0.24543378424691301 0.023369322382240511 0 -0.23872511279595349 0.032674888061233837 0 -0.24980698532294751 0.04422840036071244 0 -0.23491847913408601 0.041143784079474027 0 -0.23872511279595349 0.032674888061233837 0 -0.24980698532294751 0.04422840036071244 0 -0.22434888412719639 0.055251495448749903 0 -0.24980698532294751 0.04422840036071244 0 -0.23910898115920931 0.062393219272261151 0 -0.22434888412719639 0.055251495448749903 0 -0.24980698532294751 0.04422840036071244 0 -0.25239598045762301 0.056577261174826282 0 -0.24980698532294751 0.04422840036071244 0 -0.23910898115920931 0.062393219272261151 0 -0.25315120101487221 0.068954177185853227 0 -0.25239598045762301 0.056577261174826282 0 -0.23910898115920931 0.062393219272261151 0 -0.25315120101487221 0.068954177185853227 0 -0.23910898115920931 0.062393219272261151 0 -0.24267471687956249 0.074384321586695668 0 -0.25257355536909432 0.082348312818626632 0 -0.25315120101487221 0.068954177185853227 0 -0.24267471687956249 0.074384321586695668 0 -0.23910898115920931 0.062393219272261151 0 -0.24267471687956249 0.074384321586695668 0 -0.23198741136008641 0.076448508159078638 0 -0.25149407947967251 0.098937901634065836 0 -0.25257355536909432 0.082348312818626632 0 -0.24091929758590161 0.086338992333045733 0 -0.25257355536909432 0.082348312818626632 0 -0.24267471687956249 0.074384321586695668 0 -0.24091929758590161 0.086338992333045733 0 -0.24267471687956249 0.074384321586695668 0 -0.24091929758590161 0.086338992333045733 0 -0.23198741136008641 0.076448508159078638 0 -0.24091929758590161 0.086338992333045733 0 -0.22805359489205679 0.088562450943366747 0 -0.23002301885947529 0.1017296272664529 0 -0.22805359489205679 0.088562450943366747 0 -0.22089446880206379 0.080479109839414836 0 -0.23198741136008641 0.076448508159078638 0 -0.24091929758590161 0.086338992333045733 0 -0.22805359489205679 0.088562450943366747 0 -0.23198741136008641 0.076448508159078638 0 -0.22805359489205679 0.088562450943366747 0 -0.22089446880206379 0.080479109839414836 0 -0.21746257338512859 0.091865400180526136 0 -0.23910898115920931 0.062393219272261151 0 -0.23198741136008641 0.076448508159078638 0 -0.22260815440731591 0.068318826118827516 0 -0.22089446880206379 0.080479109839414836 0 -0.23198741136008641 0.076448508159078638 0 -0.22260815440731591 0.068318826118827516 0 -0.22089446880206379 0.080479109839414836 0 -0.22260815440731591 0.068318826118827516 0 -0.2136029586071844 0.072871262154328681 0 -0.20963636020593859 0.061621866472185059 0 -0.22260815440731591 0.068318826118827516 0 -0.2136029586071844 0.072871262154328681 0 -0.20963636020593859 0.061621866472185059 0 -0.20484351384366339 0.072592100218728334 0 -0.2136029586071844 0.072871262154328681 0 -0.20963636020593859 0.061621866472185059 0 -0.20484351384366339 0.072592100218728334 0 -0.19492383628468171 0.067992237495622387 0 -0.20484351384366339 0.072592100218728334 0 -0.20705082378299319 0.083143418275745576 0 -0.1986616784116052 0.077538025199572536 0 -0.20484351384366339 0.072592100218728334 0 -0.2136029586071844 0.072871262154328681 0 -0.20705082378299319 0.083143418275745576 0 -0.22089446880206379 0.080479109839414836 0 -0.21746257338512859 0.091865400180526136 0 -0.20705082378299319 0.083143418275745576 0 -0.21746257338512859 0.091865400180526136 0 -0.20705082378299319 0.083143418275745576 0 -0.20613913223390201 0.10335032814344999 0 -0.22089446880206379 0.080479109839414836 0 -0.2136029586071844 0.072871262154328681 0 -0.20705082378299319 0.083143418275745576 0 -0.20705082378299319 0.083143418275745576 0 -0.19028257515992719 0.084557724708872378 0 -0.20613913223390201 0.10335032814344999 0 -0.20705082378299319 0.083143418275745576 0 -0.19028257515992719 0.084557724708872378 0 -0.1986616784116052 0.077538025199572536 0 -0.18499099827277199 0.08586787245346883 0 -0.19028257515992719 0.084557724708872378 0 -0.19492383628468171 0.067992237495622387 0 -0.18499099827277199 0.08586787245346883 0 -0.19028257515992719 0.084557724708872378 0 -0.19067755834818831 0.09664944466985799 0 -0.18499099827277199 0.08586787245346883 0 -0.19492383628468171 0.067992237495622387 0 -0.19028257515992719 0.084557724708872378 0 -0.19492383628468171 0.067992237495622387 0 -0.1986616784116052 0.077538025199572536 0 -0.18625518789196341 0.071745672788493142 0 -0.18499099827277199 0.08586787245346883 0 -0.19492383628468171 0.067992237495622387 0 -0.18625518789196341 0.071745672788493142 0 -0.18758534349195979 0.05688657041695059 0 -0.19492383628468171 0.067992237495622387 0 -0.18625518789196341 0.071745672788493142 0 -0.19492383628468171 0.067992237495622387 0 -0.20963636020593859 0.061621866472185059 0 -0.19492383628468171 0.067992237495622387 0 -0.20484351384366339 0.072592100218728334 0 -0.19492383628468171 0.067992237495622387 0 -0.1986616784116052 0.077538025199572536 0 -0.20114884871181399 0.1150699808380018 0 -0.1898121447413777 0.1103156725357313 0 -0.20613913223390201 0.10335032814344999 0 -0.20114884871181399 0.1150699808380018 0 -0.1953803003513819 0.12007005814617169 0 -0.1898121447413777 0.1103156725357313 0 -0.1953803003513819 0.12007005814617169 0 -0.19330265133832711 0.12779496921168201 0 -0.20174592528934751 0.12647820272724161 0 -0.20114884871181399 0.1150699808380018 0 -0.1953803003513819 0.12007005814617169 0 -0.20174592528934751 0.12647820272724161 0 -0.1953803003513819 0.12007005814617169 0 -0.1885165756651753 0.1200781398392947 0 -0.19330265133832711 0.12779496921168201 0 -0.1953803003513819 0.12007005814617169 0 -0.1885165756651753 0.1200781398392947 0 -0.1898121447413777 0.1103156725357313 0 -0.19028257515992719 0.084557724708872378 0 -0.19067755834818831 0.09664944466985799 0 -0.20613913223390201 0.10335032814344999 0 -0.19028257515992719 0.084557724708872378 0 -0.20613913223390201 0.10335032814344999 0 -0.1898121447413777 0.1103156725357313 0 -0.19067755834818831 0.09664944466985799 0 -0.20613913223390201 0.10335032814344999 0 -0.18347747502585449 0.1027753657329817 0 -0.1898121447413777 0.1103156725357313 0 -0.19067755834818831 0.09664944466985799 0 -0.21746257338512859 0.091865400180526136 0 -0.20613913223390201 0.10335032814344999 0 -0.23002301885947529 0.1017296272664529 0 -0.20114884871181399 0.1150699808380018 0 -0.22199568930787689 0.12214293157802759 0 -0.20174592528934751 0.12647820272724161 0 -0.20613913223390201 0.10335032814344999 0 -0.22199568930787689 0.12214293157802759 0 -0.20114884871181399 0.1150699808380018 0 -0.20613913223390201 0.10335032814344999 0 -0.22199568930787689 0.12214293157802759 0 -0.22199568930787689 0.12214293157802759 0 -0.23002301885947529 0.1017296272664529 0 -0.24652085095421339 0.119878352835588 0 -0.20613913223390201 0.10335032814344999 0 -0.22199568930787689 0.12214293157802759 0 -0.23002301885947529 0.1017296272664529 0 -0.22805359489205679 0.088562450943366747 0 -0.21746257338512859 0.091865400180526136 0 -0.23002301885947529 0.1017296272664529 0 -0.25149407947967251 0.098937901634065836 0 -0.24091929758590161 0.086338992333045733 0 -0.23002301885947529 0.1017296272664529 0 -0.25149407947967251 0.098937901634065836 0 -0.23002301885947529 0.1017296272664529 0 -0.24652085095421339 0.119878352835588 0 -0.22199568930787689 0.12214293157802759 0 -0.24652085095421339 0.119878352835588 0 -0.23785224638185179 0.14093553501260531 0 -0.2567994101475965 0.14293011260178351 0 -0.24652085095421339 0.119878352835588 0 -0.23785224638185179 0.14093553501260531 0 -0.22199568930787689 0.12214293157802759 0 -0.22041697239355371 0.13737398845040399 0 -0.23785224638185179 0.14093553501260531 0 -0.22199568930787689 0.12214293157802759 0 -0.23785224638185179 0.14093553501260531 0 -0.22041697239355371 0.13737398845040399 0 -0.23116787213024359 0.1549668042291194 0 -0.2173810933873595 0.15225543931094651 0 -0.22041697239355371 0.13737398845040399 0 -0.23116787213024359 0.1549668042291194 0 -0.23785224638185179 0.14093553501260531 0 -0.25370880345582669 0.159728138447183 0 -0.23785224638185179 0.14093553501260531 0 -0.25370880345582669 0.159728138447183 0 -0.2567994101475965 0.14293011260178351 0 -0.23785224638185179 0.14093553501260531 0 -0.25370880345582669 0.159728138447183 0 -0.23116787213024359 0.1549668042291194 0 -0.23785224638185179 0.14093553501260531 0 -0.25477079641615608 0.17556754903091679 0 -0.25370880345582669 0.159728138447183 0 -0.2361959103630101 0.1682046572440237 0 -0.25370880345582669 0.159728138447183 0 -0.23116787213024359 0.1549668042291194 0 -0.2361959103630101 0.1682046572440237 0 -0.2361959103630101 0.1682046572440237 0 -0.2431197479118164 0.1854173579941589 0 -0.25477079641615608 0.17556754903091679 0 -0.2361959103630101 0.1682046572440237 0 -0.2431197479118164 0.1854173579941589 0 -0.2431197479118164 0.1854173579941589 0 -0.22145220679985991 0.17130306690955399 0 -0.22871930681484981 0.19731525518571849 0 -0.2431197479118164 0.1854173579941589 0 -0.22145220679985991 0.17130306690955399 0 -0.2361959103630101 0.1682046572440237 0 -0.2431197479118164 0.1854173579941589 0 -0.22145220679985991 0.17130306690955399 0 -0.23116787213024359 0.1549668042291194 0 -0.2361959103630101 0.1682046572440237 0 -0.22145220679985991 0.17130306690955399 0 -0.23116787213024359 0.1549668042291194 0 -0.22145220679985991 0.17130306690955399 0 -0.2173810933873595 0.15225543931094651 0 -0.22145220679985991 0.17130306690955399 0 -0.19317073511988081 0.1799301491814434 0 -0.1997846656879036 0.15718877582494881 0 -0.22145220679985991 0.17130306690955399 0 -0.1997846656879036 0.15718877582494881 0 -0.22145220679985991 0.17130306690955399 0 -0.1997846656879036 0.15718877582494881 0 -0.2173810933873595 0.15225543931094651 0 -0.22145220679985991 0.17130306690955399 0 -0.19317073511988081 0.1799301491814434 0 -0.21004014177526559 0.19716878064164189 0 -0.19317073511988081 0.1799301491814434 0 -0.1997846656879036 0.15718877582494881 0 -0.19317073511988081 0.1799301491814434 0 -0.1997846656879036 0.15718877582494881 0 -0.1848065342958729 0.16851519668647069 0 -0.1997846656879036 0.15718877582494881 0 -0.18822188513930349 0.15785315034197001 0 -0.1848065342958729 0.16851519668647069 0 -0.1997846656879036 0.15718877582494881 0 -0.20516182965388319 0.13869990720259559 0 -0.1997846656879036 0.15718877582494881 0 -0.19455280585515519 0.14584810660980371 0 -0.18619191165773741 0.14833442146918979 0 -0.1997846656879036 0.15718877582494881 0 -0.18822188513930349 0.15785315034197001 0 -0.18619191165773741 0.14833442146918979 0 -0.1997846656879036 0.15718877582494881 0 -0.18619191165773741 0.14833442146918979 0 -0.1997846656879036 0.15718877582494881 0 -0.19455280585515519 0.14584810660980371 0 -0.20516182965388319 0.13869990720259559 0 -0.19455280585515519 0.14584810660980371 0 -0.18939883631309681 0.14103926026568661 0 -0.195992469628051 0.13642649354008651 0 -0.19455280585515519 0.14584810660980371 0 -0.18619191165773741 0.14833442146918979 0 -0.1872459625937084 0.1446644714918601 0 -0.19455280585515519 0.14584810660980371 0 -0.18939883631309681 0.14103926026568661 0 -0.1872459625937084 0.1446644714918601 0 -0.18939883631309681 0.14103926026568661 0 -0.18943140198765471 0.13429945889646791 0 -0.183948150094322 0.13648945435169579 0 -0.18943140198765471 0.13429945889646791 0 -0.19330265133832711 0.12779496921168201 0 -0.195992469628051 0.13642649354008651 0 -0.18939883631309681 0.14103926026568661 0 -0.18943140198765471 0.13429945889646791 0 -0.195992469628051 0.13642649354008651 0 -0.1885165756651753 0.1200781398392947 0 -0.19330265133832711 0.12779496921168201 0 -0.18727046621823759 0.12745674582228969 0 -0.18943140198765471 0.13429945889646791 0 -0.19330265133832711 0.12779496921168201 0 -0.18727046621823759 0.12745674582228969 0 -0.19330265133832711 0.12779496921168201 0 -0.20174592528934751 0.12647820272724161 0 -0.195992469628051 0.13642649354008651 0 -0.19455280585515519 0.14584810660980371 0 -0.195992469628051 0.13642649354008651 0 -0.20516182965388319 0.13869990720259559 0 -0.20174592528934751 0.12647820272724161 0 -0.195992469628051 0.13642649354008651 0 -0.20516182965388319 0.13869990720259559 0 -0.22199568930787689 0.12214293157802759 0 -0.22041697239355371 0.13737398845040399 0 -0.20174592528934751 0.12647820272724161 0 -0.22041697239355371 0.13737398845040399 0 -0.20174592528934751 0.12647820272724161 0 -0.20516182965388319 0.13869990720259559 0 -0.22041697239355371 0.13737398845040399 0 -0.20516182965388319 0.13869990720259559 0 -0.2173810933873595 0.15225543931094651 0 -0.1997846656879036 0.15718877582494881 0 -0.20516182965388319 0.13869990720259559 0 -0.2173810933873595 0.15225543931094651 0 -0.23395429088282479 0.25540169663383039 0 -0.218014250980264 0.2376682439927261 0 -0.23395429088282479 0.25540169663383039 0 -0.21938876226052809 0.24971123941932449 0 -0.218014250980264 0.2376682439927261 0 -0.23395429088282479 0.25540169663383039 0 -0.23621598375468131 0.24232310763638509 0 -0.218014250980264 0.2376682439927261 0 -0.23621598375468131 0.24232310763638509 0 -0.2367720218234538 0.22911332816048871 0 -0.218014250980264 0.2376682439927261 0 -0.26234785653272052 0.2332185487860603 0 -0.23621598375468131 0.24232310763638509 0 -0.25355414777238738 0.24563073474758021 0 -0.24565678637246771 0.25432931140221188 0 -0.23621598375468131 0.24232310763638509 0 -0.25020845078822918 0.2339276499512129 0 -0.26234785653272052 0.2332185487860603 0 -0.23621598375468131 0.24232310763638509 0 -0.25020845078822918 0.2339276499512129 0 -0.23621598375468131 0.24232310763638509 0 -0.2367720218234538 0.22911332816048871 0 -0.2367720218234538 0.22911332816048871 0 -0.24583336088181401 0.22389194151097541 0 -0.22794813115874879 0.21597906909058601 0 -0.25020845078822918 0.2339276499512129 0 -0.2367720218234538 0.22911332816048871 0 -0.24583336088181401 0.22389194151097541 0 -0.2367720218234538 0.22911332816048871 0 -0.22794813115874879 0.21597906909058601 0 -0.218014250980264 0.2376682439927261 0 -0.22794813115874879 0.21597906909058601 0 -0.22871930681484981 0.19731525518571849 0 -0.21004014177526559 0.19716878064164189 0 -0.25382205123979462 0.21202334682955021 0 -0.22794813115874879 0.21597906909058601 0 -0.25382205123979462 0.21202334682955021 0 -0.24583336088181401 0.22389194151097541 0 -0.22794813115874879 0.21597906909058601 0 -0.25382205123979462 0.21202334682955021 0 -0.22794813115874879 0.21597906909058601 0 -0.22871930681484981 0.19731525518571849 0 -0.25382205123979462 0.21202334682955021 0 -0.2431197479118164 0.1854173579941589 0 -0.22871930681484981 0.19731525518571849 0 -0.25382205123979462 0.21202334682955021 0 -0.2431197479118164 0.1854173579941589 0 -0.22145220679985991 0.17130306690955399 0 -0.22871930681484981 0.19731525518571849 0 -0.21004014177526559 0.19716878064164189 0 -0.19317073511988081 0.1799301491814434 0 -0.21004014177526559 0.19716878064164189 0 -0.18655680455186249 0.20267152253793941 0 -0.19317073511988081 0.1799301491814434 0 -0.18655680455186249 0.20267152253793941 0 -0.2020742110777031 0.21993479135162169 0 -0.18655680455186249 0.20267152253793941 0 -0.21004014177526559 0.19716878064164189 0 -0.2020742110777031 0.21993479135162169 0 -0.18655680455186249 0.20267152253793941 0 -0.2020742110777031 0.21993479135162169 0 -0.1805803879577314 0.2232208645219855 0 -0.18655680455186249 0.20267152253793941 0 -0.22794813115874879 0.21597906909058601 0 -0.21004014177526559 0.19716878064164189 0 -0.2020742110777031 0.21993479135162169 0 -0.22794813115874879 0.21597906909058601 0 -0.2020742110777031 0.21993479135162169 0 -0.22794813115874879 0.21597906909058601 0 -0.2020742110777031 0.21993479135162169 0 -0.218014250980264 0.2376682439927261 0 -0.2020742110777031 0.21993479135162169 0 -0.218014250980264 0.2376682439927261 0 -0.2020742110777031 0.21993479135162169 0 -0.19828096430522671 0.24268160811117781 0 -0.218014250980264 0.2376682439927261 0 -0.19032533364051971 0.22744901695303399 0 -0.19828096430522671 0.24268160811117781 0 -0.1805803879577314 0.2232208645219855 0 -0.2020742110777031 0.21993479135162169 0 -0.19032533364051971 0.22744901695303399 0 -0.19828096430522671 0.24268160811117781 0 -0.19828096430522671 0.24268160811117781 0 -0.1805803879577314 0.2232208645219855 0 -0.2020742110777031 0.21993479135162169 0 -0.1805803879577314 0.2232208645219855 0 -0.2020742110777031 0.21993479135162169 0 -0.19032533364051971 0.22744901695303399 0 -0.1805803879577314 0.2232208645219855 0 -0.21938876226052809 0.24971123941932449 0 -0.19828096430522671 0.24268160811117781 0 -0.218014250980264 0.2376682439927261 0 -0.15810109301744099 0.25589380156569258 0 -0.16173095114918309 0.23975699729506639 0 -0.1754675533648144 0.2408008616495303 0 -0.15810109301744099 0.25589380156569258 0 -0.16173095114918309 0.23975699729506639 0 -0.14975156403062179 0.23751073679959989 0 -0.16173095114918309 0.23975699729506639 0 -0.16247821456491859 0.22598840689819899 0 -0.14975156403062179 0.23751073679959989 0 -0.16173095114918309 0.23975699729506639 0 -0.1754675533648144 0.2408008616495303 0 -0.1720496621127294 0.2306965457770129 0 -0.1831215413008474 0.25992371719488311 0 -0.19828096430522671 0.24268160811117781 0 -0.1754675533648144 0.2408008616495303 0 -0.19828096430522671 0.24268160811117781 0 -0.1754675533648144 0.2408008616495303 0 -0.1805803879577314 0.2232208645219855 0 -0.1754675533648144 0.2408008616495303 0 -0.1805803879577314 0.2232208645219855 0 -0.1720496621127294 0.2306965457770129 0 -0.1754675533648144 0.2408008616495303 0 -0.1805803879577314 0.2232208645219855 0 -0.1805803879577314 0.2232208645219855 0 -0.1720496621127294 0.2306965457770129 0 -0.16247821456491859 0.22598840689819899 0 -0.1805803879577314 0.2232208645219855 0 -0.16247821456491859 0.22598840689819899 0 -0.16173095114918309 0.23975699729506639 0 -0.1720496621127294 0.2306965457770129 0 -0.16247821456491859 0.22598840689819899 0 -0.1805803879577314 0.2232208645219855 0 -0.16247821456491859 0.22598840689819899 0 -0.1637282239808919 0.2065712412546179 0 -0.16247821456491859 0.22598840689819899 0 -0.1637282239808919 0.2065712412546179 0 -0.14958174745040481 0.2105711018898373 0 -0.1805803879577314 0.2232208645219855 0 -0.1637282239808919 0.2065712412546179 0 -0.17618387568481109 0.21071741209008721 0 -0.1805803879577314 0.2232208645219855 0 -0.18655680455186249 0.20267152253793941 0 -0.1805803879577314 0.2232208645219855 0 -0.1637282239808919 0.2065712412546179 0 -0.1805803879577314 0.2232208645219855 0 -0.17618387568481109 0.21071741209008721 0 -0.18655680455186249 0.20267152253793941 0 -0.19317073511988081 0.1799301491814434 0 -0.18655680455186249 0.20267152253793941 0 -0.17324957645785841 0.1878670991718778 0 -0.17618387568481109 0.21071741209008721 0 -0.18655680455186249 0.20267152253793941 0 -0.17324957645785841 0.1878670991718778 0 -0.18655680455186249 0.20267152253793941 0 -0.17324957645785841 0.1878670991718778 0 -0.1637282239808919 0.2065712412546179 0 -0.14767928173792211 0.18979881780531971 0 -0.1602623463289472 0.1861579747356655 0 -0.1637282239808919 0.2065712412546179 0 -0.17618387568481109 0.21071741209008721 0 -0.17324957645785841 0.1878670991718778 0 -0.1637282239808919 0.2065712412546179 0 -0.17324957645785841 0.1878670991718778 0 -0.1602623463289472 0.1861579747356655 0 -0.14767928173792211 0.18979881780531971 0 -0.13867064720323491 0.20231150169490481 0 -0.14958174745040481 0.2105711018898373 0 -0.1637282239808919 0.2065712412546179 0 -0.14767928173792211 0.18979881780531971 0 -0.14958174745040481 0.2105711018898373 0 -0.1637282239808919 0.2065712412546179 0 -0.14767928173792211 0.18979881780531971 0 -0.14767928173792211 0.18979881780531971 0 -0.13437978249309709 0.19280874424978159 0 -0.1312761128123042 0.1825358824564898 0 -0.14767928173792211 0.18979881780531971 0 -0.13437978249309709 0.19280874424978159 0 -0.13867064720323491 0.20231150169490481 0 -0.13437978249309709 0.19280874424978159 0 -0.1261233355923059 0.1905246963459806 0 -0.12814953511971819 0.19887282294621331 0 -0.13437978249309709 0.19280874424978159 0 -0.1261233355923059 0.1905246963459806 0 -0.1312761128123042 0.1825358824564898 0 -0.13437978249309709 0.19280874424978159 0 -0.12814953511971819 0.19887282294621331 0 -0.13867064720323491 0.20231150169490481 0 -0.13867064720323491 0.20231150169490481 0 -0.13039578950497929 0.20819878331028399 0 -0.1390861617889185 0.21445072242926561 0 -0.12814953511971819 0.19887282294621331 0 -0.13867064720323491 0.20231150169490481 0 -0.13039578950497929 0.20819878331028399 0 -0.12814953511971819 0.19887282294621331 0 -0.13039578950497929 0.20819878331028399 0 -0.1205286192071177 0.20569682108836609 0 -0.13039578950497929 0.20819878331028399 0 -0.12949101911143751 0.21967480117886029 0 -0.12303769696988411 0.21335380999066031 0 -0.13039578950497929 0.20819878331028399 0 -0.1390861617889185 0.21445072242926561 0 -0.12949101911143751 0.21967480117886029 0 -0.1390861617889185 0.21445072242926561 0 -0.14958174745040481 0.2105711018898373 0 -0.14584795542654269 0.22430592125671689 0 -0.13867064720323491 0.20231150169490481 0 -0.1390861617889185 0.21445072242926561 0 -0.14958174745040481 0.2105711018898373 0 -0.16247821456491859 0.22598840689819899 0 -0.14584795542654269 0.22430592125671689 0 -0.14975156403062179 0.23751073679959989 0 -0.16247821456491859 0.22598840689819899 0 -0.14958174745040481 0.2105711018898373 0 -0.14584795542654269 0.22430592125671689 0 -0.14584795542654269 0.22430592125671689 0 -0.13975607698932191 0.23284238597501 0 -0.14975156403062179 0.23751073679959989 0 -0.14584795542654269 0.22430592125671689 0 -0.1372871586817824 0.2230809852635951 0 -0.13975607698932191 0.23284238597501 0 -0.1390861617889185 0.21445072242926561 0 -0.14584795542654269 0.22430592125671689 0 -0.1372871586817824 0.2230809852635951 0 -0.1390861617889185 0.21445072242926561 0 -0.1372871586817824 0.2230809852635951 0 -0.12949101911143751 0.21967480117886029 0 -0.1372871586817824 0.2230809852635951 0 -0.12949101911143751 0.21967480117886029 0 -0.13204044213396871 0.22958688406836061 0 -0.12949101911143751 0.21967480117886029 0 -0.13204044213396871 0.22958688406836061 0 -0.12441569538872051 0.2270324935801234 0 -0.13204044213396871 0.22958688406836061 0 -0.1240164161691903 0.2368055745566362 0 -0.12441569538872051 0.2270324935801234 0 -0.1372871586817824 0.2230809852635951 0 -0.13204044213396871 0.22958688406836061 0 -0.13975607698932191 0.23284238597501 0 -0.13204044213396871 0.22958688406836061 0 -0.13975607698932191 0.23284238597501 0 -0.13315487305513499 0.23936768265315769 0 -0.13975607698932191 0.23284238597501 0 -0.13315487305513499 0.23936768265315769 0 -0.14042991150252279 0.2438277696377856 0 -0.13204044213396871 0.22958688406836061 0 -0.13315487305513499 0.23936768265315769 0 -0.1240164161691903 0.2368055745566362 0 -0.13315487305513499 0.23936768265315769 0 -0.1287372250424039 0.24537687455207741 0 -0.1240164161691903 0.2368055745566362 0 -0.12594884044955931 0.25071520269850439 0 -0.1287372250424039 0.24537687455207741 0 -0.1219120720920598 0.245209269023206 0 -0.13315487305513499 0.23936768265315769 0 -0.1287372250424039 0.24537687455207741 0 -0.13385066358352399 0.24510905319488091 0 -0.13308064473403439 0.25186388593650311 0 -0.1287372250424039 0.24537687455207741 0 -0.13308064473403439 0.25186388593650311 0 -0.1287372250424039 0.24537687455207741 0 -0.13385066358352399 0.24510905319488091 0 -0.12594884044955931 0.25071520269850439 0 -0.13308064473403439 0.25186388593650311 0 -0.1287372250424039 0.24537687455207741 0 -0.13308064473403439 0.25186388593650311 0 -0.13385066358352399 0.24510905319488091 0 -0.14042991150252279 0.2438277696377856 0 -0.13315487305513499 0.23936768265315769 0 -0.13385066358352399 0.24510905319488091 0 -0.14042991150252279 0.2438277696377856 0 -0.15810109301744099 0.25589380156569258 0 -0.14042991150252279 0.2438277696377856 0 -0.14975156403062179 0.23751073679959989 0 -0.13975607698932191 0.23284238597501 0 -0.14042991150252279 0.2438277696377856 0 -0.14975156403062179 0.23751073679959989 0 -0.16665674416642731 0.13946834495939189 0 -0.16091867888865299 0.15887308568324529 0 -0.15222339300174409 0.1448381032742351 0 -0.16665674416642731 0.13946834495939189 0 -0.17980644450097941 0.14378426602881311 0 -0.16091867888865299 0.15887308568324529 0 -0.1667124719401791 0.11876282794322859 0 -0.16665674416642731 0.13946834495939189 0 -0.15222339300174409 0.1448381032742351 0 -0.1667124719401791 0.11876282794322859 0 -0.16665674416642731 0.13946834495939189 0 -0.17362273250058111 0.13108344186743751 0 -0.1667124719401791 0.11876282794322859 0 -0.15222339300174409 0.1448381032742351 0 -0.18196395177893829 0.11968285901249461 0 -0.18727046621823759 0.12745674582228969 0 -0.183948150094322 0.13648945435169579 0 -0.16665674416642731 0.13946834495939189 0 -0.17362273250058111 0.13108344186743751 0 -0.17980644450097941 0.14378426602881311 0 -0.18196395177893829 0.11968285901249461 0 -0.17980644450097941 0.14378426602881311 0 -0.18196395177893829 0.11968285901249461 0 -0.183948150094322 0.13648945435169579 0 -0.17980644450097941 0.14378426602881311 0 -0.18196395177893829 0.11968285901249461 0 -0.17362273250058111 0.13108344186743751 0 -0.17980644450097941 0.14378426602881311 0 -0.18943140198765471 0.13429945889646791 0 -0.18727046621823759 0.12745674582228969 0 -0.183948150094322 0.13648945435169579 0 -0.18939883631309681 0.14103926026568661 0 -0.183948150094322 0.13648945435169579 0 -0.18490048744322141 0.14256204897986161 0 -0.18410304371400049 0.14683279276125241 0 -0.16091867888865299 0.15887308568324529 0 -0.18410304371400049 0.14683279276125241 0 -0.17980644450097941 0.14378426602881311 0 -0.16091867888865299 0.15887308568324529 0 -0.18410304371400049 0.14683279276125241 0 -0.17949737225209381 0.15492579780570409 0 -0.16091867888865299 0.15887308568324529 0 -0.18939883631309681 0.14103926026568661 0 -0.18490048744322141 0.14256204897986161 0 -0.1872459625937084 0.1446644714918601 0 -0.18490048744322141 0.14256204897986161 0 -0.1872459625937084 0.1446644714918601 0 -0.18410304371400049 0.14683279276125241 0 -0.18619191165773741 0.14833442146918979 0 -0.1872459625937084 0.1446644714918601 0 -0.18410304371400049 0.14683279276125241 0 -0.183948150094322 0.13648945435169579 0 -0.18490048744322141 0.14256204897986161 0 -0.17980644450097941 0.14378426602881311 0 -0.18490048744322141 0.14256204897986161 0 -0.18410304371400049 0.14683279276125241 0 -0.17980644450097941 0.14378426602881311 0 -0.18619191165773741 0.14833442146918979 0 -0.18410304371400049 0.14683279276125241 0 -0.17949737225209381 0.15492579780570409 0 -0.18822188513930349 0.15785315034197001 0 -0.18619191165773741 0.14833442146918979 0 -0.17949737225209381 0.15492579780570409 0 -0.18822188513930349 0.15785315034197001 0 -0.1848065342958729 0.16851519668647069 0 -0.1763962123345916 0.16305082100723151 0 -0.17949737225209381 0.15492579780570409 0 -0.1763962123345916 0.16305082100723151 0 -0.16091867888865299 0.15887308568324529 0 -0.18822188513930349 0.15785315034197001 0 -0.17949737225209381 0.15492579780570409 0 -0.1763962123345916 0.16305082100723151 0 -0.1763962123345916 0.16305082100723151 0 -0.17395516860332011 0.17384992971761509 0 -0.16780310204760451 0.16720912805347721 0 -0.1848065342958729 0.16851519668647069 0 -0.1763962123345916 0.16305082100723151 0 -0.17395516860332011 0.17384992971761509 0 -0.19317073511988081 0.1799301491814434 0 -0.1848065342958729 0.16851519668647069 0 -0.17395516860332011 0.17384992971761509 0 -0.19317073511988081 0.1799301491814434 0 -0.17324957645785841 0.1878670991718778 0 -0.17395516860332011 0.17384992971761509 0 -0.17324957645785841 0.1878670991718778 0 -0.15994234836385321 0.173062675805817 0 -0.17324957645785841 0.1878670991718778 0 -0.15994234836385321 0.173062675805817 0 -0.1602623463289472 0.1861579747356655 0 -0.17324957645785841 0.1878670991718778 0 -0.17395516860332011 0.17384992971761509 0 -0.15994234836385321 0.173062675805817 0 -0.15994234836385321 0.173062675805817 0 -0.1602623463289472 0.1861579747356655 0 -0.14898836183486161 0.17714154085550629 0 -0.15994234836385321 0.173062675805817 0 -0.16091867888865299 0.15887308568324529 0 -0.14898836183486161 0.17714154085550629 0 -0.1763962123345916 0.16305082100723151 0 -0.16780310204760451 0.16720912805347721 0 -0.16091867888865299 0.15887308568324529 0 -0.17395516860332011 0.17384992971761509 0 -0.15994234836385321 0.173062675805817 0 -0.16780310204760451 0.16720912805347721 0 -0.15994234836385321 0.173062675805817 0 -0.16780310204760451 0.16720912805347721 0 -0.16091867888865299 0.15887308568324529 0 -0.16091867888865299 0.15887308568324529 0 -0.13773431406330661 0.1709133786052402 0 -0.13773431406330661 0.1709133786052402 0 -0.15222339300174409 0.1448381032742351 0 -0.13773431406330661 0.1709133786052402 0 -0.13750473130215629 0.1541166753272081 0 -0.15222339300174409 0.1448381032742351 0 -0.16091867888865299 0.15887308568324529 0 -0.14898836183486161 0.17714154085550629 0 -0.13773431406330661 0.1709133786052402 0 -0.16091867888865299 0.15887308568324529 0 -0.13773431406330661 0.1709133786052402 0 -0.15222339300174409 0.1448381032742351 0 -0.14767928173792211 0.18979881780531971 0 -0.14898836183486161 0.17714154085550629 0 -0.1312761128123042 0.1825358824564898 0 -0.14767928173792211 0.18979881780531971 0 -0.1602623463289472 0.1861579747356655 0 -0.14898836183486161 0.17714154085550629 0 -0.1312761128123042 0.1825358824564898 0 -0.13773431406330661 0.1709133786052402 0 -0.11760844143789061 0.18136531048028101 0 -0.14898836183486161 0.17714154085550629 0 -0.1312761128123042 0.1825358824564898 0 -0.13773431406330661 0.1709133786052402 0 -0.13773431406330661 0.1709133786052402 0 -0.11760844143789061 0.18136531048028101 0 -0.1312761128123042 0.1825358824564898 0 -0.13773431406330661 0.1709133786052402 0 -0.1261233355923059 0.1905246963459806 0 -0.1312761128123042 0.1825358824564898 0 -0.11760844143789061 0.18136531048028101 0 -0.13773431406330661 0.1709133786052402 0 -0.13750473130215629 0.1541166753272081 0 -0.1243756047412712 0.15255076048313909 0 -0.13773431406330661 0.1709133786052402 0 -0.1243756047412712 0.15255076048313909 0 -0.11760844143789061 0.18136531048028101 0 -0.13775388565207439 0.14198265177733779 0 -0.13750473130215629 0.1541166753272081 0 -0.1243756047412712 0.15255076048313909 0 -0.13775388565207439 0.14198265177733779 0 -0.13750473130215629 0.1541166753272081 0 -0.15222339300174409 0.1448381032742351 0 -0.1667124719401791 0.11876282794322859 0 -0.15222339300174409 0.1448381032742351 0 -0.14481560132665361 0.13080787983555911 0 -0.13775388565207439 0.14198265177733779 0 -0.15222339300174409 0.1448381032742351 0 -0.14481560132665361 0.13080787983555911 0 -0.13114276804465411 0.1237362104859978 0 -0.1243756047412712 0.15255076048313909 0 -0.13114276804465411 0.1237362104859978 0 -0.13775388565207439 0.14198265177733779 0 -0.1243756047412712 0.15255076048313909 0 -0.13114276804465411 0.1237362104859978 0 -0.13775388565207439 0.14198265177733779 0 -0.14481560132665361 0.13080787983555911 0 -0.11555144519325281 0.13934500976017189 0 -0.1107889536746144 0.12685430703977299 0 -0.1188837192841094 0.1158776037608457 0 -0.13114276804465411 0.1237362104859978 0 -0.11555144519325281 0.13934500976017189 0 -0.1188837192841094 0.1158776037608457 0 -0.13114276804465411 0.1237362104859978 0 -0.11555144519325281 0.13934500976017189 0 -0.1243756047412712 0.15255076048313909 0 -0.11555144519325281 0.13934500976017189 0 -0.1188837192841094 0.1158776037608457 0 -0.11555144519325281 0.13934500976017189 0 -0.098086196591783206 0.12944416685506749 0 -0.1006094123224328 0.15068979515434031 0 -0.11555144519325281 0.13934500976017189 0 -0.1107889536746144 0.12685430703977299 0 -0.098086196591783206 0.12944416685506749 0 -0.098086196591783206 0.12944416685506749 0 -0.1006094123224328 0.15068979515434031 0 -0.084534875577851498 0.1461875675682027 0 -0.11555144519325281 0.13934500976017189 0 -0.1243756047412712 0.15255076048313909 0 -0.1122311642678975 0.16261360342809511 0 -0.11555144519325281 0.13934500976017189 0 -0.1006094123224328 0.15068979515434031 0 -0.1122311642678975 0.16261360342809511 0 -0.11555144519325281 0.13934500976017189 0 -0.1122311642678975 0.16261360342809511 0 -0.1243756047412712 0.15255076048313909 0 -0.1122311642678975 0.16261360342809511 0 -0.11760844143789061 0.18136531048028101 0 -0.1243756047412712 0.15255076048313909 0 -0.11760844143789061 0.18136531048028101 0 -0.1122311642678975 0.16261360342809511 0 -0.1089108833425438 0.18588219709601861 0 -0.1122311642678975 0.16261360342809511 0 -0.11760844143789061 0.18136531048028101 0 -0.1089108833425438 0.18588219709601861 0 -0.11760844143789061 0.18136531048028101 0 -0.1089108833425438 0.18588219709601861 0 -0.1122311642678975 0.16261360342809511 0 -0.1089108833425438 0.18588219709601861 0 -0.099874610257137203 0.17203051222223609 0 -0.1089108833425438 0.18588219709601861 0 -0.099874610257137203 0.17203051222223609 0 -0.095038122120911311 0.18383081343480959 0 -0.1006094123224328 0.15068979515434031 0 -0.1122311642678975 0.16261360342809511 0 -0.099874610257137203 0.17203051222223609 0 -0.1006094123224328 0.15068979515434031 0 -0.099874610257137203 0.17203051222223609 0 -0.084799030532318145 0.1629521720608986 0 -0.099874610257137203 0.17203051222223609 0 -0.084799030532318145 0.1629521720608986 0 -0.086206103196577816 0.17919430847692111 0 -0.084799030532318145 0.1629521720608986 0 -0.086206103196577816 0.17919430847692111 0 -0.067500517916960906 0.1734177257744379 0 -0.095038122120911311 0.18383081343480959 0 -0.086206103196577816 0.17919430847692111 0 -0.085160891687387261 0.19821623594406429 0 -0.099874610257137203 0.17203051222223609 0 -0.095038122120911311 0.18383081343480959 0 -0.086206103196577816 0.17919430847692111 0 -0.086206103196577816 0.17919430847692111 0 -0.067500517916960906 0.1734177257744379 0 -0.073598742241093279 0.18804124248776541 0 -0.067500517916960906 0.1734177257744379 0 -0.073598742241093279 0.18804124248776541 0 -0.051767123127349518 0.18832640186841959 0 -0.067500517916960906 0.1734177257744379 0 -0.070792002131543602 0.15552809472913121 0 -0.05271772929093764 0.1547006834852887 0 -0.084799030532318145 0.1629521720608986 0 -0.067500517916960906 0.1734177257744379 0 -0.070792002131543602 0.15552809472913121 0 -0.070792002131543602 0.15552809472913121 0 -0.065854533756839792 0.13905226787658351 0 -0.084534875577851498 0.1461875675682027 0 -0.070792002131543602 0.15552809472913121 0 -0.065854533756839792 0.13905226787658351 0 -0.05271772929093764 0.1547006834852887 0 -0.077858960693218085 0.12775094360419961 0 -0.065854533756839792 0.13905226787658351 0 -0.056986655654753068 0.1212302980893958 0 -0.077858960693218085 0.12775094360419961 0 -0.065854533756839792 0.13905226787658351 0 -0.084534875577851498 0.1461875675682027 0 -0.098086196591783206 0.12944416685506749 0 -0.077858960693218085 0.12775094360419961 0 -0.084534875577851498 0.1461875675682027 0 -0.1006094123224328 0.15068979515434031 0 -0.084799030532318145 0.1629521720608986 0 -0.084534875577851498 0.1461875675682027 0 -0.084799030532318145 0.1629521720608986 0 -0.070792002131543602 0.15552809472913121 0 -0.084534875577851498 0.1461875675682027 0 -0.097808993047078713 0.24307883669473671 0 -0.106149368228787 0.23603270276301 0 -0.096211326277643977 0.23153960843934801 0 -0.097808993047078713 0.24307883669473671 0 -0.106149368228787 0.23603270276301 0 -0.1133144768543244 0.24346474061285289 0 -0.1093113425500527 0.25762787717354679 0 -0.097808993047078713 0.24307883669473671 0 -0.1133144768543244 0.24346474061285289 0 -0.1189392722295104 0.25732248993651619 0 -0.1133144768543244 0.24346474061285289 0 -0.1219120720920598 0.245209269023206 0 -0.1287372250424039 0.24537687455207741 0 -0.1219120720920598 0.245209269023206 0 -0.1240164161691903 0.2368055745566362 0 -0.1133144768543244 0.24346474061285289 0 -0.1240164161691903 0.2368055745566362 0 -0.1150406797544057 0.22877389794965181 0 -0.1133144768543244 0.24346474061285289 0 -0.1219120720920598 0.245209269023206 0 -0.1240164161691903 0.2368055745566362 0 -0.106149368228787 0.23603270276301 0 -0.1133144768543244 0.24346474061285289 0 -0.1150406797544057 0.22877389794965181 0 -0.1240164161691903 0.2368055745566362 0 -0.1150406797544057 0.22877389794965181 0 -0.12441569538872051 0.2270324935801234 0 -0.1150406797544057 0.22877389794965181 0 -0.12441569538872051 0.2270324935801234 0 -0.1210403633975241 0.22051190375815249 0 -0.12949101911143751 0.21967480117886029 0 -0.12441569538872051 0.2270324935801234 0 -0.1210403633975241 0.22051190375815249 0 -0.1150406797544057 0.22877389794965181 0 -0.1210403633975241 0.22051190375815249 0 -0.11333157671004 0.2152836770875757 0 -0.1150406797544057 0.22877389794965181 0 -0.099796697071008147 0.21902921213274229 0 -0.11333157671004 0.2152836770875757 0 -0.106149368228787 0.23603270276301 0 -0.1150406797544057 0.22877389794965181 0 -0.099796697071008147 0.21902921213274229 0 -0.1150406797544057 0.22877389794965181 0 -0.099796697071008147 0.21902921213274229 0 -0.106149368228787 0.23603270276301 0 -0.096211326277643977 0.23153960843934801 0 -0.099796697071008147 0.21902921213274229 0 -0.099796697071008147 0.21902921213274229 0 -0.095654788519125858 0.20434370579280561 0 -0.1049356393069434 0.2091523173964529 0 -0.1049356393069434 0.2091523173964529 0 -0.1119487718552917 0.2054641573447418 0 -0.10692498289340061 0.19979942628682079 0 -0.095654788519125858 0.20434370579280561 0 -0.1049356393069434 0.2091523173964529 0 -0.10692498289340061 0.19979942628682079 0 -0.099796697071008147 0.21902921213274229 0 -0.1049356393069434 0.2091523173964529 0 -0.11333157671004 0.2152836770875757 0 -0.1210403633975241 0.22051190375815249 0 -0.11333157671004 0.2152836770875757 0 -0.12303769696988411 0.21335380999066031 0 -0.11333157671004 0.2152836770875757 0 -0.12303769696988411 0.21335380999066031 0 -0.1205286192071177 0.20569682108836609 0 -0.12949101911143751 0.21967480117886029 0 -0.1210403633975241 0.22051190375815249 0 -0.12303769696988411 0.21335380999066031 0 -0.13039578950497929 0.20819878331028399 0 -0.12303769696988411 0.21335380999066031 0 -0.1205286192071177 0.20569682108836609 0 -0.11333157671004 0.2152836770875757 0 -0.1205286192071177 0.20569682108836609 0 -0.1119487718552917 0.2054641573447418 0 -0.1049356393069434 0.2091523173964529 0 -0.11333157671004 0.2152836770875757 0 -0.1119487718552917 0.2054641573447418 0 -0.11760844143789061 0.18136531048028101 0 -0.1119487718552917 0.2054641573447418 0 -0.11760844143789061 0.18136531048028101 0 -0.1119487718552917 0.2054641573447418 0 -0.1206987341637801 0.19630154345805531 0 -0.11760844143789061 0.18136531048028101 0 -0.1089108833425438 0.18588219709601861 0 -0.1119487718552917 0.2054641573447418 0 -0.12814953511971819 0.19887282294621331 0 -0.1205286192071177 0.20569682108836609 0 -0.1206987341637801 0.19630154345805531 0 -0.1205286192071177 0.20569682108836609 0 -0.1119487718552917 0.2054641573447418 0 -0.1206987341637801 0.19630154345805531 0 -0.1261233355923059 0.1905246963459806 0 -0.12814953511971819 0.19887282294621331 0 -0.1206987341637801 0.19630154345805531 0 -0.1261233355923059 0.1905246963459806 0 -0.11760844143789061 0.18136531048028101 0 -0.1206987341637801 0.19630154345805531 0 -0.1089108833425438 0.18588219709601861 0 -0.095038122120911311 0.18383081343480959 0 -0.085160891687387261 0.19821623594406429 0 -0.1089108833425438 0.18588219709601861 0 -0.095654788519125858 0.20434370579280561 0 -0.085160891687387261 0.19821623594406429 0 -0.1089108833425438 0.18588219709601861 0 -0.10692498289340061 0.19979942628682079 0 -0.1089108833425438 0.18588219709601861 0 -0.1119487718552917 0.2054641573447418 0 -0.10692498289340061 0.19979942628682079 0 -0.1089108833425438 0.18588219709601861 0 -0.095654788519125858 0.20434370579280561 0 -0.10692498289340061 0.19979942628682079 0 -0.1089108833425438 0.18588219709601861 0 -0.085160891687387261 0.19821623594406429 0 -0.086206103196577816 0.17919430847692111 0 -0.085160891687387261 0.19821623594406429 0 -0.086206103196577816 0.17919430847692111 0 -0.085160891687387261 0.19821623594406429 0 -0.073598742241093279 0.18804124248776541 0 -0.085160891687387261 0.19821623594406429 0 -0.075271972064088769 0.20335183011899541 0 -0.073598742241093279 0.18804124248776541 0 -0.075271972064088769 0.20335183011899541 0 -0.051767123127349518 0.18832640186841959 0 -0.075271972064088769 0.20335183011899541 0 -0.051767123127349518 0.18832640186841959 0 -0.085160891687387261 0.19821623594406429 0 -0.073598742241093279 0.18804124248776541 0 -0.075271972064088769 0.20335183011899541 0 -0.075271972064088769 0.20335183011899541 0 -0.054717852561596968 0.21402616264558921 0 -0.075271972064088769 0.20335183011899541 0 -0.072164024055096143 0.22019545168613691 0 -0.054717852561596968 0.21402616264558921 0 -0.075271972064088769 0.20335183011899541 0 -0.08455271438761025 0.2092845263158333 0 -0.072164024055096143 0.22019545168613691 0 -0.085160891687387261 0.19821623594406429 0 -0.075271972064088769 0.20335183011899541 0 -0.08455271438761025 0.2092845263158333 0 -0.085160891687387261 0.19821623594406429 0 -0.08455271438761025 0.2092845263158333 0 -0.075271972064088769 0.20335183011899541 0 -0.08455271438761025 0.2092845263158333 0 -0.099796697071008147 0.21902921213274229 0 -0.095654788519125858 0.20434370579280561 0 -0.08455271438761025 0.2092845263158333 0 -0.095654788519125858 0.20434370579280561 0 -0.085160891687387261 0.19821623594406429 0 -0.08455271438761025 0.2092845263158333 0 -0.099796697071008147 0.21902921213274229 0 -0.08455271438761025 0.2092845263158333 0 -0.08455271438761025 0.2092845263158333 0 -0.083318252666745363 0.2317506406944605 0 -0.072164024055096143 0.22019545168613691 0 -0.096211326277643977 0.23153960843934801 0 -0.099796697071008147 0.21902921213274229 0 -0.083318252666745363 0.2317506406944605 0 -0.099796697071008147 0.21902921213274229 0 -0.08455271438761025 0.2092845263158333 0 -0.083318252666745363 0.2317506406944605 0 -0.08455271438761025 0.2092845263158333 0 -0.083318252666745363 0.2317506406944605 0 -0.072164024055096143 0.22019545168613691 0 -0.062409709005510371 0.2314657849516133 0 -0.054717852561596968 0.21402616264558921 0 -0.072164024055096143 0.22019545168613691 0 -0.072814812041956556 0.2310529179637715 0 -0.062409709005510371 0.2314657849516133 0 -0.083318252666745363 0.2317506406944605 0 -0.072164024055096143 0.22019545168613691 0 -0.072814812041956556 0.2310529179637715 0 -0.060203154901558281 0.25147550524394302 0 -0.073473629747554212 0.24155887061920331 0 -0.055898074302394823 0.24514656301700169 0 -0.083318252666745363 0.2317506406944605 0 -0.072814812041956556 0.2310529179637715 0 -0.073473629747554212 0.24155887061920331 0 -0.073473629747554212 0.24155887061920331 0 -0.055898074302394823 0.24514656301700169 0 -0.062409709005510371 0.2314657849516133 0 -0.073473629747554212 0.24155887061920331 0 -0.055898074302394823 0.24514656301700169 0 -0.082083790945880891 0.25421675507308772 0 -0.060203154901558281 0.25147550524394302 0 -0.073473629747554212 0.24155887061920331 0 -0.072814812041956556 0.2310529179637715 0 -0.073473629747554212 0.24155887061920331 0 -0.062409709005510371 0.2314657849516133 0 -0.082083790945880891 0.25421675507308772 0 -0.083318252666745363 0.2317506406944605 0 -0.082083790945880891 0.25421675507308772 0 -0.097808993047078713 0.24307883669473671 0 -0.083318252666745363 0.2317506406944605 0 -0.082083790945880891 0.25421675507308772 0 -0.083318252666745363 0.2317506406944605 0 -0.073473629747554212 0.24155887061920331 0 -0.097808993047078713 0.24307883669473671 0 -0.096211326277643977 0.23153960843934801 0 -0.083318252666745363 0.2317506406944605 0 -0.038322518857235421 0.2487342554147999 0 -0.047114742024772373 0.2327083914941222 0 -0.02841813908430068 0.23731272371673751 0 -0.038322518857235421 0.2487342554147999 0 -0.055898074302394823 0.24514656301700169 0 -0.047114742024772373 0.2327083914941222 0 -0.060203154901558281 0.25147550524394302 0 -0.038322518857235421 0.2487342554147999 0 -0.055898074302394823 0.24514656301700169 0 -0.038322518857235421 0.2487342554147999 0 -0.055898074302394823 0.24514656301700169 0 -0.055898074302394823 0.24514656301700169 0 -0.047114742024772373 0.2327083914941222 0 -0.062409709005510371 0.2314657849516133 0 -0.047114742024772373 0.2327083914941222 0 -0.062409709005510371 0.2314657849516133 0 -0.054717852561596968 0.21402616264558921 0 -0.047114742024772373 0.2327083914941222 0 -0.034163733059105569 0.22470049517218391 0 -0.054717852561596968 0.21402616264558921 0 -0.034163733059105569 0.22470049517218391 0 -0.054717852561596968 0.21402616264558921 0 -0.047114742024772373 0.2327083914941222 0 -0.034163733059105569 0.22470049517218391 0 -0.02841813908430068 0.23731272371673751 0 -0.034163733059105569 0.22470049517218391 0 -0.054717852561596968 0.21402616264558921 0 -0.02984576638218616 0.20250122530335049 0 -0.075271972064088769 0.20335183011899541 0 -0.054717852561596968 0.21402616264558921 0 -0.051767123127349518 0.18832640186841959 0 -0.054717852561596968 0.21402616264558921 0 -0.051767123127349518 0.18832640186841959 0 -0.02984576638218616 0.20250122530335049 0 -0.051767123127349518 0.18832640186841959 0 -0.02984576638218616 0.20250122530335049 0 -0.028262274190611121 0.17330097361784219 0 -0.02984576638218616 0.20250122530335049 0 -0.0098054323372850343 0.2071541145266611 0 -0.01014789215669795 0.1873388675034304 0 -0.02984576638218616 0.20250122530335049 0 -0.028262274190611121 0.17330097361784219 0 -0.01014789215669795 0.1873388675034304 0 -0.0098054323372850343 0.2071541145266611 0 -0.01014789215669795 0.1873388675034304 0 0.011712399139053019 0.20712528728958629 0 -0.0098054323372850343 0.2071541145266611 0 -0.018186546395408471 0.21968768760646021 0 0.00023083505264562081 0.22276002696559249 0 -0.034163733059105569 0.22470049517218391 0 -0.02984576638218616 0.20250122530335049 0 -0.018186546395408471 0.21968768760646021 0 -0.02984576638218616 0.20250122530335049 0 -0.0098054323372850343 0.2071541145266611 0 -0.018186546395408471 0.21968768760646021 0 -0.034163733059105569 0.22470049517218391 0 -0.013609613556614209 0.23537482769877849 0 -0.034163733059105569 0.22470049517218391 0 -0.013609613556614209 0.23537482769877849 0 -0.02841813908430068 0.23731272371673751 0 -0.034163733059105569 0.22470049517218391 0 -0.018186546395408471 0.21968768760646021 0 -0.013609613556614209 0.23537482769877849 0 -0.018186546395408471 0.21968768760646021 0 -0.013609613556614209 0.23537482769877849 0 0.00023083505264562081 0.22276002696559249 0 -0.013609613556614209 0.23537482769877849 0 -0.001069103097690819 0.2352337777433495 0 0.00023083505264562081 0.22276002696559249 0 -0.013609613556614209 0.23537482769877849 0 -0.001069103097690819 0.2352337777433495 0 -0.0088800879237758076 0.24504564880380281 0 -0.001069103097690819 0.2352337777433495 0 -0.0088800879237758076 0.24504564880380281 0 0.0033435243420843392 0.24550581269512031 0 -0.0088800879237758076 0.24504564880380281 0 0.0033435243420843392 0.24550581269512031 0 0.001071073268911413 0.25677565652066781 0 -0.038322518857235421 0.2487342554147999 0 -0.0088800879237758076 0.24504564880380281 0 -0.018625722794162039 0.2527549559677339 0 -0.038322518857235421 0.2487342554147999 0 -0.0088800879237758076 0.24504564880380281 0 -0.038322518857235421 0.2487342554147999 0 -0.0088800879237758076 0.24504564880380281 0 -0.02841813908430068 0.23731272371673751 0 -0.013609613556614209 0.23537482769877849 0 -0.0088800879237758076 0.24504564880380281 0 -0.02841813908430068 0.23731272371673751 0 -0.037934940664914402 0.13598364119613959 0 -0.05271772929093764 0.1547006834852887 0 -0.033627718075405891 0.14885963548415421 0 -0.037934940664914402 0.13598364119613959 0 -0.05271772929093764 0.1547006834852887 0 -0.033627718075405891 0.14885963548415421 0 -0.05271772929093764 0.1547006834852887 0 -0.038576251966112841 0.16156591903621301 0 -0.037934940664914402 0.13598364119613959 0 -0.052091131696338507 0.13365425302212519 0 -0.042334962483613382 0.12056683367077579 0 -0.065854533756839792 0.13905226787658351 0 -0.052091131696338507 0.13365425302212519 0 -0.056986655654753068 0.1212302980893958 0 -0.052091131696338507 0.13365425302212519 0 -0.042334962483613382 0.12056683367077579 0 -0.056986655654753068 0.1212302980893958 0 -0.037934940664914402 0.13598364119613959 0 -0.052091131696338507 0.13365425302212519 0 -0.05271772929093764 0.1547006834852887 0 -0.065854533756839792 0.13905226787658351 0 -0.052091131696338507 0.13365425302212519 0 -0.05271772929093764 0.1547006834852887 0 -0.067500517916960906 0.1734177257744379 0 -0.05271772929093764 0.1547006834852887 0 -0.067500517916960906 0.1734177257744379 0 -0.05271772929093764 0.1547006834852887 0 -0.04975993209433871 0.1710407330115746 0 -0.05271772929093764 0.1547006834852887 0 -0.04975993209433871 0.1710407330115746 0 -0.038576251966112841 0.16156591903621301 0 -0.067500517916960906 0.1734177257744379 0 -0.051767123127349518 0.18832640186841959 0 -0.04975993209433871 0.1710407330115746 0 -0.051767123127349518 0.18832640186841959 0 -0.04975993209433871 0.1710407330115746 0 -0.028262274190611121 0.17330097361784219 0 -0.051767123127349518 0.18832640186841959 0 -0.028262274190611121 0.17330097361784219 0 -0.04975993209433871 0.1710407330115746 0 -0.038576251966112841 0.16156591903621301 0 -0.028262274190611121 0.17330097361784219 0 -0.033627718075405891 0.14885963548415421 0 -0.038576251966112841 0.16156591903621301 0 -0.021032782308734271 0.15924079314238629 0 -0.038576251966112841 0.16156591903621301 0 -0.021032782308734271 0.15924079314238629 0 -0.028262274190611121 0.17330097361784219 0 -0.021032782308734271 0.15924079314238629 0 -0.028262274190611121 0.17330097361784219 0 -0.01251360905584047 0.17109637486746221 0 -0.028262274190611121 0.17330097361784219 0 -0.01014789215669795 0.1873388675034304 0 -0.01251360905584047 0.17109637486746221 0 -0.01014789215669795 0.1873388675034304 0 -0.01251360905584047 0.17109637486746221 0 0.0026961394843078119 0.16959424552817209 0 -0.021032782308734271 0.15924079314238629 0 -0.01251360905584047 0.17109637486746221 0 -0.0032861824956104632 0.15848237531508319 0 -0.01251360905584047 0.17109637486746221 0 -0.0032861824956104632 0.15848237531508319 0 0.0026961394843078119 0.16959424552817209 0 -0.01143355296233705 0.1463914483388491 0 0.0107606121507319 0.14392326119354501 0 -0.021032782308734271 0.15924079314238629 0 -0.0032861824956104632 0.15848237531508319 0 -0.01143355296233705 0.1463914483388491 0 -0.0032861824956104632 0.15848237531508319 0 -0.01143355296233705 0.1463914483388491 0 0.0107606121507319 0.14392326119354501 0 -0.033627718075405891 0.14885963548415421 0 -0.01143355296233705 0.1463914483388491 0 -0.02205909256605593 0.13332617275988479 0 -0.033627718075405891 0.14885963548415421 0 -0.01143355296233705 0.1463914483388491 0 -0.033627718075405891 0.14885963548415421 0 -0.021032782308734271 0.15924079314238629 0 -0.01143355296233705 0.1463914483388491 0 -0.037934940664914402 0.13598364119613959 0 -0.02205909256605593 0.13332617275988479 0 -0.023152152038891208 0.11726659890699059 0 -0.02205909256605593 0.13332617275988479 0 -0.0061957699440802691 0.13059493005026859 0 -0.023152152038891208 0.11726659890699059 0 -0.037934940664914402 0.13598364119613959 0 -0.023152152038891208 0.11726659890699059 0 -0.033627718075405891 0.14885963548415421 0 -0.037934940664914402 0.13598364119613959 0 -0.02205909256605593 0.13332617275988479 0 -0.01143355296233705 0.1463914483388491 0 -0.0061957699440802691 0.13059493005026859 0 0.0107606121507319 0.14392326119354501 0 -0.01143355296233705 0.1463914483388491 0 -0.02205909256605593 0.13332617275988479 0 -0.0061957699440802691 0.13059493005026859 0 -0.0028245424118018142 0.1172602116382065 0 -0.0092538722443179962 0.10510111594370269 0 -0.023152152038891208 0.11726659890699059 0 -0.0061957699440802691 0.13059493005026859 0 -0.023152152038891208 0.11726659890699059 0 -0.0061957699440802691 0.13059493005026859 0 -0.0028245424118018142 0.1172602116382065 0 -0.023152152038891208 0.11726659890699059 0 -0.0028245424118018142 0.1172602116382065 0 -0.0092538722443179962 0.10510111594370269 0 0.01004351340954676 0.11240294598950661 0 -0.0086949604563171488 0.098686798294587819 0 -0.0092538722443179962 0.10510111594370269 0 0.01004351340954676 0.11240294598950661 0 -0.0086949604563171488 0.098686798294587819 0 -0.0092538722443179962 0.10510111594370269 0 -0.023152152038891208 0.11726659890699059 0 -0.0086949604563171488 0.098686798294587819 0 0.0037128992863694719 0.087554214639535888 0 0.0048398924750147542 0.099486127833739654 0 -0.0086949604563171488 0.098686798294587819 0 -0.0092538722443179962 0.10510111594370269 0 -0.0086949604563171488 0.098686798294587819 0 -0.022542274944482379 0.1051567324725733 0 -0.023152152038891208 0.11726659890699059 0 -0.0086949604563171488 0.098686798294587819 0 -0.023152152038891208 0.11726659890699059 0 -0.0086949604563171488 0.098686798294587819 0 -0.022542274944482379 0.1051567324725733 0 -0.023522669513783321 0.096152189509708913 0 -0.022542274944482379 0.1051567324725733 0 -0.023522669513783321 0.096152189509708913 0 -0.034733616745098152 0.108163147718796 0 -0.022542274944482379 0.1051567324725733 0 -0.023152152038891208 0.11726659890699059 0 -0.034733616745098152 0.108163147718796 0 -0.023152152038891208 0.11726659890699059 0 -0.034733616745098152 0.108163147718796 0 -0.0065392468501627218 0.073946880247965974 0 -0.01624090706365864 0.082029730652887184 0 -0.020934471659767199 0.058970697102832877 0 -0.0086949604563171488 0.098686798294587819 0 -0.0065392468501627218 0.073946880247965974 0 -0.0086949604563171488 0.098686798294587819 0 -0.0065392468501627218 0.073946880247965974 0 -0.01624090706365864 0.082029730652887184 0 -0.0086949604563171488 0.098686798294587819 0 -0.0065392468501627218 0.073946880247965974 0 0.0037128992863694719 0.087554214639535888 0 -0.0086949604563171488 0.098686798294587819 0 -0.01624090706365864 0.082029730652887184 0 -0.030440024411125199 0.082794218151397314 0 -0.0086949604563171488 0.098686798294587819 0 -0.023522669513783321 0.096152189509708913 0 -0.030440024411125199 0.082794218151397314 0 -0.0086949604563171488 0.098686798294587819 0 -0.030440024411125199 0.082794218151397314 0 -0.01624090706365864 0.082029730652887184 0 -0.030440024411125199 0.082794218151397314 0 -0.020934471659767199 0.058970697102832877 0 -0.030440024411125199 0.082794218151397314 0 -0.035739070134103483 0.065185202150675609 0 -0.020934471659767199 0.058970697102832877 0 -0.030440024411125199 0.082794218151397314 0 -0.020934471659767199 0.058970697102832877 0 -0.030440024411125199 0.082794218151397314 0 -0.035739070134103483 0.065185202150675609 0 -0.044154924708830832 0.072730890122679748 0 -0.035739070134103483 0.065185202150675609 0 -0.044154924708830832 0.072730890122679748 0 -0.048409304100085218 0.061587747802123727 0 -0.030440024411125199 0.082794218151397314 0 -0.044154924708830832 0.072730890122679748 0 -0.023522669513783321 0.096152189509708913 0 -0.030440024411125199 0.082794218151397314 0 -0.042226575161574562 0.094596815268444989 0 -0.030440024411125199 0.082794218151397314 0 -0.044154924708830832 0.072730890122679748 0 -0.047305090154399237 0.083488251776404968 0 -0.030440024411125199 0.082794218151397314 0 -0.047305090154399237 0.083488251776404968 0 -0.042226575161574562 0.094596815268444989 0 -0.047305090154399237 0.083488251776404968 0 -0.058952416476872403 0.093022494805065525 0 -0.042226575161574562 0.094596815268444989 0 -0.047305090154399237 0.083488251776404968 0 -0.058952416476872403 0.093022494805065525 0 -0.060751510013593218 0.074296840534437261 0 -0.044154924708830832 0.072730890122679748 0 -0.047305090154399237 0.083488251776404968 0 -0.060751510013593218 0.074296840534437261 0 -0.044154924708830832 0.072730890122679748 0 -0.060751510013593218 0.074296840534437261 0 -0.048409304100085218 0.061587747802123727 0 -0.060751510013593218 0.074296840534437261 0 -0.048409304100085218 0.061587747802123727 0 -0.05991057524020043 0.058286864838709852 0 -0.023152152038891208 0.11726659890699059 0 -0.042334962483613382 0.12056683367077579 0 -0.034733616745098152 0.108163147718796 0 -0.037934940664914402 0.13598364119613959 0 -0.023152152038891208 0.11726659890699059 0 -0.042334962483613382 0.12056683367077579 0 -0.042334962483613382 0.12056683367077579 0 -0.034733616745098152 0.108163147718796 0 -0.049545047409559062 0.1073502429651465 0 -0.023522669513783321 0.096152189509708913 0 -0.034733616745098152 0.108163147718796 0 -0.042226575161574562 0.094596815268444989 0 -0.034733616745098152 0.108163147718796 0 -0.042226575161574562 0.094596815268444989 0 -0.049545047409559062 0.1073502429651465 0 -0.058952416476872403 0.093022494805065525 0 -0.049545047409559062 0.1073502429651465 0 -0.070341001652421825 0.1068743881840561 0 -0.058952416476872403 0.093022494805065525 0 -0.042226575161574562 0.094596815268444989 0 -0.049545047409559062 0.1073502429651465 0 -0.049545047409559062 0.1073502429651465 0 -0.056986655654753068 0.1212302980893958 0 -0.070341001652421825 0.1068743881840561 0 -0.042334962483613382 0.12056683367077579 0 -0.049545047409559062 0.1073502429651465 0 -0.056986655654753068 0.1212302980893958 0 -0.077858960693218085 0.12775094360419961 0 -0.056986655654753068 0.1212302980893958 0 -0.070341001652421825 0.1068743881840561 0 -0.077858960693218085 0.12775094360419961 0 -0.085429937934331832 0.11385953610107211 0 -0.070341001652421825 0.1068743881840561 0 -0.098086196591783206 0.12944416685506749 0 -0.077858960693218085 0.12775094360419961 0 -0.085429937934331832 0.11385953610107211 0 -0.085429937934331832 0.11385953610107211 0 -0.088523195875842231 0.096835914281960034 0 -0.10104251050369729 0.1020475228487175 0 -0.085429937934331832 0.11385953610107211 0 -0.088523195875842231 0.096835914281960034 0 -0.070341001652421825 0.1068743881840561 0 -0.058952416476872403 0.093022494805065525 0 -0.070341001652421825 0.1068743881840561 0 -0.075090797522376143 0.088071287441553445 0 -0.088523195875842231 0.096835914281960034 0 -0.070341001652421825 0.1068743881840561 0 -0.075090797522376143 0.088071287441553445 0 -0.058952416476872403 0.093022494805065525 0 -0.060751510013593218 0.074296840534437261 0 -0.075090797522376143 0.088071287441553445 0 -0.060751510013593218 0.074296840534437261 0 -0.075090797522376143 0.088071287441553445 0 -0.076829559856721824 0.071012235559103368 0 -0.060751510013593218 0.074296840534437261 0 -0.069322815322856238 0.063123546765687155 0 -0.05991057524020043 0.058286864838709852 0 -0.060751510013593218 0.074296840534437261 0 -0.076829559856721824 0.071012235559103368 0 -0.069322815322856238 0.063123546765687155 0 -0.076829559856721824 0.071012235559103368 0 -0.069322815322856238 0.063123546765687155 0 -0.076375068807355909 0.054995565831240198 0 -0.076829559856721824 0.071012235559103368 0 -0.086331803265920604 0.080552532726292661 0 -0.093790597287660663 0.069999077548098088 0 -0.076829559856721824 0.071012235559103368 0 -0.093790597287660663 0.069999077548098088 0 -0.089587514868056176 0.056235019520764533 0 -0.075090797522376143 0.088071287441553445 0 -0.076829559856721824 0.071012235559103368 0 -0.086331803265920604 0.080552532726292661 0 -0.088523195875842231 0.096835914281960034 0 -0.075090797522376143 0.088071287441553445 0 -0.086331803265920604 0.080552532726292661 0 -0.086331803265920604 0.080552532726292661 0 -0.096855557802558959 0.085949399621778291 0 -0.093790597287660663 0.069999077548098088 0 -0.088523195875842231 0.096835914281960034 0 -0.086331803265920604 0.080552532726292661 0 -0.096855557802558959 0.085949399621778291 0 -0.096855557802558959 0.085949399621778291 0 -0.1093325439707481 0.088972808174784368 0 -0.10104251050369729 0.1020475228487175 0 -0.096855557802558959 0.085949399621778291 0 -0.1093325439707481 0.088972808174784368 0 -0.10825667967761821 0.074230219266877812 0 -0.093790597287660663 0.069999077548098088 0 -0.10825667967761821 0.074230219266877812 0 -0.1050484656129346 0.057252938925664507 0 -0.096855557802558959 0.085949399621778291 0 -0.093790597287660663 0.069999077548098088 0 -0.10825667967761821 0.074230219266877812 0 -0.10825667967761821 0.074230219266877812 0 -0.11944240010931829 0.062079441005573152 0 -0.1050484656129346 0.057252938925664507 0 -0.10825667967761821 0.074230219266877812 0 -0.1247293894785861 0.080375583490691058 0 -0.11944240010931829 0.062079441005573152 0 -0.1093325439707481 0.088972808174784368 0 -0.1247293894785861 0.080375583490691058 0 -0.1157785823912799 0.1022613156458573 0 -0.1093325439707481 0.088972808174784368 0 -0.10825667967761821 0.074230219266877812 0 -0.1247293894785861 0.080375583490691058 0 -0.1157785823912799 0.1022613156458573 0 -0.1125241159362808 0.1154939667151242 0 -0.10104251050369729 0.1020475228487175 0 -0.1157785823912799 0.1022613156458573 0 -0.12159657186685841 0.1093319148879265 0 -0.1125241159362808 0.1154939667151242 0 -0.12819454715255271 0.10686451578017481 0 -0.1157785823912799 0.1022613156458573 0 -0.12159657186685841 0.1093319148879265 0 -0.12783598980160399 0.11152836086208651 0 -0.1188837192841094 0.1158776037608457 0 -0.1125241159362808 0.1154939667151242 0 -0.12783598980160399 0.11152836086208651 0 -0.12159657186685841 0.1093319148879265 0 -0.1125241159362808 0.1154939667151242 0 -0.1107889536746144 0.12685430703977299 0 -0.1188837192841094 0.1158776037608457 0 -0.1125241159362808 0.1154939667151242 0 -0.1188837192841094 0.1158776037608457 0 -0.1125241159362808 0.1154939667151242 0 -0.085429937934331832 0.11385953610107211 0 -0.1125241159362808 0.1154939667151242 0 -0.085429937934331832 0.11385953610107211 0 -0.1125241159362808 0.1154939667151242 0 -0.10104251050369729 0.1020475228487175 0 -0.098086196591783206 0.12944416685506749 0 -0.085429937934331832 0.11385953610107211 0 -0.1125241159362808 0.1154939667151242 0 -0.1107889536746144 0.12685430703977299 0 -0.098086196591783206 0.12944416685506749 0 -0.1125241159362808 0.1154939667151242 0 -0.088523195875842231 0.096835914281960034 0 -0.096855557802558959 0.085949399621778291 0 -0.10104251050369729 0.1020475228487175 0 -0.1093325439707481 0.088972808174784368 0 -0.1157785823912799 0.1022613156458573 0 -0.10104251050369729 0.1020475228487175 0 -0.1020358119049414 0.02932694745310269 0 -0.1026449947438315 0.003663571059520726 0 -0.11496814389640971 0.02809417330370859 0 -0.1026449947438315 0.003663571059520726 0 -0.090337872331081676 0.028085921737497899 0 -0.1020358119049414 0.02932694745310269 0 -0.1026449947438315 0.003663571059520726 0 -0.090337872331081676 0.028085921737497899 0 -0.1026449947438315 0.003663571059520726 0 -0.11983629681939879 0.01154877613917666 0 -0.11496814389640971 0.02809417330370859 0 -0.1203328952813548 -0.0044339126386656706 0 -0.1026449947438315 0.003663571059520726 0 -0.11983629681939879 0.01154877613917666 0 -0.1203328952813548 -0.0044339126386656706 0 -0.13334388803410099 -0.0001525321026195833 0 -0.11983629681939879 0.01154877613917666 0 -0.1358896091469283 0.028607427059415911 0 -0.11983629681939879 0.01154877613917666 0 -0.11496814389640971 0.02809417330370859 0 -0.11496814389640971 0.02809417330370859 0 -0.1217776407636797 0.046883171440986422 0 -0.1081057225643292 0.043142674233138202 0 -0.1358896091469283 0.028607427059415911 0 -0.11496814389640971 0.02809417330370859 0 -0.1217776407636797 0.046883171440986422 0 -0.1217776407636797 0.046883171440986422 0 -0.11944240010931829 0.062079441005573152 0 -0.1050484656129346 0.057252938925664507 0 -0.1217776407636797 0.046883171440986422 0 -0.1050484656129346 0.057252938925664507 0 -0.1081057225643292 0.043142674233138202 0 -0.1050484656129346 0.057252938925664507 0 -0.1081057225643292 0.043142674233138202 0 -0.094122325989055136 0.043648396931648042 0 -0.1050484656129346 0.057252938925664507 0 -0.094122325989055136 0.043648396931648042 0 -0.089587514868056176 0.056235019520764533 0 -0.093790597287660663 0.069999077548098088 0 -0.1050484656129346 0.057252938925664507 0 -0.089587514868056176 0.056235019520764533 0 -0.1020358119049414 0.02932694745310269 0 -0.11496814389640971 0.02809417330370859 0 -0.1081057225643292 0.043142674233138202 0 -0.1020358119049414 0.02932694745310269 0 -0.1081057225643292 0.043142674233138202 0 -0.094122325989055136 0.043648396931648042 0 -0.1020358119049414 0.02932694745310269 0 -0.094122325989055136 0.043648396931648042 0 -0.090337872331081676 0.028085921737497899 0 -0.094122325989055136 0.043648396931648042 0 -0.079916102541930753 0.038438337883064048 0 -0.090337872331081676 0.028085921737497899 0 -0.079916102541930753 0.038438337883064048 0 -0.083711082910051582 0.047902249772197127 0 -0.075463487025170695 0.046186013127963992 0 -0.094122325989055136 0.043648396931648042 0 -0.079916102541930753 0.038438337883064048 0 -0.083711082910051582 0.047902249772197127 0 -0.076829559856721824 0.071012235559103368 0 -0.089587514868056176 0.056235019520764533 0 -0.076375068807355909 0.054995565831240198 0 -0.094122325989055136 0.043648396931648042 0 -0.089587514868056176 0.056235019520764533 0 -0.083711082910051582 0.047902249772197127 0 -0.089587514868056176 0.056235019520764533 0 -0.083711082910051582 0.047902249772197127 0 -0.076375068807355909 0.054995565831240198 0 -0.083711082910051582 0.047902249772197127 0 -0.076375068807355909 0.054995565831240198 0 -0.075463487025170695 0.046186013127963992 0 -0.069322815322856238 0.063123546765687155 0 -0.076375068807355909 0.054995565831240198 0 -0.067293181580604211 0.050585468160706769 0 -0.076375068807355909 0.054995565831240198 0 -0.067293181580604211 0.050585468160706769 0 -0.075463487025170695 0.046186013127963992 0 -0.069322815322856238 0.063123546765687155 0 -0.067293181580604211 0.050585468160706769 0 -0.05991057524020043 0.058286864838709852 0 -0.079916102541930753 0.038438337883064048 0 -0.070021999285911019 0.039008443992611767 0 -0.065236379068342315 0.02618726182777557 0 -0.079916102541930753 0.038438337883064048 0 -0.075463487025170695 0.046186013127963992 0 -0.070021999285911019 0.039008443992611767 0 -0.067293181580604211 0.050585468160706769 0 -0.075463487025170695 0.046186013127963992 0 -0.070021999285911019 0.039008443992611767 0 -0.067293181580604211 0.050585468160706769 0 -0.070021999285911019 0.039008443992611767 0 -0.055107512183142568 0.045586505103600371 0 -0.079916102541930753 0.038438337883064048 0 -0.07447592692004007 0.01573772936913893 0 -0.07447592692004007 0.01573772936913893 0 -0.065236379068342315 0.02618726182777557 0 -0.054143937104984843 0.0086080978698742146 0 -0.079916102541930753 0.038438337883064048 0 -0.07447592692004007 0.01573772936913893 0 -0.065236379068342315 0.02618726182777557 0 -0.079916102541930753 0.038438337883064048 0 -0.07447592692004007 0.01573772936913893 0 -0.090337872331081676 0.028085921737497899 0 -0.1026449947438315 0.003663571059520726 0 -0.07447592692004007 0.01573772936913893 0 -0.090337872331081676 0.028085921737497899 0 -0.08597795090394926 -0.0076000302298698573 0 -0.1026449947438315 0.003663571059520726 0 -0.07447592692004007 0.01573772936913893 0 -0.0690357512981494 -0.0069628791447860954 0 -0.07447592692004007 0.01573772936913893 0 -0.054143937104984843 0.0086080978698742146 0 -0.0690357512981494 -0.0069628791447860954 0 -0.07447592692004007 0.01573772936913893 0 -0.08597795090394926 -0.0076000302298698573 0 -0.0690357512981494 -0.0069628791447860954 0 -0.07447592692004007 0.01573772936913893 0 -0.065236379068342315 0.02618726182777557 0 -0.054143937104984843 0.0086080978698742146 0 -0.047623929488844849 0.029143700024188899 0 -0.047623929488844849 0.029143700024188899 0 -0.025225859691778679 0.019278956055766031 0 -0.047623929488844849 0.029143700024188899 0 -0.02996362206597546 0.037330421021580698 0 -0.025225859691778679 0.019278956055766031 0 -0.047623929488844849 0.029143700024188899 0 -0.036671200689271023 0.0057763915615372261 0 -0.025225859691778679 0.019278956055766031 0 -0.054143937104984843 0.0086080978698742146 0 -0.047623929488844849 0.029143700024188899 0 -0.036671200689271023 0.0057763915615372261 0 -0.04051248678685327 -0.0091701030098075009 0 -0.054143937104984843 0.0086080978698742146 0 -0.036671200689271023 0.0057763915615372261 0 -0.048409304100085218 0.061587747802123727 0 -0.05991057524020043 0.058286864838709852 0 -0.055107512183142568 0.045586505103600371 0 -0.048409304100085218 0.061587747802123727 0 -0.055107512183142568 0.045586505103600371 0 -0.039678882423995837 0.050985985482041647 0 -0.067293181580604211 0.050585468160706769 0 -0.05991057524020043 0.058286864838709852 0 -0.055107512183142568 0.045586505103600371 0 -0.070021999285911019 0.039008443992611767 0 -0.065236379068342315 0.02618726182777557 0 -0.047623929488844849 0.029143700024188899 0 -0.070021999285911019 0.039008443992611767 0 -0.047623929488844849 0.029143700024188899 0 -0.047623929488844849 0.029143700024188899 0 -0.055107512183142568 0.045586505103600371 0 -0.039678882423995837 0.050985985482041647 0 -0.070021999285911019 0.039008443992611767 0 -0.047623929488844849 0.029143700024188899 0 -0.055107512183142568 0.045586505103600371 0 -0.047623929488844849 0.029143700024188899 0 -0.039678882423995837 0.050985985482041647 0 -0.02996362206597546 0.037330421021580698 0 -0.035739070134103483 0.065185202150675609 0 -0.039678882423995837 0.050985985482041647 0 -0.020934471659767199 0.058970697102832877 0 -0.035739070134103483 0.065185202150675609 0 -0.048409304100085218 0.061587747802123727 0 -0.039678882423995837 0.050985985482041647 0 -0.020934471659767199 0.058970697102832877 0 -0.01142891890840924 0.035147176054268543 0 -0.039678882423995837 0.050985985482041647 0 -0.020934471659767199 0.058970697102832877 0 -0.02996362206597546 0.037330421021580698 0 -0.020934471659767199 0.058970697102832877 0 -0.02996362206597546 0.037330421021580698 0 -0.01142891890840924 0.035147176054268543 0 -0.01142891890840924 0.035147176054268543 0 -0.0043835332440070708 0.049206962201344212 0 -0.0022278196378514121 0.024467044154722371 0 -0.0043835332440070708 0.049206962201344212 0 -0.0022278196378514121 0.024467044154722371 0 -0.0065392468501627218 0.073946880247965974 0 -0.020934471659767199 0.058970697102832877 0 -0.0043835332440070708 0.049206962201344212 0 -0.020934471659767199 0.058970697102832877 0 -0.01142891890840924 0.035147176054268543 0 -0.0043835332440070708 0.049206962201344212 0 -0.0065392468501627218 0.073946880247965974 0 -0.0043835332440070708 0.049206962201344212 0 0.0094236310279546421 0.058915403939540451 0 -0.0065392468501627218 0.073946880247965974 0 -0.0043835332440070708 0.049206962201344212 0 -0.036671200689271023 0.0057763915615372261 0 -0.02165275992836839 0.0022290584850298968 0 -0.025225859691778679 0.019278956055766031 0 -0.02165275992836839 0.0022290584850298968 0 -0.025225859691778679 0.019278956055766031 0 -0.002827789894712216 0.0094142120873437173 0 -0.02996362206597546 0.037330421021580698 0 -0.01142891890840924 0.035147176054268543 0 -0.025225859691778679 0.019278956055766031 0 -0.01142891890840924 0.035147176054268543 0 -0.025225859691778679 0.019278956055766031 0 -0.010351483662987489 0.01879099980077063 0 -0.01142891890840924 0.035147176054268543 0 -0.010351483662987489 0.01879099980077063 0 -0.001923366157050393 0.011323655005704489 0 -0.01142891890840924 0.035147176054268543 0 -0.001923366157050393 0.011323655005704489 0 -0.01142891890840924 0.035147176054268543 0 -0.0022278196378514121 0.024467044154722371 0 -0.001923366157050393 0.011323655005704489 0 -0.025225859691778679 0.019278956055766031 0 -0.010351483662987489 0.01879099980077063 0 -0.002827789894712216 0.0094142120873437173 0 -3.0483325887532769e-05 -0.0080437905340390685 0 -0.002827789894712216 0.0094142120873437173 0 0.00074313100808037769 0.0046406821159502556 0 -0.025225859691778679 0.019278956055766031 0 -0.002827789894712216 0.0094142120873437173 0 -0.010351483662987489 0.01879099980077063 0 -0.001923366157050393 0.011323655005704489 0 -0.002827789894712216 0.0094142120873437173 0 -0.00080625630422247793 0.0085238714698513043 0 -0.002827789894712216 0.0094142120873437173 0 -0.00080625630422247793 0.0085238714698513043 0 -0.001923366157050393 0.011323655005704489 0 -0.002827789894712216 0.0094142120873437173 0 -0.00080625630422247793 0.0085238714698513043 0 -0.001923366157050393 0.011323655005704489 0 -0.001923366157050393 0.011323655005704489 0 -0.002827789894712216 0.0094142120873437173 0 -0.00080625630422247793 0.0085238714698513043 0 -0.002827789894712216 0.0094142120873437173 0 0.00074313100808037769 0.0046406821159502556 0 -0.00080625630422247793 0.0085238714698513043 0 0.00074313100808037769 0.0046406821159502556 0 0.0114893599922821 0.0084546309914183011 0 0.01812849918490092 0.016042438460421381 0 0.01470889098275989 -0.01133742718195838 0 0.00074313100808037769 0.0046406821159502556 0 0.0063828244129049781 0.0025647612679847069 0 0.003381286086920498 -0.0028614156450472439 0 0.00074313100808037769 0.0046406821159502556 0 0.0024278434633335862 0.0070994823834550948 0 0.0063828244129049781 0.0025647612679847069 0 -0.00080625630422247793 0.0085238714698513043 0 0.00074313100808037769 0.0046406821159502556 0 0.0024278434633335862 0.0070994823834550948 0 -0.00080625630422247793 0.0085238714698513043 0 0.0024278434633335862 0.0070994823834550948 0 0.0024278434633335862 0.0070994823834550948 0 0.0063828244129049781 0.0025647612679847069 0 0.0066128376819070012 0.009345508365457519 0 0.0063828244129049781 0.0025647612679847069 0 0.0114893599922821 0.0084546309914183011 0 0.0066128376819070012 0.009345508365457519 0 0.0114893599922821 0.0084546309914183011 0 0.0080841282913532066 0.017861805335367339 0 0.01812849918490092 0.016042438460421381 0 0.0114893599922821 0.0084546309914183011 0 0.0066128376819070012 0.009345508365457519 0 0.0080841282913532066 0.017861805335367339 0 0.0066128376819070012 0.009345508365457519 0 0.0029692203481763912 0.01156458817540764 0 0.0080841282913532066 0.017861805335367339 0 -0.001923366157050393 0.011323655005704489 0 0.0029692203481763912 0.01156458817540764 0 0.0080841282913532066 0.017861805335367339 0 0.0024278434633335862 0.0070994823834550948 0 0.0066128376819070012 0.009345508365457519 0 0.0029692203481763912 0.01156458817540764 0 -0.00080625630422247793 0.0085238714698513043 0 0.0024278434633335862 0.0070994823834550948 0 0.0029692203481763912 0.01156458817540764 0 -0.00080625630422247793 0.0085238714698513043 0 -0.001923366157050393 0.011323655005704489 0 0.0029692203481763912 0.01156458817540764 0 -0.001923366157050393 0.011323655005704489 0 0.0069511860649901572 0.0300598404775629 0 -0.001923366157050393 0.011323655005704489 0 0.0069511860649901572 0.0300598404775629 0 0.0080841282913532066 0.017861805335367339 0 -0.0022278196378514121 0.024467044154722371 0 -0.001923366157050393 0.011323655005704489 0 0.0069511860649901572 0.0300598404775629 0 0.0069511860649901572 0.0300598404775629 0 0.01812849918490092 0.016042438460421381 0 0.02154810738704192 0.043422304102800957 0 0.0069511860649901572 0.0300598404775629 0 0.0080841282913532066 0.017861805335367339 0 0.01812849918490092 0.016042438460421381 0 0.01812849918490092 0.016042438460421381 0 0.02154810738704192 0.043422304102800957 0 0.036240471408027143 0.031444899926276457 0 0.01812849918490092 0.016042438460421381 0 0.036240471408027143 0.031444899926276457 0 0.035117134206933388 0.0082609407808874047 0 0.01812849918490092 0.016042438460421381 0 0.02154810738704192 0.043422304102800957 0 0.01812849918490092 0.016042438460421381 0 0.02336106269812703 0.00091390438485969283 0 0.035117134206933388 0.0082609407808874047 0 0.01812849918490092 0.016042438460421381 0 0.02336106269812703 0.00091390438485969283 0 0.01470889098275989 -0.01133742718195838 0 0.01812849918490092 0.016042438460421381 0 0.01470889098275989 -0.01133742718195838 0 -0.0043835332440070708 0.049206962201344212 0 0.0094236310279546421 0.058915403939540451 0 0.0083848478089949136 0.045401127680312132 0 0.0094236310279546421 0.058915403939540451 0 0.0083848478089949136 0.045401127680312132 0 0.02154810738704192 0.043422304102800957 0 -0.0043835332440070708 0.049206962201344212 0 0.0069511860649901572 0.0300598404775629 0 0.0083848478089949136 0.045401127680312132 0 -0.0043835332440070708 0.049206962201344212 0 -0.0022278196378514121 0.024467044154722371 0 0.0069511860649901572 0.0300598404775629 0 0.0069511860649901572 0.0300598404775629 0 0.0083848478089949136 0.045401127680312132 0 0.02154810738704192 0.043422304102800957 0 0.02154810738704192 0.043422304102800957 0 0.034057460475930348 0.051137863011422167 0 0.036240471408027143 0.031444899926276457 0 0.02154810738704192 0.043422304102800957 0 0.034057460475930348 0.051137863011422167 0 0.02496771558918293 0.070802169745180527 0 0.02154810738704192 0.043422304102800957 0 0.02496771558918293 0.070802169745180527 0 0.0094236310279546421 0.058915403939540451 0 0.02154810738704192 0.043422304102800957 0 0.02496771558918293 0.070802169745180527 0 0.039016848815392413 0.061694350942109788 0 0.034057460475930348 0.051137863011422167 0 0.02496771558918293 0.070802169745180527 0 0.039016848815392413 0.061694350942109788 0 0.04851415918000733 0.048325590340743123 0 0.049180964140182609 0.061772125910157308 0 0.039016848815392413 0.061694350942109788 0 0.034057460475930348 0.051137863011422167 0 0.04851415918000733 0.048325590340743123 0 0.036240471408027143 0.031444899926276457 0 0.049441922355923533 0.033260324049087027 0 0.04851415918000733 0.048325590340743123 0 0.034057460475930348 0.051137863011422167 0 0.036240471408027143 0.031444899926276457 0 0.04851415918000733 0.048325590340743123 0 0.049441922355923533 0.033260324049087027 0 0.06217882763591645 0.041749894930329733 0 0.072811075236522818 0.023161790777025432 0 0.049441922355923533 0.033260324049087027 0 0.06217882763591645 0.041749894930329733 0 0.04851415918000733 0.048325590340743123 0 0.057469657818100053 0.056484462076641172 0 0.071951324340616685 0.05729293389698005 0 0.052733588780563362 0.071295473401761775 0 0.06217882763591645 0.041749894930329733 0 0.04851415918000733 0.048325590340743123 0 0.062296647309772239 0.051140722330638683 0 0.04851415918000733 0.048325590340743123 0 0.062296647309772239 0.051140722330638683 0 0.057469657818100053 0.056484462076641172 0 0.04851415918000733 0.048325590340743123 0 0.057469657818100053 0.056484462076641172 0 0.049180964140182609 0.061772125910157308 0 0.035117134206933388 0.0082609407808874047 0 0.05014437405546638 0.017056028073235641 0 0.049204038009894972 -0.0054557019415801163 0 0.036240471408027143 0.031444899926276457 0 0.049441922355923533 0.033260324049087027 0 0.05014437405546638 0.017056028073235641 0 0.036240471408027143 0.031444899926276457 0 0.035117134206933388 0.0082609407808874047 0 0.05014437405546638 0.017056028073235641 0 0.049441922355923533 0.033260324049087027 0 0.05014437405546638 0.017056028073235641 0 0.072811075236522818 0.023161790777025432 0 0.05014437405546638 0.017056028073235641 0 0.065523571445864737 0.0048623888904800374 0 0.049204038009894972 -0.0054557019415801163 0 0.05014437405546638 0.017056028073235641 0 0.065523571445864737 0.0048623888904800374 0 0.072811075236522818 0.023161790777025432 0 0.065523571445864737 0.0048623888904800374 0 0.081625812361846267 0.0043142162544619559 0 0.072811075236522818 0.023161790777025432 0 0.081625812361846267 0.0043142162544619559 0 0.091300944540949613 0.018852543314897191 0 0.1040343233732574 0.0055112649514856022 0 0.081625812361846267 0.0043142162544619559 0 0.091300944540949613 0.018852543314897191 0 0.072811075236522818 0.023161790777025432 0 0.091300944540949613 0.018852543314897191 0 0.072811075236522818 0.023161790777025432 0 0.088503004393038848 0.031539091723656591 0 0.091300944540949613 0.018852543314897191 0 0.088503004393038848 0.031539091723656591 0 0.097582190672335409 0.027994785655253759 0 0.06217882763591645 0.041749894930329733 0 0.072811075236522818 0.023161790777025432 0 0.084140631963659479 0.048411488890395697 0 0.06217882763591645 0.041749894930329733 0 0.071369267574219547 0.051850730408499447 0 0.084140631963659479 0.048411488890395697 0 0.062296647309772239 0.051140722330638683 0 0.057469657818100053 0.056484462076641172 0 0.071951324340616685 0.05729293389698005 0 0.062296647309772239 0.051140722330638683 0 0.071369267574219547 0.051850730408499447 0 0.071951324340616685 0.05729293389698005 0 0.06217882763591645 0.041749894930329733 0 0.062296647309772239 0.051140722330638683 0 0.071369267574219547 0.051850730408499447 0 0.071951324340616685 0.05729293389698005 0 0.084140631963659479 0.048411488890395697 0 0.071369267574219547 0.051850730408499447 0 0.071951324340616685 0.05729293389698005 0 0.084140631963659479 0.048411488890395697 0 0.071369267574219547 0.051850730408499447 0 0.071951324340616685 0.05729293389698005 0 0.084140631963659479 0.048411488890395697 0 0.096759444974188744 0.058420556003493697 0 0.095051921202015444 0.072729012155571718 0 0.084140631963659479 0.048411488890395697 0 0.095051921202015444 0.072729012155571718 0 0.071951324340616685 0.05729293389698005 0 0.084140631963659479 0.048411488890395697 0 0.080563503688542537 0.069407964498132732 0 0.084140631963659479 0.048411488890395697 0 0.096759444974188744 0.058420556003493697 0 0.094722464204611126 0.048868170970764478 0 0.084140631963659479 0.048411488890395697 0 0.088503004393038848 0.031539091723656591 0 0.096680179551726572 0.039274849980710493 0 0.072811075236522818 0.023161790777025432 0 0.084140631963659479 0.048411488890395697 0 0.088503004393038848 0.031539091723656591 0 0.072811075236522818 0.023161790777025432 0 0.084140631963659479 0.048411488890395697 0 0.084140631963659479 0.048411488890395697 0 0.096680179551726572 0.039274849980710493 0 0.084140631963659479 0.048411488890395697 0 0.096680179551726572 0.039274849980710493 0 0.094722464204611126 0.048868170970764478 0 0.088503004393038848 0.031539091723656591 0 0.096680179551726572 0.039274849980710493 0 0.097582190672335409 0.027994785655253759 0 0.096680179551726572 0.039274849980710493 0 0.097582190672335409 0.027994785655253759 0 0.1092197271397934 0.03013821107102491 0 0.100973357432475 0.045415129869155607 0 0.096680179551726572 0.039274849980710493 0 0.094722464204611126 0.048868170970764478 0 0.100973357432475 0.045415129869155607 0 0.096680179551726572 0.039274849980710493 0 0.109820421749935 0.039812999415286751 0 0.100973357432475 0.045415129869155607 0 0.1026703642236272 0.0537044991098607 0 0.109820421749935 0.039812999415286751 0 0.096680179551726572 0.039274849980710493 0 0.1092197271397934 0.03013821107102491 0 0.096680179551726572 0.039274849980710493 0 0.109820421749935 0.039812999415286751 0 0.1092197271397934 0.03013821107102491 0 0.109820421749935 0.039812999415286751 0 0.1078918160951535 0.068429767418017026 0 0.1026703642236272 0.0537044991098607 0 0.109820421749935 0.039812999415286751 0 0.1078918160951535 0.068429767418017026 0 0.100973357432475 0.045415129869155607 0 0.094722464204611126 0.048868170970764478 0 0.1026703642236272 0.0537044991098607 0 0.096759444974188744 0.058420556003493697 0 0.094722464204611126 0.048868170970764478 0 0.1026703642236272 0.0537044991098607 0 0.096759444974188744 0.058420556003493697 0 0.1026703642236272 0.0537044991098607 0 0.1078918160951535 0.068429767418017026 0 0.11879537671154 0.054503452579204151 0 0.109820421749935 0.039812999415286751 0 0.1078918160951535 0.068429767418017026 0 0.11879537671154 0.054503452579204151 0 0.1212396523092672 0.04301610155105557 0 0.13219795414921851 0.050865807536204018 0 0.109820421749935 0.039812999415286751 0 0.1176326758284854 0.03447190472259002 0 0.1092197271397934 0.03013821107102491 0 0.11879537671154 0.054503452579204151 0 0.109820421749935 0.039812999415286751 0 0.1212396523092672 0.04301610155105557 0 0.109820421749935 0.039812999415286751 0 0.1212396523092672 0.04301610155105557 0 0.1176326758284854 0.03447190472259002 0 0.1212396523092672 0.04301610155105557 0 0.1176326758284854 0.03447190472259002 0 0.12819236272077719 0.032794415142888687 0 0.1176326758284854 0.03447190472259002 0 0.1171914316661455 0.01842873425314543 0 0.1092197271397934 0.03013821107102491 0 0.1176326758284854 0.03447190472259002 0 0.1171914316661455 0.01842873425314543 0 0.12819236272077719 0.032794415142888687 0 0.1171914316661455 0.01842873425314543 0 0.1092197271397934 0.03013821107102491 0 0.1042523051455497 0.01996356030681341 0 0.1171914316661455 0.01842873425314543 0 0.13405124018761799 0.0139311533632366 0 0.12282510645186411 -0.0073439745882975596 0 0.1171914316661455 0.01842873425314543 0 0.1040343233732574 0.0055112649514856022 0 0.12282510645186411 -0.0073439745882975596 0 0.1171914316661455 0.01842873425314543 0 0.1040343233732574 0.0055112649514856022 0 0.1042523051455497 0.01996356030681341 0 0.091300944540949613 0.018852543314897191 0 0.1040343233732574 0.0055112649514856022 0 0.1042523051455497 0.01996356030681341 0 0.091300944540949613 0.018852543314897191 0 0.097582190672335409 0.027994785655253759 0 0.1042523051455497 0.01996356030681341 0 0.097582190672335409 0.027994785655253759 0 0.1092197271397934 0.03013821107102491 0 0.1042523051455497 0.01996356030681341 0 0.10577014600408401 0.099911237268542077 0 0.093929720469173444 0.1079072519195161 0 0.090239211869349495 0.091490778099163825 0 0.10577014600408401 0.099911237268542077 0 0.093929720469173444 0.1079072519195161 0 0.10463459698087391 0.1167605827385602 0 0.107723901076272 0.1009705112741871 0 0.10577014600408401 0.099911237268542077 0 0.10463459698087391 0.1167605827385602 0 0.10577014600408401 0.099911237268542077 0 0.10463459698087391 0.1167605827385602 0 0.10577014600408401 0.099911237268542077 0 0.1059632104403728 0.097046535420747315 0 0.090239211869349495 0.091490778099163825 0 0.107723901076272 0.1009705112741871 0 0.1059632104403728 0.097046535420747315 0 0.107723901076272 0.1009705112741871 0 0.10577014600408401 0.099911237268542077 0 0.1059632104403728 0.097046535420747315 0 0.10577014600408401 0.099911237268542077 0 0.1059632104403728 0.097046535420747315 0 0.107723901076272 0.1009705112741871 0 0.10577014600408401 0.099911237268542077 0 0.10577014600408401 0.099911237268542077 0 0.090239211869349495 0.091490778099163825 0 0.10463459698087391 0.1167605827385602 0 0.091456264210061228 0.1217484887960897 0 0.1034990479576668 0.1336099282085785 0 0.107723901076272 0.1009705112741871 0 0.10463459698087391 0.1167605827385602 0 0.11461870130561071 0.1163366574117381 0 0.093929720469173444 0.1079072519195161 0 0.10463459698087391 0.1167605827385602 0 0.091456264210061228 0.1217484887960897 0 0.10873661379897009 0.1247631392450078 0 0.10463459698087391 0.1167605827385602 0 0.11461870130561071 0.1163366574117381 0 0.107723901076272 0.1009705112741871 0 0.11461870130561071 0.1163366574117381 0 0.12934176796694591 0.11269114339475091 0 0.10873661379897009 0.1247631392450078 0 0.11461870130561071 0.1163366574117381 0 0.1213978210768491 0.12325216397544481 0 0.11461870130561071 0.1163366574117381 0 0.1213978210768491 0.12325216397544481 0 0.12934176796694591 0.11269114339475091 0 0.107723901076272 0.1009705112741871 0 0.12934176796694591 0.11269114339475091 0 0.107723901076272 0.1009705112741871 0 0.12017825096638279 0.098157197119779993 0 0.12934176796694591 0.11269114339475091 0 0.107723901076272 0.1009705112741871 0 0.11461870130561071 0.1163366574117381 0 0.107723901076272 0.1009705112741871 0 0.1059632104403728 0.097046535420747315 0 0.12017825096638279 0.098157197119779993 0 0.1059632104403728 0.097046535420747315 0 0.12135635699018291 0.084570390640513346 0 0.1078918160951535 0.068429767418017026 0 0.1059632104403728 0.097046535420747315 0 0.12017825096638279 0.098157197119779993 0 0.12135635699018291 0.084570390640513346 0 0.11879537671154 0.054503452579204151 0 0.1078918160951535 0.068429767418017026 0 0.12711863179355451 0.067545840930336137 0 0.12135635699018291 0.084570390640513346 0 0.1078918160951535 0.068429767418017026 0 0.12711863179355451 0.067545840930336137 0 0.096759444974188744 0.058420556003493697 0 0.1078918160951535 0.068429767418017026 0 0.095051921202015444 0.072729012155571718 0 0.1059632104403728 0.097046535420747315 0 0.095051921202015444 0.072729012155571718 0 0.090239211869349495 0.091490778099163825 0 0.1059632104403728 0.097046535420747315 0 0.1078918160951535 0.068429767418017026 0 0.095051921202015444 0.072729012155571718 0 0.1059632104403728 0.097046535420747315 0 0.1078918160951535 0.068429767418017026 0 0.1059632104403728 0.097046535420747315 0 0.095051921202015444 0.072729012155571718 0 0.095051921202015444 0.072729012155571718 0 0.090239211869349495 0.091490778099163825 0 0.074708277734614803 0.083070318929785808 0 0.090239211869349495 0.091490778099163825 0 0.074708277734614803 0.083070318929785808 0 0.095051921202015444 0.072729012155571718 0 0.080563503688542537 0.069407964498132732 0 0.074708277734614803 0.083070318929785808 0 0.084140631963659479 0.048411488890395697 0 0.095051921202015444 0.072729012155571718 0 0.080563503688542537 0.069407964498132732 0 0.071951324340616685 0.05729293389698005 0 0.074708277734614803 0.083070318929785808 0 0.071951324340616685 0.05729293389698005 0 0.080563503688542537 0.069407964498132732 0 0.074708277734614803 0.083070318929785808 0 0.071951324340616685 0.05729293389698005 0 0.074708277734614803 0.083070318929785808 0 0.062392716991880877 0.076393149644119696 0 0.074708277734614803 0.083070318929785808 0 0.062392716991880877 0.076393149644119696 0 0.061811152058731049 0.087572209442648527 0 0.074708277734614803 0.083070318929785808 0 0.062392716991880877 0.076393149644119696 0 0.074708277734614803 0.083070318929785808 0 0.066102150742995566 0.096679648511579175 0 0.061811152058731049 0.087572209442648527 0 0.074708277734614803 0.083070318929785808 0 0.077548383281498032 0.1096251726952258 0 0.074708277734614803 0.083070318929785808 0 0.066102150742995566 0.096679648511579175 0 0.077548383281498032 0.1096251726952258 0 0.066102150742995566 0.096679648511579175 0 0.077548383281498032 0.1096251726952258 0 0.061158565733766872 0.10629209625441791 0 0.093929720469173444 0.1079072519195161 0 0.090239211869349495 0.091490778099163825 0 0.077548383281498032 0.1096251726952258 0 0.090239211869349495 0.091490778099163825 0 0.074708277734614803 0.083070318929785808 0 0.077548383281498032 0.1096251726952258 0 0.077548383281498032 0.1096251726952258 0 0.080388488828379512 0.13618002646066599 0 0.093929720469173444 0.1079072519195161 0 0.091456264210061228 0.1217484887960897 0 0.077548383281498032 0.1096251726952258 0 0.091456264210061228 0.1217484887960897 0 0.077548383281498032 0.1096251726952258 0 0.080388488828379512 0.13618002646066599 0 0.077548383281498032 0.1096251726952258 0 0.066417694472592617 0.11678337387639599 0 0.080388488828379512 0.13618002646066599 0 0.077548383281498032 0.1096251726952258 0 0.066417694472592617 0.11678337387639599 0 0.061158565733766872 0.10629209625441791 0 0.066417694472592617 0.11678337387639599 0 0.047752838076156892 0.120754109221166 0 0.061158565733766872 0.10629209625441791 0 0.047752838076156892 0.120754109221166 0 0.061158565733766872 0.10629209625441791 0 0.047562833637272858 0.105872143046586 0 0.066102150742995566 0.096679648511579175 0 0.061158565733766872 0.10629209625441791 0 0.054392522485254093 0.096818715842042852 0 0.054392522485254093 0.096818715842042852 0 0.047562833637272858 0.105872143046586 0 0.0436136150517627 0.095003892598601078 0 0.061158565733766872 0.10629209625441791 0 0.054392522485254093 0.096818715842042852 0 0.047562833637272858 0.105872143046586 0 0.047562833637272858 0.105872143046586 0 0.0436136150517627 0.095003892598601078 0 0.033739908219774267 0.1057944425683397 0 0.0436136150517627 0.095003892598601078 0 0.033739908219774267 0.1057944425683397 0 0.033515853220511448 0.085298012906545304 0 0.047752838076156892 0.120754109221166 0 0.033739908219774267 0.1057944425683397 0 0.028781987275410249 0.126119093684426 0 0.047752838076156892 0.120754109221166 0 0.047562833637272858 0.105872143046586 0 0.033739908219774267 0.1057944425683397 0 0.071951324340616685 0.05729293389698005 0 0.052733588780563362 0.071295473401761775 0 0.071951324340616685 0.05729293389698005 0 0.062392716991880877 0.076393149644119696 0 0.052733588780563362 0.071295473401761775 0 0.057469657818100053 0.056484462076641172 0 0.049180964140182609 0.061772125910157308 0 0.052733588780563362 0.071295473401761775 0 0.062392716991880877 0.076393149644119696 0 0.052733588780563362 0.071295473401761775 0 0.051460092338908123 0.084899214285715299 0 0.062392716991880877 0.076393149644119696 0 0.051460092338908123 0.084899214285715299 0 0.061811152058731049 0.087572209442648527 0 0.054392522485254093 0.096818715842042852 0 0.051460092338908123 0.084899214285715299 0 0.061811152058731049 0.087572209442648527 0 0.066102150742995566 0.096679648511579175 0 0.054392522485254093 0.096818715842042852 0 0.061811152058731049 0.087572209442648527 0 0.054392522485254093 0.096818715842042852 0 0.0436136150517627 0.095003892598601078 0 0.051460092338908123 0.084899214285715299 0 0.0436136150517627 0.095003892598601078 0 0.051460092338908123 0.084899214285715299 0 0.033515853220511448 0.085298012906545304 0 0.052733588780563362 0.071295473401761775 0 0.051460092338908123 0.084899214285715299 0 0.033515853220511448 0.085298012906545304 0 0.052733588780563362 0.071295473401761775 0 0.033515853220511448 0.085298012906545304 0 0.052733588780563362 0.071295473401761775 0 0.033515853220511448 0.085298012906545304 0 0.038356579664859773 0.071857487916493823 0 0.033515853220511448 0.085298012906545304 0 0.038356579664859773 0.071857487916493823 0 0.02496771558918293 0.070802169745180527 0 0.039016848815392413 0.061694350942109788 0 0.038356579664859773 0.071857487916493823 0 0.02496771558918293 0.070802169745180527 0 0.039016848815392413 0.061694350942109788 0 0.049180964140182609 0.061772125910157308 0 0.038356579664859773 0.071857487916493823 0 0.049180964140182609 0.061772125910157308 0 0.052733588780563362 0.071295473401761775 0 0.038356579664859773 0.071857487916493823 0 0.02496771558918293 0.070802169745180527 0 0.01698164187793445 0.083244910169821593 0 0.0093391268853680581 0.074428968719297023 0 0.033515853220511448 0.085298012906545304 0 0.02496771558918293 0.070802169745180527 0 0.01698164187793445 0.083244910169821593 0 0.033515853220511448 0.085298012906545304 0 0.01698164187793445 0.083244910169821593 0 0.01429811766045957 0.099300552411328818 0 0.033515853220511448 0.085298012906545304 0 0.01429811766045957 0.099300552411328818 0 0.01698164187793445 0.083244910169821593 0 0.0037128992863694719 0.087554214639535888 0 0.01429811766045957 0.099300552411328818 0 -0.0065392468501627218 0.073946880247965974 0 0.0037128992863694719 0.087554214639535888 0 0.0093391268853680581 0.074428968719297023 0 0.01698164187793445 0.083244910169821593 0 0.0037128992863694719 0.087554214639535888 0 0.0093391268853680581 0.074428968719297023 0 -0.0065392468501627218 0.073946880247965974 0 0.0094236310279546421 0.058915403939540451 0 0.0093391268853680581 0.074428968719297023 0 0.0094236310279546421 0.058915403939540451 0 0.02496771558918293 0.070802169745180527 0 0.0093391268853680581 0.074428968719297023 0 0.01004351340954676 0.11240294598950661 0 0.028781987275410249 0.126119093684426 0 0.021863995690743959 0.1089993149676502 0 0.01004351340954676 0.11240294598950661 0 0.028781987275410249 0.126119093684426 0 0.033739908219774267 0.1057944425683397 0 0.021863995690743959 0.1089993149676502 0 0.028781987275410249 0.126119093684426 0 0.01004351340954676 0.11240294598950661 0 0.01199519263195121 0.12852769413245599 0 0.028781987275410249 0.126119093684426 0 0.033739908219774267 0.1057944425683397 0 0.033515853220511448 0.085298012906545304 0 0.01429811766045957 0.099300552411328818 0 0.033739908219774267 0.1057944425683397 0 0.021863995690743959 0.1089993149676502 0 0.01429811766045957 0.099300552411328818 0 -0.0086949604563171488 0.098686798294587819 0 0.01004351340954676 0.11240294598950661 0 -0.0086949604563171488 0.098686798294587819 0 0.0048398924750147542 0.099486127833739654 0 0.01004351340954676 0.11240294598950661 0 0.021863995690743959 0.1089993149676502 0 0.01429811766045957 0.099300552411328818 0 0.01004351340954676 0.11240294598950661 0 0.01429811766045957 0.099300552411328818 0 0.0048398924750147542 0.099486127833739654 0 0.01004351340954676 0.11240294598950661 0 0.0037128992863694719 0.087554214639535888 0 0.01429811766045957 0.099300552411328818 0 0.0048398924750147542 0.099486127833739654 0 -0.0028245424118018142 0.1172602116382065 0 0.01004351340954676 0.11240294598950661 0 0.01199519263195121 0.12852769413245599 0 -0.0061957699440802691 0.13059493005026859 0 -0.0028245424118018142 0.1172602116382065 0 0.01199519263195121 0.12852769413245599 0 -0.0061957699440802691 0.13059493005026859 0 0.01199519263195121 0.12852769413245599 0 0.0107606121507319 0.14392326119354501 0 -0.0061957699440802691 0.13059493005026859 0 0.0107606121507319 0.14392326119354501 0 0.01199519263195121 0.12852769413245599 0 0.028781987275410249 0.126119093684426 0 0.02914053664600276 0.14187925128644491 0 0.01199519263195121 0.12852769413245599 0 0.02914053664600276 0.14187925128644491 0 0.0107606121507319 0.14392326119354501 0 0.02914053664600276 0.14187925128644491 0 0.0107606121507319 0.14392326119354501 0 0.02362024698764786 0.15403140044929581 0 0.02914053664600276 0.14187925128644491 0 0.0107606121507319 0.14392326119354501 0 0.02362024698764786 0.15403140044929581 0 0.02914053664600276 0.14187925128644491 0 0.037447563628434308 0.14837691387084709 0 0.02362024698764786 0.15403140044929581 0 0.0107606121507319 0.14392326119354501 0 0.02362024698764786 0.15403140044929581 0 0.0107606121507319 0.14392326119354501 0 0.011173398546453351 0.15942038856449381 0 -0.0032861824956104632 0.15848237531508319 0 0.0107606121507319 0.14392326119354501 0 0.011173398546453351 0.15942038856449381 0 -0.0032861824956104632 0.15848237531508319 0 0.0026961394843078119 0.16959424552817209 0 0.011173398546453351 0.15942038856449381 0 0.0026961394843078119 0.16959424552817209 0 0.011173398546453351 0.15942038856449381 0 0.01764377822560757 0.16931949934645571 0 -0.01014789215669795 0.1873388675034304 0 0.0026961394843078119 0.16959424552817209 0 0.0077234197069661233 0.18419146408424869 0 0.0026961394843078119 0.16959424552817209 0 0.0077234197069661233 0.18419146408424869 0 0.01764377822560757 0.16931949934645571 0 0.02409247381038503 0.18373416256555319 0 0.03647988182456513 0.164139539705045 0 0.0077234197069661233 0.18419146408424869 0 0.02409247381038503 0.18373416256555319 0 0.01764377822560757 0.16931949934645571 0 0.02409247381038503 0.18373416256555319 0 0.01764377822560757 0.16931949934645571 0 0.03647988182456513 0.164139539705045 0 0.02362024698764786 0.15403140044929581 0 0.01764377822560757 0.16931949934645571 0 0.03647988182456513 0.164139539705045 0 0.02362024698764786 0.15403140044929581 0 0.011173398546453351 0.15942038856449381 0 0.01764377822560757 0.16931949934645571 0 0.02362024698764786 0.15403140044929581 0 0.03647988182456513 0.164139539705045 0 0.03647988182456513 0.164139539705045 0 0.049321135458667037 0.17423323066890409 0 0.05343179966870857 0.16073218515813389 0 0.03647988182456513 0.164139539705045 0 0.049321135458667037 0.17423323066890409 0 0.03647988182456513 0.164139539705045 0 0.039481510229772428 0.18635161687995119 0 0.049321135458667037 0.17423323066890409 0 0.02409247381038503 0.18373416256555319 0 0.03647988182456513 0.164139539705045 0 0.039481510229772428 0.18635161687995119 0 0.049321135458667037 0.17423323066890409 0 0.06044724268150177 0.19604773601857689 0 0.070320237768311186 0.18311252994634891 0 0.049321135458667037 0.17423323066890409 0 0.064075796546363861 0.16878140576070139 0 0.070320237768311186 0.18311252994634891 0 0.039481510229772428 0.18635161687995119 0 0.049321135458667037 0.17423323066890409 0 0.06044724268150177 0.19604773601857689 0 0.049321135458667037 0.17423323066890409 0 0.05343179966870857 0.16073218515813389 0 0.064075796546363861 0.16878140576070139 0 0.05343179966870857 0.16073218515813389 0 0.067040501673529276 0.1541234785574529 0 0.064075796546363861 0.16878140576070139 0 0.050476691542682098 0.1419991365341044 0 0.067040501673529276 0.1541234785574529 0 0.050476691542682098 0.1419991365341044 0 0.0521716723850267 0.13931798561669809 0 0.067040501673529276 0.1541234785574529 0 0.05343179966870857 0.16073218515813389 0 0.050476691542682098 0.1419991365341044 0 0.067040501673529276 0.1541234785574529 0 0.050476691542682098 0.1419991365341044 0 0.047520461141273618 0.1398352413793455 0 0.050476691542682098 0.1419991365341044 0 0.0521716723850267 0.13931798561669809 0 0.047752838076156892 0.120754109221166 0 0.0521716723850267 0.13931798561669809 0 0.047520461141273618 0.1398352413793455 0 0.066417694472592617 0.11678337387639599 0 0.0521716723850267 0.13931798561669809 0 0.066417694472592617 0.11678337387639599 0 0.047752838076156892 0.120754109221166 0 0.0521716723850267 0.13931798561669809 0 0.0521716723850267 0.13931798561669809 0 0.047520461141273618 0.1398352413793455 0 0.050476691542682098 0.1419991365341044 0 0.0521716723850267 0.13931798561669809 0 0.047520461141273618 0.1398352413793455 0 0.047752838076156892 0.120754109221166 0 0.028781987275410249 0.126119093684426 0 0.047520461141273618 0.1398352413793455 0 0.028781987275410249 0.126119093684426 0 0.02914053664600276 0.14187925128644491 0 0.047520461141273618 0.1398352413793455 0 0.028781987275410249 0.126119093684426 0 0.047520461141273618 0.1398352413793455 0 0.03647988182456513 0.164139539705045 0 0.050476691542682098 0.1419991365341044 0 0.037447563628434308 0.14837691387084709 0 0.03647988182456513 0.164139539705045 0 0.050476691542682098 0.1419991365341044 0 0.03647988182456513 0.164139539705045 0 0.05343179966870857 0.16073218515813389 0 0.050476691542682098 0.1419991365341044 0 0.02914053664600276 0.14187925128644491 0 0.047520461141273618 0.1398352413793455 0 0.02362024698764786 0.15403140044929581 0 0.03647988182456513 0.164139539705045 0 0.037447563628434308 0.14837691387084709 0 0.02914053664600276 0.14187925128644491 0 0.047520461141273618 0.1398352413793455 0 0.037447563628434308 0.14837691387084709 0 0.050476691542682098 0.1419991365341044 0 0.047520461141273618 0.1398352413793455 0 0.037447563628434308 0.14837691387084709 0 0.01210992947877311 0.23723684743345411 0 0.01591800352680944 0.25266184638829969 0 0.033371124929654633 0.25067541080430228 0 0.01210992947877311 0.23723684743345411 0 0.033371124929654633 0.25067541080430228 0 0.01210992947877311 0.23723684743345411 0 0.026971615496806468 0.2232686653435241 0 0.033371124929654633 0.25067541080430228 0 0.0033435243420843392 0.24550581269512031 0 0.01210992947877311 0.23723684743345411 0 0.01591800352680944 0.25266184638829969 0 -0.001069103097690819 0.2352337777433495 0 0.0033435243420843392 0.24550581269512031 0 0.01210992947877311 0.23723684743345411 0 0.01210992947877311 0.23723684743345411 0 0.00023083505264562081 0.22276002696559249 0 0.026971615496806468 0.2232686653435241 0 -0.001069103097690819 0.2352337777433495 0 0.01210992947877311 0.23723684743345411 0 0.00023083505264562081 0.22276002696559249 0 0.011712399139053019 0.20712528728958629 0 0.036079820910277442 0.20158651165408159 0 0.026971615496806468 0.2232686653435241 0 0.011712399139053019 0.20712528728958629 0 0.036079820910277442 0.20158651165408159 0 0.00023083505264562081 0.22276002696559249 0 0.026971615496806468 0.2232686653435241 0 0.011712399139053019 0.20712528728958629 0 -0.0098054323372850343 0.2071541145266611 0 0.00023083505264562081 0.22276002696559249 0 0.011712399139053019 0.20712528728958629 0 0.0077234197069661233 0.18419146408424869 0 0.02409247381038503 0.18373416256555319 0 0.011712399139053019 0.20712528728958629 0 -0.01014789215669795 0.1873388675034304 0 0.0077234197069661233 0.18419146408424869 0 0.011712399139053019 0.20712528728958629 0 0.02409247381038503 0.18373416256555319 0 0.011712399139053019 0.20712528728958629 0 0.036079820910277442 0.20158651165408159 0 0.039481510229772428 0.18635161687995119 0 0.036079820910277442 0.20158651165408159 0 0.06044724268150177 0.19604773601857689 0 0.02409247381038503 0.18373416256555319 0 0.039481510229772428 0.18635161687995119 0 0.036079820910277442 0.20158651165408159 0 0.036079820910277442 0.20158651165408159 0 0.06044724268150177 0.19604773601857689 0 0.036079820910277442 0.20158651165408159 0 0.06044724268150177 0.19604773601857689 0 0.063483044822152709 0.2117733570994649 0 0.036079820910277442 0.20158651165408159 0 0.049241983416702537 0.22751679203340691 0 0.063483044822152709 0.2117733570994649 0 0.026971615496806468 0.2232686653435241 0 0.036079820910277442 0.20158651165408159 0 0.049241983416702537 0.22751679203340691 0 0.026971615496806468 0.2232686653435241 0 0.049241983416702537 0.22751679203340691 0 0.033371124929654633 0.25067541080430228 0 0.049241983416702537 0.22751679203340691 0 0.058328838893199828 0.24486311732509269 0 0.033371124929654633 0.25067541080430228 0 0.049241983416702537 0.22751679203340691 0 0.058328838893199828 0.24486311732509269 0 0.075151268053455622 0.2313676386934557 0 0.093649627678486516 0.24667326851556401 0 0.075151268053455622 0.2313676386934557 0 0.073189528411794241 0.25034404403557708 0 0.058328838893199828 0.24486311732509269 0 0.075151268053455622 0.2313676386934557 0 0.073189528411794241 0.25034404403557708 0 0.049241983416702537 0.22751679203340691 0 0.075151268053455622 0.2313676386934557 0 0.063483044822152709 0.2117733570994649 0 0.075151268053455622 0.2313676386934557 0 0.08500678235776557 0.2078556916800896 0 0.097271802425649243 0.22501157726732521 0 0.093649627678486516 0.24667326851556401 0 0.075151268053455622 0.2313676386934557 0 0.097271802425649243 0.22501157726732521 0 0.075151268053455622 0.2313676386934557 0 0.08500678235776557 0.2078556916800896 0 0.063483044822152709 0.2117733570994649 0 0.08500678235776557 0.2078556916800896 0 0.063483044822152709 0.2117733570994649 0 0.075412599875980701 0.20088577873455751 0 0.06044724268150177 0.19604773601857689 0 0.08481466445272598 0.1905089603830723 0 0.06044724268150177 0.19604773601857689 0 0.063483044822152709 0.2117733570994649 0 0.075412599875980701 0.20088577873455751 0 0.06044724268150177 0.19604773601857689 0 0.08481466445272598 0.1905089603830723 0 0.070320237768311186 0.18311252994634891 0 0.06044724268150177 0.19604773601857689 0 0.075412599875980701 0.20088577873455751 0 0.08481466445272598 0.1905089603830723 0 0.085907702630118626 0.18778441685605529 0 0.08481466445272598 0.1905089603830723 0 0.1091820862239507 0.18497018474756979 0 0.08500678235776557 0.2078556916800896 0 0.075412599875980701 0.20088577873455751 0 0.086397726760049226 0.19889433104238041 0 0.075412599875980701 0.20088577873455751 0 0.08481466445272598 0.1905089603830723 0 0.086397726760049226 0.19889433104238041 0 0.086397726760049226 0.19889433104238041 0 0.094293658231340366 0.19331653663782361 0 0.096780155488636443 0.19889267037827069 0 0.08500678235776557 0.2078556916800896 0 0.086397726760049226 0.19889433104238041 0 0.096780155488636443 0.19889267037827069 0 0.08481466445272598 0.1905089603830723 0 0.086397726760049226 0.19889433104238041 0 0.094293658231340366 0.19331653663782361 0 0.08481466445272598 0.1905089603830723 0 0.094293658231340366 0.19331653663782361 0 0.1091820862239507 0.18497018474756979 0 0.08481466445272598 0.1905089603830723 0 0.1091820862239507 0.18497018474756979 0 0.096780155488636443 0.19889267037827069 0 0.111064519155083 0.20092564539228561 0 0.1091820862239507 0.18497018474756979 0 0.094293658231340366 0.19331653663782361 0 0.096780155488636443 0.19889267037827069 0 0.1091820862239507 0.18497018474756979 0 0.096780155488636443 0.19889267037827069 0 0.111064519155083 0.20092564539228561 0 0.1008453307243844 0.2088744216204261 0 0.1091820862239507 0.18497018474756979 0 0.13016365725124379 0.20032822986596641 0 0.111064519155083 0.20092564539228561 0 0.1091820862239507 0.18497018474756979 0 0.13016365725124379 0.20032822986596641 0 0.1091820862239507 0.18497018474756979 0 0.1246574238361096 0.18145260197979779 0 0.13016365725124379 0.20032822986596641 0 0.111064519155083 0.20092564539228561 0 0.1136051687387328 0.2163328823572167 0 0.13016365725124379 0.20032822986596641 0 0.1136051687387328 0.2163328823572167 0 0.13122443958997659 0.22473052344458869 0 0.13016365725124379 0.20032822986596641 0 0.08500678235776557 0.2078556916800896 0 0.1008453307243844 0.2088744216204261 0 0.097271802425649243 0.22501157726732521 0 0.1136051687387328 0.2163328823572167 0 0.1008453307243844 0.2088744216204261 0 0.097271802425649243 0.22501157726732521 0 0.08500678235776557 0.2078556916800896 0 0.096780155488636443 0.19889267037827069 0 0.1008453307243844 0.2088744216204261 0 0.111064519155083 0.20092564539228561 0 0.1136051687387328 0.2163328823572167 0 0.1008453307243844 0.2088744216204261 0 0.1136051687387328 0.2163328823572167 0 0.097271802425649243 0.22501157726732521 0 0.11106126328605991 0.23812689655270849 0 0.1136051687387328 0.2163328823572167 0 0.11106126328605991 0.23812689655270849 0 0.13122443958997659 0.22473052344458869 0 0.11106126328605991 0.23812689655270849 0 0.1337942598672309 0.24999146204144321 0 0.1127245953623645 0.25546607531009391 0 0.11106126328605991 0.23812689655270849 0 0.1337942598672309 0.24999146204144321 0 0.093649627678486516 0.24667326851556401 0 0.11106126328605991 0.23812689655270849 0 0.1127245953623645 0.25546607531009391 0 0.093649627678486516 0.24667326851556401 0 0.097271802425649243 0.22501157726732521 0 0.11106126328605991 0.23812689655270849 0 0.091114149257719393 0.14572427777583449 0 0.080388488828379512 0.13618002646066599 0 0.083604311804375608 0.16624782058080251 0 0.080388488828379512 0.13618002646066599 0 0.083604311804375608 0.16624782058080251 0 0.091456264210061228 0.1217484887960897 0 0.080388488828379512 0.13618002646066599 0 0.1034990479576668 0.1336099282085785 0 0.080388488828379512 0.13618002646066599 0 0.1034990479576668 0.1336099282085785 0 0.091114149257719393 0.14572427777583449 0 0.080388488828379512 0.13618002646066599 0 0.1034990479576668 0.1336099282085785 0 0.066417694472592617 0.11678337387639599 0 0.0521716723850267 0.13931798561669809 0 0.080388488828379512 0.13618002646066599 0 0.0521716723850267 0.13931798561669809 0 0.080388488828379512 0.13618002646066599 0 0.080388488828379512 0.13618002646066599 0 0.067040501673529276 0.1541234785574529 0 0.083604311804375608 0.16624782058080251 0 0.0521716723850267 0.13931798561669809 0 0.080388488828379512 0.13618002646066599 0 0.067040501673529276 0.1541234785574529 0 0.067040501673529276 0.1541234785574529 0 0.064075796546363861 0.16878140576070139 0 0.083604311804375608 0.16624782058080251 0 0.067040501673529276 0.1541234785574529 0 0.083604311804375608 0.16624782058080251 0 0.064075796546363861 0.16878140576070139 0 0.070320237768311186 0.18311252994634891 0 0.083604311804375608 0.16624782058080251 0 0.085907702630118626 0.18778441685605529 0 0.083604311804375608 0.16624782058080251 0 0.096393199014163225 0.17560900266418611 0 0.085907702630118626 0.18778441685605529 0 0.070320237768311186 0.18311252994634891 0 0.083604311804375608 0.16624782058080251 0 0.085907702630118626 0.18778441685605529 0 0.083604311804375608 0.16624782058080251 0 0.085907702630118626 0.18778441685605529 0 0.08481466445272598 0.1905089603830723 0 0.070320237768311186 0.18311252994634891 0 0.091114149257719393 0.14572427777583449 0 0.083604311804375608 0.16624782058080251 0 0.094937729783130309 0.1573925412057425 0 0.083604311804375608 0.16624782058080251 0 0.096393199014163225 0.17560900266418611 0 0.083604311804375608 0.16624782058080251 0 0.097644391619902182 0.16563432166600289 0 0.096393199014163225 0.17560900266418611 0 0.083604311804375608 0.16624782058080251 0 0.094937729783130309 0.1573925412057425 0 0.097644391619902182 0.16563432166600289 0 0.094937729783130309 0.1573925412057425 0 0.097644391619902182 0.16563432166600289 0 0.1036698109006592 0.15785742467767119 0 0.097644391619902182 0.16563432166600289 0 0.1075245813634045 0.16950655194772341 0 0.096393199014163225 0.17560900266418611 0 0.097644391619902182 0.16563432166600289 0 0.1075245813634045 0.16950655194772341 0 0.1036698109006592 0.15785742467767119 0 0.1075245813634045 0.16950655194772341 0 0.1036698109006592 0.15785742467767119 0 0.1110122416877916 0.1617951949512913 0 0.085907702630118626 0.18778441685605529 0 0.096393199014163225 0.17560900266418611 0 0.1091820862239507 0.18497018474756979 0 0.1075245813634045 0.16950655194772341 0 0.096393199014163225 0.17560900266418611 0 0.1091820862239507 0.18497018474756979 0 0.096393199014163225 0.17560900266418611 0 0.1091820862239507 0.18497018474756979 0 0.1151728035585603 0.1751904374311892 0 0.1246574238361096 0.18145260197979779 0 0.1193271228107772 0.16483241104966459 0 0.1091820862239507 0.18497018474756979 0 0.1246574238361096 0.18145260197979779 0 0.1091820862239507 0.18497018474756979 0 0.1151728035585603 0.1751904374311892 0 0.1246574238361096 0.18145260197979779 0 0.1075245813634045 0.16950655194772341 0 0.1091820862239507 0.18497018474756979 0 0.1151728035585603 0.1751904374311892 0 0.1110122416877916 0.1617951949512913 0 0.1193271228107772 0.16483241104966459 0 0.11352745167632559 0.15498439213010601 0 0.1036698109006592 0.15785742467767119 0 0.1110122416877916 0.1617951949512913 0 0.11352745167632559 0.15498439213010601 0 0.1075245813634045 0.16950655194772341 0 0.1110122416877916 0.1617951949512913 0 0.1193271228107772 0.16483241104966459 0 0.1075245813634045 0.16950655194772341 0 0.1151728035585603 0.1751904374311892 0 0.1193271228107772 0.16483241104966459 0 0.1193271228107772 0.16483241104966459 0 0.1231561859428634 0.15680574017246671 0 0.11352745167632559 0.15498439213010601 0 0.1193271228107772 0.16483241104966459 0 0.1231561859428634 0.15680574017246671 0 0.13206619296676389 0.1645803653300624 0 0.1231561859428634 0.15680574017246671 0 0.1198649882177613 0.1487622099034559 0 0.13099517404268909 0.15086932244904441 0 0.1231561859428634 0.15680574017246671 0 0.1198649882177613 0.1487622099034559 0 0.11352745167632559 0.15498439213010601 0 0.1198649882177613 0.1487622099034559 0 0.1246690576436681 0.1416098970372574 0 0.1162483876830455 0.14249334282884091 0 0.1198649882177613 0.1487622099034559 0 0.1162483876830455 0.14249334282884091 0 0.1121319224560554 0.14615146402396961 0 0.1162483876830455 0.14249334282884091 0 0.1121319224560554 0.14615146402396961 0 0.1112792456411681 0.13954810344549831 0 0.1121319224560554 0.14615146402396961 0 0.1062160749053289 0.14202690675194701 0 0.1112792456411681 0.13954810344549831 0 0.1121319224560554 0.14615146402396961 0 0.11352745167632559 0.15498439213010601 0 0.10565538661270291 0.14909382908396979 0 0.1198649882177613 0.1487622099034559 0 0.1121319224560554 0.14615146402396961 0 0.11352745167632559 0.15498439213010601 0 0.1036698109006592 0.15785742467767119 0 0.11352745167632559 0.15498439213010601 0 0.10565538661270291 0.14909382908396979 0 0.1036698109006592 0.15785742467767119 0 0.10565538661270291 0.14909382908396979 0 0.099094036831901933 0.15119011257367229 0 0.10565538661270291 0.14909382908396979 0 0.1009692106031093 0.1452649926156854 0 0.099094036831901933 0.15119011257367229 0 0.1121319224560554 0.14615146402396961 0 0.10565538661270291 0.14909382908396979 0 0.1062160749053289 0.14202690675194701 0 0.1062160749053289 0.14202690675194701 0 0.1009692106031093 0.1452649926156854 0 0.1032044569067989 0.13798108813827481 0 0.10565538661270291 0.14909382908396979 0 0.1062160749053289 0.14202690675194701 0 0.1009692106031093 0.1452649926156854 0 0.091114149257719393 0.14572427777583449 0 0.1009692106031093 0.1452649926156854 0 0.1032044569067989 0.13798108813827481 0 0.091114149257719393 0.14572427777583449 0 0.1009692106031093 0.1452649926156854 0 0.099094036831901933 0.15119011257367229 0 0.091114149257719393 0.14572427777583449 0 0.094937729783130309 0.1573925412057425 0 0.099094036831901933 0.15119011257367229 0 0.094937729783130309 0.1573925412057425 0 0.1036698109006592 0.15785742467767119 0 0.099094036831901933 0.15119011257367229 0 0.10463459698087391 0.1167605827385602 0 0.1034990479576668 0.1336099282085785 0 0.10873661379897009 0.1247631392450078 0 0.10463459698087391 0.1167605827385602 0 0.1034990479576668 0.1336099282085785 0 0.091114149257719393 0.14572427777583449 0 0.1034990479576668 0.1336099282085785 0 0.1032044569067989 0.13798108813827481 0 0.1034990479576668 0.1336099282085785 0 0.1032044569067989 0.13798108813827481 0 0.1034990479576668 0.1336099282085785 0 0.1032044569067989 0.13798108813827481 0 0.10682890764757789 0.13677114770450921 0 0.1034990479576668 0.1336099282085785 0 0.10682890764757789 0.13677114770450921 0 0.1060059071747894 0.1333311433269096 0 0.1034990479576668 0.1336099282085785 0 0.1060059071747894 0.1333311433269096 0 0.1062160749053289 0.14202690675194701 0 0.1032044569067989 0.13798108813827481 0 0.10682890764757789 0.13677114770450921 0 0.1062160749053289 0.14202690675194701 0 0.10682890764757789 0.13677114770450921 0 0.1112792456411681 0.13954810344549831 0 0.10682890764757789 0.13677114770450921 0 0.1060059071747894 0.1333311433269096 0 0.1108119552265084 0.13436498483403689 0 0.10873661379897009 0.1247631392450078 0 0.1034990479576668 0.1336099282085785 0 0.1090158840100731 0.1295712988734363 0 0.1060059071747894 0.1333311433269096 0 0.1090158840100731 0.1295712988734363 0 0.1108119552265084 0.13436498483403689 0 0.1034990479576668 0.1336099282085785 0 0.1060059071747894 0.1333311433269096 0 0.1090158840100731 0.1295712988734363 0 0.10873661379897009 0.1247631392450078 0 0.1213978210768491 0.12325216397544481 0 0.1153377617021303 0.13008094563601921 0 0.10873661379897009 0.1247631392450078 0 0.1090158840100731 0.1295712988734363 0 0.1153377617021303 0.13008094563601921 0 0.1090158840100731 0.1295712988734363 0 0.1153377617021303 0.13008094563601921 0 0.1108119552265084 0.13436498483403689 0 0.10682890764757789 0.13677114770450921 0 0.1112792456411681 0.13954810344549831 0 0.1108119552265084 0.13436498483403689 0 0.1112792456411681 0.13954810344549831 0 0.1108119552265084 0.13436498483403689 0 0.1172787442337721 0.1367445595057579 0 0.1153377617021303 0.13008094563601921 0 0.1108119552265084 0.13436498483403689 0 0.1172787442337721 0.1367445595057579 0 0.1162483876830455 0.14249334282884091 0 0.1112792456411681 0.13954810344549831 0 0.1172787442337721 0.1367445595057579 0 0.1246690576436681 0.1416098970372574 0 0.1162483876830455 0.14249334282884091 0 0.1172787442337721 0.1367445595057579 0 0.1246690576436681 0.1416098970372574 0 0.1172787442337721 0.1367445595057579 0 0.1253260575061122 0.1323700832528947 0 0.1153377617021303 0.13008094563601921 0 0.1172787442337721 0.1367445595057579 0 0.1253260575061122 0.1323700832528947 0 0.1213978210768491 0.12325216397544481 0 0.1153377617021303 0.13008094563601921 0 0.1253260575061122 0.1323700832528947 0 0.13775703202670961 0.13844629651333179 0 0.13295646268684719 0.12623429253034751 0 0.15095963485761929 0.12441177551531531 0 0.1253260575061122 0.1323700832528947 0 0.13775703202670961 0.13844629651333179 0 0.13295646268684719 0.12623429253034751 0 0.1213978210768491 0.12325216397544481 0 0.1253260575061122 0.1323700832528947 0 0.13295646268684719 0.12623429253034751 0 0.1246690576436681 0.1416098970372574 0 0.1253260575061122 0.1323700832528947 0 0.13775703202670961 0.13844629651333179 0 0.13775703202670961 0.13844629651333179 0 0.1567035714336909 0.14765993881320191 0 0.15095963485761929 0.12441177551531531 0 0.13775703202670961 0.13844629651333179 0 0.1425653931893763 0.1532769900751309 0 0.1567035714336909 0.14765993881320191 0 0.1425653931893763 0.1532769900751309 0 0.1523822781703813 0.15945238659630259 0 0.1567035714336909 0.14765993881320191 0 0.1425653931893763 0.1532769900751309 0 0.13099517404268909 0.15086932244904441 0 0.13206619296676389 0.1645803653300624 0 0.13775703202670961 0.13844629651333179 0 0.1425653931893763 0.1532769900751309 0 0.13099517404268909 0.15086932244904441 0 0.1246690576436681 0.1416098970372574 0 0.13775703202670961 0.13844629651333179 0 0.13099517404268909 0.15086932244904441 0 0.1198649882177613 0.1487622099034559 0 0.1246690576436681 0.1416098970372574 0 0.13099517404268909 0.15086932244904441 0 0.1231561859428634 0.15680574017246671 0 0.13099517404268909 0.15086932244904441 0 0.13206619296676389 0.1645803653300624 0 0.1246574238361096 0.18145260197979779 0 0.1193271228107772 0.16483241104966459 0 0.13206619296676389 0.1645803653300624 0 0.13206619296676389 0.1645803653300624 0 0.14013276144826911 0.17793501921202801 0 0.1442344902657102 0.1654782804607639 0 0.1425653931893763 0.1532769900751309 0 0.13206619296676389 0.1645803653300624 0 0.1442344902657102 0.1654782804607639 0 0.1246574238361096 0.18145260197979779 0 0.14013276144826911 0.17793501921202801 0 0.1412307683720273 0.19183948388148539 0 0.1246574238361096 0.18145260197979779 0 0.13206619296676389 0.1645803653300624 0 0.14013276144826911 0.17793501921202801 0 0.1246574238361096 0.18145260197979779 0 0.14013276144826911 0.17793501921202801 0 0.14013276144826911 0.17793501921202801 0 0.15402582555376049 0.17214664109029551 0 0.15738588283191091 0.1898563663825778 0 0.14013276144826911 0.17793501921202801 0 0.1412307683720273 0.19183948388148539 0 0.15738588283191091 0.1898563663825778 0 0.1425653931893763 0.1532769900751309 0 0.1442344902657102 0.1654782804607639 0 0.1523822781703813 0.15945238659630259 0 0.14013276144826911 0.17793501921202801 0 0.15402582555376049 0.17214664109029551 0 0.1442344902657102 0.1654782804607639 0 0.15402582555376049 0.17214664109029551 0 0.1442344902657102 0.1654782804607639 0 0.1523822781703813 0.15945238659630259 0 0.1523822781703813 0.15945238659630259 0 0.16296594221498231 0.16343081989406291 0 0.1567035714336909 0.14765993881320191 0 0.16296594221498231 0.16343081989406291 0 0.17623705906762849 0.15774729038290641 0 0.1567035714336909 0.14765993881320191 0 0.16296594221498231 0.16343081989406291 0 0.16837621479738851 0.17668413820608669 0 0.17623705906762849 0.15774729038290641 0 0.15402582555376049 0.17214664109029551 0 0.16296594221498231 0.16343081989406291 0 0.16837621479738851 0.17668413820608669 0 0.15402582555376049 0.17214664109029551 0 0.1523822781703813 0.15945238659630259 0 0.16296594221498231 0.16343081989406291 0 0.15402582555376049 0.17214664109029551 0 0.16837621479738851 0.17668413820608669 0 0.15738588283191091 0.1898563663825778 0 0.16837621479738851 0.17668413820608669 0 0.15738588283191091 0.1898563663825778 0 0.17605549706991591 0.18994443209428291 0 0.18334675306663481 0.17622969664030799 0 0.17605549706991591 0.18994443209428291 0 0.19532952003379059 0.18521506413521369 0 0.16837621479738851 0.17668413820608669 0 0.18334675306663481 0.17622969664030799 0 0.17605549706991591 0.18994443209428291 0 0.16837621479738851 0.17668413820608669 0 0.18334675306663481 0.17622969664030799 0 0.17623705906762849 0.15774729038290641 0 0.18334675306663481 0.17622969664030799 0 0.17623705906762849 0.15774729038290641 0 0.19476244433637799 0.1665340519458291 0 0.17623705906762849 0.15774729038290641 0 0.17257750174829289 0.13613240763587969 0 0.19419536863896639 0.14785303975644451 0 0.17257750174829289 0.13613240763587969 0 0.19419536863896639 0.14785303975644451 0 0.1818687681156913 0.12763350460132089 0 0.17257750174829289 0.13613240763587969 0 0.19419536863896639 0.14785303975644451 0 0.1818687681156913 0.12763350460132089 0 0.17257750174829289 0.13613240763587969 0 0.16965409176979829 0.1223647242333188 0 0.17257750174829289 0.13613240763587969 0 0.15095963485761929 0.12441177551531531 0 0.17257750174829289 0.13613240763587969 0 0.1567035714336909 0.14765993881320191 0 0.15095963485761929 0.12441177551531531 0 0.17257750174829289 0.13613240763587969 0 0.15095963485761929 0.12441177551531531 0 0.16965409176979829 0.1223647242333188 0 0.17623705906762849 0.15774729038290641 0 0.17257750174829289 0.13613240763587969 0 0.1567035714336909 0.14765993881320191 0 0.14959044496937851 0.23688666639755759 0 0.1337942598672309 0.24999146204144321 0 0.15652725644840129 0.26185602753017878 0 0.14959044496937851 0.23688666639755759 0 0.1337942598672309 0.24999146204144321 0 0.13122443958997659 0.22473052344458869 0 0.11106126328605991 0.23812689655270849 0 0.1337942598672309 0.24999146204144321 0 0.13122443958997659 0.22473052344458869 0 0.14959044496937851 0.23688666639755759 0 0.13122443958997659 0.22473052344458869 0 0.1511452282785378 0.21568627498436191 0 0.1511452282785378 0.21568627498436191 0 0.13016365725124379 0.20032822986596641 0 0.13122443958997659 0.22473052344458869 0 0.1511452282785378 0.21568627498436191 0 0.13016365725124379 0.20032822986596641 0 0.1246574238361096 0.18145260197979779 0 0.13016365725124379 0.20032822986596641 0 0.1412307683720273 0.19183948388148539 0 0.1511452282785378 0.21568627498436191 0 0.1412307683720273 0.19183948388148539 0 0.15738588283191091 0.1898563663825778 0 0.1511452282785378 0.21568627498436191 0 0.13016365725124379 0.20032822986596641 0 0.1412307683720273 0.19183948388148539 0 0.15738588283191091 0.1898563663825778 0 0.17605549706991591 0.18994443209428291 0 0.1680883134312017 0.2069322171365931 0 0.17605549706991591 0.18994443209428291 0 0.18372815966981229 0.2081296921189858 0 0.1680883134312017 0.2069322171365931 0 0.17605549706991591 0.18994443209428291 0 0.18372815966981229 0.2081296921189858 0 0.19532952003379059 0.18521506413521369 0 0.18372815966981229 0.2081296921189858 0 0.1680883134312017 0.2069322171365931 0 0.17212679930583191 0.23104432010275691 0 0.1511452282785378 0.21568627498436191 0 0.1680883134312017 0.2069322171365931 0 0.17212679930583191 0.23104432010275691 0 0.1511452282785378 0.21568627498436191 0 0.15738588283191091 0.1898563663825778 0 0.1680883134312017 0.2069322171365931 0 0.14959044496937851 0.23688666639755759 0 0.1511452282785378 0.21568627498436191 0 0.17212679930583191 0.23104432010275691 0 0.1511452282785378 0.21568627498436191 0 0.17212679930583191 0.23104432010275691 0 0.18372815966981229 0.2081296921189858 0 0.18622317689028151 0.22439565309748391 0 0.17212679930583191 0.23104432010275691 0 0.18372815966981229 0.2081296921189858 0 0.17212679930583191 0.23104432010275691 0 0.18622317689028151 0.22439565309748391 0 0.17212679930583191 0.23104432010275691 0 0.18236044891295111 0.23853512487555209 0 0.17212679930583191 0.23104432010275691 0 0.18236044891295111 0.23853512487555209 0 0.16432702787711759 0.24645017381646839 0 0.18236044891295111 0.23853512487555209 0 0.16432702787711759 0.24645017381646839 0 0.1773186989433643 0.25563234473147572 0 0.17212679930583191 0.23104432010275691 0 0.18236044891295111 0.23853512487555209 0 0.14959044496937851 0.23688666639755759 0 0.16432702787711759 0.24645017381646839 0 0.15652725644840129 0.26185602753017878 0 0.14959044496937851 0.23688666639755759 0 0.17212679930583191 0.23104432010275691 0 0.16432702787711759 0.24645017381646839 0 0.17212679930583191 0.23104432010275691 0 0.16432702787711759 0.24645017381646839 0 0.21579211715261479 0.23782211043815199 0 0.19682381103061011 0.23444106421501129 0 0.21019685046771899 0.25079609985483631 0 0.21579211715261479 0.23782211043815199 0 0.2253267238992222 0.24953808168636099 0 0.21019685046771899 0.25079609985483631 0 0.19682381103061011 0.23444106421501129 0 0.19757095652901999 0.25905406425491012 0 0.21019685046771899 0.25079609985483631 0 0.19682381103061011 0.23444106421501129 0 0.19757095652901999 0.25905406425491012 0 0.18236044891295111 0.23853512487555209 0 0.19682381103061011 0.23444106421501129 0 0.19757095652901999 0.25905406425491012 0 0.19682381103061011 0.23444106421501129 0 0.19607666553220029 0.20982806417511249 0 0.18622317689028151 0.22439565309748391 0 0.19682381103061011 0.23444106421501129 0 0.19607666553220029 0.20982806417511249 0 0.18622317689028151 0.22439565309748391 0 0.18236044891295111 0.23853512487555209 0 0.19682381103061011 0.23444106421501129 0 0.19682381103061011 0.23444106421501129 0 0.21692606969725781 0.21575403636306531 0 0.19607666553220029 0.20982806417511249 0 0.21579211715261479 0.23782211043815199 0 0.19682381103061011 0.23444106421501129 0 0.21692606969725781 0.21575403636306531 0 0.21692606969725781 0.21575403636306531 0 0.19607666553220029 0.20982806417511249 0 0.2091542564201776 0.1938842988415207 0 0.18372815966981229 0.2081296921189858 0 0.18622317689028151 0.22439565309748391 0 0.19607666553220029 0.20982806417511249 0 0.18372815966981229 0.2081296921189858 0 0.19607666553220029 0.20982806417511249 0 0.19532952003379059 0.18521506413521369 0 0.19607666553220029 0.20982806417511249 0 0.19532952003379059 0.18521506413521369 0 0.19607666553220029 0.20982806417511249 0 0.2091542564201776 0.1938842988415207 0 0.19532952003379059 0.18521506413521369 0 0.18372815966981229 0.2081296921189858 0 0.19532952003379059 0.18521506413521369 0 0.21692606969725781 0.21575403636306531 0 0.2091542564201776 0.1938842988415207 0 0.22322858884141561 0.19541778200980461 0 0.2091542564201776 0.1938842988415207 0 0.22322858884141561 0.19541778200980461 0 0.21729508652043239 0.17982200165475681 0 0.22322858884141561 0.19541778200980461 0 0.2364762708639935 0.18817588444957051 0 0.23384850873885829 0.2046032858362575 0 0.22322858884141561 0.19541778200980461 0 0.2364762708639935 0.18817588444957051 0 0.22619236665138259 0.18482926798443111 0 0.2364762708639935 0.18817588444957051 0 0.24828978234282939 0.19779669924652041 0 0.23384850873885829 0.2046032858362575 0 0.2364762708639935 0.18817588444957051 0 0.24828978234282939 0.19779669924652041 0 0.25149728978901681 0.18628903406191061 0 0.24828978234282939 0.19779669924652041 0 0.2468767086260967 0.21195937714617599 0 0.23384850873885829 0.2046032858362575 0 0.2468767086260967 0.21195937714617599 0 0.23312831691735789 0.21854293867144109 0 0.23384850873885829 0.2046032858362575 0 0.21692606969725781 0.21575403636306531 0 0.22322858884141561 0.19541778200980461 0 0.23384850873885829 0.2046032858362575 0 0.21692606969725781 0.21575403636306531 0 0.23312831691735789 0.21854293867144109 0 0.23384850873885829 0.2046032858362575 0 0.21579211715261479 0.23782211043815199 0 0.21692606969725781 0.21575403636306531 0 0.23025523132522949 0.23320747179975751 0 0.21692606969725781 0.21575403636306531 0 0.23312831691735789 0.21854293867144109 0 0.23025523132522949 0.23320747179975751 0 0.2468767086260967 0.21195937714617599 0 0.23312831691735789 0.21854293867144109 0 0.24654155350719351 0.22732013598330689 0 0.23312831691735789 0.21854293867144109 0 0.23025523132522949 0.23320747179975751 0 0.24654155350719351 0.22732013598330689 0 0.23025523132522949 0.23320747179975751 0 0.24654155350719351 0.22732013598330689 0 0.24398959813062701 0.2460479105434944 0 0.23025523132522949 0.23320747179975751 0 0.24398959813062701 0.2460479105434944 0 0.2253267238992222 0.24953808168636099 0 0.21579211715261479 0.23782211043815199 0 0.23025523132522949 0.23320747179975751 0 0.2253267238992222 0.24953808168636099 0 0.19419536863896639 0.14785303975644451 0 0.21976972121417451 0.16171877312280769 0 0.20919590297267471 0.14473816090562491 0 0.19419536863896639 0.14785303975644451 0 0.21976972121417451 0.16171877312280769 0 0.20919590297267471 0.14473816090562491 0 0.21976972121417451 0.16171877312280769 0 0.22264621419091479 0.1434200899747641 0 0.20017230784664269 0.12596074076848371 0 0.22264621419091479 0.1434200899747641 0 0.21723541400908039 0.12794501989941889 0 0.20017230784664269 0.12596074076848371 0 0.2241627709276135 0.13776211110206851 0 0.20017230784664269 0.12596074076848371 0 0.22264621419091479 0.1434200899747641 0 0.2241627709276135 0.13776211110206851 0 0.21723541400908039 0.12794501989941889 0 0.20017230784664269 0.12596074076848371 0 0.2083807263190198 0.1213882122441349 0 0.20919590297267471 0.14473816090562491 0 0.20017230784664269 0.12596074076848371 0 0.22264621419091479 0.1434200899747641 0 0.20017230784664269 0.12596074076848371 0 0.2241627709276135 0.13776211110206851 0 0.1818687681156913 0.12763350460132089 0 0.19419536863896639 0.14785303975644451 0 0.19343013404313739 0.122644135764236 0 0.19419536863896639 0.14785303975644451 0 0.19343013404313739 0.122644135764236 0 0.20017230784664269 0.12596074076848371 0 0.19419536863896639 0.14785303975644451 0 0.19343013404313739 0.122644135764236 0 0.20919590297267471 0.14473816090562491 0 0.20017230784664269 0.12596074076848371 0 0.19419536863896639 0.14785303975644451 0 0.19419536863896639 0.14785303975644451 0 0.19476244433637799 0.1665340519458291 0 0.20490979920017849 0.1662924097058173 0 0.19419536863896639 0.14785303975644451 0 0.19476244433637799 0.1665340519458291 0 0.17623705906762849 0.15774729038290641 0 0.19419536863896639 0.14785303975644451 0 0.19476244433637799 0.1665340519458291 0 0.18334675306663481 0.17622969664030799 0 0.19476244433637799 0.1665340519458291 0 0.19532952003379059 0.18521506413521369 0 0.19532952003379059 0.18521506413521369 0 0.2076376856299465 0.1786741363359968 0 0.20490979920017849 0.1662924097058173 0 0.19532952003379059 0.18521506413521369 0 0.20490979920017849 0.1662924097058173 0 0.19476244433637799 0.1665340519458291 0 0.19532952003379059 0.18521506413521369 0 0.20490979920017849 0.1662924097058173 0 0.19476244433637799 0.1665340519458291 0 0.19532952003379059 0.18521506413521369 0 0.2091542564201776 0.1938842988415207 0 0.19532952003379059 0.18521506413521369 0 0.2076376856299465 0.1786741363359968 0 0.2076376856299465 0.1786741363359968 0 0.20490979920017849 0.1662924097058173 0 0.21463592144310781 0.1709674905923266 0 0.2076376856299465 0.1786741363359968 0 0.21729508652043239 0.17982200165475681 0 0.21463592144310781 0.1709674905923266 0 0.2091542564201776 0.1938842988415207 0 0.2076376856299465 0.1786741363359968 0 0.21729508652043239 0.17982200165475681 0 0.19419536863896639 0.14785303975644451 0 0.20490979920017849 0.1662924097058173 0 0.21976972121417451 0.16171877312280769 0 0.20490979920017849 0.1662924097058173 0 0.21463592144310781 0.1709674905923266 0 0.21976972121417451 0.16171877312280769 0 0.21976972121417451 0.16171877312280769 0 0.24534407378938231 0.1755845064891712 0 0.21976972121417451 0.16171877312280769 0 0.22776952037968909 0.17590140382359221 0 0.24534407378938231 0.1755845064891712 0 0.21463592144310781 0.1709674905923266 0 0.21976972121417451 0.16171877312280769 0 0.22776952037968909 0.17590140382359221 0 0.21729508652043239 0.17982200165475681 0 0.22619236665138259 0.18482926798443111 0 0.22776952037968909 0.17590140382359221 0 0.22322858884141561 0.19541778200980461 0 0.21729508652043239 0.17982200165475681 0 0.22619236665138259 0.18482926798443111 0 0.21729508652043239 0.17982200165475681 0 0.21463592144310781 0.1709674905923266 0 0.22776952037968909 0.17590140382359221 0 0.2364762708639935 0.18817588444957051 0 0.22619236665138259 0.18482926798443111 0 0.22776952037968909 0.17590140382359221 0 0.2364762708639935 0.18817588444957051 0 0.22776952037968909 0.17590140382359221 0 0.24534407378938231 0.1755845064891712 0 0.2364762708639935 0.18817588444957051 0 0.24534407378938231 0.1755845064891712 0 0.25149728978901681 0.18628903406191061 0 0.21976972121417451 0.16171877312280769 0 0.24534407378938231 0.1755845064891712 0 0.24512012053518681 0.1608794391810448 0 0.24815323400858449 0.14956348143565321 0 0.2241627709276135 0.13776211110206851 0 0.23954775909403089 0.13677191589741211 0 0.24815323400858449 0.14956348143565321 0 0.2241627709276135 0.13776211110206851 0 0.24512012053518681 0.1608794391810448 0 0.24815323400858449 0.14956348143565321 0 0.22264621419091479 0.1434200899747641 0 0.24815323400858449 0.14956348143565321 0 0.23954775909403089 0.13677191589741211 0 0.25182091587038291 0.13921848903949871 0 0.21976972121417451 0.16171877312280769 0 0.24512012053518681 0.1608794391810448 0 0.22264621419091479 0.1434200899747641 0 0.24815323400858449 0.14956348143565321 0 0.22264621419091479 0.1434200899747641 0 0.2241627709276135 0.13776211110206851 0 0.24512012053518681 0.1608794391810448 0 0.22264621419091479 0.1434200899747641 0 0.21723541400908039 0.12794501989941889 0 0.22719380431294339 0.126823393682785 0 0.2185514520315871 0.1222930536834306 0 0.21723541400908039 0.12794501989941889 0 0.22484980732208959 0.13127277140323421 0 0.2241627709276135 0.13776211110206851 0 0.21723541400908039 0.12794501989941889 0 0.22484980732208959 0.13127277140323421 0 0.22719380431294339 0.126823393682785 0 0.2241627709276135 0.13776211110206851 0 0.23080724003872119 0.13256056092866461 0 0.23954775909403089 0.13677191589741211 0 0.22484980732208959 0.13127277140323421 0 0.2241627709276135 0.13776211110206851 0 0.23080724003872119 0.13256056092866461 0 0.22719380431294339 0.126823393682785 0 0.23680886569706311 0.1287213066742012 0 0.23759630441296101 0.12008530744583711 0 0.23080724003872119 0.13256056092866461 0 0.22719380431294339 0.126823393682785 0 0.23680886569706311 0.1287213066742012 0 0.22484980732208959 0.13127277140323421 0 0.23080724003872119 0.13256056092866461 0 0.22719380431294339 0.126823393682785 0 0.23680886569706311 0.1287213066742012 0 0.2488992206266587 0.1273653554163072 0 0.23759630441296101 0.12008530744583711 0 0.23680886569706311 0.1287213066742012 0 0.23954775909403089 0.13677191589741211 0 0.2488992206266587 0.1273653554163072 0 0.23080724003872119 0.13256056092866461 0 0.23680886569706311 0.1287213066742012 0 0.23954775909403089 0.13677191589741211 0 0.23954775909403089 0.13677191589741211 0 0.2488992206266587 0.1273653554163072 0 0.25182091587038291 0.13921848903949871 0 0.2488992206266587 0.1273653554163072 0 0.24848955125739691 0.1112316272798903 0 0.23759630441296101 0.12008530744583711 0 0.24848955125739691 0.1112316272798903 0 0.2358132417607002 0.1094114255335845 0 0.23759630441296101 0.12008530744583711 0 0.24848955125739691 0.1112316272798903 0 0.2358132417607002 0.1094114255335845 0 0.24093893683224391 0.096778397730709384 0 0.2358132417607002 0.1094114255335845 0 0.24093893683224391 0.096778397730709384 0 0.22698107160607331 0.1034209591028304 0 0.24093893683224391 0.096778397730709384 0 0.22698107160607331 0.1034209591028304 0 0.2261643250953668 0.091525459176369464 0 0.22698107160607331 0.1034209591028304 0 0.22506034469482569 0.1155408361086553 0 0.21633570740182911 0.107005810722199 0 0.22698107160607331 0.1034209591028304 0 0.21633570740182911 0.107005810722199 0 0.21573193669657609 0.096800543120782859 0 0.22698107160607331 0.1034209591028304 0 0.21573193669657609 0.096800543120782859 0 0.2261643250953668 0.091525459176369464 0 0.22719380431294339 0.126823393682785 0 0.23759630441296101 0.12008530744583711 0 0.22506034469482569 0.1155408361086553 0 0.2358132417607002 0.1094114255335845 0 0.22698107160607331 0.1034209591028304 0 0.22506034469482569 0.1155408361086553 0 0.2358132417607002 0.1094114255335845 0 0.23759630441296101 0.12008530744583711 0 0.22506034469482569 0.1155408361086553 0 0.22506034469482569 0.1155408361086553 0 0.2185514520315871 0.1222930536834306 0 0.21286641356840991 0.1154842113516628 0 0.22719380431294339 0.126823393682785 0 0.22506034469482569 0.1155408361086553 0 0.2185514520315871 0.1222930536834306 0 0.2185514520315871 0.1222930536834306 0 0.2083807263190198 0.1213882122441349 0 0.21286641356840991 0.1154842113516628 0 0.21723541400908039 0.12794501989941889 0 0.2185514520315871 0.1222930536834306 0 0.2083807263190198 0.1213882122441349 0 0.2083807263190198 0.1213882122441349 0 0.19978376778860241 0.1201118975847804 0 0.202990113011527 0.1154865850553275 0 0.2083807263190198 0.1213882122441349 0 0.21286641356840991 0.1154842113516628 0 0.202990113011527 0.1154865850553275 0 0.21286641356840991 0.1154842113516628 0 0.20632611928312811 0.1088788236608537 0 0.202990113011527 0.1154865850553275 0 0.21286641356840991 0.1154842113516628 0 0.21633570740182911 0.107005810722199 0 0.20632611928312811 0.1088788236608537 0 0.22506034469482569 0.1155408361086553 0 0.21286641356840991 0.1154842113516628 0 0.21633570740182911 0.107005810722199 0 0.21633570740182911 0.107005810722199 0 0.21573193669657609 0.096800543120782859 0 0.2101100334118475 0.10208674042154629 0 0.2048941114801493 0.09714829492176684 0 0.2101100334118475 0.10208674042154629 0 0.19908009688856379 0.1021458447390878 0 0.21573193669657609 0.096800543120782859 0 0.2048941114801493 0.09714829492176684 0 0.20598654233977351 0.089635944665196088 0 0.21573193669657609 0.096800543120782859 0 0.2048941114801493 0.09714829492176684 0 0.2101100334118475 0.10208674042154629 0 0.2048941114801493 0.09714829492176684 0 0.20024214521020631 0.094617904721872897 0 0.20598654233977351 0.089635944665196088 0 0.2101100334118475 0.10208674042154629 0 0.20632611928312811 0.1088788236608537 0 0.19908009688856379 0.1021458447390878 0 0.21633570740182911 0.107005810722199 0 0.2101100334118475 0.10208674042154629 0 0.20632611928312811 0.1088788236608537 0 0.1926797718288249 0.097925168374160501 0 0.18862324180311749 0.1169885944058774 0 0.18559679172479029 0.1034861868523267 0 0.19609527982444569 0.1092076530727603 0 0.1926797718288249 0.097925168374160501 0 0.19337040604752179 0.1206765335212663 0 0.1926797718288249 0.097925168374160501 0 0.19337040604752179 0.1206765335212663 0 0.19908009688856379 0.1021458447390878 0 0.19609527982444569 0.1092076530727603 0 0.1926797718288249 0.097925168374160501 0 0.20632611928312811 0.1088788236608537 0 0.19908009688856379 0.1021458447390878 0 0.19609527982444569 0.1092076530727603 0 0.2048941114801493 0.09714829492176684 0 0.19908009688856379 0.1021458447390878 0 0.20024214521020631 0.094617904721872897 0 0.19908009688856379 0.1021458447390878 0 0.20024214521020631 0.094617904721872897 0 0.1926797718288249 0.097925168374160501 0 0.1926797718288249 0.097925168374160501 0 0.18862324180311749 0.1169885944058774 0 0.19337040604752179 0.1206765335212663 0 0.18862324180311749 0.1169885944058774 0 0.19337040604752179 0.1206765335212663 0 0.19343013404313739 0.122644135764236 0 0.19337040604752179 0.1206765335212663 0 0.18862324180311749 0.1169885944058774 0 0.19343013404313739 0.122644135764236 0 0.19337040604752179 0.1206765335212663 0 0.20017230784664269 0.12596074076848371 0 0.2083807263190198 0.1213882122441349 0 0.19978376778860241 0.1201118975847804 0 0.19337040604752179 0.1206765335212663 0 0.19978376778860241 0.1201118975847804 0 0.19805989166802421 0.1163706673085336 0 0.20017230784664269 0.12596074076848371 0 0.19343013404313739 0.122644135764236 0 0.19337040604752179 0.1206765335212663 0 0.20017230784664269 0.12596074076848371 0 0.19343013404313739 0.122644135764236 0 0.20017230784664269 0.12596074076848371 0 0.19337040604752179 0.1206765335212663 0 0.19978376778860241 0.1201118975847804 0 0.20017230784664269 0.12596074076848371 0 0.19337040604752179 0.1206765335212663 0 0.19978376778860241 0.1201118975847804 0 0.202990113011527 0.1154865850553275 0 0.19805989166802421 0.1163706673085336 0 0.20632611928312811 0.1088788236608537 0 0.19609527982444569 0.1092076530727603 0 0.202990113011527 0.1154865850553275 0 0.19609527982444569 0.1092076530727603 0 0.19337040604752179 0.1206765335212663 0 0.19805989166802421 0.1163706673085336 0 0.19609527982444569 0.1092076530727603 0 0.202990113011527 0.1154865850553275 0 0.19805989166802421 0.1163706673085336 0 0.19198913761012809 0.075173803227054636 0 0.18844764755811069 0.077954312466137723 0 0.1912985033914312 0.052422438079948751 0 0.18844764755811069 0.077954312466137723 0 0.1912985033914312 0.052422438079948751 0 0.18519237097864141 0.060501067620797433 0 0.19198913761012809 0.075173803227054636 0 0.1912985033914312 0.052422438079948751 0 0.1942047550235059 0.062272377808867303 0 0.18844764755811069 0.077954312466137723 0 0.1912985033914312 0.052422438079948751 0 0.19198913761012809 0.075173803227054636 0 0.1912985033914312 0.052422438079948751 0 0.1992526226206445 0.073355863038734745 0 0.19812641064295389 0.067595601984917167 0 0.19198913761012809 0.075173803227054636 0 0.1992526226206445 0.073355863038734745 0 0.19198913761012809 0.075173803227054636 0 0.19902608767890209 0.078620913413361623 0 0.20290087493454501 0.076406499570024891 0 0.1992526226206445 0.073355863038734745 0 0.19902608767890209 0.078620913413361623 0 0.20290087493454501 0.076406499570024891 0 0.1992526226206445 0.073355863038734745 0 0.20422060223669319 0.068982496998315393 0 0.1992526226206445 0.073355863038734745 0 0.19812641064295389 0.067595601984917167 0 0.20422060223669319 0.068982496998315393 0 0.19901050619008259 0.062928796887229493 0 0.19812641064295389 0.067595601984917167 0 0.20422060223669319 0.068982496998315393 0 0.19901050619008259 0.062928796887229493 0 0.19812641064295389 0.067595601984917167 0 0.1942047550235059 0.062272377808867303 0 0.19812641064295389 0.067595601984917167 0 0.19198913761012809 0.075173803227054636 0 0.1942047550235059 0.062272377808867303 0 0.1926797718288249 0.097925168374160501 0 0.18844764755811069 0.077954312466137723 0 0.18559679172479029 0.1034861868523267 0 0.1926797718288249 0.097925168374160501 0 0.19198913761012809 0.075173803227054636 0 0.1926797718288249 0.097925168374160501 0 0.19198913761012809 0.075173803227054636 0 0.18844764755811069 0.077954312466137723 0 0.1926797718288249 0.097925168374160501 0 0.19198913761012809 0.075173803227054636 0 0.19857020351371979 0.086234270909153171 0 0.20024214521020631 0.094617904721872897 0 0.19857020351371979 0.086234270909153171 0 0.20598654233977351 0.089635944665196088 0 0.20024214521020631 0.094617904721872897 0 0.1926797718288249 0.097925168374160501 0 0.19857020351371979 0.086234270909153171 0 0.19857020351371979 0.086234270909153171 0 0.20442287258010691 0.082108185427761757 0 0.20598654233977351 0.089635944665196088 0 0.19198913761012809 0.075173803227054636 0 0.19857020351371979 0.086234270909153171 0 0.19902608767890209 0.078620913413361623 0 0.19857020351371979 0.086234270909153171 0 0.19902608767890209 0.078620913413361623 0 0.20442287258010691 0.082108185427761757 0 0.20290087493454501 0.076406499570024891 0 0.19902608767890209 0.078620913413361623 0 0.20442287258010691 0.082108185427761757 0 0.20290087493454501 0.076406499570024891 0 0.20442287258010691 0.082108185427761757 0 0.21055423164808099 0.078290661676317819 0 0.20442287258010691 0.082108185427761757 0 0.21055423164808099 0.078290661676317819 0 0.214019284122973 0.086390145390384782 0 0.20442287258010691 0.082108185427761757 0 0.20598654233977351 0.089635944665196088 0 0.214019284122973 0.086390145390384782 0 0.21573193669657609 0.096800543120782859 0 0.20598654233977351 0.089635944665196088 0 0.214019284122973 0.086390145390384782 0 0.21573193669657609 0.096800543120782859 0 0.214019284122973 0.086390145390384782 0 0.2261643250953668 0.091525459176369464 0 0.21055423164808099 0.078290661676317819 0 0.214019284122973 0.086390145390384782 0 0.22330098833544471 0.081424739072791977 0 0.21055423164808099 0.078290661676317819 0 0.2146576492577649 0.069059494145492895 0 0.22330098833544471 0.081424739072791977 0 0.21055423164808099 0.078290661676317819 0 0.20422060223669319 0.068982496998315393 0 0.2146576492577649 0.069059494145492895 0 0.20290087493454501 0.076406499570024891 0 0.21055423164808099 0.078290661676317819 0 0.20422060223669319 0.068982496998315393 0 0.19901050619008259 0.062928796887229493 0 0.20422060223669319 0.068982496998315393 0 0.20694183703277499 0.062463573943399381 0 0.20422060223669319 0.068982496998315393 0 0.2146576492577649 0.069059494145492895 0 0.20694183703277499 0.062463573943399381 0 0.2146576492577649 0.069059494145492895 0 0.20694183703277499 0.062463573943399381 0 0.21647330487688829 0.0593067728377678 0 0.2146576492577649 0.069059494145492895 0 0.22664703507606429 0.063782221180677195 0 0.22330098833544471 0.081424739072791977 0 0.22664703507606429 0.063782221180677195 0 0.22330098833544471 0.081424739072791977 0 0.23670109202582951 0.072408714728560433 0 0.2146576492577649 0.069059494145492895 0 0.22664703507606429 0.063782221180677195 0 0.21647330487688829 0.0593067728377678 0 0.214019284122973 0.086390145390384782 0 0.2261643250953668 0.091525459176369464 0 0.22330098833544471 0.081424739072791977 0 0.22330098833544471 0.081424739072791977 0 0.23601373297888981 0.084337970640717408 0 0.23670109202582951 0.072408714728560433 0 0.2261643250953668 0.091525459176369464 0 0.22330098833544471 0.081424739072791977 0 0.23601373297888981 0.084337970640717408 0 0.24093893683224391 0.096778397730709384 0 0.2261643250953668 0.091525459176369464 0 0.23601373297888981 0.084337970640717408 0 0.24093893683224391 0.096778397730709384 0 0.23601373297888981 0.084337970640717408 0 0.24961641041208221 0.079201354345002056 0 0.23601373297888981 0.084337970640717408 0 0.24961641041208221 0.079201354345002056 0 0.23670109202582951 0.072408714728560433 0 0.24961641041208221 0.079201354345002056 0 0.23670109202582951 0.072408714728560433 0 0.2442044530661836 0.057548197832841243 0 0.22664703507606429 0.063782221180677195 0 0.23670109202582951 0.072408714728560433 0 0.2442044530661836 0.057548197832841243 0 0.2442044530661836 0.057548197832841243 0 0.2353520974601048 0.039205011774048719 0 0.24995965013082411 0.044676572322646747 0 0.2442044530661836 0.057548197832841243 0 0.2353520974601048 0.039205011774048719 0 0.22493259566839899 0.050357278542202129 0 0.2353520974601048 0.039205011774048719 0 0.24995965013082411 0.044676572322646747 0 0.24739028788927561 0.025315163976028111 0 0.2353520974601048 0.039205011774048719 0 0.22418912502344379 0.016731953109310652 0 0.2140280978748989 0.038771938621363647 0 0.2353520974601048 0.039205011774048719 0 0.22493259566839899 0.050357278542202129 0 0.2140280978748989 0.038771938621363647 0 0.22664703507606429 0.063782221180677195 0 0.2442044530661836 0.057548197832841243 0 0.22493259566839899 0.050357278542202129 0 0.22664703507606429 0.063782221180677195 0 0.22493259566839899 0.050357278542202129 0 0.21647330487688829 0.0593067728377678 0 0.24732928016819311 0.003842864563858316 0 0.24739028788927561 0.025315163976028111 0 0.22418912502344379 0.016731953109310652 0 0.2353520974601048 0.039205011774048719 0 0.24739028788927561 0.025315163976028111 0 0.22418912502344379 0.016731953109310652 0 0.22418912502344379 0.016731953109310652 0 0.20792237099143179 0.004933202875899512 0 0.2247972256564893 -0.014434078866188469 0 0.24732928016819311 0.003842864563858316 0 0.22418912502344379 0.016731953109310652 0 0.2247972256564893 -0.014434078866188469 0 0.22418912502344379 0.016731953109310652 0 0.20792237099143179 0.004933202875899512 0 0.1945317909177359 0.023465557829747529 0 0.22418912502344379 0.016731953109310652 0 0.1945317909177359 0.023465557829747529 0 0.2140280978748989 0.038771938621363647 0 0.20792237099143179 0.004933202875899512 0 0.1945317909177359 0.023465557829747529 0 0.1881713423680581 -0.0060306205692716641 0 0.22493259566839899 0.050357278542202129 0 0.20840942871355281 0.052413684480124761 0 0.21647330487688829 0.0593067728377678 0 0.22493259566839899 0.050357278542202129 0 0.20840942871355281 0.052413684480124761 0 0.2140280978748989 0.038771938621363647 0 0.20840942871355281 0.052413684480124761 0 0.20694183703277499 0.062463573943399381 0 0.20008355147323159 0.057630806939375938 0 0.20840942871355281 0.052413684480124761 0 0.20694183703277499 0.062463573943399381 0 0.21647330487688829 0.0593067728377678 0 0.1945317909177359 0.023465557829747529 0 0.2140280978748989 0.038771938621363647 0 0.20099393292471679 0.04406891758431275 0 0.20840942871355281 0.052413684480124761 0 0.2140280978748989 0.038771938621363647 0 0.20099393292471679 0.04406891758431275 0 0.1945317909177359 0.023465557829747529 0 0.19161704885480321 0.049569588538401703 0 0.18250677848117211 0.03577707349874245 0 0.1945317909177359 0.023465557829747529 0 0.20099393292471679 0.04406891758431275 0 0.19161704885480321 0.049569588538401703 0 0.1945317909177359 0.023465557829747529 0 0.19161704885480321 0.049569588538401703 0 0.20099393292471679 0.04406891758431275 0 0.1912985033914312 0.052422438079948751 0 0.19161704885480321 0.049569588538401703 0 0.1912985033914312 0.052422438079948751 0 0.19161704885480321 0.049569588538401703 0 0.1867251455639094 0.053606595933594257 0 0.1912985033914312 0.052422438079948751 0 0.19874062066647341 0.052221788855174027 0 0.19489903500363681 0.055559767795651208 0 0.1912985033914312 0.052422438079948751 0 0.19161704885480321 0.049569588538401703 0 0.20099393292471679 0.04406891758431275 0 0.1912985033914312 0.052422438079948751 0 0.19874062066647341 0.052221788855174027 0 0.20840942871355281 0.052413684480124761 0 0.20099393292471679 0.04406891758431275 0 0.19874062066647341 0.052221788855174027 0 0.20840942871355281 0.052413684480124761 0 0.19874062066647341 0.052221788855174027 0 0.20008355147323159 0.057630806939375938 0 0.19901050619008259 0.062928796887229493 0 0.20694183703277499 0.062463573943399381 0 0.20008355147323159 0.057630806939375938 0 0.19874062066647341 0.052221788855174027 0 0.20008355147323159 0.057630806939375938 0 0.19489903500363681 0.055559767795651208 0 0.20008355147323159 0.057630806939375938 0 0.19704946192261419 0.059597937357780982 0 0.19489903500363681 0.055559767795651208 0 0.19901050619008259 0.062928796887229493 0 0.19704946192261419 0.059597937357780982 0 0.1942047550235059 0.062272377808867303 0 0.19704946192261419 0.059597937357780982 0 0.1942047550235059 0.062272377808867303 0 0.19489903500363681 0.055559767795651208 0 0.19901050619008259 0.062928796887229493 0 0.20008355147323159 0.057630806939375938 0 0.19704946192261419 0.059597937357780982 0 0.1912985033914312 0.052422438079948751 0 0.1942047550235059 0.062272377808867303 0 0.19489903500363681 0.055559767795651208 0 0.1912985033914312 0.052422438079948751 0 0.18519237097864141 0.060501067620797433 0 0.1867251455639094 0.053606595933594257 0 0.18519237097864141 0.060501067620797433 0 0.1787512025954735 0.057687277528472899 0 0.1825183718132535 0.066185498531427842 0 0.18519237097864141 0.060501067620797433 0 0.18333608960702569 0.055529332268491147 0 0.1867251455639094 0.053606595933594257 0 0.18519237097864141 0.060501067620797433 0 0.18333608960702569 0.055529332268491147 0 0.1787512025954735 0.057687277528472899 0 0.1787512025954735 0.057687277528472899 0 0.17196294834453801 0.050602948455505788 0 0.17074942444343141 0.065440776890090938 0 0.1787512025954735 0.057687277528472899 0 0.17196294834453801 0.050602948455505788 0 0.1826756392900786 0.050322387991100018 0 0.19161704885480321 0.049569588538401703 0 0.1826756392900786 0.050322387991100018 0 0.1867251455639094 0.053606595933594257 0 0.18333608960702569 0.055529332268491147 0 0.1787512025954735 0.057687277528472899 0 0.1826756392900786 0.050322387991100018 0 0.18333608960702569 0.055529332268491147 0 0.1826756392900786 0.050322387991100018 0 0.1867251455639094 0.053606595933594257 0 0.17196294834453801 0.050602948455505788 0 0.18250677848117211 0.03577707349874245 0 0.16499669533003741 0.035489563982753658 0 0.19161704885480321 0.049569588538401703 0 0.1826756392900786 0.050322387991100018 0 0.18250677848117211 0.03577707349874245 0 0.17196294834453801 0.050602948455505788 0 0.1826756392900786 0.050322387991100018 0 0.18250677848117211 0.03577707349874245 0 0.17196294834453801 0.050602948455505788 0 0.16499669533003741 0.035489563982753658 0 0.16166621628774369 0.048884809624986321 0 0.16499669533003741 0.035489563982753658 0 0.16166621628774369 0.048884809624986321 0 0.14527737392337189 0.035206281314770722 0 0.16166621628774369 0.048884809624986321 0 0.16016311517887161 0.060547271663374917 0 0.1486030894432635 0.052176765216145587 0 0.17196294834453801 0.050602948455505788 0 0.16016311517887161 0.060547271663374917 0 0.17074942444343141 0.065440776890090938 0 0.17196294834453801 0.050602948455505788 0 0.16166621628774369 0.048884809624986321 0 0.16016311517887161 0.060547271663374917 0 0.1945317909177359 0.023465557829747529 0 0.16869778916343911 0.016139441201673429 0 0.1881713423680581 -0.0060306205692716641 0 0.16869778916343911 0.016139441201673429 0 0.16671696224836291 -0.0096910931753822552 0 0.1881713423680581 -0.0060306205692716641 0 0.1945317909177359 0.023465557829747529 0 0.18250677848117211 0.03577707349874245 0 0.16869778916343911 0.016139441201673429 0 0.18250677848117211 0.03577707349874245 0 0.16499669533003741 0.035489563982753658 0 0.16869778916343911 0.016139441201673429 0 0.16499669533003741 0.035489563982753658 0 0.16869778916343911 0.016139441201673429 0 0.14527737392337189 0.035206281314770722 0 0.16869778916343911 0.016139441201673429 0 0.14914929414019731 0.0058972064670669688 0 0.16671696224836291 -0.0096910931753822552 0 0.14914929414019731 0.0058972064670669688 0 0.13405124018761799 0.0139311533632366 0 0.14527737392337189 0.035206281314770722 0 0.16869778916343911 0.016139441201673429 0 0.14914929414019731 0.0058972064670669688 0 0.14527737392337189 0.035206281314770722 0 0.13405124018761799 0.0139311533632366 0 0.14527737392337189 0.035206281314770722 0 0.12819236272077719 0.032794415142888687 0 0.1171914316661455 0.01842873425314543 0 0.13405124018761799 0.0139311533632366 0 0.12819236272077719 0.032794415142888687 0 0.13405124018761799 0.0139311533632366 0 0.14527737392337189 0.035206281314770722 0 0.14914929414019731 0.0058972064670669688 0 0.13405124018761799 0.0139311533632366 0 0.12282510645186411 -0.0073439745882975596 0 0.13405124018761799 0.0139311533632366 0 0.12282510645186411 -0.0073439745882975596 0 0.1486030894432635 0.052176765216145587 0 0.13219795414921851 0.050865807536204018 0 0.14371078767711179 0.065379655941391973 0 0.16016311517887161 0.060547271663374917 0 0.1486030894432635 0.052176765216145587 0 0.14371078767711179 0.065379655941391973 0 0.16166621628774369 0.048884809624986321 0 0.1486030894432635 0.052176765216145587 0 0.14527737392337189 0.035206281314770722 0 0.1486030894432635 0.052176765216145587 0 0.14527737392337189 0.035206281314770722 0 0.13219795414921851 0.050865807536204018 0 0.1212396523092672 0.04301610155105557 0 0.12819236272077719 0.032794415142888687 0 0.13219795414921851 0.050865807536204018 0 0.14527737392337189 0.035206281314770722 0 0.12819236272077719 0.032794415142888687 0 0.13219795414921851 0.050865807536204018 0 0.13219795414921851 0.050865807536204018 0 0.12711863179355451 0.067545840930336137 0 0.14371078767711179 0.065379655941391973 0 0.11879537671154 0.054503452579204151 0 0.13219795414921851 0.050865807536204018 0 0.12711863179355451 0.067545840930336137 0 0.12711863179355451 0.067545840930336137 0 0.14371078767711179 0.065379655941391973 0 0.13875949913812019 0.081525971466686414 0 0.12135635699018291 0.084570390640513346 0 0.12711863179355451 0.067545840930336137 0 0.13875949913812019 0.081525971466686414 0 0.14371078767711179 0.065379655941391973 0 0.13875949913812019 0.081525971466686414 0 0.15932310097550781 0.078868246406952058 0 0.16016311517887161 0.060547271663374917 0 0.14371078767711179 0.065379655941391973 0 0.15932310097550781 0.078868246406952058 0 0.14950426153541271 0.093240247656510344 0 0.13875949913812019 0.081525971466686414 0 0.15932310097550781 0.078868246406952058 0 0.14950426153541271 0.093240247656510344 0 0.13875949913812019 0.081525971466686414 0 0.13582810011434429 0.09564347374703927 0 0.12135635699018291 0.084570390640513346 0 0.13875949913812019 0.081525971466686414 0 0.13582810011434429 0.09564347374703927 0 0.12017825096638279 0.098157197119779993 0 0.12135635699018291 0.084570390640513346 0 0.13582810011434429 0.09564347374703927 0 0.13582810011434429 0.09564347374703927 0 0.12934176796694591 0.11269114339475091 0 0.1487347275859493 0.10509971694691531 0 0.12017825096638279 0.098157197119779993 0 0.13582810011434429 0.09564347374703927 0 0.12934176796694591 0.11269114339475091 0 0.12934176796694591 0.11269114339475091 0 0.15095963485761929 0.12441177551531531 0 0.13295646268684719 0.12623429253034751 0 0.12934176796694591 0.11269114339475091 0 0.15095963485761929 0.12441177551531531 0 0.1213978210768491 0.12325216397544481 0 0.13295646268684719 0.12623429253034751 0 0.12934176796694591 0.11269114339475091 0 0.15095963485761929 0.12441177551531531 0 0.1487347275859493 0.10509971694691531 0 0.16409965807054611 0.1082159103546399 0 0.12934176796694591 0.11269114339475091 0 0.15095963485761929 0.12441177551531531 0 0.1487347275859493 0.10509971694691531 0 0.14950426153541271 0.093240247656510344 0 0.13582810011434429 0.09564347374703927 0 0.1487347275859493 0.10509971694691531 0 0.14950426153541271 0.093240247656510344 0 0.1487347275859493 0.10509971694691531 0 0.16199702472703251 0.096531819891573431 0 0.1487347275859493 0.10509971694691531 0 0.16199702472703251 0.096531819891573431 0 0.16409965807054611 0.1082159103546399 0 0.16409965807054611 0.1082159103546399 0 0.17022054951639121 0.098326117096423013 0 0.17470042771591329 0.1051792935276627 0 0.16199702472703251 0.096531819891573431 0 0.16409965807054611 0.1082159103546399 0 0.17022054951639121 0.098326117096423013 0 0.16199702472703251 0.096531819891573431 0 0.17022054951639121 0.098326117096423013 0 0.17122912077880781 0.08792648113855922 0 0.15095963485761929 0.12441177551531531 0 0.16409965807054611 0.1082159103546399 0 0.16965409176979829 0.1223647242333188 0 0.16409965807054611 0.1082159103546399 0 0.17876489605684159 0.1154300230594382 0 0.16409965807054611 0.1082159103546399 0 0.16965409176979829 0.1223647242333188 0 0.17876489605684159 0.1154300230594382 0 0.1818687681156913 0.12763350460132089 0 0.16965409176979829 0.1223647242333188 0 0.17876489605684159 0.1154300230594382 0 0.16409965807054611 0.1082159103546399 0 0.17876489605684159 0.1154300230594382 0 0.17470042771591329 0.1051792935276627 0 0.18862324180311749 0.1169885944058774 0 0.17876489605684159 0.1154300230594382 0 0.18559679172479029 0.1034861868523267 0 0.18862324180311749 0.1169885944058774 0 0.19343013404313739 0.122644135764236 0 0.17876489605684159 0.1154300230594382 0 0.19343013404313739 0.122644135764236 0 0.17876489605684159 0.1154300230594382 0 0.1818687681156913 0.12763350460132089 0 0.19343013404313739 0.122644135764236 0 0.17876489605684159 0.1154300230594382 0 0.17022054951639121 0.098326117096423013 0 0.17907651628965621 0.09377708056967976 0 0.17470042771591329 0.1051792935276627 0 0.17876489605684159 0.1154300230594382 0 0.17470042771591329 0.1051792935276627 0 0.18559679172479029 0.1034861868523267 0 0.17907651628965621 0.09377708056967976 0 0.17470042771591329 0.1051792935276627 0 0.18559679172479029 0.1034861868523267 0 0.18844764755811069 0.077954312466137723 0 0.17907651628965621 0.09377708056967976 0 0.1799070238739289 0.083832152369754914 0 0.18844764755811069 0.077954312466137723 0 0.17907651628965621 0.09377708056967976 0 0.18559679172479029 0.1034861868523267 0 0.18844764755811069 0.077954312466137723 0 0.18559679172479029 0.1034861868523267 0 0.17022054951639121 0.098326117096423013 0 0.17907651628965621 0.09377708056967976 0 0.17122912077880781 0.08792648113855922 0 0.17907651628965621 0.09377708056967976 0 0.1799070238739289 0.083832152369754914 0 0.17122912077880781 0.08792648113855922 0 0.1799070238739289 0.083832152369754914 0 0.17498129478511171 0.075875756888378207 0 0.17122912077880781 0.08792648113855922 0 0.18169316344896139 0.078218222513463248 0 0.1799070238739289 0.083832152369754914 0 0.17498129478511171 0.075875756888378207 0 0.18844764755811069 0.077954312466137723 0 0.18169316344896139 0.078218222513463248 0 0.1799070238739289 0.083832152369754914 0 0.18844764755811069 0.077954312466137723 0 0.18111668182992829 0.073442185806780982 0 0.1825183718132535 0.066185498531427842 0 0.18844764755811069 0.077954312466137723 0 0.18519237097864141 0.060501067620797433 0 0.1825183718132535 0.066185498531427842 0 0.18844764755811069 0.077954312466137723 0 0.18169316344896139 0.078218222513463248 0 0.18111668182992829 0.073442185806780982 0 0.18111668182992829 0.073442185806780982 0 0.1825183718132535 0.066185498531427842 0 0.177338763380463 0.068516596310851718 0 0.1787512025954735 0.057687277528472899 0 0.1825183718132535 0.066185498531427842 0 0.177338763380463 0.068516596310851718 0 0.1787512025954735 0.057687277528472899 0 0.177338763380463 0.068516596310851718 0 0.17074942444343141 0.065440776890090938 0 0.177338763380463 0.068516596310851718 0 0.17498129478511171 0.075875756888378207 0 0.17074942444343141 0.065440776890090938 0 0.18169316344896139 0.078218222513463248 0 0.18111668182992829 0.073442185806780982 0 0.17498129478511171 0.075875756888378207 0 0.18111668182992829 0.073442185806780982 0 0.177338763380463 0.068516596310851718 0 0.17498129478511171 0.075875756888378207 0 0.17498129478511171 0.075875756888378207 0 0.17074942444343141 0.065440776890090938 0 0.15932310097550781 0.078868246406952058 0 0.16016311517887161 0.060547271663374917 0 0.17074942444343141 0.065440776890090938 0 0.15932310097550781 0.078868246406952058 0 0.16199702472703251 0.096531819891573431 0 0.15932310097550781 0.078868246406952058 0 0.17122912077880781 0.08792648113855922 0 0.17498129478511171 0.075875756888378207 0 0.15932310097550781 0.078868246406952058 0 0.17122912077880781 0.08792648113855922 0 0.14950426153541271 0.093240247656510344 0 0.16199702472703251 0.096531819891573431 0 0.15932310097550781 0.078868246406952058 0 0.10743016229648659 0.48296842858701339 0 0.1092573718770876 0.46605983676920387 0 0.090389790964965064 0.47381127462751682 0 0.10743016229648659 0.48296842858701339 0 0.1190543491000554 0.5 0 0.089811371460399414 0.5 0 0.10743016229648659 0.48296842858701339 0 0.090389790964965064 0.47381127462751682 0 0.089811371460399414 0.5 0 0.10743016229648659 0.48296842858701339 0 0.1190543491000554 0.5 0 0.12941433290595469 0.47217502981942039 0 0.10743016229648659 0.48296842858701339 0 0.1092573718770876 0.46605983676920387 0 0.12941433290595469 0.47217502981942039 0 0.11990045370648129 0.45087942826817923 0 0.1092573718770876 0.46605983676920387 0 0.12941433290595469 0.47217502981942039 0 0.11990045370648129 0.45087942826817923 0 0.10894291453140011 0.4338133242278765 0 0.12783545089004961 0.43364185334063182 0 0.11990045370648129 0.45087942826817923 0 0.096692003449520128 0.44787126525357468 0 0.10894291453140011 0.4338133242278765 0 0.096692003449520128 0.44787126525357468 0 0.1092573718770876 0.46605983676920387 0 0.090389790964965064 0.47381127462751682 0 0.11990045370648129 0.45087942826817923 0 0.096692003449520128 0.44787126525357468 0 0.1092573718770876 0.46605983676920387 0 0.074893568852998971 0.44852123334571931 0 0.090389790964965064 0.47381127462751682 0 0.096692003449520128 0.44787126525357468 0 0.074893568852998971 0.44852123334571931 0 0.090389790964965064 0.47381127462751682 0 0.096692003449520128 0.44787126525357468 0 0.074893568852998971 0.44852123334571931 0 0.077806172855862471 0.43228589474138229 0 0.074893568852998971 0.44852123334571931 0 0.05494044058581244 0.44354832345509648 0 0.059397346741035667 0.42323119206392018 0 0.074893568852998971 0.44852123334571931 0 0.068289097347376274 0.47833385919604982 0 0.090389790964965064 0.47381127462751682 0 0.074893568852998971 0.44852123334571931 0 0.068289097347376274 0.47833385919604982 0 0.054910727193175322 0.4613380694692823 0 0.068289097347376274 0.47833385919604982 0 0.090389790964965064 0.47381127462751682 0 0.089811371460399414 0.5 0 0.068289097347376274 0.47833385919604982 0 0.089811371460399414 0.5 0 0.060568393820743527 0.5 0 0.068289097347376274 0.47833385919604982 0 0.060568393820743527 0.5 0 0.040797134695914478 0.47833565320399313 0 0.068289097347376274 0.47833385919604982 0 0.040797134695914478 0.47833565320399313 0 0.054910727193175322 0.4613380694692823 0 0.060568393820743527 0.5 0 0.040797134695914478 0.47833565320399313 0 0.031325416181087577 0.5 0 0.040797134695914478 0.47833565320399313 0 0.031325416181087577 0.5 0 0.01455058764316185 0.48444563841481147 0 0.031325416181087577 0.5 0 0.002082438541431642 0.5 0 0.01455058764316185 0.48444563841481147 0 0.040797134695914478 0.47833565320399313 0 0.01455058764316185 0.48444563841481147 0 0.019580218007617649 0.46590359474399851 0 -0.0020920793231286642 0.48358315206374081 0 0.001892583759287806 0.46891493070632789 0 0.01455058764316185 0.48444563841481147 0 0.001892583759287806 0.46891493070632789 0 0.01455058764316185 0.48444563841481147 0 0.019580218007617649 0.46590359474399851 0 -0.0020920793231286642 0.48358315206374081 0 0.002082438541431642 0.5 0 0.01455058764316185 0.48444563841481147 0 0.0075351656714072726 0.44152041939626258 0 0.006126683664170204 0.4551121289163319 0 0.021032932674281739 0.44853417494515518 0 -0.0040689949533659836 0.44571316907421982 0 0.0075351656714072726 0.44152041939626258 0 0.006126683664170204 0.4551121289163319 0 0.001892583759287806 0.46891493070632789 0 0.006126683664170204 0.4551121289163319 0 0.019580218007617649 0.46590359474399851 0 0.006126683664170204 0.4551121289163319 0 0.019580218007617649 0.46590359474399851 0 0.021032932674281739 0.44853417494515518 0 0.019580218007617649 0.46590359474399851 0 0.021032932674281739 0.44853417494515518 0 0.037446159970468282 0.45660332383804447 0 0.0075351656714072726 0.44152041939626258 0 0.021032932674281739 0.44853417494515518 0 0.021156278565755811 0.43361833714871573 0 0.021032932674281739 0.44853417494515518 0 0.03616256950127153 0.43925080444110992 0 0.021156278565755811 0.43361833714871573 0 0.021032932674281739 0.44853417494515518 0 0.03616256950127153 0.43925080444110992 0 0.037446159970468282 0.45660332383804447 0 0.03616256950127153 0.43925080444110992 0 0.037446159970468282 0.45660332383804447 0 0.05494044058581244 0.44354832345509648 0 0.040797134695914478 0.47833565320399313 0 0.037446159970468282 0.45660332383804447 0 0.054910727193175322 0.4613380694692823 0 0.040797134695914478 0.47833565320399313 0 0.019580218007617649 0.46590359474399851 0 0.037446159970468282 0.45660332383804447 0 0.037446159970468282 0.45660332383804447 0 0.054910727193175322 0.4613380694692823 0 0.05494044058581244 0.44354832345509648 0 0.074893568852998971 0.44852123334571931 0 0.054910727193175322 0.4613380694692823 0 0.05494044058581244 0.44354832345509648 0 0.03616256950127153 0.43925080444110992 0 0.059397346741035667 0.42323119206392018 0 0.03616256950127153 0.43925080444110992 0 0.05494044058581244 0.44354832345509648 0 0.059397346741035667 0.42323119206392018 0 0.059397346741035667 0.42323119206392018 0 0.055275366703107183 0.41650406563474118 0 0.043885176415469553 0.42684341546103932 0 0.055275366703107183 0.41650406563474118 0 0.045111187968010891 0.39991599029941921 0 0.055275366703107183 0.41650406563474118 0 0.045111187968010891 0.39991599029941921 0 0.065401576926520377 0.40731208312430628 0 0.055275366703107183 0.41650406563474118 0 0.042567083745131483 0.41550502295548342 0 0.045111187968010891 0.39991599029941921 0 0.055275366703107183 0.41650406563474118 0 0.065401576926520377 0.40731208312430628 0 0.055275366703107183 0.41650406563474118 0 0.06184995665851678 0.41620307694176922 0 0.065401576926520377 0.40731208312430628 0 0.059397346741035667 0.42323119206392018 0 0.055275366703107183 0.41650406563474118 0 0.06184995665851678 0.41620307694176922 0 0.059397346741035667 0.42323119206392018 0 0.055275366703107183 0.41650406563474118 0 0.055275366703107183 0.41650406563474118 0 0.042567083745131483 0.41550502295548342 0 0.043885176415469553 0.42684341546103932 0 0.055275366703107183 0.41650406563474118 0 0.043885176415469553 0.42684341546103932 0 0.042567083745131483 0.41550502295548342 0 0.031713351711209127 0.41058778132074442 0 0.045111187968010891 0.39991599029941921 0 0.042567083745131483 0.41550502295548342 0 0.031713351711209127 0.41058778132074442 0 0.03172831508164646 0.42495889604590042 0 0.03616256950127153 0.43925080444110992 0 0.059397346741035667 0.42323119206392018 0 0.043885176415469553 0.42684341546103932 0 0.042567083745131483 0.41550502295548342 0 0.043885176415469553 0.42684341546103932 0 0.03172831508164646 0.42495889604590042 0 0.03616256950127153 0.43925080444110992 0 0.043885176415469553 0.42684341546103932 0 0.03172831508164646 0.42495889604590042 0 0.03616256950127153 0.43925080444110992 0 0.03172831508164646 0.42495889604590042 0 0.021156278565755811 0.43361833714871573 0 0.021156278565755811 0.43361833714871573 0 0.01852996141111482 0.41863346684377462 0 0.010542736661773799 0.43123490750646792 0 0.03172831508164646 0.42495889604590042 0 0.021156278565755811 0.43361833714871573 0 0.01852996141111482 0.41863346684377462 0 0.031713351711209127 0.41058778132074442 0 0.03172831508164646 0.42495889604590042 0 0.01852996141111482 0.41863346684377462 0 0.031713351711209127 0.41058778132074442 0 0.01852996141111482 0.41863346684377462 0 0.02113026108868974 0.40589825942001401 0 0.01852996141111482 0.41863346684377462 0 0.008926101816531402 0.4054263395871166 0 0.02113026108868974 0.40589825942001401 0 0.01852996141111482 0.41863346684377462 0 0.004077199104086591 0.4164157587185795 0 0.008926101816531402 0.4054263395871166 0 -0.0062189795252348846 0.40611161009886648 0 0.004077199104086591 0.4164157587185795 0 0.008926101816531402 0.4054263395871166 0 0.004077199104086591 0.4164157587185795 0 0.0009558333416579321 0.42644653379215269 0 0.010542736661773799 0.43123490750646792 0 -0.0060715276852571108 0.43503514122775527 0 0.0075351656714072726 0.44152041939626258 0 0.0009558333416579321 0.42644653379215269 0 0.0075351656714072726 0.44152041939626258 0 0.0009558333416579321 0.42644653379215269 0 0.010542736661773799 0.43123490750646792 0 0.0075351656714072726 0.44152041939626258 0 0.021156278565755811 0.43361833714871573 0 0.010542736661773799 0.43123490750646792 0 0.01852996141111482 0.41863346684377462 0 0.004077199104086591 0.4164157587185795 0 0.010542736661773799 0.43123490750646792 0 9.4577485471350172e-06 0.3898325466449114 0 0.016178283779520429 0.39423554739797401 0 0.018573917521586599 0.3774918530926773 0 9.4577485471350172e-06 0.3898325466449114 0 0.018573917521586599 0.3774918530926773 0 0.0024647386837281168 0.37096252636441063 0 -0.0062189795252348846 0.40611161009886648 0 9.4577485471350172e-06 0.3898325466449114 0 0.008926101816531402 0.4054263395871166 0 9.4577485471350172e-06 0.3898325466449114 0 0.008926101816531402 0.4054263395871166 0 0.016178283779520429 0.39423554739797401 0 0.008926101816531402 0.4054263395871166 0 0.016178283779520429 0.39423554739797401 0 0.02113026108868974 0.40589825942001401 0 0.016178283779520429 0.39423554739797401 0 0.029860344935069189 0.39895810443226898 0 0.034947009232913898 0.38332791496409752 0 0.016178283779520429 0.39423554739797401 0 0.02113026108868974 0.40589825942001401 0 0.029860344935069189 0.39895810443226898 0 0.031713351711209127 0.41058778132074442 0 0.02113026108868974 0.40589825942001401 0 0.029860344935069189 0.39895810443226898 0 0.016178283779520429 0.39423554739797401 0 0.018573917521586599 0.3774918530926773 0 0.034947009232913898 0.38332791496409752 0 0.034947009232913898 0.38332791496409752 0 0.045111187968010891 0.39991599029941921 0 0.060327078670590797 0.37974230049107521 0 0.034947009232913898 0.38332791496409752 0 0.045111187968010891 0.39991599029941921 0 0.029860344935069189 0.39895810443226898 0 0.034947009232913898 0.38332791496409752 0 0.045111187968010891 0.39991599029941921 0 0.031713351711209127 0.41058778132074442 0 0.029860344935069189 0.39895810443226898 0 0.045111187968010891 0.39991599029941921 0 0.045111187968010891 0.39991599029941921 0 0.060327078670590797 0.37974230049107521 0 0.065401576926520377 0.40731208312430628 0 0.034947009232913898 0.38332791496409752 0 0.060327078670590797 0.37974230049107521 0 0.046058880995386263 0.36811660929349233 0 0.060327078670590797 0.37974230049107521 0 0.072831148204648227 0.37582501008154939 0 0.0781606600111584 0.38567970231874821 0 0.072831148204648227 0.37582501008154939 0 0.080263473669769519 0.37669406751243001 0 0.0781606600111584 0.38567970231874821 0 0.093508528766986565 0.39116013546751649 0 0.081667489121059936 0.39254683757737741 0 0.097933401315600285 0.37778159203044948 0 0.0781606600111584 0.38567970231874821 0 0.081667489121059936 0.39254683757737741 0 0.097933401315600285 0.37778159203044948 0 0.081667489121059936 0.39254683757737741 0 0.097933401315600285 0.37778159203044948 0 0.080263473669769519 0.37669406751243001 0 0.0781606600111584 0.38567970231874821 0 0.094657056351060559 0.36658864937297259 0 0.0781606600111584 0.38567970231874821 0 0.094657056351060559 0.36658864937297259 0 0.0781606600111584 0.38567970231874821 0 0.097933401315600285 0.37778159203044948 0 0.094657056351060559 0.36658864937297259 0 0.087252920298229758 0.40402569306878272 0 0.093508528766986565 0.39116013546751649 0 0.081667489121059936 0.39254683757737741 0 0.087252920298229758 0.40402569306878272 0 0.081667489121059936 0.39254683757737741 0 0.065401576926520377 0.40731208312430628 0 0.081667489121059936 0.39254683757737741 0 0.065401576926520377 0.40731208312430628 0 0.060327078670590797 0.37974230049107521 0 0.0781606600111584 0.38567970231874821 0 0.065401576926520377 0.40731208312430628 0 0.0781606600111584 0.38567970231874821 0 0.081667489121059936 0.39254683757737741 0 0.065401576926520377 0.40731208312430628 0 0.060327078670590797 0.37974230049107521 0 0.065401576926520377 0.40731208312430628 0 0.087252920298229758 0.40402569306878272 0 0.065401576926520377 0.40731208312430628 0 0.067325536263403346 0.41776496694410897 0 0.087252920298229758 0.40402569306878272 0 0.067325536263403346 0.41776496694410897 0 0.06184995665851678 0.41620307694176922 0 0.065401576926520377 0.40731208312430628 0 0.067325536263403346 0.41776496694410897 0 0.065401576926520377 0.40731208312430628 0 0.067325536263403346 0.41776496694410897 0 0.059397346741035667 0.42323119206392018 0 0.06184995665851678 0.41620307694176922 0 0.067325536263403346 0.41776496694410897 0 0.059397346741035667 0.42323119206392018 0 0.067325536263403346 0.41776496694410897 0 0.059397346741035667 0.42323119206392018 0 0.067611576577869495 0.41931902586706699 0 0.067325536263403346 0.41776496694410897 0 0.067611576577869495 0.41931902586706699 0 0.067325536263403346 0.41776496694410897 0 0.067611576577869495 0.41931902586706699 0 0.067325536263403346 0.41776496694410897 0 0.0808629099108025 0.41736255200557282 0 0.074893568852998971 0.44852123334571931 0 0.059397346741035667 0.42323119206392018 0 0.074893568852998971 0.44852123334571931 0 0.059397346741035667 0.42323119206392018 0 0.077806172855862471 0.43228589474138229 0 0.059397346741035667 0.42323119206392018 0 0.067611576577869495 0.41931902586706699 0 0.077806172855862471 0.43228589474138229 0 0.067611576577869495 0.41931902586706699 0 0.077806172855862471 0.43228589474138229 0 0.0808629099108025 0.41736255200557282 0 0.096692003449520128 0.44787126525357468 0 0.077806172855862471 0.43228589474138229 0 0.093512911022145095 0.42760032167932571 0 0.077806172855862471 0.43228589474138229 0 0.093512911022145095 0.42760032167932571 0 0.0808629099108025 0.41736255200557282 0 0.087252920298229758 0.40402569306878272 0 0.067325536263403346 0.41776496694410897 0 0.0808629099108025 0.41736255200557282 0 0.093512911022145095 0.42760032167932571 0 0.0808629099108025 0.41736255200557282 0 0.093017042760595608 0.41480296806728478 0 0.087252920298229758 0.40402569306878272 0 0.0808629099108025 0.41736255200557282 0 0.093017042760595608 0.41480296806728478 0 0.093017042760595608 0.41480296806728478 0 0.1012721025884941 0.40690138718169422 0 0.10422458511016471 0.41923536414184059 0 0.087252920298229758 0.40402569306878272 0 0.093017042760595608 0.41480296806728478 0 0.1012721025884941 0.40690138718169422 0 0.093512911022145095 0.42760032167932571 0 0.093017042760595608 0.41480296806728478 0 0.10422458511016471 0.41923536414184059 0 0.1012721025884941 0.40690138718169422 0 0.10422458511016471 0.41923536414184059 0 0.1146856604404239 0.40615649143710608 0 0.096692003449520128 0.44787126525357468 0 0.093512911022145095 0.42760032167932571 0 0.10894291453140011 0.4338133242278765 0 0.093512911022145095 0.42760032167932571 0 0.10422458511016471 0.41923536414184059 0 0.10894291453140011 0.4338133242278765 0 0.10894291453140011 0.4338133242278765 0 0.1194740661223945 0.41972072897325008 0 0.12783545089004961 0.43364185334063182 0 0.10422458511016471 0.41923536414184059 0 0.10894291453140011 0.4338133242278765 0 0.1194740661223945 0.41972072897325008 0 0.1194740661223945 0.41972072897325008 0 0.1146856604404239 0.40615649143710608 0 0.13226648721586309 0.40529132452426758 0 0.10422458511016471 0.41923536414184059 0 0.1194740661223945 0.41972072897325008 0 0.1146856604404239 0.40615649143710608 0 0.1146856604404239 0.40615649143710608 0 0.12088251483540111 0.39480513105265941 0 0.10718030433305629 0.39028641919345652 0 0.1146856604404239 0.40615649143710608 0 0.12088251483540111 0.39480513105265941 0 0.13226648721586309 0.40529132452426758 0 0.12088251483540111 0.39480513105265941 0 0.11875869923671931 0.38439154357958349 0 0.13152142295094299 0.3878998765288828 0 0.11875869923671931 0.38439154357958349 0 0.11626597403064511 0.37354604234719679 0 0.12623243759338121 0.37631401043276969 0 0.11875869923671931 0.38439154357958349 0 0.1088118889907462 0.37938671199941321 0 0.11626597403064511 0.37354604234719679 0 0.11875869923671931 0.38439154357958349 0 0.10718030433305629 0.39028641919345652 0 0.1088118889907462 0.37938671199941321 0 0.12088251483540111 0.39480513105265941 0 0.11875869923671931 0.38439154357958349 0 0.10718030433305629 0.39028641919345652 0 0.10718030433305629 0.39028641919345652 0 0.1088118889907462 0.37938671199941321 0 0.097933401315600285 0.37778159203044948 0 0.093508528766986565 0.39116013546751649 0 0.10718030433305629 0.39028641919345652 0 0.097933401315600285 0.37778159203044948 0 0.087252920298229758 0.40402569306878272 0 0.1012721025884941 0.40690138718169422 0 0.10718030433305629 0.39028641919345652 0 0.1012721025884941 0.40690138718169422 0 0.1146856604404239 0.40615649143710608 0 0.10718030433305629 0.39028641919345652 0 0.087252920298229758 0.40402569306878272 0 0.10718030433305629 0.39028641919345652 0 0.087252920298229758 0.40402569306878272 0 0.093508528766986565 0.39116013546751649 0 0.10718030433305629 0.39028641919345652 0 0.10214576750655439 0.35169631518797789 0 0.1108730756219355 0.34606906705108598 0 0.092806979076694079 0.34829710023804572 0 0.094657056351060559 0.36658864937297259 0 0.1111534526909627 0.34749759642719691 0 0.10214576750655439 0.35169631518797789 0 0.094657056351060559 0.36658864937297259 0 0.1111534526909627 0.34749759642719691 0 0.1108730756219355 0.34606906705108598 0 0.092806979076694079 0.34829710023804572 0 0.094657056351060559 0.36658864937297259 0 0.1141993135101402 0.36301634648352088 0 0.1111534526909627 0.34749759642719691 0 0.10214576750655439 0.35169631518797789 0 0.1108730756219355 0.34606906705108598 0 0.1111534526909627 0.34749759642719691 0 0.10214576750655439 0.35169631518797789 0 0.093614026397509542 0.3561721379605377 0 0.092806979076694079 0.34829710023804572 0 0.10214576750655439 0.35169631518797789 0 0.094657056351060559 0.36658864937297259 0 0.093614026397509542 0.3561721379605377 0 0.097933401315600285 0.37778159203044948 0 0.094657056351060559 0.36658864937297259 0 0.1141993135101402 0.36301634648352088 0 0.097933401315600285 0.37778159203044948 0 0.1141993135101402 0.36301634648352088 0 0.1088118889907462 0.37938671199941321 0 0.097933401315600285 0.37778159203044948 0 0.1141993135101402 0.36301634648352088 0 0.1088118889907462 0.37938671199941321 0 0.1141993135101402 0.36301634648352088 0 0.11626597403064511 0.37354604234719679 0 0.1141993135101402 0.36301634648352088 0 0.11626597403064511 0.37354604234719679 0 0.1141993135101402 0.36301634648352088 0 0.11626597403064511 0.37354604234719679 0 0.1217066074206179 0.36685144657453089 0 0.11626597403064511 0.37354604234719679 0 0.1217066074206179 0.36685144657453089 0 0.12623243759338121 0.37631401043276969 0 0.1141993135101402 0.36301634648352088 0 0.1217066074206179 0.36685144657453089 0 0.1223247659028195 0.35564053513504729 0 0.1217066074206179 0.36685144657453089 0 0.1223247659028195 0.35564053513504729 0 0.12951054606610321 0.36574029847411921 0 0.1141993135101402 0.36301634648352088 0 0.1223247659028195 0.35564053513504729 0 0.1223247659028195 0.35564053513504729 0 0.112568505567162 0.34585997516592548 0 0.1349204454541065 0.34310338279765601 0 0.112568505567162 0.34585997516592548 0 0.1349204454541065 0.34310338279765601 0 0.1141993135101402 0.36301634648352088 0 0.1223247659028195 0.35564053513504729 0 0.1111534526909627 0.34749759642719691 0 0.1141993135101402 0.36301634648352088 0 0.1111534526909627 0.34749759642719691 0 0.1223247659028195 0.35564053513504729 0 0.112568505567162 0.34585997516592548 0 0.1111534526909627 0.34749759642719691 0 0.112568505567162 0.34585997516592548 0 0.1108730756219355 0.34606906705108598 0 0.112568505567162 0.34585997516592548 0 0.1111534526909627 0.34749759642719691 0 0.112568505567162 0.34585997516592548 0 0.1108730756219355 0.34606906705108598 0 0.1111534526909627 0.34749759642719691 0 0.1108730756219355 0.34606906705108598 0 0.1111534526909627 0.34749759642719691 0 0.112568505567162 0.34585997516592548 0 0.1301507759590291 0.32551225509168069 0 0.1083607120500435 0.33326850109043382 0 0.1301507759590291 0.32551225509168069 0 0.112568505567162 0.34585997516592548 0 0.1083607120500435 0.33326850109043382 0 0.1301507759590291 0.32551225509168069 0 0.1108730756219355 0.34606906705108598 0 0.1083607120500435 0.33326850109043382 0 0.112568505567162 0.34585997516592548 0 0.1108730756219355 0.34606906705108598 0 0.1083607120500435 0.33326850109043382 0 0.115031954974937 0.32356314398019992 0 0.1049935887392998 0.31611290923302737 0 0.1083607120500435 0.33326850109043382 0 0.115031954974937 0.32356314398019992 0 0.1083607120500435 0.33326850109043382 0 0.1301507759590291 0.32551225509168069 0 0.1203407132176403 0.31305045998796183 0 0.1198279242949423 0.31902122911367181 0 0.11259725024726 0.31097143714882308 0 0.1203407132176403 0.31305045998796183 0 0.1257571129765549 0.31869791791757279 0 0.12619607839551461 0.3130358504436016 0 0.1203407132176403 0.31305045998796183 0 0.1198279242949423 0.31902122911367181 0 0.1257571129765549 0.31869791791757279 0 0.1198279242949423 0.31902122911367181 0 0.115031954974937 0.32356314398019992 0 0.1301507759590291 0.32551225509168069 0 0.1198279242949423 0.31902122911367181 0 0.115031954974937 0.32356314398019992 0 0.11259725024726 0.31097143714882308 0 0.115031954974937 0.32356314398019992 0 0.1049935887392998 0.31611290923302737 0 0.11259725024726 0.31097143714882308 0 0.1049935887392998 0.31611290923302737 0 0.1083607120500435 0.33326850109043382 0 0.1049935887392998 0.31611290923302737 0 0.1083607120500435 0.33326850109043382 0 0.093449729584919608 0.32005721924438302 0 0.1049935887392998 0.31611290923302737 0 0.093449729584919608 0.32005721924438302 0 0.094391500705662212 0.30898407534659722 0 0.1083607120500435 0.33326850109043382 0 0.088599891124946539 0.33125084834999552 0 0.093449729584919608 0.32005721924438302 0 0.1083607120500435 0.33326850109043382 0 0.082270614692193586 0.34189370469353408 0 0.092806979076694079 0.34829710023804572 0 0.1108730756219355 0.34606906705108598 0 0.1083607120500435 0.33326850109043382 0 0.092806979076694079 0.34829710023804572 0 0.1083607120500435 0.33326850109043382 0 0.082270614692193586 0.34189370469353408 0 0.088599891124946539 0.33125084834999552 0 0.077846243964742601 0.32274060398525561 0 0.068858415373821105 0.33438678422522972 0 0.1083607120500435 0.33326850109043382 0 0.088599891124946539 0.33125084834999552 0 0.082270614692193586 0.34189370469353408 0 0.088599891124946539 0.33125084834999552 0 0.068858415373821105 0.33438678422522972 0 0.088599891124946539 0.33125084834999552 0 0.082270614692193586 0.34189370469353408 0 0.068858415373821105 0.33438678422522972 0 0.093449729584919608 0.32005721924438302 0 0.081977196563509658 0.30949718410903099 0 0.094391500705662212 0.30898407534659722 0 0.088599891124946539 0.33125084834999552 0 0.093449729584919608 0.32005721924438302 0 0.077846243964742601 0.32274060398525561 0 0.093449729584919608 0.32005721924438302 0 0.077846243964742601 0.32274060398525561 0 0.081977196563509658 0.30949718410903099 0 0.065816721422900043 0.31391018835044071 0 0.077846243964742601 0.32274060398525561 0 0.081977196563509658 0.30949718410903099 0 0.065816721422900043 0.31391018835044071 0 0.077846243964742601 0.32274060398525561 0 0.068858415373821105 0.33438678422522972 0 0.082270614692193586 0.34189370469353408 0 0.068858415373821105 0.33438678422522972 0 0.064594019962958577 0.34156793356305692 0 0.082270614692193586 0.34189370469353408 0 0.068858415373821105 0.33438678422522972 0 0.082270614692193586 0.34189370469353408 0 0.064594019962958577 0.34156793356305692 0 0.055252580414660329 0.3521725178578442 0 0.074740882531452613 0.35052513342500552 0 0.065780097618785324 0.36061592554337152 0 0.055252580414660329 0.3521725178578442 0 0.082270614692193586 0.34189370469353408 0 0.055252580414660329 0.3521725178578442 0 0.082270614692193586 0.34189370469353408 0 0.074740882531452613 0.35052513342500552 0 0.055252580414660329 0.3521725178578442 0 0.074740882531452613 0.35052513342500552 0 0.07558212112184684 0.35977811699906609 0 0.065780097618785324 0.36061592554337152 0 0.074740882531452613 0.35052513342500552 0 0.092806979076694079 0.34829710023804572 0 0.074740882531452613 0.35052513342500552 0 0.08484630265572915 0.35810648704315479 0 0.092806979076694079 0.34829710023804572 0 0.082270614692193586 0.34189370469353408 0 0.074740882531452613 0.35052513342500552 0 0.092806979076694079 0.34829710023804572 0 0.074740882531452613 0.35052513342500552 0 0.08484630265572915 0.35810648704315479 0 0.07558212112184684 0.35977811699906609 0 0.08484630265572915 0.35810648704315479 0 0.093614026397509542 0.3561721379605377 0 0.092806979076694079 0.34829710023804572 0 0.080263473669769519 0.37669406751243001 0 0.094657056351060559 0.36658864937297259 0 0.084203389010073293 0.36735841214519249 0 0.094657056351060559 0.36658864937297259 0 0.08484630265572915 0.35810648704315479 0 0.084203389010073293 0.36735841214519249 0 0.094657056351060559 0.36658864937297259 0 0.08484630265572915 0.35810648704315479 0 0.093614026397509542 0.3561721379605377 0 0.08484630265572915 0.35810648704315479 0 0.077046723363733929 0.36804444465221298 0 0.07558212112184684 0.35977811699906609 0 0.08484630265572915 0.35810648704315479 0 0.084203389010073293 0.36735841214519249 0 0.077046723363733929 0.36804444465221298 0 0.080263473669769519 0.37669406751243001 0 0.084203389010073293 0.36735841214519249 0 0.077046723363733929 0.36804444465221298 0 0.060327078670590797 0.37974230049107521 0 0.070313433795921018 0.36880115955345499 0 0.065780097618785324 0.36061592554337152 0 0.072831148204648227 0.37582501008154939 0 0.080263473669769519 0.37669406751243001 0 0.077046723363733929 0.36804444465221298 0 0.072831148204648227 0.37582501008154939 0 0.077046723363733929 0.36804444465221298 0 0.070313433795921018 0.36880115955345499 0 0.070313433795921018 0.36880115955345499 0 0.07558212112184684 0.35977811699906609 0 0.065780097618785324 0.36061592554337152 0 0.077046723363733929 0.36804444465221298 0 0.070313433795921018 0.36880115955345499 0 0.07558212112184684 0.35977811699906609 0 0.060327078670590797 0.37974230049107521 0 0.072831148204648227 0.37582501008154939 0 0.070313433795921018 0.36880115955345499 0 0.060327078670590797 0.37974230049107521 0 0.055252580414660329 0.3521725178578442 0 0.060327078670590797 0.37974230049107521 0 0.055252580414660329 0.3521725178578442 0 0.046058880995386263 0.36811660929349233 0 0.060327078670590797 0.37974230049107521 0 0.065780097618785324 0.36061592554337152 0 0.055252580414660329 0.3521725178578442 0 0.055252580414660329 0.3521725178578442 0 0.052458437831000702 0.33699192269501532 0 0.055252580414660329 0.3521725178578442 0 0.040187458524648688 0.34758827594847808 0 0.052458437831000702 0.33699192269501532 0 0.040187458524648688 0.34758827594847808 0 0.028858659549193959 0.36156752211112658 0 0.024973848365168069 0.34135785314563311 0 0.055252580414660329 0.3521725178578442 0 0.028858659549193959 0.36156752211112658 0 0.055252580414660329 0.3521725178578442 0 0.040187458524648688 0.34758827594847808 0 0.028858659549193959 0.36156752211112658 0 0.034947009232913898 0.38332791496409752 0 0.046058880995386263 0.36811660929349233 0 0.028858659549193959 0.36156752211112658 0 0.055252580414660329 0.3521725178578442 0 0.046058880995386263 0.36811660929349233 0 0.028858659549193959 0.36156752211112658 0 0.018573917521586599 0.3774918530926773 0 0.034947009232913898 0.38332791496409752 0 0.028858659549193959 0.36156752211112658 0 0.018573917521586599 0.3774918530926773 0 0.028858659549193959 0.36156752211112658 0 0.0024647386837281168 0.37096252636441063 0 0.028858659549193959 0.36156752211112658 0 0.0024647386837281168 0.37096252636441063 0 0.028858659549193959 0.36156752211112658 0 0.013055161176395821 0.35434867133196751 0 0.024973848365168069 0.34135785314563311 0 -0.0025107411006645708 0.34572378359625211 0 0.013055161176395821 0.35434867133196751 0 0.0024647386837281168 0.37096252636441063 0 -0.0025107411006645708 0.34572378359625211 0 0.013055161176395821 0.35434867133196751 0 0.024973848365168069 0.34135785314563311 0 0.028858659549193959 0.36156752211112658 0 0.013055161176395821 0.35434867133196751 0 0.0024647386837281168 0.37096252636441063 0 -0.0025107411006645708 0.34572378359625211 0 0.0048746630775424772 0.32215067290176053 0 0.024973848365168069 0.34135785314563311 0 -0.0025107411006645708 0.34572378359625211 0 0.024973848365168069 0.34135785314563311 0 0.0048746630775424772 0.32215067290176053 0 0.024973848365168069 0.34135785314563311 0 0.022300720658112731 0.32579878489892161 0 0.024973848365168069 0.34135785314563311 0 0.022300720658112731 0.32579878489892161 0 0.036845745308030732 0.33116266474607392 0 0.0048746630775424772 0.32215067290176053 0 0.022300720658112731 0.32579878489892161 0 0.026168522413065168 0.3104928930259061 0 0.022300720658112731 0.32579878489892161 0 0.036845745308030732 0.33116266474607392 0 0.026168522413065168 0.3104928930259061 0 0.047513468893443177 0.3224398386255678 0 0.049710214784302757 0.30510620950358208 0 0.026168522413065168 0.3104928930259061 0 0.047513468893443177 0.3224398386255678 0 0.026168522413065168 0.3104928930259061 0 0.036845745308030732 0.33116266474607392 0 0.047513468893443177 0.3224398386255678 0 0.026168522413065168 0.3104928930259061 0 0.036845745308030732 0.33116266474607392 0 0.051005754195758958 0.32909948288352031 0 0.047513468893443177 0.3224398386255678 0 0.040187458524648688 0.34758827594847808 0 0.024973848365168069 0.34135785314563311 0 0.052458437831000702 0.33699192269501532 0 0.024973848365168069 0.34135785314563311 0 0.036845745308030732 0.33116266474607392 0 0.052458437831000702 0.33699192269501532 0 0.024973848365168069 0.34135785314563311 0 0.052458437831000702 0.33699192269501532 0 0.036845745308030732 0.33116266474607392 0 0.052458437831000702 0.33699192269501532 0 0.051005754195758958 0.32909948288352031 0 0.068858415373821105 0.33438678422522972 0 0.052458437831000702 0.33699192269501532 0 0.051005754195758958 0.32909948288352031 0 0.068858415373821105 0.33438678422522972 0 0.047513468893443177 0.3224398386255678 0 0.068858415373821105 0.33438678422522972 0 0.051005754195758958 0.32909948288352031 0 0.047513468893443177 0.3224398386255678 0 0.068858415373821105 0.33438678422522972 0 0.064594019962958577 0.34156793356305692 0 0.052458437831000702 0.33699192269501532 0 0.068858415373821105 0.33438678422522972 0 0.052458437831000702 0.33699192269501532 0 0.052458437831000702 0.33699192269501532 0 0.051005754195758958 0.32909948288352031 0 0.064594019962958577 0.34156793356305692 0 0.055252580414660329 0.3521725178578442 0 0.052458437831000702 0.33699192269501532 0 0.065816721422900043 0.31391018835044071 0 0.068858415373821105 0.33438678422522972 0 0.047513468893443177 0.3224398386255678 0 0.065816721422900043 0.31391018835044071 0 0.047513468893443177 0.3224398386255678 0 0.049710214784302757 0.30510620950358208 0 0.065816721422900043 0.31391018835044071 0 0.049710214784302757 0.30510620950358208 0 0.068735690824801493 0.28989307614428078 0 0.040316670367303888 0.28879505137171518 0 0.068735690824801493 0.28989307614428078 0 0.049710214784302757 0.30510620950358208 0 0.040316670367303888 0.28879505137171518 0 0.068735690824801493 0.28989307614428078 0 0.049710214784302757 0.30510620950358208 0 0.040316670367303888 0.28879505137171518 0 0.026168522413065168 0.3104928930259061 0 0.040316670367303888 0.28879505137171518 0 0.011897649909806339 0.28769702659914947 0 0.02214625704224385 0.26763071907828873 0 0.040316670367303888 0.28879505137171518 0 0.011897649909806339 0.28769702659914947 0 0.040316670367303888 0.28879505137171518 0 0.026168522413065168 0.3104928930259061 0 0.011897649909806339 0.28769702659914947 0 -0.01652137054769125 0.28659900182658321 0 0.011897649909806339 0.28769702659914947 0 0.0048235759326871047 0.29854594742624441 0 -0.0070763024001717382 0.30691980919720979 0 0.0048746630775424772 0.32215067290176053 0 0.0048235759326871047 0.29854594742624441 0 0.026168522413065168 0.3104928930259061 0 0.0048235759326871047 0.29854594742624441 0 0.0048746630775424772 0.32215067290176053 0 0.026168522413065168 0.3104928930259061 0 0.0048235759326871047 0.29854594742624441 0 0.026168522413065168 0.3104928930259061 0 0.011897649909806339 0.28769702659914947 0 0.0048235759326871047 0.29854594742624441 0 0.001071073268911413 0.25677565652066781 0 0.02214625704224385 0.26763071907828873 0 0.01591800352680944 0.25266184638829969 0 0.0033435243420843392 0.24550581269512031 0 0.001071073268911413 0.25677565652066781 0 0.01591800352680944 0.25266184638829969 0 0.001071073268911413 0.25677565652066781 0 0.0013692637925755099 0.27360342369342261 0 0.02214625704224385 0.26763071907828873 0 0.011897649909806339 0.28769702659914947 0 0.0013692637925755099 0.27360342369342261 0 0.02214625704224385 0.26763071907828873 0 0.02214625704224385 0.26763071907828873 0 0.01591800352680944 0.25266184638829969 0 0.033371124929654633 0.25067541080430228 0 0.040316670367303888 0.28879505137171518 0 0.02214625704224385 0.26763071907828873 0 0.054632320380536177 0.26411397417515048 0 0.033371124929654633 0.25067541080430228 0 0.054632320380536177 0.26411397417515048 0 0.02214625704224385 0.26763071907828873 0 0.033371124929654633 0.25067541080430228 0 0.054632320380536177 0.26411397417515048 0 0.040316670367303888 0.28879505137171518 0 0.054632320380536177 0.26411397417515048 0 0.068735690824801493 0.28989307614428078 0 0.058328838893199828 0.24486311732509269 0 0.054632320380536177 0.26411397417515048 0 0.073189528411794241 0.25034404403557708 0 0.058328838893199828 0.24486311732509269 0 0.033371124929654633 0.25067541080430228 0 0.054632320380536177 0.26411397417515048 0 0.054632320380536177 0.26411397417515048 0 0.073189528411794241 0.25034404403557708 0 0.081466025977729298 0.26303460469811529 0 0.093649627678486516 0.24667326851556401 0 0.073189528411794241 0.25034404403557708 0 0.081466025977729298 0.26303460469811529 0 0.093649627678486516 0.24667326851556401 0 0.081466025977729298 0.26303460469811529 0 0.099370017623480314 0.26394827202129489 0 0.081466025977729298 0.26303460469811529 0 0.092061145940660949 0.27557553189510692 0 0.099370017623480314 0.26394827202129489 0 0.081466025977729298 0.26303460469811529 0 0.092061145940660949 0.27557553189510692 0 0.075893515831417638 0.27755253754599862 0 0.054632320380536177 0.26411397417515048 0 0.081466025977729298 0.26303460469811529 0 0.075893515831417638 0.27755253754599862 0 0.054632320380536177 0.26411397417515048 0 0.075893515831417638 0.27755253754599862 0 0.054632320380536177 0.26411397417515048 0 0.075893515831417638 0.27755253754599862 0 0.068735690824801493 0.28989307614428078 0 0.065816721422900043 0.31391018835044071 0 0.068735690824801493 0.28989307614428078 0 0.081977196563509658 0.30949718410903099 0 0.068735690824801493 0.28989307614428078 0 0.081977196563509658 0.30949718410903099 0 0.08991052321202557 0.30029574677092408 0 0.081977196563509658 0.30949718410903099 0 0.08991052321202557 0.30029574677092408 0 0.094391500705662212 0.30898407534659722 0 0.068735690824801493 0.28989307614428078 0 0.097154711282299078 0.29099110091684671 0 0.092061145940660949 0.27557553189510692 0 0.075893515831417638 0.27755253754599862 0 0.097154711282299078 0.29099110091684671 0 0.075893515831417638 0.27755253754599862 0 0.097154711282299078 0.29099110091684671 0 0.068735690824801493 0.28989307614428078 0 0.08991052321202557 0.30029574677092408 0 0.097154711282299078 0.29099110091684671 0 0.075893515831417638 0.27755253754599862 0 0.068735690824801493 0.28989307614428078 0 0.097154711282299078 0.29099110091684671 0 0.097154711282299078 0.29099110091684671 0 0.1175686367613324 0.28407368973956248 0 0.10399851709922529 0.27699419656772511 0 0.08991052321202557 0.30029574677092408 0 0.097154711282299078 0.29099110091684671 0 0.1016264654285564 0.29895731737562081 0 0.097154711282299078 0.29099110091684671 0 0.1115599887458433 0.30009624434660931 0 0.097154711282299078 0.29099110091684671 0 0.1016264654285564 0.29895731737562081 0 0.1115599887458433 0.30009624434660931 0 0.1049935887392998 0.31611290923302737 0 0.1016264654285564 0.29895731737562081 0 0.11259725024726 0.31097143714882308 0 0.1049935887392998 0.31611290923302737 0 0.1016264654285564 0.29895731737562081 0 0.1049935887392998 0.31611290923302737 0 0.094391500705662212 0.30898407534659722 0 0.1016264654285564 0.29895731737562081 0 0.08991052321202557 0.30029574677092408 0 0.094391500705662212 0.30898407534659722 0 0.1016264654285564 0.29895731737562081 0 0.1016264654285564 0.29895731737562081 0 0.11259725024726 0.31097143714882308 0 0.1115599887458433 0.30009624434660931 0 0.11259725024726 0.31097143714882308 0 0.1115599887458433 0.30009624434660931 0 0.1189326920124657 0.30480185176572411 0 0.1115599887458433 0.30009624434660931 0 0.1189326920124657 0.30480185176572411 0 0.12570208261047081 0.29209408477784371 0 0.1189326920124657 0.30480185176572411 0 0.12570208261047081 0.29209408477784371 0 0.1267781265202354 0.30696681993556429 0 0.1203407132176403 0.31305045998796183 0 0.1189326920124657 0.30480185176572411 0 0.1267781265202354 0.30696681993556429 0 0.1203407132176403 0.31305045998796183 0 0.11259725024726 0.31097143714882308 0 0.1189326920124657 0.30480185176572411 0 0.1203407132176403 0.31305045998796183 0 0.1267781265202354 0.30696681993556429 0 0.12619607839551461 0.3130358504436016 0 0.097154711282299078 0.29099110091684671 0 0.1115599887458433 0.30009624434660931 0 0.12570208261047081 0.29209408477784371 0 0.097154711282299078 0.29099110091684671 0 0.12570208261047081 0.29209408477784371 0 0.097154711282299078 0.29099110091684671 0 0.1175686367613324 0.28407368973956248 0 0.12570208261047081 0.29209408477784371 0 0.1175686367613324 0.28407368973956248 0 0.12604700905419131 0.27737040616081182 0 0.12643001628294401 0.28428972833423211 0 0.1175686367613324 0.28407368973956248 0 0.12643001628294401 0.28428972833423211 0 0.12570208261047081 0.29209408477784371 0 0.1175686367613324 0.28407368973956248 0 0.12570208261047081 0.29209408477784371 0 0.1175686367613324 0.28407368973956248 0 0.1138380738883539 0.27038238826581479 0 0.12604700905419131 0.27737040616081182 0 0.1175686367613324 0.28407368973956248 0 0.1138380738883539 0.27038238826581479 0 0.10399851709922529 0.27699419656772511 0 0.1138380738883539 0.27038238826581479 0 0.12463432983057569 0.26367416446373809 0 0.12604700905419131 0.27737040616081182 0 0.1337942598672309 0.24999146204144321 0 0.12463432983057569 0.26367416446373809 0 0.1127245953623645 0.25546607531009391 0 0.1138380738883539 0.27038238826581479 0 0.12463432983057569 0.26367416446373809 0 0.1127245953623645 0.25546607531009391 0 0.1138380738883539 0.27038238826581479 0 0.1127245953623645 0.25546607531009391 0 0.099370017623480314 0.26394827202129489 0 0.093649627678486516 0.24667326851556401 0 0.1127245953623645 0.25546607531009391 0 0.099370017623480314 0.26394827202129489 0 0.092061145940660949 0.27557553189510692 0 0.099370017623480314 0.26394827202129489 0 0.10399851709922529 0.27699419656772511 0 0.092061145940660949 0.27557553189510692 0 0.097154711282299078 0.29099110091684671 0 0.10399851709922529 0.27699419656772511 0 0.1138380738883539 0.27038238826581479 0 0.099370017623480314 0.26394827202129489 0 0.10399851709922529 0.27699419656772511 0 0.14743632467798959 0.27981213896963097 0 0.13778341284603149 0.26664900586173629 0 0.15652725644840129 0.26185602753017878 0 0.14743632467798959 0.27981213896963097 0 0.15652725644840129 0.26185602753017878 0 0.1337942598672309 0.24999146204144321 0 0.15652725644840129 0.26185602753017878 0 0.1337942598672309 0.24999146204144321 0 0.13778341284603149 0.26664900586173629 0 0.15652725644840129 0.26185602753017878 0 0.1337942598672309 0.24999146204144321 0 0.12463432983057569 0.26367416446373809 0 0.13778341284603149 0.26664900586173629 0 0.12463432983057569 0.26367416446373809 0 0.13778341284603149 0.26664900586173629 0 0.12604700905419131 0.27737040616081182 0 0.14743632467798959 0.27981213896963097 0 0.13778341284603149 0.26664900586173629 0 0.12604700905419131 0.27737040616081182 0 0.14743632467798959 0.27981213896963097 0 0.12604700905419131 0.27737040616081182 0 0.1364023367057817 0.28362073265871041 0 0.14743632467798959 0.27981213896963097 0 0.12604700905419131 0.27737040616081182 0 0.12570208261047081 0.29209408477784371 0 0.14198333557767309 0.28699954159384689 0 0.15002121463158011 0.29303370229373971 0 0.12643001628294401 0.28428972833423211 0 0.12570208261047081 0.29209408477784371 0 0.1364023367057817 0.28362073265871041 0 0.12570208261047081 0.29209408477784371 0 0.1387424303564691 0.30495317824196838 0 0.15002121463158011 0.29303370229373971 0 0.12604700905419131 0.27737040616081182 0 0.12643001628294401 0.28428972833423211 0 0.1364023367057817 0.28362073265871041 0 0.12570208261047081 0.29209408477784371 0 0.15002121463158011 0.29303370229373971 0 0.12570208261047081 0.29209408477784371 0 0.1364023367057817 0.28362073265871041 0 0.14198333557767309 0.28699954159384689 0 0.1267781265202354 0.30696681993556429 0 0.1387424303564691 0.30495317824196838 0 0.131908360867628 0.31342820393330739 0 0.1267781265202354 0.30696681993556429 0 0.12619607839551461 0.3130358504436016 0 0.131908360867628 0.31342820393330739 0 0.12570208261047081 0.29209408477784371 0 0.1387424303564691 0.30495317824196838 0 0.12570208261047081 0.29209408477784371 0 0.1267781265202354 0.30696681993556429 0 0.1387424303564691 0.30495317824196838 0 0.1387424303564691 0.30495317824196838 0 0.1517827781024699 0.31781227170609061 0 0.131908360867628 0.31342820393330739 0 0.1387424303564691 0.30495317824196838 0 0.1517827781024699 0.31781227170609061 0 0.1387424303564691 0.30495317824196838 0 0.15022883968033879 0.30489629789611722 0 0.1517827781024699 0.31781227170609061 0 0.1387424303564691 0.30495317824196838 0 0.15022883968033879 0.30489629789611722 0 0.15002121463158011 0.29303370229373971 0 0.15022883968033879 0.30489629789611722 0 0.15002121463158011 0.29303370229373971 0 0.1603689356308366 0.30378603934267168 0 0.15022883968033879 0.30489629789611722 0 0.1603689356308366 0.30378603934267168 0 0.1517827781024699 0.31781227170609061 0 0.14743632467798959 0.27981213896963097 0 0.1364023367057817 0.28362073265871041 0 0.14198333557767309 0.28699954159384689 0 0.14198333557767309 0.28699954159384689 0 0.15002121463158011 0.29303370229373971 0 0.15183630905960591 0.28615392532081041 0 0.14743632467798959 0.27981213896963097 0 0.14198333557767309 0.28699954159384689 0 0.15183630905960591 0.28615392532081041 0 0.14743632467798959 0.27981213896963097 0 0.1729069674535747 0.28271978245017643 0 0.15002121463158011 0.29303370229373971 0 0.17434034665268949 0.2939733198096357 0 0.15183630905960591 0.28615392532081041 0 0.1729069674535747 0.28271978245017643 0 0.17434034665268949 0.2939733198096357 0 0.14743632467798959 0.27981213896963097 0 0.15183630905960591 0.28615392532081041 0 0.1729069674535747 0.28271978245017643 0 0.15002121463158011 0.29303370229373971 0 0.15183630905960591 0.28615392532081041 0 0.17434034665268949 0.2939733198096357 0 0.1603689356308366 0.30378603934267168 0 0.17531442666264679 0.30943610283612349 0 0.1517827781024699 0.31781227170609061 0 0.15002121463158011 0.29303370229373971 0 0.1603689356308366 0.30378603934267168 0 0.17434034665268949 0.2939733198096357 0 0.1603689356308366 0.30378603934267168 0 0.17531442666264679 0.30943610283612349 0 0.17434034665268949 0.2939733198096357 0 0.17531442666264679 0.30943610283612349 0 0.1988460752228258 0.30105993396616271 0 0.17531442666264679 0.30943610283612349 0 0.17434034665268949 0.2939733198096357 0 0.1988460752228258 0.30105993396616271 0 0.1729069674535747 0.28271978245017643 0 0.19837761022915951 0.28562742593072549 0 0.1729069674535747 0.28271978245017643 0 0.17434034665268949 0.2939733198096357 0 0.19837761022915951 0.28562742593072549 0 0.17434034665268949 0.2939733198096357 0 0.19865947867379879 0.29491293732553209 0 0.1729069674535747 0.28271978245017643 0 0.17742267923791849 0.2727615459124908 0 0.19831810202743261 0.2836670642948087 0 0.1729069674535747 0.28271978245017643 0 0.17742267923791849 0.2727615459124908 0 0.15652725644840129 0.26185602753017878 0 0.14743632467798959 0.27981213896963097 0 0.1729069674535747 0.28271978245017643 0 0.15652725644840129 0.26185602753017878 0 0.17742267923791849 0.2727615459124908 0 0.15652725644840129 0.26185602753017878 0 0.17742267923791849 0.2727615459124908 0 0.15652725644840129 0.26185602753017878 0 0.1773186989433643 0.25563234473147572 0 0.16432702787711759 0.24645017381646839 0 0.15652725644840129 0.26185602753017878 0 0.1773186989433643 0.25563234473147572 0 0.16432702787711759 0.24645017381646839 0 0.15652725644840129 0.26185602753017878 0 0.18236044891295111 0.23853512487555209 0 0.1773186989433643 0.25563234473147572 0 0.19757095652901999 0.25905406425491012 0 0.17742267923791849 0.2727615459124908 0 0.1773186989433643 0.25563234473147572 0 0.19757095652901999 0.25905406425491012 0 0.19757095652901999 0.25905406425491012 0 0.20904777146136849 0.27446707417574762 0 0.19831810202743261 0.2836670642948087 0 0.17742267923791849 0.2727615459124908 0 0.19757095652901999 0.25905406425491012 0 0.19831810202743261 0.2836670642948087 0 0.19757095652901999 0.25905406425491012 0 0.19831810202743261 0.2836670642948087 0 0.17742267923791849 0.2727615459124908 0 0.19831810202743261 0.2836670642948087 0 0.21959118367750821 0.26546038004836048 0 0.21375013932642789 0.28738230249206381 0 0.20904777146136849 0.27446707417574762 0 0.21359530402878041 0.26884066895525899 0 0.21375013932642789 0.28738230249206381 0 0.21359530402878041 0.26884066895525899 0 0.21959118367750821 0.26546038004836048 0 0.21375013932642789 0.28738230249206381 0 0.21959118367750821 0.26546038004836048 0 0.21992094036438881 0.26872193116999998 0 0.21375013932642789 0.28738230249206381 0 0.20904777146136849 0.27446707417574762 0 0.20749425810895211 0.28239526032456869 0 0.19831810202743261 0.2836670642948087 0 0.20904777146136849 0.27446707417574762 0 0.21359530402878041 0.26884066895525899 0 0.20929874778716459 0.26282463585822008 0 0.19757095652901999 0.25905406425491012 0 0.21019685046771899 0.25079609985483631 0 0.20929874778716459 0.26282463585822008 0 0.19757095652901999 0.25905406425491012 0 0.20904777146136849 0.27446707417574762 0 0.20929874778716459 0.26282463585822008 0 0.21359530402878041 0.26884066895525899 0 0.2174648780305414 0.25940754872544591 0 0.21959118367750821 0.26546038004836048 0 0.21359530402878041 0.26884066895525899 0 0.20929874778716459 0.26282463585822008 0 0.2174648780305414 0.25940754872544591 0 0.2253267238992222 0.24953808168636099 0 0.21019685046771899 0.25079609985483631 0 0.2174648780305414 0.25940754872544591 0 0.21019685046771899 0.25079609985483631 0 0.20929874778716459 0.26282463585822008 0 0.2174648780305414 0.25940754872544591 0 0.2253267238992222 0.24953808168636099 0 0.2174648780305414 0.25940754872544591 0 0.22519052997288239 0.25846762773900961 0 0.2253267238992222 0.24953808168636099 0 0.22519052997288239 0.25846762773900961 0 0.23438018566661431 0.25631078815607777 0 0.22908350787502829 0.26535201368132638 0 0.22519052997288239 0.25846762773900961 0 0.23438018566661431 0.25631078815607777 0 0.22908350787502829 0.26535201368132638 0 0.2229089485238481 0.26273846013992569 0 0.22519052997288239 0.25846762773900961 0 0.22908350787502829 0.26535201368132638 0 0.2229089485238481 0.26273846013992569 0 0.22367831774227431 0.26691498417818871 0 0.2174648780305414 0.25940754872544591 0 0.2229089485238481 0.26273846013992569 0 0.22519052997288239 0.25846762773900961 0 0.2229089485238481 0.26273846013992569 0 0.21959118367750821 0.26546038004836048 0 0.22367831774227431 0.26691498417818871 0 0.2174648780305414 0.25940754872544591 0 0.2229089485238481 0.26273846013992569 0 0.21959118367750821 0.26546038004836048 0 0.22908350787502829 0.26535201368132638 0 0.2258781155759465 0.27325241908838938 0 0.22367831774227431 0.26691498417818871 0 0.21992094036438881 0.26872193116999998 0 0.22632175426121251 0.28881743605061222 0 0.21992094036438881 0.26872193116999998 0 0.2258781155759465 0.27325241908838938 0 0.22632175426121251 0.28881743605061222 0 0.21959118367750821 0.26546038004836048 0 0.21992094036438881 0.26872193116999998 0 0.22367831774227431 0.26691498417818871 0 0.21992094036438881 0.26872193116999998 0 0.2258781155759465 0.27325241908838938 0 0.22367831774227431 0.26691498417818871 0 0.2258781155759465 0.27325241908838938 0 0.23038605763682871 0.27645573036182058 0 0.22632175426121251 0.28881743605061222 0 0.22908350787502829 0.26535201368132638 0 0.2258781155759465 0.27325241908838938 0 0.23038605763682871 0.27645573036182058 0 0.22908350787502829 0.26535201368132638 0 0.23038605763682871 0.27645573036182058 0 0.24253861414669159 0.26415637433626837 0 0.23038605763682871 0.27645573036182058 0 0.24253861414669159 0.26415637433626837 0 0.25889979196743268 0.27968361298993832 0 0.24398959813062701 0.2460479105434944 0 0.2253267238992222 0.24953808168636099 0 0.23438018566661431 0.25631078815607777 0 0.24398959813062701 0.2460479105434944 0 0.24253861414669159 0.26415637433626837 0 0.26209420568568409 0.25604433713168329 0 0.24398959813062701 0.2460479105434944 0 0.24253861414669159 0.26415637433626837 0 0.23438018566661431 0.25631078815607777 0 0.22908350787502829 0.26535201368132638 0 0.24253861414669159 0.26415637433626837 0 0.23438018566661431 0.25631078815607777 0 0.24400789250529489 0.30654560212132592 0 0.22863215418157651 0.29607099061793091 0 0.25653963196182239 0.29714925093265238 0 0.24400789250529489 0.30654560212132592 0 0.22863215418157651 0.29607099061793091 0 0.23639651945168219 0.32044739691489932 0 0.23155975864592429 0.28941538913073123 0 0.22863215418157651 0.29607099061793091 0 0.25653963196182239 0.29714925093265238 0 0.23155975864592429 0.28941538913073123 0 0.2571893546374926 0.29234117817934158 0 0.23038605763682871 0.27645573036182058 0 0.23155975864592429 0.28941538913073123 0 0.25889979196743268 0.27968361298993832 0 0.23155975864592429 0.28941538913073123 0 0.2571893546374926 0.29234117817934158 0 0.25889979196743268 0.27968361298993832 0 0.23155975864592429 0.28941538913073123 0 0.2571893546374926 0.29234117817934158 0 0.25653963196182239 0.29714925093265238 0 0.22863215418157651 0.29607099061793091 0 0.25653963196182239 0.29714925093265238 0 0.23155975864592429 0.28941538913073123 0 0.25889979196743268 0.27968361298993832 0 0.21992094036438881 0.26872193116999998 0 0.22632175426121251 0.28881743605061222 0 0.21375013932642789 0.28738230249206381 0 0.23155975864592429 0.28941538913073123 0 0.22702621846654561 0.29102911789368519 0 0.23155975864592429 0.28941538913073123 0 0.22702621846654561 0.29102911789368519 0 0.22863215418157651 0.29607099061793091 0 0.23155975864592429 0.28941538913073123 0 0.22702621846654561 0.29102911789368519 0 0.22632175426121251 0.28881743605061222 0 0.23155975864592429 0.28941538913073123 0 0.22632175426121251 0.28881743605061222 0 0.22702621846654561 0.29102911789368519 0 0.22632175426121251 0.28881743605061222 0 0.22702621846654561 0.29102911789368519 0 0.22863215418157651 0.29607099061793091 0 0.23038605763682871 0.27645573036182058 0 0.23155975864592429 0.28941538913073123 0 0.22632175426121251 0.28881743605061222 0 0.22632175426121251 0.28881743605061222 0 0.21375013932642789 0.28738230249206381 0 0.22632175426121251 0.28881743605061222 0 0.21375013932642789 0.28738230249206381 0 0.21834492619973431 0.29411925286023199 0 0.22702621846654561 0.29102911789368519 0 0.21834492619973431 0.29411925286023199 0 0.22702621846654561 0.29102911789368519 0 0.22863215418157651 0.29607099061793091 0 0.21834492619973431 0.29411925286023199 0 0.22702621846654561 0.29102911789368519 0 0.22632175426121251 0.28881743605061222 0 0.21834492619973431 0.29411925286023199 0 0.22863215418157651 0.29607099061793091 0 0.21834492619973431 0.29411925286023199 0 0.2144059787935014 0.29552133434042532 0 0.22863215418157651 0.29607099061793091 0 0.2144059787935014 0.29552133434042532 0 0.22863215418157651 0.29607099061793091 0 0.22000384665766309 0.30862055024816532 0 0.2144059787935014 0.29552133434042532 0 0.22863215418157651 0.29607099061793091 0 0.23639651945168219 0.32044739691489932 0 0.22863215418157651 0.29607099061793091 0 0.22000384665766309 0.30862055024816532 0 0.23639651945168219 0.32044739691489932 0 0.21161029436596179 0.29541331757179151 0 0.1988460752228258 0.30105993396616271 0 0.20564161533860059 0.31781426350965042 0 0.21161029436596179 0.29541331757179151 0 0.20564161533860059 0.31781426350965042 0 0.22000384665766309 0.30862055024816532 0 0.21161029436596179 0.29541331757179151 0 0.20564161533860059 0.31781426350965042 0 0.22000384665766309 0.30862055024816532 0 0.2144059787935014 0.29552133434042532 0 0.21161029436596179 0.29541331757179151 0 0.21161029436596179 0.29541331757179151 0 0.1988460752228258 0.30105993396616271 0 0.21375013932642789 0.28738230249206381 0 0.2127351929594849 0.29119148013279278 0 0.2127351929594849 0.29119148013279278 0 0.21834492619973431 0.29411925286023199 0 0.21375013932642789 0.28738230249206381 0 0.2127351929594849 0.29119148013279278 0 0.21834492619973431 0.29411925286023199 0 0.21834492619973431 0.29411925286023199 0 0.2144059787935014 0.29552133434042532 0 0.2127351929594849 0.29119148013279278 0 0.21834492619973431 0.29411925286023199 0 0.2144059787935014 0.29552133434042532 0 0.2144059787935014 0.29552133434042532 0 0.21161029436596179 0.29541331757179151 0 0.2127351929594849 0.29119148013279278 0 0.21161029436596179 0.29541331757179151 0 0.2127351929594849 0.29119148013279278 0 0.2144059787935014 0.29552133434042532 0 0.21161029436596179 0.29541331757179151 0 0.2127351929594849 0.29119148013279278 0 0.20632293789947129 0.29174373195178988 0 0.2031091628731071 0.28616756417219641 0 0.21161029436596179 0.29541331757179151 0 0.19865947867379879 0.29491293732553209 0 0.21161029436596179 0.29541331757179151 0 0.20632293789947129 0.29174373195178988 0 0.19865947867379879 0.29491293732553209 0 0.2127351929594849 0.29119148013279278 0 0.21161029436596179 0.29541331757179151 0 0.20632293789947129 0.29174373195178988 0 0.21375013932642789 0.28738230249206381 0 0.2127351929594849 0.29119148013279278 0 0.2031091628731071 0.28616756417219641 0 0.20904777146136849 0.27446707417574762 0 0.21375013932642789 0.28738230249206381 0 0.20749425810895211 0.28239526032456869 0 0.21375013932642789 0.28738230249206381 0 0.2031091628731071 0.28616756417219641 0 0.2127351929594849 0.29119148013279278 0 0.2031091628731071 0.28616756417219641 0 0.21375013932642789 0.28738230249206381 0 0.20749425810895211 0.28239526032456869 0 0.2031091628731071 0.28616756417219641 0 0.17434034665268949 0.2939733198096357 0 0.19837761022915951 0.28562742593072549 0 0.19865947867379879 0.29491293732553209 0 0.17434034665268949 0.2939733198096357 0 0.19865947867379879 0.29491293732553209 0 0.1988460752228258 0.30105993396616271 0 0.1729069674535747 0.28271978245017643 0 0.19831810202743261 0.2836670642948087 0 0.19837761022915951 0.28562742593072549 0 0.2031091628731071 0.28616756417219641 0 0.19837761022915951 0.28562742593072549 0 0.19865947867379879 0.29491293732553209 0 0.20749425810895211 0.28239526032456869 0 0.19831810202743261 0.2836670642948087 0 0.2031091628731071 0.28616756417219641 0 0.19831810202743261 0.2836670642948087 0 0.19837761022915951 0.28562742593072549 0 0.19831810202743261 0.2836670642948087 0 0.2031091628731071 0.28616756417219641 0 0.19831810202743261 0.2836670642948087 0 0.2031091628731071 0.28616756417219641 0 0.19837761022915951 0.28562742593072549 0 0.2031091628731071 0.28616756417219641 0 0.19837761022915951 0.28562742593072549 0 0.19837761022915951 0.28562742593072549 0 0.19865947867379879 0.29491293732553209 0 0.20632293789947129 0.29174373195178988 0 0.2031091628731071 0.28616756417219641 0 0.19865947867379879 0.29491293732553209 0 0.1988460752228258 0.30105993396616271 0 0.19942187079064261 0.3200282023473211 0 0.17531442666264679 0.30943610283612349 0 0.1988460752228258 0.30105993396616271 0 0.19942187079064261 0.3200282023473211 0 0.21161029436596179 0.29541331757179151 0 0.19865947867379879 0.29491293732553209 0 0.1988460752228258 0.30105993396616271 0 0.19865947867379879 0.29491293732553209 0 0.1988460752228258 0.30105993396616271 0 0.19942187079064261 0.3200282023473211 0 0.1911678955294501 0.33201369128086378 0 0.17903192419200961 0.32385047824931451 0 0.19942187079064261 0.3200282023473211 0 0.19999766635845689 0.3389964707284796 0 0.20564161533860059 0.31781426350965042 0 0.1988460752228258 0.30105993396616271 0 0.19942187079064261 0.3200282023473211 0 0.20564161533860059 0.31781426350965042 0 0.19942187079064261 0.3200282023473211 0 0.19999766635845689 0.3389964707284796 0 0.19999766635845689 0.3389964707284796 0 0.20564161533860059 0.31781426350965042 0 0.19942187079064261 0.3200282023473211 0 0.1911678955294501 0.33201369128086378 0 0.19999766635845689 0.3389964707284796 0 0.19193880929601559 0.34182828253621977 0 0.1911678955294501 0.33201369128086378 0 0.18372935812326111 0.33723673080428468 0 0.19193880929601559 0.34182828253621977 0 0.1911678955294501 0.33201369128086378 0 0.19999766635845689 0.3389964707284796 0 0.19999766635845689 0.3389964707284796 0 0.197565593562745 0.34812424103810879 0 0.19193880929601559 0.34182828253621977 0 0.19999766635845689 0.3389964707284796 0 0.197565593562745 0.34812424103810879 0 0.19999766635845689 0.3389964707284796 0 0.21295804744207961 0.33242742323349977 0 0.20564161533860059 0.31781426350965042 0 0.19999766635845689 0.3389964707284796 0 0.21295804744207961 0.33242742323349977 0 0.21377324676889931 0.34666347012720788 0 0.21295804744207961 0.33242742323349977 0 0.22529380117738171 0.33702022918735408 0 0.21377324676889931 0.34666347012720788 0 0.21295804744207961 0.33242742323349977 0 0.20564161533860059 0.31781426350965042 0 0.2200587660134814 0.32326597261871381 0 0.22000384665766309 0.30862055024816532 0 0.20564161533860059 0.31781426350965042 0 0.2200587660134814 0.32326597261871381 0 0.22000384665766309 0.30862055024816532 0 0.2200587660134814 0.32326597261871381 0 0.23639651945168219 0.32044739691489932 0 0.2200587660134814 0.32326597261871381 0 0.22529380117738171 0.33702022918735408 0 0.23639651945168219 0.32044739691489932 0 0.21295804744207961 0.33242742323349977 0 0.2200587660134814 0.32326597261871381 0 0.22529380117738171 0.33702022918735408 0 0.22529380117738171 0.33702022918735408 0 0.23639651945168219 0.32044739691489932 0 0.24416088472178729 0.34482380321186801 0 0.23639651945168219 0.32044739691489932 0 0.24416088472178729 0.34482380321186801 0 0.23639651945168219 0.32044739691489932 0 0.24416088472178729 0.34482380321186801 0 0.25238689689037419 0.32788028910698541 0 0.23639651945168219 0.32044739691489932 0 0.25446326442609829 0.31251477001981892 0 0.25238689689037419 0.32788028910698541 0 0.24400789250529489 0.30654560212132592 0 0.23639651945168219 0.32044739691489932 0 0.25446326442609829 0.31251477001981892 0 0.23612722761753629 0.36063718746288143 0 0.24386985605873099 0.37452817703195512 0 0.25153519114805228 0.35834531681273241 0 0.23612722761753629 0.36063718746288143 0 0.24386985605873099 0.37452817703195512 0 0.2300448309524219 0.37481157113047497 0 0.23612722761753629 0.36063718746288143 0 0.24416088472178729 0.34482380321186801 0 0.25153519114805228 0.35834531681273241 0 0.23612722761753629 0.36063718746288143 0 0.24416088472178729 0.34482380321186801 0 0.22711054661274799 0.35108748701343551 0 0.22529380117738171 0.33702022918735408 0 0.24416088472178729 0.34482380321186801 0 0.22711054661274799 0.35108748701343551 0 0.23612722761753629 0.36063718746288143 0 0.22711054661274799 0.35108748701343551 0 0.218392286599254 0.36091038156409461 0 0.22529380117738171 0.33702022918735408 0 0.22711054661274799 0.35108748701343551 0 0.21377324676889931 0.34666347012720788 0 0.22711054661274799 0.35108748701343551 0 0.218392286599254 0.36091038156409461 0 0.21377324676889931 0.34666347012720788 0 0.23612722761753629 0.36063718746288143 0 0.2300448309524219 0.37481157113047497 0 0.218392286599254 0.36091038156409461 0 0.218392286599254 0.36091038156409461 0 0.20495891030801469 0.37024928239099708 0 0.20660932818989111 0.38063619410987293 0 0.218392286599254 0.36091038156409461 0 0.20495891030801469 0.37024928239099708 0 0.20067580257088299 0.36133611763661022 0 0.19999766635845689 0.3389964707284796 0 0.21377324676889931 0.34666347012720788 0 0.20067580257088299 0.36133611763661022 0 0.218392286599254 0.36091038156409461 0 0.21377324676889931 0.34666347012720788 0 0.20067580257088299 0.36133611763661022 0 0.19999766635845689 0.3389964707284796 0 0.197565593562745 0.34812424103810879 0 0.20067580257088299 0.36133611763661022 0 0.19999766635845689 0.3389964707284796 0 0.20067580257088299 0.36133611763661022 0 0.197565593562745 0.34812424103810879 0 0.20067580257088299 0.36133611763661022 0 0.1872335329061656 0.3527702788293624 0 0.19193880929601559 0.34182828253621977 0 0.197565593562745 0.34812424103810879 0 0.1872335329061656 0.3527702788293624 0 0.19193880929601559 0.34182828253621977 0 0.1872335329061656 0.3527702788293624 0 0.18372935812326111 0.33723673080428468 0 0.20495891030801469 0.37024928239099708 0 0.18919886698873209 0.36907932361196649 0 0.19397337886704771 0.38314324263145472 0 0.20495891030801469 0.37024928239099708 0 0.1872335329061656 0.3527702788293624 0 0.20495891030801469 0.37024928239099708 0 0.20067580257088299 0.36133611763661022 0 0.1872335329061656 0.3527702788293624 0 0.20495891030801469 0.37024928239099708 0 0.18919886698873209 0.36907932361196649 0 0.1872335329061656 0.3527702788293624 0 0.18919886698873209 0.36907932361196649 0 0.17893312584429791 0.3621702265069599 0 0.17991755807318199 0.37791648914964748 0 0.18919886698873209 0.36907932361196649 0 0.17893312584429791 0.3621702265069599 0 0.1872335329061656 0.3527702788293624 0 0.17893312584429791 0.3621702265069599 0 0.17039253442124419 0.37007089768199841 0 0.17991755807318199 0.37791648914964748 0 0.17893312584429791 0.3621702265069599 0 0.17039253442124419 0.37007089768199841 0 0.16652116852788981 0.36038162668868501 0 0.16652116852788981 0.36038162668868501 0 0.1558281673071511 0.36683613345365967 0 0.15032374726740871 0.35575083131179558 0 0.17039253442124419 0.37007089768199841 0 0.16652116852788981 0.36038162668868501 0 0.1558281673071511 0.36683613345365967 0 0.17039253442124419 0.37007089768199841 0 0.1558281673071511 0.36683613345365967 0 0.1620529333072174 0.37891034361460518 0 0.16652116852788981 0.36038162668868501 0 0.1633296040555397 0.34877437358279711 0 0.15032374726740871 0.35575083131179558 0 0.1633296040555397 0.34877437358279711 0 0.17302256363703239 0.35210134421639072 0 0.1695081555043165 0.33529127526772767 0 0.1633296040555397 0.34877437358279711 0 0.1572723853410509 0.34034679042938598 0 0.15032374726740871 0.35575083131179558 0 0.16652116852788981 0.36038162668868501 0 0.1633296040555397 0.34877437358279711 0 0.17302256363703239 0.35210134421639072 0 0.17302256363703239 0.35210134421639072 0 0.1872335329061656 0.3527702788293624 0 0.1695081555043165 0.33529127526772767 0 0.1872335329061656 0.3527702788293624 0 0.1695081555043165 0.33529127526772767 0 0.17893312584429791 0.3621702265069599 0 0.16652116852788981 0.36038162668868501 0 0.17302256363703239 0.35210134421639072 0 0.17893312584429791 0.3621702265069599 0 0.17302256363703239 0.35210134421639072 0 0.1872335329061656 0.3527702788293624 0 0.1872335329061656 0.3527702788293624 0 0.18372935812326111 0.33723673080428468 0 0.1695081555043165 0.33529127526772767 0 0.1911678955294501 0.33201369128086378 0 0.18372935812326111 0.33723673080428468 0 0.17903192419200961 0.32385047824931451 0 0.18372935812326111 0.33723673080428468 0 0.17903192419200961 0.32385047824931451 0 0.1695081555043165 0.33529127526772767 0 0.17531442666264679 0.30943610283612349 0 0.19942187079064261 0.3200282023473211 0 0.17903192419200961 0.32385047824931451 0 0.1695081555043165 0.33529127526772767 0 0.1517827781024699 0.31781227170609061 0 0.17531442666264679 0.30943610283612349 0 0.17903192419200961 0.32385047824931451 0 0.1517827781024699 0.31781227170609061 0 0.17531442666264679 0.30943610283612349 0 0.1517827781024699 0.31781227170609061 0 0.17903192419200961 0.32385047824931451 0 0.1695081555043165 0.33529127526772767 0 0.1517827781024699 0.31781227170609061 0 0.1695081555043165 0.33529127526772767 0 0.1572723853410509 0.34034679042938598 0 0.1517827781024699 0.31781227170609061 0 0.1633296040555397 0.34877437358279711 0 0.1695081555043165 0.33529127526772767 0 0.1572723853410509 0.34034679042938598 0 0.1572723853410509 0.34034679042938598 0 0.14449074315281621 0.33150778394742952 0 0.1517827781024699 0.31781227170609061 0 0.1572723853410509 0.34034679042938598 0 0.14449074315281621 0.33150778394742952 0 0.1349204454541065 0.34310338279765601 0 0.1572723853410509 0.34034679042938598 0 0.1349204454541065 0.34310338279765601 0 0.1517827781024699 0.31781227170609061 0 0.1301507759590291 0.32551225509168069 0 0.14449074315281621 0.33150778394742952 0 0.1517827781024699 0.31781227170609061 0 0.1301507759590291 0.32551225509168069 0 0.1517827781024699 0.31781227170609061 0 0.1301507759590291 0.32551225509168069 0 0.131908360867628 0.31342820393330739 0 0.1198279242949423 0.31902122911367181 0 0.1301507759590291 0.32551225509168069 0 0.1257571129765549 0.31869791791757279 0 0.1301507759590291 0.32551225509168069 0 0.1257571129765549 0.31869791791757279 0 0.131908360867628 0.31342820393330739 0 0.1257571129765549 0.31869791791757279 0 0.12619607839551461 0.3130358504436016 0 0.131908360867628 0.31342820393330739 0 0.14449074315281621 0.33150778394742952 0 0.1301507759590291 0.32551225509168069 0 0.1349204454541065 0.34310338279765601 0 0.112568505567162 0.34585997516592548 0 0.1301507759590291 0.32551225509168069 0 0.1349204454541065 0.34310338279765601 0 0.1349204454541065 0.34310338279765601 0 0.1354389827289188 0.35622015692373138 0 0.15032374726740871 0.35575083131179558 0 0.1223247659028195 0.35564053513504729 0 0.1349204454541065 0.34310338279765601 0 0.1354389827289188 0.35622015692373138 0 0.1223247659028195 0.35564053513504729 0 0.1354389827289188 0.35622015692373138 0 0.12951054606610321 0.36574029847411921 0 0.1354389827289188 0.35622015692373138 0 0.12951054606610321 0.36574029847411921 0 0.1420713059527417 0.37235008551999182 0 0.12951054606610321 0.36574029847411921 0 0.1420713059527417 0.37235008551999182 0 0.12623243759338121 0.37631401043276969 0 0.1217066074206179 0.36685144657453089 0 0.12951054606610321 0.36574029847411921 0 0.12623243759338121 0.37631401043276969 0 0.1354389827289188 0.35622015692373138 0 0.1420713059527417 0.37235008551999182 0 0.15032374726740871 0.35575083131179558 0 0.1420713059527417 0.37235008551999182 0 0.1558281673071511 0.36683613345365967 0 0.1620529333072174 0.37891034361460518 0 0.1420713059527417 0.37235008551999182 0 0.1558281673071511 0.36683613345365967 0 0.15032374726740871 0.35575083131179558 0 0.1572723853410509 0.34034679042938598 0 0.1349204454541065 0.34310338279765601 0 0.15032374726740871 0.35575083131179558 0 0.1467949482117398 0.38949029706688038 0 0.13226648721586309 0.40529132452426758 0 0.14683706154472231 0.40653885569794379 0 0.1467949482117398 0.38949029706688038 0 0.14683706154472231 0.40653885569794379 0 0.16070242721985681 0.39797669411266601 0 0.1420713059527417 0.37235008551999182 0 0.1467949482117398 0.38949029706688038 0 0.1620529333072174 0.37891034361460518 0 0.1420713059527417 0.37235008551999182 0 0.1467949482117398 0.38949029706688038 0 0.13152142295094299 0.3878998765288828 0 0.1420713059527417 0.37235008551999182 0 0.12623243759338121 0.37631401043276969 0 0.13152142295094299 0.3878998765288828 0 0.11875869923671931 0.38439154357958349 0 0.12623243759338121 0.37631401043276969 0 0.13152142295094299 0.3878998765288828 0 0.12088251483540111 0.39480513105265941 0 0.13152142295094299 0.3878998765288828 0 0.13226648721586309 0.40529132452426758 0 0.1467949482117398 0.38949029706688038 0 0.13152142295094299 0.3878998765288828 0 0.13226648721586309 0.40529132452426758 0 0.1194740661223945 0.41972072897325008 0 0.13226648721586309 0.40529132452426758 0 0.1334506832342543 0.41895278859297669 0 0.13226648721586309 0.40529132452426758 0 0.1334506832342543 0.41895278859297669 0 0.14683706154472231 0.40653885569794379 0 0.1334506832342543 0.41895278859297669 0 0.12783545089004961 0.43364185334063182 0 0.14563971857714619 0.42675802329568979 0 0.12783545089004961 0.43364185334063182 0 0.14563971857714619 0.42675802329568979 0 0.14089284673024199 0.44861488312590098 0 0.1194740661223945 0.41972072897325008 0 0.1334506832342543 0.41895278859297669 0 0.12783545089004961 0.43364185334063182 0 0.14563971857714619 0.42675802329568979 0 0.15946366758580419 0.41541173275639798 0 0.1587332987752553 0.42860649683705992 0 0.14563971857714619 0.42675802329568979 0 0.1587332987752553 0.42860649683705992 0 0.15310322966776271 0.43941621950274429 0 0.14563971857714619 0.42675802329568979 0 0.14683706154472231 0.40653885569794379 0 0.15946366758580419 0.41541173275639798 0 0.1334506832342543 0.41895278859297669 0 0.14563971857714619 0.42675802329568979 0 0.14683706154472231 0.40653885569794379 0 0.14683706154472231 0.40653885569794379 0 0.15946366758580419 0.41541173275639798 0 0.16070242721985681 0.39797669411266601 0 0.15946366758580419 0.41541173275639798 0 0.1710620420937719 0.42544598544322859 0 0.17347346211035719 0.40923821590016252 0 0.15946366758580419 0.41541173275639798 0 0.17347346211035719 0.40923821590016252 0 0.16070242721985681 0.39797669411266601 0 0.1587332987752553 0.42860649683705992 0 0.1657599727323304 0.43868852532215219 0 0.15310322966776271 0.43941621950274429 0 0.15946366758580419 0.41541173275639798 0 0.1587332987752553 0.42860649683705992 0 0.1710620420937719 0.42544598544322859 0 0.1587332987752553 0.42860649683705992 0 0.1710620420937719 0.42544598544322859 0 0.1657599727323304 0.43868852532215219 0 0.1710620420937719 0.42544598544322859 0 0.18022755298788939 0.43440380520329402 0 0.1657599727323304 0.43868852532215219 0 0.1710620420937719 0.42544598544322859 0 0.18022755298788939 0.43440380520329402 0 0.1858162734663916 0.42019218516562751 0 0.18022755298788939 0.43440380520329402 0 0.1858162734663916 0.42019218516562751 0 0.1941464687824081 0.43220563823031388 0 0.18022755298788939 0.43440380520329402 0 0.1941464687824081 0.43220563823031388 0 0.18711645815854591 0.4419119057807061 0 0.1710620420937719 0.42544598544322859 0 0.17347346211035719 0.40923821590016252 0 0.1858162734663916 0.42019218516562751 0 0.17347346211035719 0.40923821590016252 0 0.1858162734663916 0.42019218516562751 0 0.18766921277696411 0.40395045940350183 0 0.17639335059576311 0.39220164524931089 0 0.19397337886704771 0.38314324263145472 0 0.18766921277696411 0.40395045940350183 0 0.17347346211035719 0.40923821590016252 0 0.17639335059576311 0.39220164524931089 0 0.18766921277696411 0.40395045940350183 0 0.17347346211035719 0.40923821590016252 0 0.17639335059576311 0.39220164524931089 0 0.16070242721985681 0.39797669411266601 0 0.17639335059576311 0.39220164524931089 0 0.16070242721985681 0.39797669411266601 0 0.1620529333072174 0.37891034361460518 0 0.17039253442124419 0.37007089768199841 0 0.1620529333072174 0.37891034361460518 0 0.17991755807318199 0.37791648914964748 0 0.1467949482117398 0.38949029706688038 0 0.16070242721985681 0.39797669411266601 0 0.1620529333072174 0.37891034361460518 0 0.17639335059576311 0.39220164524931089 0 0.1620529333072174 0.37891034361460518 0 0.17991755807318199 0.37791648914964748 0 0.17639335059576311 0.39220164524931089 0 0.17991755807318199 0.37791648914964748 0 0.19397337886704771 0.38314324263145472 0 0.18919886698873209 0.36907932361196649 0 0.17991755807318199 0.37791648914964748 0 0.19397337886704771 0.38314324263145472 0 0.19397337886704771 0.38314324263145472 0 0.2008677817822779 0.3963335955034864 0 0.20660932818989111 0.38063619410987293 0 0.20495891030801469 0.37024928239099708 0 0.19397337886704771 0.38314324263145472 0 0.20660932818989111 0.38063619410987293 0 0.19397337886704771 0.38314324263145472 0 0.18766921277696411 0.40395045940350183 0 0.2008677817822779 0.3963335955034864 0 0.21480761088710629 0.39017729759097519 0 0.21122293517495869 0.41944421361785561 0 0.2008677817822779 0.3963335955034864 0 0.21480761088710629 0.39017729759097519 0 0.21122293517495869 0.41944421361785561 0 0.218392286599254 0.36091038156409461 0 0.21480761088710629 0.39017729759097519 0 0.20660932818989111 0.38063619410987293 0 0.2008677817822779 0.3963335955034864 0 0.21480761088710629 0.39017729759097519 0 0.20660932818989111 0.38063619410987293 0 0.218392286599254 0.36091038156409461 0 0.21480761088710629 0.39017729759097519 0 0.2300448309524219 0.37481157113047497 0 0.21480761088710629 0.39017729759097519 0 0.23702717359948169 0.38780481200246852 0 0.2300448309524219 0.37481157113047497 0 0.218392286599254 0.36091038156409461 0 0.21480761088710629 0.39017729759097519 0 0.21480761088710629 0.39017729759097519 0 0.23584224864641179 0.4054722807643939 0 0.21122293517495869 0.41944421361785561 0 0.21480761088710629 0.39017729759097519 0 0.23584224864641179 0.4054722807643939 0 0.23702717359948169 0.38780481200246852 0 0.23584224864641179 0.4054722807643939 0 0.23702717359948169 0.38780481200246852 0 0.25086830119811648 0.39289521304076219 0 0.23584224864641179 0.4054722807643939 0 0.26083914878552872 0.41949439768764218 0 0.25086830119811648 0.39289521304076219 0 0.24386985605873099 0.37452817703195512 0 0.23702717359948169 0.38780481200246852 0 0.25086830119811648 0.39289521304076219 0 0.24386985605873099 0.37452817703195512 0 0.2300448309524219 0.37481157113047497 0 0.23702717359948169 0.38780481200246852 0 0.23902554865678721 0.42509465657486661 0 0.23079637842112599 0.44527141487251448 0 0.25395449737944192 0.44183170010029321 0 0.23584224864641179 0.4054722807643939 0 0.23902554865678721 0.42509465657486661 0 0.26083914878552872 0.41949439768764218 0 0.23584224864641179 0.4054722807643939 0 0.23902554865678721 0.42509465657486661 0 0.21122293517495869 0.41944421361785561 0 0.23902554865678721 0.42509465657486661 0 0.21122293517495869 0.41944421361785561 0 0.23079637842112599 0.44527141487251448 0 0.21122293517495869 0.41944421361785561 0 0.20763825946281039 0.44871112964473631 0 0.21122293517495869 0.41944421361785561 0 0.1941464687824081 0.43220563823031388 0 0.20763825946281039 0.44871112964473631 0 0.18766921277696411 0.40395045940350183 0 0.2008677817822779 0.3963335955034864 0 0.21122293517495869 0.41944421361785561 0 0.1858162734663916 0.42019218516562751 0 0.18766921277696411 0.40395045940350183 0 0.21122293517495869 0.41944421361785561 0 0.1858162734663916 0.42019218516562751 0 0.21122293517495869 0.41944421361785561 0 0.1941464687824081 0.43220563823031388 0 0.19068124256958149 0.45122978418681547 0 0.20666785668488899 0.45663393742270358 0 0.20763825946281039 0.44871112964473631 0 0.1941464687824081 0.43220563823031388 0 0.19596990670458669 0.44448206087325792 0 0.18711645815854591 0.4419119057807061 0 0.19068124256958149 0.45122978418681547 0 0.19596990670458669 0.44448206087325792 0 0.20763825946281039 0.44871112964473631 0 0.1941464687824081 0.43220563823031388 0 0.19596990670458669 0.44448206087325792 0 0.20763825946281039 0.44871112964473631 0 0.19068124256958149 0.45122978418681547 0 0.20763825946281039 0.44871112964473631 0 0.19596990670458669 0.44448206087325792 0 0.18711645815854591 0.4419119057807061 0 0.18603447105311749 0.45191997705857118 0 0.19068124256958149 0.45122978418681547 0 0.19596990670458669 0.44448206087325792 0 0.18603447105311749 0.45191997705857118 0 0.19068124256958149 0.45122978418681547 0 0.18603447105311749 0.45191997705857118 0 0.1959516566498864 0.4622474695972989 0 0.20666785668488899 0.45663393742270358 0 0.20425570960823911 0.47632779862681768 0 0.19068124256958149 0.45122978418681547 0 0.1959516566498864 0.4622474695972989 0 0.20666785668488899 0.45663393742270358 0 0.19068124256958149 0.45122978418681547 0 0.20666785668488899 0.45663393742270358 0 0.18774821394057919 0.45917205363014041 0 0.1959516566498864 0.4622474695972989 0 0.18803167694129039 0.4695241467483906 0 0.19068124256958149 0.45122978418681547 0 0.18774821394057919 0.45917205363014041 0 0.18603447105311749 0.45191997705857118 0 0.19068124256958149 0.45122978418681547 0 0.18774821394057919 0.45917205363014041 0 0.1959516566498864 0.4622474695972989 0 0.20666785668488899 0.45663393742270358 0 0.2181454320650659 0.45401890347679841 0 0.22618611632488181 0.46261660873924049 0 0.20666785668488899 0.45663393742270358 0 0.22618611632488181 0.46261660873924049 0 0.21400489984724089 0.46752724759255732 0 0.20666785668488899 0.45663393742270358 0 0.20425570960823911 0.47632779862681768 0 0.20666785668488899 0.45663393742270358 0 0.20425570960823911 0.47632779862681768 0 0.21400489984724089 0.46752724759255732 0 0.20666785668488899 0.45663393742270358 0 0.22618611632488181 0.46261660873924049 0 0.21122293517495869 0.41944421361785561 0 0.20763825946281039 0.44871112964473631 0 0.23079637842112599 0.44527141487251448 0 0.20666785668488899 0.45663393742270358 0 0.2181454320650659 0.45401890347679841 0 0.20763825946281039 0.44871112964473631 0 0.20666785668488899 0.45663393742270358 0 0.20763825946281039 0.44871112964473631 0 0.2181454320650659 0.45401890347679841 0 0.20763825946281039 0.44871112964473631 0 0.23079637842112599 0.44527141487251448 0 0.20763825946281039 0.44871112964473631 0 0.23079637842112599 0.44527141487251448 0 0.23079637842112599 0.44527141487251448 0 0.22618611632488181 0.46261660873924049 0 0.23916034202258091 0.45457975094195768 0 0.2181454320650659 0.45401890347679841 0 0.23079637842112599 0.44527141487251448 0 0.22618611632488181 0.46261660873924049 0 0.21400489984724089 0.46752724759255732 0 0.22618611632488181 0.46261660873924049 0 0.23354252268391801 0.47344674714511359 0 0.22618611632488181 0.46261660873924049 0 0.23916034202258091 0.45457975094195768 0 0.24570437596487341 0.46859928005578111 0 0.24570437596487341 0.46859928005578111 0 0.25395449737944192 0.44183170010029321 0 0.22618611632488181 0.46261660873924049 0 0.24570437596487341 0.46859928005578111 0 0.23354252268391801 0.47344674714511359 0 0.23916034202258091 0.45457975094195768 0 0.24570437596487341 0.46859928005578111 0 0.25395449737944192 0.44183170010029321 0 0.22618611632488181 0.46261660873924049 0 0.24570437596487341 0.46859928005578111 0 0.23079637842112599 0.44527141487251448 0 0.25395449737944192 0.44183170010029321 0 0.23079637842112599 0.44527141487251448 0 0.23916034202258091 0.45457975094195768 0 0.25395449737944192 0.44183170010029321 0 0.23602625965867899 0.50000000000000244 0 0.24086531781177661 0.48429964002789189 0 0.26289668780775621 0.5 0 0.23602625965867899 0.50000000000000244 0 0.24086531781177661 0.48429964002789189 0 0.24570437596487341 0.46859928005578111 0 0.24086531781177661 0.48429964002789189 0 0.25499705048435312 0.48005931576506611 0 0.24570437596487341 0.46859928005578111 0 0.24086531781177661 0.48429964002789189 0 0.23354252268391801 0.47344674714511359 0 0.24570437596487341 0.46859928005578111 0 0.24086531781177661 0.48429964002789189 0 0.21400489984724089 0.46752724759255732 0 0.23354252268391801 0.47344674714511359 0 0.2225796652714794 0.48360023889872999 0 0.24086531781177661 0.48429964002789189 0 0.23354252268391801 0.47344674714511359 0 0.2225796652714794 0.48360023889872999 0 0.23602625965867899 0.50000000000000244 0 0.2225796652714794 0.48360023889872999 0 0.2067832820190231 0.5 0 0.23602625965867899 0.50000000000000244 0 0.24086531781177661 0.48429964002789189 0 0.2225796652714794 0.48360023889872999 0 0.2225796652714794 0.48360023889872999 0 0.2067832820190231 0.5 0 0.20425570960823911 0.47632779862681768 0 0.21400489984724089 0.46752724759255732 0 0.2225796652714794 0.48360023889872999 0 0.20425570960823911 0.47632779862681768 0 0.20425570960823911 0.47632779862681768 0 0.18803167694129039 0.4695241467483906 0 0.189467982112659 0.48459076640094989 0 0.1959516566498864 0.4622474695972989 0 0.20425570960823911 0.47632779862681768 0 0.18803167694129039 0.4695241467483906 0 0.2067832820190231 0.5 0 0.20425570960823911 0.47632779862681768 0 0.189467982112659 0.48459076640094989 0 0.2067832820190231 0.5 0 0.189467982112659 0.48459076640094989 0 0.17754030437936719 0.5 0 0.189467982112659 0.48459076640094989 0 0.17754030437936719 0.5 0 0.170728937615375 0.47710188662954123 0 0.17754030437936719 0.5 0 0.170728937615375 0.47710188662954123 0 0.1482973267397113 0.5 0 0.170728937615375 0.47710188662954123 0 0.1482973267397113 0.5 0 0.15108817888083159 0.46878646392624562 0 0.18803167694129039 0.4695241467483906 0 0.170728937615375 0.47710188662954123 0 0.17939479643875739 0.46256937770781043 0 0.18803167694129039 0.4695241467483906 0 0.189467982112659 0.48459076640094989 0 0.170728937615375 0.47710188662954123 0 0.18603447105311749 0.45191997705857118 0 0.16443068264342511 0.45512882447240832 0 0.17939479643875739 0.46256937770781043 0 0.18603447105311749 0.45191997705857118 0 0.16443068264342511 0.45512882447240832 0 0.18774821394057919 0.45917205363014041 0 0.18803167694129039 0.4695241467483906 0 0.17939479643875739 0.46256937770781043 0 0.18774821394057919 0.45917205363014041 0 0.17939479643875739 0.46256937770781043 0 0.18603447105311749 0.45191997705857118 0 0.18603447105311749 0.45191997705857118 0 0.17645472791619229 0.44458374404047729 0 0.16443068264342511 0.45512882447240832 0 0.18022755298788939 0.43440380520329402 0 0.18711645815854591 0.4419119057807061 0 0.17645472791619229 0.44458374404047729 0 0.18711645815854591 0.4419119057807061 0 0.18603447105311749 0.45191997705857118 0 0.17645472791619229 0.44458374404047729 0 0.18022755298788939 0.43440380520329402 0 0.17645472791619229 0.44458374404047729 0 0.1657599727323304 0.43868852532215219 0 0.17645472791619229 0.44458374404047729 0 0.1657599727323304 0.43868852532215219 0 0.16443068264342511 0.45512882447240832 0 0.1657599727323304 0.43868852532215219 0 0.16443068264342511 0.45512882447240832 0 0.15310322966776271 0.43941621950274429 0 0.170728937615375 0.47710188662954123 0 0.17939479643875739 0.46256937770781043 0 0.16443068264342511 0.45512882447240832 0 0.170728937615375 0.47710188662954123 0 0.16443068264342511 0.45512882447240832 0 0.15108817888083159 0.46878646392624562 0 0.16443068264342511 0.45512882447240832 0 0.14089284673024199 0.44861488312590098 0 0.15108817888083159 0.46878646392624562 0 0.14563971857714619 0.42675802329568979 0 0.14089284673024199 0.44861488312590098 0 0.15310322966776271 0.43941621950274429 0 0.16443068264342511 0.45512882447240832 0 0.14089284673024199 0.44861488312590098 0 0.15310322966776271 0.43941621950274429 0 0.11990045370648129 0.45087942826817923 0 0.12783545089004961 0.43364185334063182 0 0.14089284673024199 0.44861488312590098 0 0.11990045370648129 0.45087942826817923 0 0.14089284673024199 0.44861488312590098 0 0.12941433290595469 0.47217502981942039 0 0.14089284673024199 0.44861488312590098 0 0.12941433290595469 0.47217502981942039 0 0.15108817888083159 0.46878646392624562 0 0.1190543491000554 0.5 0 0.12941433290595469 0.47217502981942039 0 0.1482973267397113 0.5 0 0.12941433290595469 0.47217502981942039 0 0.1482973267397113 0.5 0 0.15108817888083159 0.46878646392624562 0 0.34702461418665059 0.48080923951644888 0 0.36651099604711479 0.48177514862228799 0 0.36004252665445191 0.45609476604768789 0 0.34702461418665059 0.48080923951644888 0 0.36651099604711479 0.48177514862228799 0 0.34350797225498803 0.5 0 0.37037840040406528 0.5 0 0.36651099604711479 0.48177514862228799 0 0.34350797225498803 0.5 0 0.37246603769086117 0.46662032854883773 0 0.36004252665445191 0.45609476604768789 0 0.38643665273345862 0.45825653707792119 0 0.36651099604711479 0.48177514862228799 0 0.37246603769086117 0.46662032854883773 0 0.36004252665445191 0.45609476604768789 0 0.36004252665445191 0.45609476604768789 0 0.37762472033449418 0.43629098835606778 0 0.38643665273345862 0.45825653707792119 0 0.36004252665445191 0.45609476604768789 0 0.34951903245082938 0.4346018986254776 0 0.37762472033449418 0.43629098835606778 0 0.36004252665445191 0.45609476604768789 0 0.34013421141357242 0.44829395194323179 0 0.34951903245082938 0.4346018986254776 0 0.34702461418665059 0.48080923951644888 0 0.36004252665445191 0.45609476604768789 0 0.33490873822643569 0.46551683590781823 0 0.36004252665445191 0.45609476604768789 0 0.33490873822643569 0.46551683590781823 0 0.34013421141357242 0.44829395194323179 0 0.33490873822643569 0.46551683590781823 0 0.34013421141357242 0.44829395194323179 0 0.32320634464219389 0.44915412983732939 0 0.34013421141357242 0.44829395194323179 0 0.32583772052003029 0.43115476278269621 0 0.34951903245082938 0.4346018986254776 0 0.34013421141357242 0.44829395194323179 0 0.32320634464219389 0.44915412983732939 0 0.32583772052003029 0.43115476278269621 0 0.32320634464219389 0.44915412983732939 0 0.30187664613983423 0.43471374188856238 0 0.32583772052003029 0.43115476278269621 0 0.33490873822643569 0.46551683590781823 0 0.32320634464219389 0.44915412983732939 0 0.30844259916286898 0.46180134963880681 0 0.33490873822643569 0.46551683590781823 0 0.31339937979100491 0.48023314784608839 0 0.33109564971299799 0.48531184465407112 0 0.33490873822643569 0.46551683590781823 0 0.31339937979100491 0.48023314784608839 0 0.30844259916286898 0.46180134963880681 0 0.34702461418665059 0.48080923951644888 0 0.33490873822643569 0.46551683590781823 0 0.33109564971299799 0.48531184465407112 0 0.34702461418665059 0.48080923951644888 0 0.33109564971299799 0.48531184465407112 0 0.34350797225498803 0.5 0 0.33109564971299799 0.48531184465407112 0 0.34350797225498803 0.5 0 0.31663754410591072 0.5 0 0.31339937979100491 0.48023314784608839 0 0.33109564971299799 0.48531184465407112 0 0.31663754410591072 0.5 0 0.31663754410591072 0.5 0 0.29252676259447158 0.4829511205696071 0 0.28976711595683352 0.5 0 0.31339937979100491 0.48023314784608839 0 0.31663754410591072 0.5 0 0.29252676259447158 0.4829511205696071 0 0.31339937979100491 0.48023314784608839 0 0.29252676259447158 0.4829511205696071 0 0.30844259916286898 0.46180134963880681 0 0.29252676259447158 0.4829511205696071 0 0.26911556927967312 0.47577520031269233 0 0.28550909151500292 0.45960129210800871 0 0.29252676259447158 0.4829511205696071 0 0.28976711595683352 0.5 0 0.27777210430463428 0.48931061926874247 0 0.27777210430463428 0.48931061926874247 0 0.26911556927967312 0.47577520031269233 0 0.26289668780775621 0.5 0 0.28976711595683352 0.5 0 0.27777210430463428 0.48931061926874247 0 0.26289668780775621 0.5 0 0.29252676259447158 0.4829511205696071 0 0.26911556927967312 0.47577520031269233 0 0.29252676259447158 0.4829511205696071 0 0.27777210430463428 0.48931061926874247 0 0.26911556927967312 0.47577520031269233 0 0.24570437596487341 0.46859928005578111 0 0.26911556927967312 0.47577520031269233 0 0.24570437596487341 0.46859928005578111 0 0.26911556927967312 0.47577520031269233 0 0.25499705048435312 0.48005931576506611 0 0.24086531781177661 0.48429964002789189 0 0.25499705048435312 0.48005931576506611 0 0.26289668780775621 0.5 0 0.26911556927967312 0.47577520031269233 0 0.25499705048435312 0.48005931576506611 0 0.26289668780775621 0.5 0 0.24570437596487341 0.46859928005578111 0 0.25395449737944192 0.44183170010029321 0 0.26643982117972598 0.45681603871424109 0 0.24570437596487341 0.46859928005578111 0 0.26911556927967312 0.47577520031269233 0 0.26643982117972598 0.45681603871424109 0 0.26911556927967312 0.47577520031269233 0 0.26643982117972598 0.45681603871424109 0 0.28550909151500292 0.45960129210800871 0 0.25395449737944192 0.44183170010029321 0 0.26643982117972598 0.45681603871424109 0 0.2779155717596381 0.43827272099442871 0 0.26643982117972598 0.45681603871424109 0 0.2779155717596381 0.43827272099442871 0 0.28550909151500292 0.45960129210800871 0 0.25395449737944192 0.44183170010029321 0 0.2779155717596381 0.43827272099442871 0 0.2779155717596381 0.43827272099442871 0 0.28550909151500292 0.45960129210800871 0 0.30187664613983423 0.43471374188856238 0 0.29252676259447158 0.4829511205696071 0 0.28550909151500292 0.45960129210800871 0 0.30844259916286898 0.46180134963880681 0 0.32320634464219389 0.44915412983732939 0 0.30844259916286898 0.46180134963880681 0 0.30187664613983423 0.43471374188856238 0 0.28550909151500292 0.45960129210800871 0 0.30844259916286898 0.46180134963880681 0 0.30187664613983423 0.43471374188856238 0 0.30187664613983423 0.43471374188856238 0 0.28438235481939611 0.41545503130444023 0 0.30711613505180979 0.4057044058306849 0 0.30187664613983423 0.43471374188856238 0 0.30711613505180979 0.4057044058306849 0 0.32193842213225032 0.41542630309610667 0 0.2779155717596381 0.43827272099442871 0 0.30187664613983423 0.43471374188856238 0 0.28438235481939611 0.41545503130444023 0 0.2779155717596381 0.43827272099442871 0 0.30187664613983423 0.43471374188856238 0 0.2779155717596381 0.43827272099442871 0 0.28438235481939611 0.41545503130444023 0 0.26083914878552872 0.41949439768764218 0 0.28438235481939611 0.41545503130444023 0 0.26083914878552872 0.41949439768764218 0 0.26772380019161951 0.39715709527499238 0 0.26083914878552872 0.41949439768764218 0 0.26772380019161951 0.39715709527499238 0 0.25395449737944192 0.44183170010029321 0 0.2779155717596381 0.43827272099442871 0 0.26083914878552872 0.41949439768764218 0 0.23902554865678721 0.42509465657486661 0 0.25395449737944192 0.44183170010029321 0 0.26083914878552872 0.41949439768764218 0 0.25395449737944192 0.44183170010029321 0 0.26083914878552872 0.41949439768764218 0 0.24386985605873099 0.37452817703195512 0 0.25963149773230892 0.37566582603884818 0 0.25086830119811648 0.39289521304076219 0 0.25963149773230892 0.37566582603884818 0 0.25086830119811648 0.39289521304076219 0 0.26772380019161951 0.39715709527499238 0 0.26083914878552872 0.41949439768764218 0 0.25086830119811648 0.39289521304076219 0 0.26772380019161951 0.39715709527499238 0 0.28438235481939611 0.41545503130444023 0 0.26772380019161951 0.39715709527499238 0 0.29006115440967828 0.39469152603070551 0 0.26772380019161951 0.39715709527499238 0 0.27670110298931672 0.37792067106962068 0 0.29006115440967828 0.39469152603070551 0 0.25963149773230892 0.37566582603884818 0 0.26772380019161951 0.39715709527499238 0 0.27670110298931672 0.37792067106962068 0 0.27670110298931672 0.37792067106962068 0 0.29372369551518202 0.37711707181966758 0 0.29006115440967828 0.39469152603070551 0 0.28438235481939611 0.41545503130444023 0 0.29006115440967828 0.39469152603070551 0 0.30711613505180979 0.4057044058306849 0 0.29006115440967828 0.39469152603070551 0 0.30711613505180979 0.4057044058306849 0 0.30978469096560568 0.38821489777825208 0 0.29372369551518202 0.37711707181966758 0 0.30978469096560568 0.38821489777825208 0 0.31025300552715002 0.36981489328913231 0 0.29372369551518202 0.37711707181966758 0 0.29006115440967828 0.39469152603070551 0 0.30978469096560568 0.38821489777825208 0 0.30978469096560568 0.38821489777825208 0 0.32538913800740032 0.38257236775440301 0 0.33216501728241388 0.39938912194491999 0 0.30978469096560568 0.38821489777825208 0 0.32538913800740032 0.38257236775440301 0 0.31025300552715002 0.36981489328913231 0 0.33863445200563957 0.37857602917689792 0 0.33216501728241388 0.39938912194491999 0 0.34809612531211509 0.38967864478961811 0 0.32538913800740032 0.38257236775440301 0 0.33863445200563957 0.37857602917689792 0 0.33216501728241388 0.39938912194491999 0 0.30711613505180979 0.4057044058306849 0 0.30978469096560568 0.38821489777825208 0 0.33216501728241388 0.39938912194491999 0 0.30711613505180979 0.4057044058306849 0 0.33216501728241388 0.39938912194491999 0 0.32193842213225032 0.41542630309610667 0 0.30187664613983423 0.43471374188856238 0 0.32193842213225032 0.41542630309610667 0 0.32583772052003029 0.43115476278269621 0 0.32193842213225032 0.41542630309610667 0 0.32583772052003029 0.43115476278269621 0 0.33653862133561929 0.41995743910148797 0 0.30187664613983423 0.43471374188856238 0 0.32583772052003029 0.43115476278269621 0 0.32583772052003029 0.43115476278269621 0 0.33653862133561929 0.41995743910148797 0 0.34951903245082938 0.4346018986254776 0 0.33216501728241388 0.39938912194491999 0 0.32193842213225032 0.41542630309610667 0 0.33653862133561929 0.41995743910148797 0 0.33216501728241388 0.39938912194491999 0 0.33653862133561929 0.41995743910148797 0 0.34814725461332902 0.41265115585860979 0 0.34814725461332902 0.41265115585860979 0 0.3688127879355298 0.41432543963421442 0 0.3513841857826534 0.40184339355854809 0 0.34814725461332902 0.41265115585860979 0 0.34951903245082938 0.4346018986254776 0 0.3688127879355298 0.41432543963421442 0 0.33653862133561929 0.41995743910148797 0 0.34814725461332902 0.41265115585860979 0 0.34951903245082938 0.4346018986254776 0 0.34951903245082938 0.4346018986254776 0 0.3688127879355298 0.41432543963421442 0 0.37762472033449418 0.43629098835606778 0 0.3688127879355298 0.41432543963421442 0 0.37762472033449418 0.43629098835606778 0 0.3688127879355298 0.41432543963421442 0 0.37103211254345692 0.40007926267040422 0 0.38388577029907128 0.40985443827646689 0 0.3688127879355298 0.41432543963421442 0 0.37103211254345692 0.40007926267040422 0 0.36046074212865398 0.39111863562622401 0 0.3688127879355298 0.41432543963421442 0 0.36046074212865398 0.39111863562622401 0 0.3596997437698789 0.39317260556537792 0 0.3688127879355298 0.41432543963421442 0 0.36046074212865398 0.39111863562622401 0 0.3688127879355298 0.41432543963421442 0 0.3596997437698789 0.39317260556537792 0 0.3513841857826534 0.40184339355854809 0 0.37103211254345692 0.40007926267040422 0 0.36046074212865398 0.39111863562622401 0 0.3821866939029222 0.39364885325736299 0 0.36046074212865398 0.39111863562622401 0 0.3821866939029222 0.39364885325736299 0 0.36046074212865398 0.39111863562622401 0 0.3596997437698789 0.39317260556537792 0 0.36046074212865398 0.39111863562622401 0 0.36867518601452831 0.36894746979662879 0 0.36046074212865398 0.39111863562622401 0 0.37477399257497079 0.38192782219324189 0 0.36867518601452831 0.36894746979662879 0 0.36046074212865398 0.39111863562622401 0 0.35029194791220969 0.3681584474827877 0 0.36867518601452831 0.36894746979662879 0 0.36046074212865398 0.39111863562622401 0 0.37477399257497079 0.38192782219324189 0 0.3821866939029222 0.39364885325736299 0 0.36046074212865398 0.39111863562622401 0 0.34809612531211509 0.38967864478961811 0 0.35029194791220969 0.3681584474827877 0 0.36046074212865398 0.39111863562622401 0 0.34809612531211509 0.38967864478961811 0 0.36046074212865398 0.39111863562622401 0 0.35029194791220969 0.3681584474827877 0 0.33863445200563957 0.37857602917689792 0 0.34809612531211509 0.38967864478961811 0 0.35029194791220969 0.3681584474827877 0 0.33216501728241388 0.39938912194491999 0 0.34809612531211509 0.38967864478961811 0 0.3513841857826534 0.40184339355854809 0 0.33216501728241388 0.39938912194491999 0 0.34814725461332902 0.41265115585860979 0 0.3513841857826534 0.40184339355854809 0 0.3596997437698789 0.39317260556537792 0 0.34809612531211509 0.38967864478961811 0 0.3513841857826534 0.40184339355854809 0 0.36046074212865398 0.39111863562622401 0 0.3596997437698789 0.39317260556537792 0 0.34809612531211509 0.38967864478961811 0 0.35029194791220969 0.3681584474827877 0 0.34112793959136722 0.34531527731927242 0 0.35740855042640818 0.34977082452435732 0 0.34964852186134082 0.33884512437535491 0 0.34112793959136722 0.34531527731927242 0 0.35740855042640818 0.34977082452435732 0 0.35029194791220969 0.3681584474827877 0 0.34112793959136722 0.34531527731927242 0 0.35740855042640818 0.34977082452435732 0 0.35029194791220969 0.3681584474827877 0 0.36867518601452831 0.36894746979662879 0 0.35740855042640818 0.34977082452435732 0 0.36867518601452831 0.36894746979662879 0 0.37688962990040248 0.34677630396703357 0 0.36867518601452831 0.36894746979662879 0 0.37688962990040248 0.34677630396703357 0 0.35949144223090229 0.33367363438484637 0 0.37101449863609298 0.32634946200939818 0 0.37688962990040248 0.34677630396703357 0 0.35740855042640818 0.34977082452435732 0 0.35949144223090229 0.33367363438484637 0 0.37688962990040248 0.34677630396703357 0 0.35949144223090229 0.33367363438484637 0 0.37101449863609298 0.32634946200939818 0 0.36336531525851501 0.31438916153912733 0 0.37101449863609298 0.32634946200939818 0 0.36336531525851501 0.31438916153912733 0 0.37641209075030729 0.31687533087281888 0 0.36336531525851501 0.31438916153912733 0 0.34056615519668559 0.32662076127294321 0 0.34768040040613157 0.31191640441525481 0 0.35949144223090229 0.33367363438484637 0 0.36336531525851501 0.31438916153912733 0 0.34056615519668559 0.32662076127294321 0 0.36336531525851501 0.31438916153912733 0 0.34056615519668559 0.32662076127294321 0 0.35740855042640818 0.34977082452435732 0 0.35949144223090229 0.33367363438484637 0 0.34964852186134082 0.33884512437535491 0 0.35949144223090229 0.33367363438484637 0 0.34964852186134082 0.33884512437535491 0 0.34056615519668559 0.32662076127294321 0 0.34964852186134082 0.33884512437535491 0 0.34056615519668559 0.32662076127294321 0 0.34112793959136722 0.34531527731927242 0 0.32977233351615037 0.34250552735530571 0 0.33196393127052509 0.32247210715575703 0 0.33196393127052509 0.32247210715575703 0 0.34112793959136722 0.34531527731927242 0 0.34056615519668559 0.32662076127294321 0 0.33196393127052509 0.32247210715575703 0 0.34112793959136722 0.34531527731927242 0 0.32977233351615037 0.34250552735530571 0 0.33196393127052509 0.32247210715575703 0 0.34112793959136722 0.34531527731927242 0 0.33978070612139261 0.31725671601770478 0 0.33196393127052509 0.32247210715575703 0 0.33440505852926161 0.30015773489589592 0 0.33978070612139261 0.31725671601770478 0 0.34056615519668559 0.32662076127294321 0 0.34768040040613157 0.31191640441525481 0 0.33978070612139261 0.31725671601770478 0 0.34056615519668559 0.32662076127294321 0 0.33196393127052509 0.32247210715575703 0 0.33196393127052509 0.32247210715575703 0 0.31466104102768389 0.31599105246252168 0 0.32014469956665043 0.3314858303409583 0 0.33196393127052509 0.32247210715575703 0 0.31466104102768389 0.31599105246252168 0 0.3228326892187442 0.29971061363782148 0 0.31466104102768389 0.31599105246252168 0 0.32014469956665043 0.3314858303409583 0 0.30708768022053312 0.32988730512925452 0 0.32977233351615037 0.34250552735530571 0 0.33196393127052509 0.32247210715575703 0 0.32014469956665043 0.3314858303409583 0 0.32977233351615037 0.34250552735530571 0 0.32014469956665043 0.3314858303409583 0 0.30901723749694282 0.34715726937654512 0 0.32977233351615037 0.34250552735530571 0 0.32758073576177538 0.36253894755485427 0 0.30901723749694282 0.34715726937654512 0 0.35029194791220969 0.3681584474827877 0 0.34112793959136722 0.34531527731927242 0 0.32758073576177538 0.36253894755485427 0 0.32977233351615037 0.34250552735530571 0 0.34112793959136722 0.34531527731927242 0 0.32758073576177538 0.36253894755485427 0 0.32977233351615037 0.34250552735530571 0 0.32758073576177538 0.36253894755485427 0 0.32538913800740032 0.38257236775440301 0 0.33863445200563957 0.37857602917689792 0 0.32758073576177538 0.36253894755485427 0 0.33863445200563957 0.37857602917689792 0 0.35029194791220969 0.3681584474827877 0 0.32758073576177538 0.36253894755485427 0 0.32538913800740032 0.38257236775440301 0 0.32758073576177538 0.36253894755485427 0 0.32758073576177538 0.36253894755485427 0 0.31025300552715002 0.36981489328913231 0 0.30901723749694282 0.34715726937654512 0 0.32538913800740032 0.38257236775440301 0 0.32758073576177538 0.36253894755485427 0 0.31025300552715002 0.36981489328913231 0 0.29372369551518202 0.37711707181966758 0 0.31025300552715002 0.36981489328913231 0 0.29678730148801308 0.36101050156533249 0 0.30901723749694282 0.34715726937654512 0 0.2886324278376835 0.34814152893564221 0 0.29678730148801308 0.36101050156533249 0 0.31025300552715002 0.36981489328913231 0 0.30901723749694282 0.34715726937654512 0 0.29678730148801308 0.36101050156533249 0 0.2886324278376835 0.34814152893564221 0 0.29678730148801308 0.36101050156533249 0 0.28231014106310748 0.36282174440567527 0 0.2886324278376835 0.34814152893564221 0 0.28231014106310748 0.36282174440567527 0 0.27621094050168549 0.35269440851054901 0 0.27670110298931672 0.37792067106962068 0 0.29372369551518202 0.37711707181966758 0 0.28231014106310748 0.36282174440567527 0 0.29372369551518202 0.37711707181966758 0 0.29678730148801308 0.36101050156533249 0 0.28231014106310748 0.36282174440567527 0 0.25963149773230892 0.37566582603884818 0 0.27670110298931672 0.37792067106962068 0 0.2664281375889348 0.35975162833676988 0 0.27670110298931672 0.37792067106962068 0 0.28231014106310748 0.36282174440567527 0 0.2664281375889348 0.35975162833676988 0 0.2664281375889348 0.35975162833676988 0 0.27621094050168549 0.35269440851054901 0 0.26747305551701639 0.3400627323641085 0 0.28231014106310748 0.36282174440567527 0 0.2664281375889348 0.35975162833676988 0 0.27621094050168549 0.35269440851054901 0 0.2886324278376835 0.34814152893564221 0 0.27621094050168549 0.35269440851054901 0 0.26747305551701639 0.3400627323641085 0 0.2664281375889348 0.35975162833676988 0 0.25153519114805228 0.35834531681273241 0 0.26747305551701639 0.3400627323641085 0 0.24416088472178729 0.34482380321186801 0 0.25153519114805228 0.35834531681273241 0 0.26747305551701639 0.3400627323641085 0 0.24386985605873099 0.37452817703195512 0 0.25963149773230892 0.37566582603884818 0 0.25153519114805228 0.35834531681273241 0 0.25963149773230892 0.37566582603884818 0 0.2664281375889348 0.35975162833676988 0 0.25153519114805228 0.35834531681273241 0 0.26432821565739029 0.32313969453182001 0 0.25446326442609829 0.31251477001981892 0 0.27008236062656221 0.3111584646374293 0 0.25446326442609829 0.31251477001981892 0 0.25238689689037419 0.32788028910698541 0 0.26432821565739029 0.32313969453182001 0 0.25446326442609829 0.31251477001981892 0 0.25238689689037419 0.32788028910698541 0 0.24416088472178729 0.34482380321186801 0 0.25238689689037419 0.32788028910698541 0 0.26747305551701639 0.3400627323641085 0 0.26432821565739029 0.32313969453182001 0 0.25238689689037419 0.32788028910698541 0 0.26747305551701639 0.3400627323641085 0 0.26747305551701639 0.3400627323641085 0 0.27723550082690052 0.32408221653075758 0 0.29108295842785231 0.33216268720430242 0 0.26432821565739029 0.32313969453182001 0 0.26747305551701639 0.3400627323641085 0 0.27723550082690052 0.32408221653075758 0 0.27723550082690052 0.32408221653075758 0 0.29129111414721981 0.31561706933188532 0 0.27008236062656221 0.3111584646374293 0 0.26432821565739029 0.32313969453182001 0 0.27723550082690052 0.32408221653075758 0 0.27008236062656221 0.3111584646374293 0 0.27723550082690052 0.32408221653075758 0 0.29129111414721981 0.31561706933188532 0 0.29108295842785231 0.33216268720430242 0 0.29129111414721981 0.31561706933188532 0 0.29108295842785231 0.33216268720430242 0 0.30708768022053312 0.32988730512925452 0 0.2886324278376835 0.34814152893564221 0 0.26747305551701639 0.3400627323641085 0 0.29108295842785231 0.33216268720430242 0 0.30901723749694282 0.34715726937654512 0 0.2886324278376835 0.34814152893564221 0 0.29108295842785231 0.33216268720430242 0 0.30901723749694282 0.34715726937654512 0 0.29108295842785231 0.33216268720430242 0 0.30708768022053312 0.32988730512925452 0 0.32014469956665043 0.3314858303409583 0 0.30901723749694282 0.34715726937654512 0 0.30708768022053312 0.32988730512925452 0 0.31466104102768389 0.31599105246252168 0 0.29129111414721981 0.31561706933188532 0 0.30708768022053312 0.32988730512925452 0 0.300735003466437 0.29885682606943093 0 0.3228326892187442 0.29971061363782148 0 0.31466104102768389 0.31599105246252168 0 0.29129111414721981 0.31561706933188532 0 0.300735003466437 0.29885682606943093 0 0.300735003466437 0.29885682606943093 0 0.2998886084732626 0.2779440269043425 0 0.31532316675668848 0.2809915887917584 0 0.300735003466437 0.29885682606943093 0 0.28836281424609511 0.28597277899015061 0 0.2998886084732626 0.2779440269043425 0 0.300735003466437 0.29885682606943093 0 0.28836281424609511 0.28597277899015061 0 0.2786373177141297 0.29800303850104182 0 0.29129111414721981 0.31561706933188532 0 0.300735003466437 0.29885682606943093 0 0.2786373177141297 0.29800303850104182 0 0.300735003466437 0.29885682606943093 0 0.2786373177141297 0.29800303850104182 0 0.29129111414721981 0.31561706933188532 0 0.27008236062656221 0.3111584646374293 0 0.2786373177141297 0.29800303850104182 0 0.27008236062656221 0.3111584646374293 0 0.2786373177141297 0.29800303850104182 0 0.25653963196182239 0.29714925093265238 0 0.2786373177141297 0.29800303850104182 0 0.25653963196182239 0.29714925093265238 0 0.2786373177141297 0.29800303850104182 0 0.26330155703252089 0.29303892678357851 0 0.25653963196182239 0.29714925093265238 0 0.27488540379150422 0.28342328475707868 0 0.26521435687292111 0.28557906868314481 0 0.25889979196743268 0.27968361298993832 0 0.28836281424609511 0.28597277899015061 0 0.2786373177141297 0.29800303850104182 0 0.27488540379150422 0.28342328475707868 0 0.27488540379150422 0.28342328475707868 0 0.26330155703252089 0.29303892678357851 0 0.26521435687292111 0.28557906868314481 0 0.2786373177141297 0.29800303850104182 0 0.27488540379150422 0.28342328475707868 0 0.26330155703252089 0.29303892678357851 0 0.26330155703252089 0.29303892678357851 0 0.26521435687292111 0.28557906868314481 0 0.2571893546374926 0.29234117817934158 0 0.26330155703252089 0.29303892678357851 0 0.2571893546374926 0.29234117817934158 0 0.26330155703252089 0.29303892678357851 0 0.2571893546374926 0.29234117817934158 0 0.25653963196182239 0.29714925093265238 0 0.2571893546374926 0.29234117817934158 0 0.25889979196743268 0.27968361298993832 0 0.26521435687292111 0.28557906868314481 0 0.2571893546374926 0.29234117817934158 0 0.25889979196743268 0.27968361298993832 0 0.2571893546374926 0.29234117817934158 0 0.25653963196182239 0.29714925093265238 0 0.24400789250529489 0.30654560212132592 0 0.25446326442609829 0.31251477001981892 0 0.25653963196182239 0.29714925093265238 0 0.25446326442609829 0.31251477001981892 0 0.25653963196182239 0.29714925093265238 0 0.25446326442609829 0.31251477001981892 0 0.27008236062656221 0.3111584646374293 0 0.25653963196182239 0.29714925093265238 0 0.24253861414669159 0.26415637433626837 0 0.26209420568568409 0.25604433713168329 0 0.25889979196743268 0.27968361298993832 0 0.26209420568568409 0.25604433713168329 0 0.25889979196743268 0.27968361298993832 0 0.27488540379150422 0.28342328475707868 0 0.25889979196743268 0.27968361298993832 0 0.28335671813103491 0.2709780884678164 0 0.26209420568568409 0.25604433713168329 0 0.25889979196743268 0.27968361298993832 0 0.28335671813103491 0.2709780884678164 0 0.25889979196743268 0.27968361298993832 0 0.28335671813103491 0.2709780884678164 0 0.26209420568568409 0.25604433713168329 0 0.28815450863723102 0.25327697612913169 0 0.28335671813103491 0.2709780884678164 0 0.28815450863723102 0.25327697612913169 0 0.28335671813103491 0.2709780884678164 0 0.30781364429463659 0.26227256394569393 0 0.28836281424609511 0.28597277899015061 0 0.28335671813103491 0.2709780884678164 0 0.2998886084732626 0.2779440269043425 0 0.28335671813103491 0.2709780884678164 0 0.30781364429463659 0.26227256394569393 0 0.28836281424609511 0.28597277899015061 0 0.27488540379150422 0.28342328475707868 0 0.28335671813103491 0.2709780884678164 0 0.30781364429463659 0.26227256394569393 0 0.31532316675668848 0.2809915887917584 0 0.28335671813103491 0.2709780884678164 0 0.2998886084732626 0.2779440269043425 0 0.30781364429463659 0.26227256394569393 0 0.2998886084732626 0.2779440269043425 0 0.30781364429463659 0.26227256394569393 0 0.31532316675668848 0.2809915887917584 0 0.28815450863723102 0.25327697612913169 0 0.30020936556153333 0.25251933025261097 0 0.30781364429463659 0.26227256394569393 0 0.30020936556153333 0.25251933025261097 0 0.30753047011456419 0.25992793350222199 0 0.30716404224505339 0.24414329086701411 0 0.30020936556153333 0.25251933025261097 0 0.30753047011456419 0.25992793350222199 0 0.30781364429463659 0.26227256394569393 0 0.30753047011456419 0.25992793350222199 0 0.31201141460791221 0.25907248868053939 0 0.31744432938067518 0.25479033738529899 0 0.30753047011456419 0.25992793350222199 0 0.30781364429463659 0.26227256394569393 0 0.31201141460791221 0.25907248868053939 0 0.30781364429463659 0.26227256394569393 0 0.31201141460791221 0.25907248868053939 0 0.31423062845945871 0.25966453666799533 0 0.30753047011456419 0.25992793350222199 0 0.32193184813895392 0.2411014656226422 0 0.30753047011456419 0.25992793350222199 0 0.31744432938067518 0.25479033738529899 0 0.32193184813895392 0.2411014656226422 0 0.30781364429463659 0.26227256394569393 0 0.31660022811964711 0.26463812535133763 0 0.31423062845945871 0.25966453666799533 0 0.31744432938067518 0.25479033738529899 0 0.31660022811964711 0.26463812535133763 0 0.31423062845945871 0.25966453666799533 0 0.31744432938067518 0.25479033738529899 0 0.31660022811964711 0.26463812535133763 0 0.32676645062394338 0.2609366822287566 0 0.31201141460791221 0.25907248868053939 0 0.31744432938067518 0.25479033738529899 0 0.31423062845945871 0.25966453666799533 0 0.31744432938067518 0.25479033738529899 0 0.32676645062394338 0.2609366822287566 0 0.32638010458252181 0.25263534044757108 0 0.32676645062394338 0.2609366822287566 0 0.32638010458252181 0.25263534044757108 0 0.33407636727912687 0.25759586123004641 0 0.32638010458252181 0.25263534044757108 0 0.33407636727912687 0.25759586123004641 0 0.3353635226254858 0.24873662419451709 0 0.32676645062394338 0.2609366822287566 0 0.33407636727912687 0.25759586123004641 0 0.33687814011074679 0.26542806340022468 0 0.33687814011074679 0.26542806340022468 0 0.3443376629253021 0.25725650978514841 0 0.34910594188870492 0.26800680007420219 0 0.33407636727912687 0.25759586123004641 0 0.33687814011074679 0.26542806340022468 0 0.3443376629253021 0.25725650978514841 0 0.33407636727912687 0.25759586123004641 0 0.3443376629253021 0.25725650978514841 0 0.3353635226254858 0.24873662419451709 0 0.33623438378555048 0.27574637068651731 0 0.33609362783807728 0.28559595915188951 0 0.34624581182304393 0.27979649344210938 0 0.33687814011074679 0.26542806340022468 0 0.33623438378555048 0.27574637068651731 0 0.34910594188870492 0.26800680007420219 0 0.32676645062394338 0.2609366822287566 0 0.33687814011074679 0.26542806340022468 0 0.32578314684517617 0.27190402127321878 0 0.33687814011074679 0.26542806340022468 0 0.33623438378555048 0.27574637068651731 0 0.32578314684517617 0.27190402127321878 0 0.33623438378555048 0.27574637068651731 0 0.32814477761521849 0.28072867945635771 0 0.32578314684517617 0.27190402127321878 0 0.33623438378555048 0.27574637068651731 0 0.32814477761521849 0.28072867945635771 0 0.33609362783807728 0.28559595915188951 0 0.30781364429463659 0.26227256394569393 0 0.31660022811964711 0.26463812535133763 0 0.31532316675668848 0.2809915887917584 0 0.31660022811964711 0.26463812535133763 0 0.32578314684517617 0.27190402127321878 0 0.31532316675668848 0.2809915887917584 0 0.32814477761521849 0.28072867945635771 0 0.32578314684517617 0.27190402127321878 0 0.31532316675668848 0.2809915887917584 0 0.31660022811964711 0.26463812535133763 0 0.32676645062394338 0.2609366822287566 0 0.32578314684517617 0.27190402127321878 0 0.31532316675668848 0.2809915887917584 0 0.32728956285060012 0.28940545737840417 0 0.3228326892187442 0.29971061363782148 0 0.31532316675668848 0.2809915887917584 0 0.3228326892187442 0.29971061363782148 0 0.300735003466437 0.29885682606943093 0 0.31532316675668848 0.2809915887917584 0 0.3228326892187442 0.29971061363782148 0 0.32814477761521849 0.28072867945635771 0 0.31532316675668848 0.2809915887917584 0 0.32728956285060012 0.28940545737840417 0 0.33196393127052509 0.32247210715575703 0 0.3228326892187442 0.29971061363782148 0 0.31466104102768389 0.31599105246252168 0 0.300735003466437 0.29885682606943093 0 0.3228326892187442 0.29971061363782148 0 0.33196393127052509 0.32247210715575703 0 0.3228326892187442 0.29971061363782148 0 0.33440505852926161 0.30015773489589592 0 0.33978070612139261 0.31725671601770478 0 0.33440505852926161 0.30015773489589592 0 0.34768040040613157 0.31191640441525481 0 0.33196393127052509 0.32247210715575703 0 0.33440505852926161 0.30015773489589592 0 0.3228326892187442 0.29971061363782148 0 0.33440505852926161 0.30015773489589592 0 0.33470630030411769 0.29740408037825738 0 0.3228326892187442 0.29971061363782148 0 0.33440505852926161 0.30015773489589592 0 0.33440505852926161 0.30015773489589592 0 0.33470630030411769 0.29740408037825738 0 0.32814477761521849 0.28072867945635771 0 0.32728956285060012 0.28940545737840417 0 0.33609362783807728 0.28559595915188951 0 0.32728956285060012 0.28940545737840417 0 0.33470630030411769 0.29740408037825738 0 0.33609362783807728 0.28559595915188951 0 0.32728956285060012 0.28940545737840417 0 0.3228326892187442 0.29971061363782148 0 0.33470630030411769 0.29740408037825738 0 0.33440505852926161 0.30015773489589592 0 0.33470630030411769 0.29740408037825738 0 0.34491277717432389 0.29121254901619181 0 0.33470630030411769 0.29740408037825738 0 0.33609362783807728 0.28559595915188951 0 0.34491277717432389 0.29121254901619181 0 0.33609362783807728 0.28559595915188951 0 0.34491277717432389 0.29121254901619181 0 0.34624581182304393 0.27979649344210938 0 0.34491277717432389 0.29121254901619181 0 0.35502400573930792 0.28560818931485182 0 0.34624581182304393 0.27979649344210938 0 0.34491277717432389 0.29121254901619181 0 0.35502400573930792 0.28560818931485182 0 0.36028476692480299 0.30115764835060349 0 0.36336531525851501 0.31438916153912733 0 0.34768040040613157 0.31191640441525481 0 0.36028476692480299 0.30115764835060349 0 0.33440505852926161 0.30015773489589592 0 0.34768040040613157 0.31191640441525481 0 0.36028476692480299 0.30115764835060349 0 0.33440505852926161 0.30015773489589592 0 0.36028476692480299 0.30115764835060349 0 0.33440505852926161 0.30015773489589592 0 0.34491277717432389 0.29121254901619181 0 0.36028476692480299 0.30115764835060349 0 0.36336531525851501 0.31438916153912733 0 0.38616447532034448 0.3021575618053115 0 0.36336531525851501 0.31438916153912733 0 0.36028476692480299 0.30115764835060349 0 0.38616447532034448 0.3021575618053115 0 0.36028476692480299 0.30115764835060349 0 0.38616447532034448 0.3021575618053115 0 0.36028476692480299 0.30115764835060349 0 0.36778834215711348 0.28105458269074413 0 0.37981081093231039 0.28736248547651499 0 0.35502400573930792 0.28560818931485182 0 0.36028476692480299 0.30115764835060349 0 0.36778834215711348 0.28105458269074413 0 0.36778834215711348 0.28105458269074413 0 0.37445134229794041 0.26793712586679941 0 0.37981081093231039 0.28736248547651499 0 0.36778834215711348 0.28105458269074413 0 0.36256816194543212 0.26774877713060941 0 0.35588833061725522 0.27481967307461003 0 0.35502400573930792 0.28560818931485182 0 0.36778834215711348 0.28105458269074413 0 0.35588833061725522 0.27481967307461003 0 0.36778834215711348 0.28105458269074413 0 0.36256816194543212 0.26774877713060941 0 0.37445134229794041 0.26793712586679941 0 0.36106866797830017 0.25633021158225711 0 0.3816707290707696 0.2528369008378113 0 0.3645563033821877 0.24268260694936711 0 0.37445134229794041 0.26793712586679941 0 0.36106866797830017 0.25633021158225711 0 0.3816707290707696 0.2528369008378113 0 0.36256816194543212 0.26774877713060941 0 0.37445134229794041 0.26793712586679941 0 0.36106866797830017 0.25633021158225711 0 0.36106866797830017 0.25633021158225711 0 0.3443376629253021 0.25725650978514841 0 0.35048540294880992 0.24333871206296781 0 0.36256816194543212 0.26774877713060941 0 0.36106866797830017 0.25633021158225711 0 0.34910594188870492 0.26800680007420219 0 0.36106866797830017 0.25633021158225711 0 0.3443376629253021 0.25725650978514841 0 0.34910594188870492 0.26800680007420219 0 0.3443376629253021 0.25725650978514841 0 0.35048540294880992 0.24333871206296781 0 0.33623438378555048 0.27574637068651731 0 0.34910594188870492 0.26800680007420219 0 0.34624581182304393 0.27979649344210938 0 0.34910594188870492 0.26800680007420219 0 0.34624581182304393 0.27979649344210938 0 0.35588833061725522 0.27481967307461003 0 0.35502400573930792 0.28560818931485182 0 0.34624581182304393 0.27979649344210938 0 0.35588833061725522 0.27481967307461003 0 0.36256816194543212 0.26774877713060941 0 0.34910594188870492 0.26800680007420219 0 0.35588833061725522 0.27481967307461003 0 0.39205527334884432 0.26569870167778509 0 0.40587772736418098 0.27107836809875441 0 0.39025725320790211 0.27723324325825172 0 0.40587772736418098 0.27107836809875441 0 0.39025725320790211 0.27723324325825172 0 0.40074258732213047 0.28239606327504668 0 0.39508804571461031 0.2553169400753697 0 0.3816707290707696 0.2528369008378113 0 0.39798372082256839 0.2439770222975968 0 0.39205527334884432 0.26569870167778509 0 0.40587772736418098 0.27107836809875441 0 0.40716896968573679 0.25769485578380308 0 0.39508804571461031 0.2553169400753697 0 0.40716896968573679 0.25769485578380308 0 0.39798372082256839 0.2439770222975968 0 0.39205527334884432 0.26569870167778509 0 0.39508804571461031 0.2553169400753697 0 0.40716896968573679 0.25769485578380308 0 0.37445134229794041 0.26793712586679941 0 0.39205527334884432 0.26569870167778509 0 0.3816707290707696 0.2528369008378113 0 0.39205527334884432 0.26569870167778509 0 0.39508804571461031 0.2553169400753697 0 0.3816707290707696 0.2528369008378113 0 0.37445134229794041 0.26793712586679941 0 0.39025725320790211 0.27723324325825172 0 0.37981081093231039 0.28736248547651499 0 0.37445134229794041 0.26793712586679941 0 0.39205527334884432 0.26569870167778509 0 0.39025725320790211 0.27723324325825172 0 0.37981081093231039 0.28736248547651499 0 0.38817021743984748 0.29361596603425061 0 0.3914844501793433 0.28764509262843552 0 0.37981081093231039 0.28736248547651499 0 0.38817021743984748 0.29361596603425061 0 0.38616447532034448 0.3021575618053115 0 0.39025725320790211 0.27723324325825172 0 0.37981081093231039 0.28736248547651499 0 0.3914844501793433 0.28764509262843552 0 0.36028476692480299 0.30115764835060349 0 0.37981081093231039 0.28736248547651499 0 0.38616447532034448 0.3021575618053115 0 0.38616447532034448 0.3021575618053115 0 0.39331851767215242 0.30243397230784402 0 0.38510407378627681 0.32460513813743852 0 0.36336531525851501 0.31438916153912733 0 0.38616447532034448 0.3021575618053115 0 0.37641209075030729 0.31687533087281888 0 0.38817021743984748 0.29361596603425061 0 0.38616447532034448 0.3021575618053115 0 0.39522113332739123 0.29729872422673947 0 0.38616447532034448 0.3021575618053115 0 0.39331851767215242 0.30243397230784402 0 0.39331851767215242 0.30243397230784402 0 0.40456576986558118 0.30961814049439418 0 0.41247714116443529 0.30317420342293072 0 0.39331851767215242 0.30243397230784402 0 0.41247714116443529 0.30317420342293072 0 0.39331851767215242 0.30243397230784402 0 0.39522113332739123 0.29729872422673947 0 0.41247714116443529 0.30317420342293072 0 0.39331851767215242 0.30243397230784402 0 0.40456576986558118 0.30961814049439418 0 0.40067969074700832 0.31818368422146309 0 0.38616447532034448 0.3021575618053115 0 0.39331851767215242 0.30243397230784402 0 0.39522113332739123 0.29729872422673947 0 0.38616447532034448 0.3021575618053115 0 0.39522113332739123 0.29729872422673947 0 0.39331851767215242 0.30243397230784402 0 0.39522113332739123 0.29729872422673947 0 0.39522113332739123 0.29729872422673947 0 0.41419033399928529 0.28712187256817928 0 0.39522113332739123 0.29729872422673947 0 0.40074258732213047 0.28239606327504668 0 0.41419033399928529 0.28712187256817928 0 0.39025725320790211 0.27723324325825172 0 0.3914844501793433 0.28764509262843552 0 0.40074258732213047 0.28239606327504668 0 0.38817021743984748 0.29361596603425061 0 0.39522113332739123 0.29729872422673947 0 0.3914844501793433 0.28764509262843552 0 0.39522113332739123 0.29729872422673947 0 0.3914844501793433 0.28764509262843552 0 0.40074258732213047 0.28239606327504668 0 0.39522113332739123 0.29729872422673947 0 0.40074258732213047 0.28239606327504668 0 0.39522113332739123 0.29729872422673947 0 0.41419033399928529 0.28712187256817928 0 0.41247714116443529 0.30317420342293072 0 0.40074258732213047 0.28239606327504668 0 0.41419033399928529 0.28712187256817928 0 0.41598304666503222 0.27686722824588139 0 0.41419033399928529 0.28712187256817928 0 0.41247714116443529 0.30317420342293072 0 0.42224558084282787 0.30355162631026172 0 0.40456576986558118 0.30961814049439418 0 0.41247714116443529 0.30317420342293072 0 0.41178772987873041 0.31468070202533982 0 0.41247714116443529 0.30317420342293072 0 0.42224558084282787 0.30355162631026172 0 0.41247714116443529 0.30317420342293072 0 0.42115326973401779 0.30905074384804848 0 0.41178772987873041 0.31468070202533982 0 0.41247714116443529 0.30317420342293072 0 0.42115326973401779 0.30905074384804848 0 0.42224558084282787 0.30355162631026172 0 0.42115326973401779 0.30905074384804848 0 0.42224558084282787 0.30355162631026172 0 0.43163576465671832 0.30391443453801248 0 0.42115326973401779 0.30905074384804848 0 0.42742213561146808 0.30974907704490379 0 0.43163576465671832 0.30391443453801248 0 0.42742213561146808 0.30974907704490379 0 0.43334248650400642 0.31180986243359821 0 0.42754412162454208 0.31506176866591179 0 0.42115326973401779 0.30905074384804848 0 0.42742213561146808 0.30974907704490379 0 0.42754412162454208 0.31506176866591179 0 0.42224558084282787 0.30355162631026172 0 0.43163576465671832 0.30391443453801248 0 0.42224558084282787 0.30355162631026172 0 0.43163576465671832 0.30391443453801248 0 0.43683488537988679 0.29189666778266948 0 0.43121007509018899 0.30610632533974491 0 0.43334248650400642 0.31180986243359821 0 0.44127012368375063 0.30670486578175532 0 0.42742213561146808 0.30974907704490379 0 0.43163576465671832 0.30391443453801248 0 0.43121007509018899 0.30610632533974491 0 0.42742213561146808 0.30974907704490379 0 0.43121007509018899 0.30610632533974491 0 0.43334248650400642 0.31180986243359821 0 0.41419033399928529 0.28712187256817928 0 0.42224558084282787 0.30355162631026172 0 0.43322154359697718 0.27693485874247142 0 0.42224558084282787 0.30355162631026172 0 0.43683488537988679 0.29189666778266948 0 0.43322154359697718 0.27693485874247142 0 0.41419033399928529 0.28712187256817928 0 0.43322154359697718 0.27693485874247142 0 0.42224558084282787 0.30355162631026172 0 0.43322154359697718 0.27693485874247142 0 0.43322154359697718 0.27693485874247142 0 0.41598304666503222 0.27686722824588139 0 0.42017387754988939 0.26733787961267003 0 0.43322154359697718 0.27693485874247142 0 0.44170341293161153 0.25655924287046161 0 0.43322154359697718 0.27693485874247142 0 0.42017387754988939 0.26733787961267003 0 0.43322154359697718 0.27693485874247142 0 0.42017387754988939 0.26733787961267003 0 0.42652955362642719 0.26200890931043519 0 0.41419033399928529 0.28712187256817928 0 0.43322154359697718 0.27693485874247142 0 0.41598304666503222 0.27686722824588139 0 0.40587772736418098 0.27107836809875441 0 0.41598304666503222 0.27686722824588139 0 0.42017387754988939 0.26733787961267003 0 0.40587772736418098 0.27107836809875441 0 0.40074258732213047 0.28239606327504668 0 0.41598304666503222 0.27686722824588139 0 0.40716896968573679 0.25769485578380308 0 0.41865900974769332 0.2512550762760013 0 0.39798372082256839 0.2439770222975968 0 0.42017387754988939 0.26733787961267003 0 0.40716896968573679 0.25769485578380308 0 0.40587772736418098 0.27107836809875441 0 0.42017387754988939 0.26733787961267003 0 0.40716896968573679 0.25769485578380308 0 0.42017387754988939 0.26733787961267003 0 0.40716896968573679 0.25769485578380308 0 0.41940694219528851 0.25859083837230962 0 0.41940694219528851 0.25859083837230962 0 0.41865900974769332 0.2512550762760013 0 0.42700699583846108 0.25103027760885283 0 0.40716896968573679 0.25769485578380308 0 0.41940694219528851 0.25859083837230962 0 0.41865900974769332 0.2512550762760013 0 0.41940694219528851 0.25859083837230962 0 0.42700699583846108 0.25103027760885283 0 0.42652955362642719 0.26200890931043519 0 0.43322154359697718 0.27693485874247142 0 0.42652955362642719 0.26200890931043519 0 0.44170341293161153 0.25655924287046161 0 0.42017387754988939 0.26733787961267003 0 0.41940694219528851 0.25859083837230962 0 0.42652955362642719 0.26200890931043519 0 0.42700699583846108 0.25103027760885283 0 0.42652955362642719 0.26200890931043519 0 0.43833603885486938 0.24911929050397569 0 0.42652955362642719 0.26200890931043519 0 0.43833603885486938 0.24911929050397569 0 0.42652955362642719 0.26200890931043519 0 0.44170341293161153 0.25655924287046161 0 0.43833603885486938 0.24911929050397569 0 0.43322154359697718 0.27693485874247142 0 0.44170341293161153 0.25655924287046161 0 0.44933652033524252 0.25926056364446892 0 0.44933652033524252 0.25926056364446892 0 0.45442140526327968 0.25165413839784601 0 0.45450528576643462 0.26549316554710589 0 0.44170341293161153 0.25655924287046161 0 0.44933652033524252 0.25926056364446892 0 0.44969712660805761 0.2496796817576695 0 0.44933652033524252 0.25926056364446892 0 0.45442140526327968 0.25165413839784601 0 0.44969712660805761 0.2496796817576695 0 0.43322154359697718 0.27693485874247142 0 0.45412870552230561 0.27715519806562933 0 0.45450528576643462 0.26549316554710589 0 0.43322154359697718 0.27693485874247142 0 0.44933652033524252 0.25926056364446892 0 0.45450528576643462 0.26549316554710589 0 0.43322154359697718 0.27693485874247142 0 0.45450528576643462 0.26549316554710589 0 0.45412870552230561 0.27715519806562933 0 0.47626266424193459 0.27486657444727641 0 0.45252532848387628 0.2913261935256628 0 0.45412870552230561 0.27715519806562933 0 0.45450528576643462 0.26549316554710589 0 0.47626266424193459 0.27486657444727641 0 0.45450528576643462 0.26549316554710589 0 0.47574626975295681 0.25409751705080402 0 0.46576285555457803 0.24780483854819199 0 0.45450528576643462 0.26549316554710589 0 0.47574626975295681 0.25409751705080402 0 0.45442140526327968 0.25165413839784601 0 0.45450528576643462 0.26549316554710589 0 0.46576285555457803 0.24780483854819199 0 0.47574626975295681 0.25409751705080402 0 0.47626266424193459 0.27486657444727641 0 0.49999999999999589 0.25840695536889408 0 0.45450528576643462 0.26549316554710589 0 0.47574626975295681 0.25409751705080402 0 0.47626266424193459 0.27486657444727641 0 0.47626266424193459 0.27486657444727641 0 0.49999999999999589 0.25840695536889408 0 0.47626266424193459 0.27486657444727641 0 0.5 0.28111405069881701 0 0.49999999999999589 0.25840695536889408 0 0.47574626975295681 0.25409751705080402 0 0.49999999999999589 0.25840695536889408 0 0.49698725373947911 0.24270186855450199 0 0.5 0.30382114602873989 0 0.48639218943060658 0.30019640476118092 0 0.4828795565171724 0.31383358437298892 0 0.5 0.28111405069881701 0 0.48639218943060658 0.30019640476118092 0 0.47400385503392478 0.29104520592967692 0 0.5 0.28111405069881701 0 0.5 0.30382114602873989 0 0.48639218943060658 0.30019640476118092 0 0.47626266424193459 0.27486657444727641 0 0.5 0.28111405069881701 0 0.47400385503392478 0.29104520592967692 0 0.46575911303434231 0.30113892738731612 0 0.48287955651717113 0.32360016763526012 0 0.48639218943060658 0.30019640476118092 0 0.47400385503392478 0.29104520592967692 0 0.46575911303434231 0.30113892738731612 0 0.48639218943060658 0.30019640476118092 0 0.46575911303434231 0.30113892738731612 0 0.4828795565171724 0.31383358437298892 0 0.46575911303434231 0.30113892738731612 0 0.4828795565171724 0.31383358437298892 0 0.46575911303434231 0.30113892738731612 0 0.45252532848387628 0.2913261935256628 0 0.4493255556120761 0.30947164687129508 0 0.46575911303434231 0.30113892738731612 0 0.4493255556120761 0.30947164687129508 0 0.46298794815493588 0.3202694874313361 0 0.46575911303434231 0.30113892738731612 0 0.46308383501278988 0.29762908475780769 0 0.47400385503392478 0.29104520592967692 0 0.46308383501278988 0.29762908475780769 0 0.45252532848387628 0.2913261935256628 0 0.47626266424193459 0.27486657444727641 0 0.47400385503392478 0.29104520592967692 0 0.45252532848387628 0.2913261935256628 0 0.47626266424193459 0.27486657444727641 0 0.45252532848387628 0.2913261935256628 0 0.47400385503392478 0.29104520592967692 0 0.46575911303434231 0.30113892738731612 0 0.46308383501278988 0.29762908475780769 0 0.46575911303434231 0.30113892738731612 0 0.46308383501278988 0.29762908475780769 0 0.45252532848387628 0.2913261935256628 0 0.46575911303434231 0.30113892738731612 0 0.45252532848387628 0.2913261935256628 0 0.43683488537988679 0.29189666778266948 0 0.43322154359697718 0.27693485874247142 0 0.45252532848387628 0.2913261935256628 0 0.43322154359697718 0.27693485874247142 0 0.45252532848387628 0.2913261935256628 0 0.43322154359697718 0.27693485874247142 0 0.45412870552230561 0.27715519806562933 0 0.45252532848387628 0.2913261935256628 0 0.43163576465671832 0.30391443453801248 0 0.43683488537988679 0.29189666778266948 0 0.45252532848387628 0.2913261935256628 0 0.43121007509018899 0.30610632533974491 0 0.45252532848387628 0.2913261935256628 0 0.44127012368375063 0.30670486578175532 0 0.45252532848387628 0.2913261935256628 0 0.4493255556120761 0.30947164687129508 0 0.44127012368375063 0.30670486578175532 0 0.43163576465671832 0.30391443453801248 0 0.43121007509018899 0.30610632533974491 0 0.45252532848387628 0.2913261935256628 0 0.43121007509018899 0.30610632533974491 0 0.45252532848387628 0.2913261935256628 0 0.43334248650400642 0.31180986243359821 0 0.44127012368375063 0.30670486578175532 0 0.43994717272860567 0.31481030073847521 0 0.4493255556120761 0.30947164687129508 0 0.44127012368375063 0.30670486578175532 0 0.43994717272860567 0.31481030073847521 0 0.4493255556120761 0.30947164687129508 0 0.43994717272860567 0.31481030073847521 0 0.44735305380223911 0.32867924215987171 0 0.43994717272860567 0.31481030073847521 0 0.44735305380223911 0.32867924215987171 0 0.43389135919831567 0.32148712835397519 0 0.44735305380223911 0.32867924215987171 0 0.43156598401593721 0.33570479724605051 0 0.43389135919831567 0.32148712835397519 0 0.44735305380223911 0.32867924215987171 0 0.44396552919502119 0.35158157770343162 0 0.43156598401593721 0.33570479724605051 0 0.44735305380223911 0.32867924215987171 0 0.46298794815493588 0.3202694874313361 0 0.46815057258625059 0.34400365871582228 0 0.44735305380223911 0.32867924215987171 0 0.46815057258625059 0.34400365871582228 0 0.44396552919502119 0.35158157770343162 0 0.4493255556120761 0.30947164687129508 0 0.44735305380223911 0.32867924215987171 0 0.46298794815493588 0.3202694874313361 0 0.46575911303434231 0.30113892738731612 0 0.48287955651717113 0.32360016763526012 0 0.4828795565171724 0.31383358437298892 0 0.46575911303434231 0.30113892738731612 0 0.46298794815493588 0.3202694874313361 0 0.48287955651717113 0.32360016763526012 0 0.48287955651717113 0.32360016763526012 0 0.50000000000000011 0.34606140788320389 0 0.46815057258625059 0.34400365871582228 0 0.46298794815493588 0.3202694874313361 0 0.48287955651717113 0.32360016763526012 0 0.46815057258625059 0.34400365871582228 0 0.48287955651717113 0.32360016763526012 0 0.50000000000000011 0.34606140788320389 0 0.48287955651717113 0.32360016763526012 0 0.50000000000000167 0.32652824135866282 0 0.50000000000000011 0.34606140788320389 0 0.4828795565171724 0.31383358437298892 0 0.50000000000000167 0.32652824135866282 0 0.48287955651717113 0.32360016763526012 0 0.4828795565171724 0.31383358437298892 0 0.50000000000000167 0.32652824135866282 0 0.5 0.30382114602873989 0 0.4828795565171724 0.31383358437298892 0 0.50000000000000167 0.32652824135866282 0 0.50000000000000011 0.34606140788320389 0 0.48071230269372239 0.36451692142955111 0 0.46815057258625059 0.34400365871582228 0 0.5 0.37318988212282672 0 0.48071230269372239 0.36451692142955111 0 0.47875325790499612 0.38434700029570118 0 0.5 0.37318988212282672 0 0.50000000000000011 0.34606140788320389 0 0.48071230269372239 0.36451692142955111 0 0.48071230269372239 0.36451692142955111 0 0.45665768297736509 0.37498265813020121 0 0.47875325790499612 0.38434700029570118 0 0.48071230269372239 0.36451692142955111 0 0.45665768297736509 0.37498265813020121 0 0.46815057258625059 0.34400365871582228 0 0.45665768297736509 0.37498265813020121 0 0.46815057258625059 0.34400365871582228 0 0.44396552919502119 0.35158157770343162 0 0.45665768297736509 0.37498265813020121 0 0.43435482800098302 0.36578422175223779 0 0.43083261154041519 0.3817682793185998 0 0.45665768297736509 0.37498265813020121 0 0.44396552919502119 0.35158157770343162 0 0.43435482800098302 0.36578422175223779 0 0.43435482800098302 0.36578422175223779 0 0.41817754440917537 0.36823324908789901 0 0.42493119815867281 0.35257840853693379 0 0.43435482800098302 0.36578422175223779 0 0.41817754440917537 0.36823324908789901 0 0.43083261154041519 0.3817682793185998 0 0.41817754440917537 0.36823324908789901 0 0.40399320067485861 0.35557294416410001 0 0.40617029043030622 0.37620248500720588 0 0.42493119815867281 0.35257840853693379 0 0.41679617696826471 0.33688762553471308 0 0.40399320067485861 0.35557294416410001 0 0.41817754440917537 0.36823324908789901 0 0.42493119815867281 0.35257840853693379 0 0.40399320067485861 0.35557294416410001 0 0.44396552919502119 0.35158157770343162 0 0.43435482800098302 0.36578422175223779 0 0.42493119815867281 0.35257840853693379 0 0.44396552919502119 0.35158157770343162 0 0.42493119815867281 0.35257840853693379 0 0.43156598401593721 0.33570479724605051 0 0.42493119815867281 0.35257840853693379 0 0.43156598401593721 0.33570479724605051 0 0.41679617696826471 0.33688762553471308 0 0.43156598401593721 0.33570479724605051 0 0.42245858677310949 0.32301480118737791 0 0.41679617696826471 0.33688762553471308 0 0.43334248650400642 0.31180986243359821 0 0.43389135919831567 0.32148712835397519 0 0.42754412162454208 0.31506176866591179 0 0.43334248650400642 0.31180986243359821 0 0.43994717272860567 0.31481030073847521 0 0.43389135919831567 0.32148712835397519 0 0.43156598401593721 0.33570479724605051 0 0.43389135919831567 0.32148712835397519 0 0.42245858677310949 0.32301480118737791 0 0.43389135919831567 0.32148712835397519 0 0.42245858677310949 0.32301480118737791 0 0.42754412162454208 0.31506176866591179 0 0.42115326973401779 0.30905074384804848 0 0.42245858677310949 0.32301480118737791 0 0.42754412162454208 0.31506176866591179 0 0.42115326973401779 0.30905074384804848 0 0.42245858677310949 0.32301480118737791 0 0.41178772987873041 0.31468070202533982 0 0.42245858677310949 0.32301480118737791 0 0.41004644392190781 0.32589566987061941 0 0.41178772987873041 0.31468070202533982 0 0.41004644392190781 0.32589566987061941 0 0.41178772987873041 0.31468070202533982 0 0.40067969074700832 0.31818368422146309 0 0.41679617696826471 0.33688762553471308 0 0.39888680517229708 0.33481186678268759 0 0.40399320067485861 0.35557294416410001 0 0.41004644392190781 0.32589566987061941 0 0.41679617696826471 0.33688762553471308 0 0.39888680517229708 0.33481186678268759 0 0.42245858677310949 0.32301480118737791 0 0.41004644392190781 0.32589566987061941 0 0.41679617696826471 0.33688762553471308 0 0.39888680517229708 0.33481186678268759 0 0.40067969074700832 0.31818368422146309 0 0.38510407378627681 0.32460513813743852 0 0.39331851767215242 0.30243397230784402 0 0.40067969074700832 0.31818368422146309 0 0.38510407378627681 0.32460513813743852 0 0.41004644392190781 0.32589566987061941 0 0.39888680517229708 0.33481186678268759 0 0.40067969074700832 0.31818368422146309 0 0.40456576986558118 0.30961814049439418 0 0.41178772987873041 0.31468070202533982 0 0.40067969074700832 0.31818368422146309 0 0.38616447532034448 0.3021575618053115 0 0.38510407378627681 0.32460513813743852 0 0.37641209075030729 0.31687533087281888 0 0.39331851767215242 0.30243397230784402 0 0.38510407378627681 0.32460513813743852 0 0.37101449863609298 0.32634946200939818 0 0.38510407378627681 0.32460513813743852 0 0.37641209075030729 0.31687533087281888 0 0.37101449863609298 0.32634946200939818 0 0.38510407378627681 0.32460513813743852 0 0.37688962990040248 0.34677630396703357 0 0.38510407378627681 0.32460513813743852 0 0.37688962990040248 0.34677630396703357 0 0.39888680517229708 0.33481186678268759 0 0.38510407378627681 0.32460513813743852 0 0.37688962990040248 0.34677630396703357 0 0.37688962990040248 0.34677630396703357 0 0.38777334825377913 0.37399633009275179 0 0.40399320067485861 0.35557294416410001 0 0.37477399257497079 0.38192782219324189 0 0.36867518601452831 0.36894746979662879 0 0.38777334825377913 0.37399633009275179 0 0.36867518601452831 0.36894746979662879 0 0.37688962990040248 0.34677630396703357 0 0.38777334825377913 0.37399633009275179 0 0.38777334825377913 0.37399633009275179 0 0.40399320067485861 0.35557294416410001 0 0.40617029043030622 0.37620248500720588 0 0.39888680517229708 0.33481186678268759 0 0.37688962990040248 0.34677630396703357 0 0.40399320067485861 0.35557294416410001 0 0.40391264567719037 0.39617907088850218 0 0.3821866939029222 0.39364885325736299 0 0.38777334825377913 0.37399633009275179 0 0.40391264567719037 0.39617907088850218 0 0.40617029043030622 0.37620248500720588 0 0.38777334825377913 0.37399633009275179 0 0.40391264567719037 0.39617907088850218 0 0.3821866939029222 0.39364885325736299 0 0.37477399257497079 0.38192782219324189 0 0.38777334825377913 0.37399633009275179 0 0.3821866939029222 0.39364885325736299 0 0.37103211254345692 0.40007926267040422 0 0.3821866939029222 0.39364885325736299 0 0.38388577029907128 0.40985443827646689 0 0.40391264567719037 0.39617907088850218 0 0.3821866939029222 0.39364885325736299 0 0.38388577029907128 0.40985443827646689 0 0.38388577029907128 0.40985443827646689 0 0.37762472033449418 0.43629098835606778 0 0.39974566140083451 0.41860301485225071 0 0.3688127879355298 0.41432543963421442 0 0.38388577029907128 0.40985443827646689 0 0.37762472033449418 0.43629098835606778 0 0.37762472033449418 0.43629098835606778 0 0.39974566140083451 0.41860301485225071 0 0.40040594386599998 0.44298753354361348 0 0.40391264567719037 0.39617907088850218 0 0.39974566140083451 0.41860301485225071 0 0.41367465174392037 0.40689776066431932 0 0.40391264567719037 0.39617907088850218 0 0.38388577029907128 0.40985443827646689 0 0.39974566140083451 0.41860301485225071 0 0.39974566140083451 0.41860301485225071 0 0.41367465174392037 0.40689776066431932 0 0.4191565235697885 0.42031924173914259 0 0.41367465174392037 0.40689776066431932 0 0.4191565235697885 0.42031924173914259 0 0.42563859745145871 0.39870928851964132 0 0.4191565235697885 0.42031924173914259 0 0.40040594386599998 0.44298753354361348 0 0.39974566140083451 0.41860301485225071 0 0.4191565235697885 0.42031924173914259 0 0.40040594386599998 0.44298753354361348 0 0.4191565235697885 0.42031924173914259 0 0.41953711443340619 0.43824761646961968 0 0.40040594386599998 0.44298753354361348 0 0.4191565235697885 0.42031924173914259 0 0.43729583528432431 0.43677784701540762 0 0.41953711443340619 0.43824761646961968 0 0.4191565235697885 0.42031924173914259 0 0.43729583528432431 0.43677784701540762 0 0.43844405032875639 0.41698611493849091 0 0.4191565235697885 0.42031924173914259 0 0.43790710327357679 0.39765094993467193 0 0.4191565235697885 0.42031924173914259 0 0.43790710327357679 0.39765094993467193 0 0.43844405032875639 0.41698611493849091 0 0.4191565235697885 0.42031924173914259 0 0.42563859745145871 0.39870928851964132 0 0.43790710327357679 0.39765094993467193 0 0.42563859745145871 0.39870928851964132 0 0.43083261154041519 0.3817682793185998 0 0.43790710327357679 0.39765094993467193 0 0.40391264567719037 0.39617907088850218 0 0.42563859745145871 0.39870928851964132 0 0.41601333009853603 0.38681647891108473 0 0.40391264567719037 0.39617907088850218 0 0.41367465174392037 0.40689776066431932 0 0.42563859745145871 0.39870928851964132 0 0.40391264567719037 0.39617907088850218 0 0.42563859745145871 0.39870928851964132 0 0.41817754440917537 0.36823324908789901 0 0.41601333009853603 0.38681647891108473 0 0.43083261154041519 0.3817682793185998 0 0.41817754440917537 0.36823324908789901 0 0.40617029043030622 0.37620248500720588 0 0.41601333009853603 0.38681647891108473 0 0.40391264567719037 0.39617907088850218 0 0.40617029043030622 0.37620248500720588 0 0.41601333009853603 0.38681647891108473 0 0.42563859745145871 0.39870928851964132 0 0.41601333009853603 0.38681647891108473 0 0.43083261154041519 0.3817682793185998 0 0.45665768297736509 0.37498265813020121 0 0.43790710327357679 0.39765094993467193 0 0.46075423310902403 0.39403151653106328 0 0.45665768297736509 0.37498265813020121 0 0.43790710327357679 0.39765094993467193 0 0.45665768297736509 0.37498265813020121 0 0.43083261154041519 0.3817682793185998 0 0.43790710327357679 0.39765094993467193 0 0.43790710327357679 0.39765094993467193 0 0.46075423310902403 0.39403151653106328 0 0.45500586004735699 0.40699394917175952 0 0.46075423310902403 0.39403151653106328 0 0.47544726134182452 0.40618302512298249 0 0.45500586004735699 0.40699394917175952 0 0.45665768297736509 0.37498265813020121 0 0.46075423310902403 0.39403151653106328 0 0.47875325790499612 0.38434700029570118 0 0.46075423310902403 0.39403151653106328 0 0.47875325790499612 0.38434700029570118 0 0.47544726134182452 0.40618302512298249 0 0.47875325790499612 0.38434700029570118 0 0.47544726134182452 0.40618302512298249 0 0.5 0.40031835636244928 0 0.5 0.37318988212282672 0 0.47875325790499612 0.38434700029570118 0 0.5 0.40031835636244928 0 0.4887255606810148 0.43047606355478479 0 0.49031137175953099 0.41388259348226059 0 0.47732526000216741 0.42139929183657798 0 0.4887255606810148 0.43047606355478479 0 0.5 0.427446830602072 0 0.49031137175953099 0.41388259348226059 0 0.4887255606810148 0.43047606355478479 0 0.5 0.427446830602072 0 0.48952044403135198 0.44514063966772521 0 0.47544726134182452 0.40618302512298249 0 0.5 0.40031835636244928 0 0.49031137175953099 0.41388259348226059 0 0.5 0.40031835636244928 0 0.5 0.427446830602072 0 0.49031137175953099 0.41388259348226059 0 0.47544726134182452 0.40618302512298249 0 0.49031137175953099 0.41388259348226059 0 0.47732526000216741 0.42139929183657798 0 0.47544726134182452 0.40618302512298249 0 0.47732526000216741 0.42139929183657798 0 0.46399769190749618 0.41765786358832691 0 0.47732526000216741 0.42139929183657798 0 0.4696228037785195 0.43418006569928091 0 0.46399769190749618 0.41765786358832691 0 0.4887255606810148 0.43047606355478479 0 0.47732526000216741 0.42139929183657798 0 0.4696228037785195 0.43418006569928091 0 0.4696228037785195 0.43418006569928091 0 0.45529835748337111 0.42647659691797241 0 0.45212347571555822 0.4384349299313266 0 0.4696228037785195 0.43418006569928091 0 0.45529835748337111 0.42647659691797241 0 0.46399769190749618 0.41765786358832691 0 0.47544726134182452 0.40618302512298249 0 0.46399769190749618 0.41765786358832691 0 0.45500586004735699 0.40699394917175952 0 0.46399769190749618 0.41765786358832691 0 0.45500586004735699 0.40699394917175952 0 0.45186117385533148 0.41904264688300369 0 0.45529835748337111 0.42647659691797241 0 0.46399769190749618 0.41765786358832691 0 0.45186117385533148 0.41904264688300369 0 0.43790710327357679 0.39765094993467193 0 0.45500586004735699 0.40699394917175952 0 0.43844405032875639 0.41698611493849091 0 0.45500586004735699 0.40699394917175952 0 0.45186117385533148 0.41904264688300369 0 0.43844405032875639 0.41698611493849091 0 0.45186117385533148 0.41904264688300369 0 0.43844405032875639 0.41698611493849091 0 0.44655990950967689 0.42709870979846909 0 0.43729583528432431 0.43677784701540762 0 0.43844405032875639 0.41698611493849091 0 0.44655990950967689 0.42709870979846909 0 0.43729583528432431 0.43677784701540762 0 0.44655990950967689 0.42709870979846909 0 0.45212347571555822 0.4384349299313266 0 0.45529835748337111 0.42647659691797241 0 0.44655990950967689 0.42709870979846909 0 0.45212347571555822 0.4384349299313266 0 0.45529835748337111 0.42647659691797241 0 0.45186117385533148 0.41904264688300369 0 0.44655990950967689 0.42709870979846909 0 0.43729583528432431 0.43677784701540762 0 0.45097592483169519 0.45213468287612291 0 0.43616606769434613 0.46004181528381871 0 0.43729583528432431 0.43677784701540762 0 0.45097592483169519 0.45213468287612291 0 0.45212347571555822 0.4384349299313266 0 0.45129430359450579 0.46437940187148707 0 0.44038191325580028 0.47607684009128992 0 0.43616606769434613 0.46004181528381871 0 0.45097592483169519 0.45213468287612291 0 0.45129430359450579 0.46437940187148707 0 0.43616606769434613 0.46004181528381871 0 0.45129430359450579 0.46437940187148707 0 0.46157074410885862 0.45844678806134859 0 0.46500555232536189 0.47417740391428947 0 0.46157074410885862 0.45844678806134859 0 0.47686555650318813 0.45232673373453708 0 0.46500555232536189 0.47417740391428947 0 0.45097592483169519 0.45213468287612291 0 0.45129430359450579 0.46437940187148707 0 0.46157074410885862 0.45844678806134859 0 0.4696228037785195 0.43418006569928091 0 0.45212347571555822 0.4384349299313266 0 0.46268014280966352 0.44623390151618481 0 0.45097592483169519 0.45213468287612291 0 0.45212347571555822 0.4384349299313266 0 0.46268014280966352 0.44623390151618481 0 0.45097592483169519 0.45213468287612291 0 0.46157074410885862 0.45844678806134859 0 0.46268014280966352 0.44623390151618481 0 0.46157074410885862 0.45844678806134859 0 0.46268014280966352 0.44623390151618481 0 0.47686555650318813 0.45232673373453708 0 0.4887255606810148 0.43047606355478479 0 0.47686555650318813 0.45232673373453708 0 0.4696228037785195 0.43418006569928091 0 0.46268014280966352 0.44623390151618481 0 0.47686555650318813 0.45232673373453708 0 0.4887255606810148 0.43047606355478479 0 0.4696228037785195 0.43418006569928091 0 0.47686555650318813 0.45232673373453708 0 0.47686555650318813 0.45232673373453708 0 0.47134426955029279 0.47368844333544141 0 0.46500555232536189 0.47417740391428947 0 0.47686555650318813 0.45232673373453708 0 0.48567213477514781 0.46413187408856832 0 0.48952044403135198 0.44514063966772521 0 0.47686555650318813 0.45232673373453708 0 0.48567213477514781 0.46413187408856832 0 0.47134426955029279 0.47368844333544141 0 0.47686555650318813 0.45232673373453708 0 0.46500555232536189 0.47417740391428947 0 0.48567213477514781 0.46413187408856832 0 0.50000000000000244 0.45457530484169473 0 0.48952044403135198 0.44514063966772521 0 0.48567213477514781 0.46413187408856832 0 0.50000000000000244 0.45457530484169473 0 0.50000000000000167 0.47147797676140107 0 0.48567213477514781 0.46413187408856832 0 0.50000000000000244 0.45457530484169473 0 0.4887255606810148 0.43047606355478479 0 0.47686555650318813 0.45232673373453708 0 0.48952044403135198 0.44514063966772521 0 0.5 0.427446830602072 0 0.50000000000000244 0.45457530484169473 0 0.48952044403135198 0.44514063966772521 0 0.5 0.5 0 0.47406498196629487 0.48735179518140798 0 0.45098968485129709 0.50000000000000144 0 0.5 0.5 0 0.50000000000000167 0.47147797676140107 0 0.48616639699321762 0.48303251956615723 0 0.5 0.5 0 0.48616639699321762 0.48303251956615723 0 0.47406498196629487 0.48735179518140798 0 0.50000000000000167 0.47147797676140107 0 0.48616639699321762 0.48303251956615723 0 0.47134426955029279 0.47368844333544141 0 0.50000000000000167 0.47147797676140107 0 0.47134426955029279 0.47368844333544141 0 0.48567213477514781 0.46413187408856832 0 0.50000000000000167 0.47147797676140107 0 0.47134426955029279 0.47368844333544141 0 0.48616639699321762 0.48303251956615723 0 0.47134426955029279 0.47368844333544141 0 0.47406498196629487 0.48735179518140798 0 0.48567213477514781 0.46413187408856832 0 0.47134426955029279 0.47368844333544141 0 0.47134426955029279 0.47368844333544141 0 0.47406498196629487 0.48735179518140798 0 0.46182455843666692 0.48003801300544052 0 0.47406498196629487 0.48735179518140798 0 0.46182455843666692 0.48003801300544052 0 0.45098968485129709 0.50000000000000144 0 0.46182455843666692 0.48003801300544052 0 0.45098968485129709 0.50000000000000144 0 0.46500555232536189 0.47417740391428947 0 0.46182455843666692 0.48003801300544052 0 0.44038191325580028 0.47607684009128992 0 0.47134426955029279 0.47368844333544141 0 0.46500555232536189 0.47417740391428947 0 0.46182455843666692 0.48003801300544052 0 0.47134426955029279 0.47368844333544141 0 0.46500555232536189 0.47417740391428947 0 0.47134426955029279 0.47368844333544141 0 0.46182455843666692 0.48003801300544052 0 0.46500555232536189 0.47417740391428947 0 0.46182455843666692 0.48003801300544052 0 0.45129430359450579 0.46437940187148707 0 0.46500555232536189 0.47417740391428947 0 0.44038191325580028 0.47607684009128992 0 0.46182455843666692 0.48003801300544052 0 0.44038191325580028 0.47607684009128992 0 0.43848230781037462 0.49560710379372003 0 0.46500555232536189 0.47417740391428947 0 0.44038191325580028 0.47607684009128992 0 0.45098968485129709 0.50000000000000144 0 0.43848230781037462 0.49560710379372003 0 0.42411925670221978 0.5 0 0.46182455843666692 0.48003801300544052 0 0.45098968485129709 0.50000000000000144 0 0.43848230781037462 0.49560710379372003 0 0.46182455843666692 0.48003801300544052 0 0.43848230781037462 0.49560710379372003 0 0.43848230781037462 0.49560710379372003 0 0.42821911553439862 0.48639832608641909 0 0.42411925670221978 0.5 0 0.42821911553439862 0.48639832608641909 0 0.42411925670221978 0.5 0 0.41575827418623862 0.47797627626828931 0 0.44038191325580028 0.47607684009128992 0 0.43848230781037462 0.49560710379372003 0 0.42821911553439862 0.48639832608641909 0 0.42411925670221978 0.5 0 0.41575827418623862 0.47797627626828931 0 0.39724882855314259 0.5 0 0.44038191325580028 0.47607684009128992 0 0.42821911553439862 0.48639832608641909 0 0.41575827418623862 0.47797627626828931 0 0.44038191325580028 0.47607684009128992 0 0.41575827418623862 0.47797627626828931 0 0.43616606769434613 0.46004181528381871 0 0.44038191325580028 0.47607684009128992 0 0.41575827418623862 0.47797627626828931 0 0.41575827418623862 0.47797627626828931 0 0.43616606769434613 0.46004181528381871 0 0.42129015501351241 0.45290584358031521 0 0.43729583528432431 0.43677784701540762 0 0.43616606769434613 0.46004181528381871 0 0.42129015501351241 0.45290584358031521 0 0.43729583528432431 0.43677784701540762 0 0.42129015501351241 0.45290584358031521 0 0.41953711443340619 0.43824761646961968 0 0.42129015501351241 0.45290584358031521 0 0.40418206940323181 0.46197230675396961 0 0.40040594386599998 0.44298753354361348 0 0.42129015501351241 0.45290584358031521 0 0.41953711443340619 0.43824761646961968 0 0.40040594386599998 0.44298753354361348 0 0.41575827418623862 0.47797627626828931 0 0.42129015501351241 0.45290584358031521 0 0.40418206940323181 0.46197230675396961 0 0.40418206940323181 0.46197230675396961 0 0.40040594386599998 0.44298753354361348 0 0.38643665273345862 0.45825653707792119 0 0.40418206940323181 0.46197230675396961 0 0.38643665273345862 0.45825653707792119 0 0.39113463511667668 0.47987571244528859 0 0.37762472033449418 0.43629098835606778 0 0.40040594386599998 0.44298753354361348 0 0.38643665273345862 0.45825653707792119 0 0.37762472033449418 0.43629098835606778 0 0.38643665273345862 0.45825653707792119 0 0.37246603769086117 0.46662032854883773 0 0.38643665273345862 0.45825653707792119 0 0.39113463511667668 0.47987571244528859 0 0.36651099604711479 0.48177514862228799 0 0.39113463511667668 0.47987571244528859 0 0.36651099604711479 0.48177514862228799 0 0.37246603769086117 0.46662032854883773 0 0.39113463511667668 0.47987571244528859 0 0.37037840040406528 0.5 0 0.39724882855314259 0.5 0 0.39113463511667668 0.47987571244528859 0 0.37037840040406528 0.5 0 0.36651099604711479 0.48177514862228799 0 0.39113463511667668 0.47987571244528859 0 0.41575827418623862 0.47797627626828931 0 0.39724882855314259 0.5 0 0.39113463511667668 0.47987571244528859 0 0.41575827418623862 0.47797627626828931 0 0.40418206940323181 0.46197230675396961 0 0.39113463511667668 0.47987571244528859 0 0.41575827418623862 0.47797627626828931 0 0.39113463511667668 0.47987571244528859 0 0.33183232550549391 0.092546048983542795 0 0.33512989108126678 0.074954655991794156 0 0.3496322816662481 0.087471909442182763 0 0.33183232550549391 0.092546048983542795 0 0.33512989108126678 0.074954655991794156 0 0.31838555977113409 0.076855326398205415 0 0.33512989108126678 0.074954655991794156 0 0.35099269979647801 0.054258115843171341 0 0.33512989108126678 0.074954655991794156 0 0.31838555977113409 0.076855326398205415 0 0.3332530564755371 0.056962774100586699 0 0.31838555977113409 0.076855326398205415 0 0.3332530564755371 0.056962774100586699 0 0.31482842755732687 0.054047871131739159 0 0.33183232550549391 0.092546048983542795 0 0.31838555977113409 0.076855326398205415 0 0.33183232550549391 0.092546048983542795 0 0.31838555977113409 0.076855326398205415 0 0.3150511116243383 0.09332013123180366 0 0.33183232550549391 0.092546048983542795 0 0.3150511116243383 0.09332013123180366 0 0.32099998476762009 0.10978351816781851 0 0.3150511116243383 0.09332013123180366 0 0.32099998476762009 0.10978351816781851 0 0.30229534200748698 0.10425167659986399 0 0.31971276993101799 0.1244230326331304 0 0.32099998476762009 0.10978351816781851 0 0.30185590029962761 0.1210714196444433 0 0.31971276993101799 0.1244230326331304 0 0.32099998476762009 0.10978351816781851 0 0.3326780516248819 0.12161491972370291 0 0.3326780516248819 0.12161491972370291 0 0.34527909123985367 0.1082367715688802 0 0.34516675227937188 0.1245666799755922 0 0.32099998476762009 0.10978351816781851 0 0.3326780516248819 0.12161491972370291 0 0.34527909123985367 0.1082367715688802 0 0.33183232550549391 0.092546048983542795 0 0.34527909123985367 0.1082367715688802 0 0.33183232550549391 0.092546048983542795 0 0.32099998476762009 0.10978351816781851 0 0.34527909123985367 0.1082367715688802 0 0.33183232550549391 0.092546048983542795 0 0.34527909123985367 0.1082367715688802 0 0.3496322816662481 0.087471909442182763 0 0.34527909123985367 0.1082367715688802 0 0.3644611438199572 0.100803704501796 0 0.3496322816662481 0.087471909442182763 0 0.34527909123985367 0.1082367715688802 0 0.35872585697421422 0.12392749415421681 0 0.3644611438199572 0.100803704501796 0 0.34527909123985367 0.1082367715688802 0 0.35872585697421422 0.12392749415421681 0 0.34527909123985367 0.1082367715688802 0 0.34516675227937188 0.1245666799755922 0 0.35872585697421422 0.12392749415421681 0 0.35872585697421422 0.12392749415421681 0 0.36915976594833949 0.1199798001985428 0 0.3644611438199572 0.100803704501796 0 0.35872585697421422 0.12392749415421681 0 0.3644611438199572 0.100803704501796 0 0.36915976594833949 0.1199798001985428 0 0.3644611438199572 0.100803704501796 0 0.37791396880342493 0.1153271289745038 0 0.36915976594833949 0.1199798001985428 0 0.37753456423920267 0.12606772520011819 0 0.37791396880342493 0.1153271289745038 0 0.3644611438199572 0.100803704501796 0 0.38239048044551732 0.10105814789166991 0 0.37791396880342493 0.1153271289745038 0 0.3644611438199572 0.100803704501796 0 0.3496322816662481 0.087471909442182763 0 0.37019643066569818 0.077679914849374587 0 0.3644611438199572 0.100803704501796 0 0.37019643066569818 0.077679914849374587 0 0.38007945782092589 0.088591357148056354 0 0.3644611438199572 0.100803704501796 0 0.37019643066569818 0.077679914849374587 0 0.3496322816662481 0.087471909442182763 0 0.354627969189385 0.070477193278171812 0 0.37019643066569818 0.077679914849374587 0 0.33512989108126678 0.074954655991794156 0 0.354627969189385 0.070477193278171812 0 0.35099269979647801 0.054258115843171341 0 0.33512989108126678 0.074954655991794156 0 0.3496322816662481 0.087471909442182763 0 0.354627969189385 0.070477193278171812 0 0.37019643066569818 0.077679914849374587 0 0.36718854273723422 0.058021370264336257 0 0.38348814788765401 0.061306227086249519 0 0.354627969189385 0.070477193278171812 0 0.37019643066569818 0.077679914849374587 0 0.36718854273723422 0.058021370264336257 0 0.36718854273723422 0.058021370264336257 0 0.36685550851168908 0.033561575694548471 0 0.35099269979647801 0.054258115843171341 0 0.36718854273723422 0.058021370264336257 0 0.36685550851168908 0.033561575694548471 0 0.37834334897691152 0.04591186500673252 0 0.36685550851168908 0.033561575694548471 0 0.35099269979647801 0.054258115843171341 0 0.36685550851168908 0.033561575694548471 0 0.34613699640871681 0.034109200698285137 0 0.35099269979647801 0.054258115843171341 0 0.354627969189385 0.070477193278171812 0 0.36718854273723422 0.058021370264336257 0 0.35099269979647801 0.054258115843171341 0 0.38271831722690208 0.01286503554592695 0 0.36705046236217842 -0.010151413808299909 0 0.36364914110051888 0.01467678976719604 0 0.38271831722690208 0.01286503554592695 0 0.36705046236217842 -0.010151413808299909 0 0.36685550851168908 0.033561575694548471 0 0.38271831722690208 0.01286503554592695 0 0.36685550851168908 0.033561575694548471 0 0.36364914110051888 0.01467678976719604 0 0.38271831722690208 0.01286503554592695 0 0.36685550851168908 0.033561575694548471 0 0.34613699640871681 0.034109200698285137 0 0.36364914110051888 0.01467678976719604 0 0.34613699640871681 0.034109200698285137 0 0.36364914110051888 0.01467678976719604 0 0.34507599742959921 0.0099912518389839687 0 0.36364914110051888 0.01467678976719604 0 0.34507599742959921 0.0099912518389839687 0 0.36705046236217842 -0.010151413808299909 0 0.34507599742959921 0.0099912518389839687 0 0.3213405256380108 0.01287573289299193 0 0.33358620685756429 -0.010514286594233299 0 0.34613699640871681 0.034109200698285137 0 0.3213405256380108 0.01287573289299193 0 0.32544537807402929 0.038810323446622018 0 0.34613699640871681 0.034109200698285137 0 0.34507599742959921 0.0099912518389839687 0 0.3213405256380108 0.01287573289299193 0 0.3213405256380108 0.01287573289299193 0 0.32544537807402929 0.038810323446622018 0 0.30781755710343461 0.033208664015647087 0 0.33512989108126678 0.074954655991794156 0 0.35099269979647801 0.054258115843171341 0 0.3332530564755371 0.056962774100586699 0 0.34613699640871681 0.034109200698285137 0 0.35099269979647801 0.054258115843171341 0 0.3332530564755371 0.056962774100586699 0 0.34613699640871681 0.034109200698285137 0 0.3332530564755371 0.056962774100586699 0 0.32544537807402929 0.038810323446622018 0 0.32544537807402929 0.038810323446622018 0 0.31482842755732687 0.054047871131739159 0 0.30781755710343461 0.033208664015647087 0 0.3332530564755371 0.056962774100586699 0 0.32544537807402929 0.038810323446622018 0 0.31482842755732687 0.054047871131739159 0 0.31482842755732687 0.054047871131739159 0 0.2964426925299054 0.047527027651343749 0 0.29864955932488568 0.066661355343028861 0 0.31482842755732687 0.054047871131739159 0 0.30781755710343461 0.033208664015647087 0 0.2964426925299054 0.047527027651343749 0 0.30781755710343461 0.033208664015647087 0 0.29323796508649991 0.034310924148814863 0 0.2964426925299054 0.047527027651343749 0 0.29323796508649991 0.034310924148814863 0 0.2964426925299054 0.047527027651343749 0 0.28052720537299319 0.037439746061064802 0 0.29323796508649991 0.034310924148814863 0 0.28458433088718371 0.0233148795233265 0 0.28052720537299319 0.037439746061064802 0 0.2964426925299054 0.047527027651343749 0 0.28042089888318139 0.055986092853604487 0 0.28052720537299319 0.037439746061064802 0 0.2964426925299054 0.047527027651343749 0 0.28042089888318139 0.055986092853604487 0 0.29864955932488568 0.066661355343028861 0 0.3213405256380108 0.01287573289299193 0 0.30074794684224537 0.016015283002501511 0 0.29747716901056448 -0.002932566790178141 0 0.3213405256380108 0.01287573289299193 0 0.30781755710343461 0.033208664015647087 0 0.30074794684224537 0.016015283002501511 0 0.30781755710343461 0.033208664015647087 0 0.29323796508649991 0.034310924148814863 0 0.30074794684224537 0.016015283002501511 0 0.29323796508649991 0.034310924148814863 0 0.30074794684224537 0.016015283002501511 0 0.28458433088718371 0.0233148795233265 0 0.30074794684224537 0.016015283002501511 0 0.28458433088718371 0.0233148795233265 0 0.27854720245428283 0.0066886364103462149 0 0.30074794684224537 0.016015283002501511 0 0.27854720245428283 0.0066886364103462149 0 0.29747716901056448 -0.002932566790178141 0 0.28458433088718371 0.0233148795233265 0 0.27854720245428283 0.0066886364103462149 0 0.26986133467989698 0.022119807993905099 0 0.28458433088718371 0.0233148795233265 0 0.26986133467989698 0.022119807993905099 0 0.28052720537299319 0.037439746061064802 0 0.24732928016819311 0.003842864563858316 0 0.24739028788927561 0.025315163976028111 0 0.26986133467989698 0.022119807993905099 0 0.24739028788927561 0.025315163976028111 0 0.26986133467989698 0.022119807993905099 0 0.26136463905208401 0.03638638147843426 0 0.24732928016819311 0.003842864563858316 0 0.26986133467989698 0.022119807993905099 0 0.24732928016819311 0.003842864563858316 0 0.27854720245428283 0.0066886364103462149 0 0.26986133467989698 0.022119807993905099 0 0.28042089888318139 0.055986092853604487 0 0.26136463905208401 0.03638638147843426 0 0.26203950398062897 0.064114028225092073 0 0.26986133467989698 0.022119807993905099 0 0.28052720537299319 0.037439746061064802 0 0.26136463905208401 0.03638638147843426 0 0.28042089888318139 0.055986092853604487 0 0.28052720537299319 0.037439746061064802 0 0.26136463905208401 0.03638638147843426 0 0.24995965013082411 0.044676572322646747 0 0.24739028788927561 0.025315163976028111 0 0.26136463905208401 0.03638638147843426 0 0.26136463905208401 0.03638638147843426 0 0.26203950398062897 0.064114028225092073 0 0.24995965013082411 0.044676572322646747 0 0.26136463905208401 0.03638638147843426 0 0.26203950398062897 0.064114028225092073 0 0.2442044530661836 0.057548197832841243 0 0.24995965013082411 0.044676572322646747 0 0.26203950398062897 0.064114028225092073 0 0.24961641041208221 0.079201354345002056 0 0.2442044530661836 0.057548197832841243 0 0.26203950398062897 0.064114028225092073 0 0.26203950398062897 0.064114028225092073 0 0.2627143689091741 0.091841674971749984 0 0.24961641041208221 0.079201354345002056 0 0.26203950398062897 0.064114028225092073 0 0.2627143689091741 0.091841674971749984 0 0.24093893683224391 0.096778397730709384 0 0.24961641041208221 0.079201354345002056 0 0.2627143689091741 0.091841674971749984 0 0.2627143689091741 0.091841674971749984 0 0.28217333546728729 0.077299058617215477 0 0.28589819068595579 0.09511510904366155 0 0.28042089888318139 0.055986092853604487 0 0.26203950398062897 0.064114028225092073 0 0.28217333546728729 0.077299058617215477 0 0.26203950398062897 0.064114028225092073 0 0.2627143689091741 0.091841674971749984 0 0.28217333546728729 0.077299058617215477 0 0.28217333546728729 0.077299058617215477 0 0.30040884981351468 0.085583776205629819 0 0.29864955932488568 0.066661355343028861 0 0.28042089888318139 0.055986092853604487 0 0.28217333546728729 0.077299058617215477 0 0.29864955932488568 0.066661355343028861 0 0.28217333546728729 0.077299058617215477 0 0.30040884981351468 0.085583776205629819 0 0.28589819068595579 0.09511510904366155 0 0.31838555977113409 0.076855326398205415 0 0.3150511116243383 0.09332013123180366 0 0.30040884981351468 0.085583776205629819 0 0.31838555977113409 0.076855326398205415 0 0.30040884981351468 0.085583776205629819 0 0.29864955932488568 0.066661355343028861 0 0.31838555977113409 0.076855326398205415 0 0.31482842755732687 0.054047871131739159 0 0.29864955932488568 0.066661355343028861 0 0.32099998476762009 0.10978351816781851 0 0.30185590029962761 0.1210714196444433 0 0.30229534200748698 0.10425167659986399 0 0.3150511116243383 0.09332013123180366 0 0.30040884981351468 0.085583776205629819 0 0.30229534200748698 0.10425167659986399 0 0.30040884981351468 0.085583776205629819 0 0.30229534200748698 0.10425167659986399 0 0.28589819068595579 0.09511510904366155 0 0.30229534200748698 0.10425167659986399 0 0.28589819068595579 0.09511510904366155 0 0.28266146530535158 0.1139303796234135 0 0.30185590029962761 0.1210714196444433 0 0.28266146530535158 0.1139303796234135 0 0.28680838442989492 0.1356207464722306 0 0.30185590029962761 0.1210714196444433 0 0.30229534200748698 0.10425167659986399 0 0.28266146530535158 0.1139303796234135 0 0.28266146530535158 0.1139303796234135 0 0.26338923383771912 0.1195693217184077 0 0.27413243832545092 0.12631831418113509 0 0.2627143689091741 0.091841674971749984 0 0.28589819068595579 0.09511510904366155 0 0.28266146530535158 0.1139303796234135 0 0.2627143689091741 0.091841674971749984 0 0.28266146530535158 0.1139303796234135 0 0.26338923383771912 0.1195693217184077 0 0.2627143689091741 0.091841674971749984 0 0.26338923383771912 0.1195693217184077 0 0.24848955125739691 0.1112316272798903 0 0.24093893683224391 0.096778397730709384 0 0.2627143689091741 0.091841674971749984 0 0.24848955125739691 0.1112316272798903 0 0.2627143689091741 0.091841674971749984 0 0.26338923383771912 0.1195693217184077 0 0.2488992206266587 0.1273653554163072 0 0.24848955125739691 0.1112316272798903 0 0.26338923383771912 0.1195693217184077 0 0.2488992206266587 0.1273653554163072 0 0.26338923383771912 0.1195693217184077 0 0.26367066972883779 0.13615280891048859 0 0.2488992206266587 0.1273653554163072 0 0.25182091587038291 0.13921848903949871 0 0.26367066972883779 0.13615280891048859 0 0.28266146530535158 0.1139303796234135 0 0.27413243832545092 0.12631831418113509 0 0.28680838442989492 0.1356207464722306 0 0.26367066972883779 0.13615280891048859 0 0.28680838442989492 0.1356207464722306 0 0.26367066972883779 0.13615280891048859 0 0.27413243832545092 0.12631831418113509 0 0.28680838442989492 0.1356207464722306 0 0.26367066972883779 0.13615280891048859 0 0.27543847534084059 0.1445384091226814 0 0.28680838442989492 0.1356207464722306 0 0.26338923383771912 0.1195693217184077 0 0.26367066972883779 0.13615280891048859 0 0.27413243832545092 0.12631831418113509 0 0.26367066972883779 0.13615280891048859 0 0.27543847534084059 0.1445384091226814 0 0.2610794264551477 0.14786087154855951 0 0.27543847534084059 0.1445384091226814 0 0.2610794264551477 0.14786087154855951 0 0.26954420693236192 0.15890660189558681 0 0.2610794264551477 0.14786087154855951 0 0.25784905684987869 0.15878543888744859 0 0.26954420693236192 0.15890660189558681 0 0.25182091587038291 0.13921848903949871 0 0.26367066972883779 0.13615280891048859 0 0.2610794264551477 0.14786087154855951 0 0.24815323400858449 0.14956348143565321 0 0.25182091587038291 0.13921848903949871 0 0.2610794264551477 0.14786087154855951 0 0.24815323400858449 0.14956348143565321 0 0.2610794264551477 0.14786087154855951 0 0.25784905684987869 0.15878543888744859 0 0.24534407378938231 0.1755845064891712 0 0.24512012053518681 0.1608794391810448 0 0.26759402687945821 0.17833878838732611 0 0.24512012053518681 0.1608794391810448 0 0.26759402687945821 0.17833878838732611 0 0.24512012053518681 0.1608794391810448 0 0.25784905684987869 0.15878543888744859 0 0.26759402687945821 0.17833878838732611 0 0.24512012053518681 0.1608794391810448 0 0.24815323400858449 0.14956348143565321 0 0.25784905684987869 0.15878543888744859 0 0.25784905684987869 0.15878543888744859 0 0.26759402687945821 0.17833878838732611 0 0.26954420693236192 0.15890660189558681 0 0.24534407378938231 0.1755845064891712 0 0.25149728978901681 0.18628903406191061 0 0.26759402687945821 0.17833878838732611 0 0.25149728978901681 0.18628903406191061 0 0.26759402687945821 0.17833878838732611 0 0.26384666387446942 0.191022089341298 0 0.25149728978901681 0.18628903406191061 0 0.26759402687945821 0.17833878838732611 0 0.26759402687945821 0.17833878838732611 0 0.26384666387446942 0.191022089341298 0 0.28403888348501533 0.1911143374941591 0 0.26759402687945821 0.17833878838732611 0 0.28940643715016889 0.16756554785835329 0 0.28403888348501533 0.1911143374941591 0 0.26759402687945821 0.17833878838732611 0 0.28403888348501533 0.1911143374941591 0 0.26759402687945821 0.17833878838732611 0 0.28940643715016889 0.16756554785835329 0 0.27543847534084059 0.1445384091226814 0 0.26954420693236192 0.15890660189558681 0 0.28940643715016889 0.16756554785835329 0 0.26759402687945821 0.17833878838732611 0 0.26954420693236192 0.15890660189558681 0 0.28940643715016889 0.16756554785835329 0 0.28940643715016889 0.16756554785835329 0 0.30258359316967243 0.1842151342630822 0 0.28403888348501533 0.1911143374941591 0 0.30258359316967243 0.1842151342630822 0 0.3091366354721799 0.17142053400200019 0 0.3212962424816791 0.18145938292715361 0 0.28940643715016889 0.16756554785835329 0 0.30258359316967243 0.1842151342630822 0 0.3091366354721799 0.17142053400200019 0 0.28940643715016889 0.16756554785835329 0 0.31121884742087952 0.15679230732937999 0 0.28940643715016889 0.16756554785835329 0 0.31121884742087952 0.15679230732937999 0 0.29472330454262918 0.14990824132579311 0 0.28940643715016889 0.16756554785835329 0 0.3091366354721799 0.17142053400200019 0 0.31121884742087952 0.15679230732937999 0 0.31121884742087952 0.15679230732937999 0 0.30994609913095178 0.13508868403397259 0 0.29472330454262918 0.14990824132579311 0 0.31971276993101799 0.1244230326331304 0 0.30185590029962761 0.1210714196444433 0 0.30994609913095178 0.13508868403397259 0 0.30994609913095178 0.13508868403397259 0 0.28680838442989492 0.1356207464722306 0 0.29472330454262918 0.14990824132579311 0 0.30185590029962761 0.1210714196444433 0 0.30994609913095178 0.13508868403397259 0 0.28680838442989492 0.1356207464722306 0 0.30994609913095178 0.13508868403397259 0 0.28680838442989492 0.1356207464722306 0 0.27543847534084059 0.1445384091226814 0 0.28940643715016889 0.16756554785835329 0 0.29472330454262918 0.14990824132579311 0 0.27543847534084059 0.1445384091226814 0 0.28680838442989492 0.1356207464722306 0 0.29472330454262918 0.14990824132579311 0 0.26209420568568409 0.25604433713168329 0 0.27879395484657771 0.23991099963477919 0 0.26528861940393611 0.2324050612734283 0 0.26209420568568409 0.25604433713168329 0 0.28815450863723102 0.25327697612913169 0 0.27879395484657771 0.23991099963477919 0 0.26209420568568409 0.25604433713168329 0 0.26528861940393611 0.2324050612734283 0 0.24398959813062701 0.2460479105434944 0 0.26209420568568409 0.25604433713168329 0 0.26528861940393611 0.2324050612734283 0 0.24654155350719351 0.22732013598330689 0 0.24398959813062701 0.2460479105434944 0 0.26528861940393611 0.2324050612734283 0 0.24654155350719351 0.22732013598330689 0 0.26528861940393611 0.2324050612734283 0 0.25971809707417748 0.21829270572930759 0 0.2468767086260967 0.21195937714617599 0 0.24654155350719351 0.22732013598330689 0 0.25971809707417748 0.21829270572930759 0 0.27879395484657771 0.23991099963477919 0 0.26528861940393611 0.2324050612734283 0 0.28142682961601118 0.2185340047711572 0 0.26528861940393611 0.2324050612734283 0 0.25971809707417748 0.21829270572930759 0 0.28142682961601118 0.2185340047711572 0 0.26547792562793449 0.20414641171130521 0 0.28403888348501533 0.1911143374941591 0 0.28142682961601118 0.2185340047711572 0 0.26547792562793449 0.20414641171130521 0 0.25971809707417748 0.21829270572930759 0 0.28142682961601118 0.2185340047711572 0 0.2468767086260967 0.21195937714617599 0 0.26547792562793449 0.20414641171130521 0 0.25971809707417748 0.21829270572930759 0 0.24828978234282939 0.19779669924652041 0 0.2468767086260967 0.21195937714617599 0 0.26547792562793449 0.20414641171130521 0 0.24828978234282939 0.19779669924652041 0 0.26547792562793449 0.20414641171130521 0 0.26384666387446942 0.191022089341298 0 0.24828978234282939 0.19779669924652041 0 0.25149728978901681 0.18628903406191061 0 0.26384666387446942 0.191022089341298 0 0.26547792562793449 0.20414641171130521 0 0.26384666387446942 0.191022089341298 0 0.28403888348501533 0.1911143374941591 0 0.30258359316967243 0.1842151342630822 0 0.28403888348501533 0.1911143374941591 0 0.30048374009057199 0.20388988660099269 0 0.28403888348501533 0.1911143374941591 0 0.30048374009057199 0.20388988660099269 0 0.30258359316967243 0.1842151342630822 0 0.30048374009057199 0.20388988660099269 0 0.32297832611295252 0.20264319381846951 0 0.30048374009057199 0.20388988660099269 0 0.31692859669612861 0.21666543570782629 0 0.30048374009057199 0.20388988660099269 0 0.30231316980984252 0.22092176915558001 0 0.31692859669612861 0.21666543570782629 0 0.28403888348501533 0.1911143374941591 0 0.30048374009057199 0.20388988660099269 0 0.28142682961601118 0.2185340047711572 0 0.30048374009057199 0.20388988660099269 0 0.28142682961601118 0.2185340047711572 0 0.30231316980984252 0.22092176915558001 0 0.28142682961601118 0.2185340047711572 0 0.30231316980984252 0.22092176915558001 0 0.29652036204432891 0.23709605687043009 0 0.27879395484657771 0.23991099963477919 0 0.28142682961601118 0.2185340047711572 0 0.29652036204432891 0.23709605687043009 0 0.30231316980984252 0.22092176915558001 0 0.29652036204432891 0.23709605687043009 0 0.31571431184121018 0.22964427945032109 0 0.30231316980984252 0.22092176915558001 0 0.31571431184121018 0.22964427945032109 0 0.31692859669612861 0.21666543570782629 0 0.30716404224505339 0.24414329086701411 0 0.29652036204432891 0.23709605687043009 0 0.31571431184121018 0.22964427945032109 0 0.30753047011456419 0.25992793350222199 0 0.30716404224505339 0.24414329086701411 0 0.32193184813895392 0.2411014656226422 0 0.30020936556153333 0.25251933025261097 0 0.30716404224505339 0.24414329086701411 0 0.29652036204432891 0.23709605687043009 0 0.28815450863723102 0.25327697612913169 0 0.30020936556153333 0.25251933025261097 0 0.29652036204432891 0.23709605687043009 0 0.28815450863723102 0.25327697612913169 0 0.27879395484657771 0.23991099963477919 0 0.29652036204432891 0.23709605687043009 0 0.33980541711523921 0.23722399945718201 0 0.3353635226254858 0.24873662419451709 0 0.32193184813895392 0.2411014656226422 0 0.33980541711523921 0.23722399945718201 0 0.3353635226254858 0.24873662419451709 0 0.35048540294880992 0.24333871206296781 0 0.3443376629253021 0.25725650978514841 0 0.3353635226254858 0.24873662419451709 0 0.35048540294880992 0.24333871206296781 0 0.32638010458252181 0.25263534044757108 0 0.3353635226254858 0.24873662419451709 0 0.32193184813895392 0.2411014656226422 0 0.31744432938067518 0.25479033738529899 0 0.32638010458252181 0.25263534044757108 0 0.32193184813895392 0.2411014656226422 0 0.30716404224505339 0.24414329086701411 0 0.32193184813895392 0.2411014656226422 0 0.31571431184121018 0.22964427945032109 0 0.32193184813895392 0.2411014656226422 0 0.33633322616334338 0.22227499774306211 0 0.32466384532353793 0.21816717685822451 0 0.32193184813895392 0.2411014656226422 0 0.31571431184121018 0.22964427945032109 0 0.32466384532353793 0.21816717685822451 0 0.31571431184121018 0.22964427945032109 0 0.32466384532353793 0.21816717685822451 0 0.31692859669612861 0.21666543570782629 0 0.32193184813895392 0.2411014656226422 0 0.33633322616334338 0.22227499774306211 0 0.33980541711523921 0.23722399945718201 0 0.32193184813895392 0.2411014656226422 0 0.33633322616334338 0.22227499774306211 0 0.33633322616334338 0.22227499774306211 0 0.32466384532353793 0.21816717685822451 0 0.33687340868483318 0.2100950761519598 0 0.32466384532353793 0.21816717685822451 0 0.33649375624495942 0.19553294473934041 0 0.33633322616334338 0.22227499774306211 0 0.33687340868483318 0.2100950761519598 0 0.35000280700749159 0.20440518526721221 0 0.33633322616334338 0.22227499774306211 0 0.35000280700749159 0.20440518526721221 0 0.32466384532353793 0.21816717685822451 0 0.33649375624495942 0.19553294473934041 0 0.33687340868483318 0.2100950761519598 0 0.33649375624495942 0.19553294473934041 0 0.35000280700749159 0.20440518526721221 0 0.33633322616334338 0.22227499774306211 0 0.33687340868483318 0.2100950761519598 0 0.32466384532353793 0.21816717685822451 0 0.32466384532353793 0.21816717685822451 0 0.32297832611295252 0.20264319381846951 0 0.33649375624495942 0.19553294473934041 0 0.32466384532353793 0.21816717685822451 0 0.31692859669612861 0.21666543570782629 0 0.32297832611295252 0.20264319381846951 0 0.30048374009057199 0.20388988660099269 0 0.31692859669612861 0.21666543570782629 0 0.32297832611295252 0.20264319381846951 0 0.32297832611295252 0.20264319381846951 0 0.33649375624495942 0.19553294473934041 0 0.3212962424816791 0.18145938292715361 0 0.30258359316967243 0.1842151342630822 0 0.32297832611295252 0.20264319381846951 0 0.3212962424816791 0.18145938292715361 0 0.35000280700749159 0.20440518526721221 0 0.36367238785163869 0.18653537279136129 0 0.36224424258144222 0.1994072308652631 0 0.35000280700749159 0.20440518526721221 0 0.36367238785163869 0.18653537279136129 0 0.34975910316672248 0.1900555579900193 0 0.35000280700749159 0.20440518526721221 0 0.36367238785163869 0.18653537279136129 0 0.33649375624495942 0.19553294473934041 0 0.34975910316672248 0.1900555579900193 0 0.35000280700749159 0.20440518526721221 0 0.37222141481831961 0.1941308055265791 0 0.36442727889531967 0.2117758599336837 0 0.37222141481831961 0.1941308055265791 0 0.36224424258144222 0.1994072308652631 0 0.36367238785163869 0.18653537279136129 0 0.37222141481831961 0.1941308055265791 0 0.36224424258144222 0.1994072308652631 0 0.36442727889531967 0.2117758599336837 0 0.37222141481831961 0.1941308055265791 0 0.36367238785163869 0.18653537279136129 0 0.33633322616334338 0.22227499774306211 0 0.35261114299035651 0.2171003932795354 0 0.35000280700749159 0.20440518526721221 0 0.36442727889531967 0.2117758599336837 0 0.35261114299035651 0.2171003932795354 0 0.35000280700749159 0.20440518526721221 0 0.36224424258144222 0.1994072308652631 0 0.36442727889531967 0.2117758599336837 0 0.35000280700749159 0.20440518526721221 0 0.33633322616334338 0.22227499774306211 0 0.35663314297231857 0.22942091434078771 0 0.33633322616334338 0.22227499774306211 0 0.35261114299035651 0.2171003932795354 0 0.35663314297231857 0.22942091434078771 0 0.36442727889531967 0.2117758599336837 0 0.35261114299035651 0.2171003932795354 0 0.35663314297231857 0.22942091434078771 0 0.33980541711523921 0.23722399945718201 0 0.33633322616334338 0.22227499774306211 0 0.35663314297231857 0.22942091434078771 0 0.35663314297231857 0.22942091434078771 0 0.37730843189744362 0.23669896831919229 0 0.35663314297231857 0.22942091434078771 0 0.37471279923894252 0.22343008836101261 0 0.37730843189744362 0.23669896831919229 0 0.36442727889531967 0.2117758599336837 0 0.35663314297231857 0.22942091434078771 0 0.37471279923894252 0.22343008836101261 0 0.36442727889531967 0.2117758599336837 0 0.35663314297231857 0.22942091434078771 0 0.35663314297231857 0.22942091434078771 0 0.3645563033821877 0.24268260694936711 0 0.37730843189744362 0.23669896831919229 0 0.3816707290707696 0.2528369008378113 0 0.3645563033821877 0.24268260694936711 0 0.37730843189744362 0.23669896831919229 0 0.36106866797830017 0.25633021158225711 0 0.3645563033821877 0.24268260694936711 0 0.35048540294880992 0.24333871206296781 0 0.33980541711523921 0.23722399945718201 0 0.35663314297231857 0.22942091434078771 0 0.35048540294880992 0.24333871206296781 0 0.35663314297231857 0.22942091434078771 0 0.3645563033821877 0.24268260694936711 0 0.35048540294880992 0.24333871206296781 0 0.35663314297231857 0.22942091434078771 0 0.35048540294880992 0.24333871206296781 0 0.33303125769158998 0.1460190668004068 0 0.34090986837642878 0.14305533949781549 0 0.33308381383200869 0.13455662159571449 0 0.33303125769158998 0.1460190668004068 0 0.33308381383200869 0.13455662159571449 0 0.31917684744159669 0.14543650264450059 0 0.33303125769158998 0.1460190668004068 0 0.32913166611181199 0.1558474676504312 0 0.34050532358316982 0.15567046999998299 0 0.34050532358316982 0.15567046999998299 0 0.34054864459786199 0.1480192993411481 0 0.34774812874025979 0.14733232106638719 0 0.33303125769158998 0.1460190668004068 0 0.34050532358316982 0.15567046999998299 0 0.34054864459786199 0.1480192993411481 0 0.33303125769158998 0.1460190668004068 0 0.34054864459786199 0.1480192993411481 0 0.34090986837642878 0.14305533949781549 0 0.34054864459786199 0.1480192993411481 0 0.34090986837642878 0.14305533949781549 0 0.34774812874025979 0.14733232106638719 0 0.34090986837642878 0.14305533949781549 0 0.33308381383200869 0.13455662159571449 0 0.34449083487044069 0.13974221032934339 0 0.3326780516248819 0.12161491972370291 0 0.34516675227937188 0.1245666799755922 0 0.33308381383200869 0.13455662159571449 0 0.31971276993101799 0.1244230326331304 0 0.3326780516248819 0.12161491972370291 0 0.33308381383200869 0.13455662159571449 0 0.30994609913095178 0.13508868403397259 0 0.33308381383200869 0.13455662159571449 0 0.30994609913095178 0.13508868403397259 0 0.33308381383200869 0.13455662159571449 0 0.31917684744159669 0.14543650264450059 0 0.31971276993101799 0.1244230326331304 0 0.30994609913095178 0.13508868403397259 0 0.33308381383200869 0.13455662159571449 0 0.31121884742087952 0.15679230732937999 0 0.33303125769158998 0.1460190668004068 0 0.31121884742087952 0.15679230732937999 0 0.33303125769158998 0.1460190668004068 0 0.31917684744159669 0.14543650264450059 0 0.31121884742087952 0.15679230732937999 0 0.30994609913095178 0.13508868403397259 0 0.31917684744159669 0.14543650264450059 0 0.31121884742087952 0.15679230732937999 0 0.33303125769158998 0.1460190668004068 0 0.32913166611181199 0.1558474676504312 0 0.31121884742087952 0.15679230732937999 0 0.32913166611181199 0.1558474676504312 0 0.32117805713849967 0.16707029763203191 0 0.32913166611181199 0.1558474676504312 0 0.32117805713849967 0.16707029763203191 0 0.33219797967443071 0.17305705081131029 0 0.3091366354721799 0.17142053400200019 0 0.31121884742087952 0.15679230732937999 0 0.32117805713849967 0.16707029763203191 0 0.3091366354721799 0.17142053400200019 0 0.32117805713849967 0.16707029763203191 0 0.3212962424816791 0.18145938292715361 0 0.32117805713849967 0.16707029763203191 0 0.3212962424816791 0.18145938292715361 0 0.33219797967443071 0.17305705081131029 0 0.33649375624495942 0.19553294473934041 0 0.34832366716638141 0.17289871262045661 0 0.33649375624495942 0.19553294473934041 0 0.3212962424816791 0.18145938292715361 0 0.33219797967443071 0.17305705081131029 0 0.33649375624495942 0.19553294473934041 0 0.33219797967443071 0.17305705081131029 0 0.34832366716638141 0.17289871262045661 0 0.32913166611181199 0.1558474676504312 0 0.34832366716638141 0.17289871262045661 0 0.32913166611181199 0.1558474676504312 0 0.33219797967443071 0.17305705081131029 0 0.34832366716638141 0.17289871262045661 0 0.32913166611181199 0.1558474676504312 0 0.34050532358316982 0.15567046999998299 0 0.34832366716638141 0.17289871262045661 0 0.34832366716638141 0.17289871262045661 0 0.36126422970393501 0.14813946479775411 0 0.34896739671965149 0.16327209684407809 0 0.34832366716638141 0.17289871262045661 0 0.36126422970393501 0.14813946479775411 0 0.34050532358316982 0.15567046999998299 0 0.34896739671965149 0.16327209684407809 0 0.34832366716638141 0.17289871262045661 0 0.34832366716638141 0.17289871262045661 0 0.36423237714154749 0.1670180019941363 0 0.36126422970393501 0.14813946479775411 0 0.33649375624495942 0.19553294473934041 0 0.34975910316672248 0.1900555579900193 0 0.34832366716638141 0.17289871262045661 0 0.34832366716638141 0.17289871262045661 0 0.36367238785163869 0.18653537279136129 0 0.36423237714154749 0.1670180019941363 0 0.34975910316672248 0.1900555579900193 0 0.34832366716638141 0.17289871262045661 0 0.36367238785163869 0.18653537279136129 0 0.34832366716638141 0.17289871262045661 0 0.36367238785163869 0.18653537279136129 0 0.36367238785163869 0.18653537279136129 0 0.37515835008674581 0.17152013614393311 0 0.38015778555882329 0.17616374735688389 0 0.37222141481831961 0.1941308055265791 0 0.36367238785163869 0.18653537279136129 0 0.38015778555882329 0.17616374735688389 0 0.36367238785163869 0.18653537279136129 0 0.36423237714154749 0.1670180019941363 0 0.37515835008674581 0.17152013614393311 0 0.36367238785163869 0.18653537279136129 0 0.37515835008674581 0.17152013614393311 0 0.36423237714154749 0.1670180019941363 0 0.37089251303179588 0.15539109011888119 0 0.37515835008674581 0.17152013614393311 0 0.36423237714154749 0.1670180019941363 0 0.37089251303179588 0.15539109011888119 0 0.36126422970393501 0.14813946479775411 0 0.37089251303179588 0.15539109011888119 0 0.36126422970393501 0.14813946479775411 0 0.36716329590489949 0.13377294816207841 0 0.37089251303179588 0.15539109011888119 0 0.36716329590489949 0.13377294816207841 0 0.38664431232185259 0.15650489949650459 0 0.34050532358316982 0.15567046999998299 0 0.34896739671965149 0.16327209684407809 0 0.34774812874025979 0.14733232106638719 0 0.34896739671965149 0.16327209684407809 0 0.3562215285330656 0.13402455915745731 0 0.34896739671965149 0.16327209684407809 0 0.36126422970393501 0.14813946479775411 0 0.3562215285330656 0.13402455915745731 0 0.34896739671965149 0.16327209684407809 0 0.34774812874025979 0.14733232106638719 0 0.3562215285330656 0.13402455915745731 0 0.34090986837642878 0.14305533949781549 0 0.34774812874025979 0.14733232106638719 0 0.34449083487044069 0.13974221032934339 0 0.34516675227937188 0.1245666799755922 0 0.33308381383200869 0.13455662159571449 0 0.3562215285330656 0.13402455915745731 0 0.33308381383200869 0.13455662159571449 0 0.3562215285330656 0.13402455915745731 0 0.33308381383200869 0.13455662159571449 0 0.34449083487044069 0.13974221032934339 0 0.3562215285330656 0.13402455915745731 0 0.34774812874025979 0.14733232106638719 0 0.34449083487044069 0.13974221032934339 0 0.3562215285330656 0.13402455915745731 0 0.34516675227937188 0.1245666799755922 0 0.35872585697421422 0.12392749415421681 0 0.3562215285330656 0.13402455915745731 0 0.35872585697421422 0.12392749415421681 0 0.3562215285330656 0.13402455915745731 0 0.35872585697421422 0.12392749415421681 0 0.36915976594833949 0.1199798001985428 0 0.36716329590489949 0.13377294816207841 0 0.35872585697421422 0.12392749415421681 0 0.3562215285330656 0.13402455915745731 0 0.36716329590489949 0.13377294816207841 0 0.35872585697421422 0.12392749415421681 0 0.36716329590489949 0.13377294816207841 0 0.3562215285330656 0.13402455915745731 0 0.36716329590489949 0.13377294816207841 0 0.36126422970393501 0.14813946479775411 0 0.3562215285330656 0.13402455915745731 0 0.36716329590489949 0.13377294816207841 0 0.36915976594833949 0.1199798001985428 0 0.36716329590489949 0.13377294816207841 0 0.37753456423920267 0.12606772520011819 0 0.36716329590489949 0.13377294816207841 0 0.38801518445112498 0.13329344935221171 0 0.3840530039770414 0.1436090404046492 0 0.36716329590489949 0.13377294816207841 0 0.37753456423920267 0.12606772520011819 0 0.38801518445112498 0.13329344935221171 0 0.36716329590489949 0.13377294816207841 0 0.38801518445112498 0.13329344935221171 0 0.38801518445112498 0.13329344935221171 0 0.3950438134842178 0.1424634404538348 0 0.3840530039770414 0.1436090404046492 0 0.37753456423920267 0.12606772520011819 0 0.38801518445112498 0.13329344935221171 0 0.38603097931252928 0.1230784595495979 0 0.38801518445112498 0.13329344935221171 0 0.38603097931252928 0.1230784595495979 0 0.39819014705471523 0.12213929996890741 0 0.38801518445112498 0.13329344935221171 0 0.40886707299735048 0.1328139505423451 0 0.38801518445112498 0.13329344935221171 0 0.3950438134842178 0.1424634404538348 0 0.40886707299735048 0.1328139505423451 0 0.38801518445112498 0.13329344935221171 0 0.40886707299735048 0.1328139505423451 0 0.39819014705471523 0.12213929996890741 0 0.3950438134842178 0.1424634404538348 0 0.40886707299735048 0.1328139505423451 0 0.40745851948413142 0.14549878257243989 0 0.3950438134842178 0.1424634404538348 0 0.38892012933468539 0.15352979559885299 0 0.38809415629932292 0.15819668918718699 0 0.39877997474722449 0.15121272373588721 0 0.3950438134842178 0.1424634404538348 0 0.38809415629932292 0.15819668918718699 0 0.39877997474722449 0.15121272373588721 0 0.38809415629932292 0.15819668918718699 0 0.40452340972122658 0.1586919827300865 0 0.3950438134842178 0.1424634404538348 0 0.38809415629932292 0.15819668918718699 0 0.39877997474722449 0.15121272373588721 0 0.40452340972122658 0.1586919827300865 0 0.40745851948413142 0.14549878257243989 0 0.39877997474722449 0.15121272373588721 0 0.3950438134842178 0.1424634404538348 0 0.40745851948413142 0.14549878257243989 0 0.38892012933468539 0.15352979559885299 0 0.3840530039770414 0.1436090404046492 0 0.38664431232185259 0.15650489949650459 0 0.36716329590489949 0.13377294816207841 0 0.3840530039770414 0.1436090404046492 0 0.38664431232185259 0.15650489949650459 0 0.36716329590489949 0.13377294816207841 0 0.38664431232185259 0.15650489949650459 0 0.38892012933468539 0.15352979559885299 0 0.38809415629932292 0.15819668918718699 0 0.38664431232185259 0.15650489949650459 0 0.38892012933468539 0.15352979559885299 0 0.38664431232185259 0.15650489949650459 0 0.3950438134842178 0.1424634404538348 0 0.38892012933468539 0.15352979559885299 0 0.3840530039770414 0.1436090404046492 0 0.38809415629932292 0.15819668918718699 0 0.38015778555882329 0.17616374735688389 0 0.37515835008674581 0.17152013614393311 0 0.38809415629932292 0.15819668918718699 0 0.38015778555882329 0.17616374735688389 0 0.38809415629932292 0.15819668918718699 0 0.38015778555882329 0.17616374735688389 0 0.40047070050072697 0.17263859480715299 0 0.37515835008674581 0.17152013614393311 0 0.38664431232185259 0.15650489949650459 0 0.37089251303179588 0.15539109011888119 0 0.37515835008674581 0.17152013614393311 0 0.38664431232185259 0.15650489949650459 0 0.37515835008674581 0.17152013614393311 0 0.38809415629932292 0.15819668918718699 0 0.38664431232185259 0.15650489949650459 0 0.38809415629932292 0.15819668918718699 0 0.38664431232185259 0.15650489949650459 0 0.37222141481831961 0.1941308055265791 0 0.38015778555882329 0.17616374735688389 0 0.37222141481831961 0.1941308055265791 0 0.38015778555882329 0.17616374735688389 0 0.39435768033027002 0.19017022674268841 0 0.40047070050072697 0.17263859480715299 0 0.41284724470213169 0.18708050042711841 0 0.39435768033027002 0.19017022674268841 0 0.38015778555882329 0.17616374735688389 0 0.40047070050072697 0.17263859480715299 0 0.39435768033027002 0.19017022674268841 0 0.38809415629932292 0.15819668918718699 0 0.40047070050072697 0.17263859480715299 0 0.40452340972122658 0.1586919827300865 0 0.38809415629932292 0.15819668918718699 0 0.40047070050072697 0.17263859480715299 0 0.40047070050072697 0.17263859480715299 0 0.40452340972122658 0.1586919827300865 0 0.41307107782247982 0.16994210829564371 0 0.40452340972122658 0.1586919827300865 0 0.41307107782247982 0.16994210829564371 0 0.42284890683298237 0.15726498400151681 0 0.41307107782247982 0.16994210829564371 0 0.42466512735533091 0.1740344795123438 0 0.42284890683298237 0.15726498400151681 0 0.41307107782247982 0.16994210829564371 0 0.41284724470213169 0.18708050042711841 0 0.42466512735533091 0.1740344795123438 0 0.40047070050072697 0.17263859480715299 0 0.41307107782247982 0.16994210829564371 0 0.41284724470213169 0.18708050042711841 0 0.40047070050072697 0.17263859480715299 0 0.41284724470213169 0.18708050042711841 0 0.42466512735533091 0.1740344795123438 0 0.43675658933864381 0.184788916277277 0 0.43681308752224052 0.16773842278749321 0 0.41284724470213169 0.18708050042711841 0 0.42466512735533091 0.1740344795123438 0 0.43675658933864381 0.184788916277277 0 0.42466512735533091 0.1740344795123438 0 0.43681308752224052 0.16773842278749321 0 0.42284890683298237 0.15726498400151681 0 0.43681308752224052 0.16773842278749321 0 0.42284890683298237 0.15726498400151681 0 0.44719886262975062 0.15018522011558519 0 0.42284890683298237 0.15726498400151681 0 0.42493610681773503 0.13989144436705489 0 0.44719886262975062 0.15018522011558519 0 0.42493610681773503 0.13989144436705489 0 0.44091582039847049 0.1305950391239534 0 0.42366000266713089 0.1228445275503523 0 0.42493610681773503 0.13989144436705489 0 0.40886707299735048 0.1328139505423451 0 0.40745851948413142 0.14549878257243989 0 0.42493610681773503 0.13989144436705489 0 0.40886707299735048 0.1328139505423451 0 0.42366000266713089 0.1228445275503523 0 0.40452340972122658 0.1586919827300865 0 0.42284890683298237 0.15726498400151681 0 0.40745851948413142 0.14549878257243989 0 0.42284890683298237 0.15726498400151681 0 0.42493610681773503 0.13989144436705489 0 0.40745851948413142 0.14549878257243989 0 0.39798372082256839 0.2439770222975968 0 0.39510821727830558 0.2269700278130887 0 0.40926708219655239 0.23365577142783081 0 0.39798372082256839 0.2439770222975968 0 0.37730843189744362 0.23669896831919229 0 0.3816707290707696 0.2528369008378113 0 0.39798372082256839 0.2439770222975968 0 0.37730843189744362 0.23669896831919229 0 0.39798372082256839 0.2439770222975968 0 0.37730843189744362 0.23669896831919229 0 0.39510821727830558 0.2269700278130887 0 0.37471279923894252 0.22343008836101261 0 0.37730843189744362 0.23669896831919229 0 0.39510821727830558 0.2269700278130887 0 0.37471279923894252 0.22343008836101261 0 0.39510821727830558 0.2269700278130887 0 0.38971159319660931 0.20967005624096299 0 0.39510821727830558 0.2269700278130887 0 0.4058153679914912 0.2149735365994947 0 0.41447501496961209 0.22400841249435899 0 0.39510821727830558 0.2269700278130887 0 0.4058153679914912 0.2149735365994947 0 0.38971159319660931 0.20967005624096299 0 0.4058153679914912 0.2149735365994947 0 0.38971159319660931 0.20967005624096299 0 0.41073734320500671 0.2013376560974319 0 0.36442727889531967 0.2117758599336837 0 0.37471279923894252 0.22343008836101261 0 0.38971159319660931 0.20967005624096299 0 0.37222141481831961 0.1941308055265791 0 0.36442727889531967 0.2117758599336837 0 0.38971159319660931 0.20967005624096299 0 0.37222141481831961 0.1941308055265791 0 0.38971159319660931 0.20967005624096299 0 0.37222141481831961 0.1941308055265791 0 0.38971159319660931 0.20967005624096299 0 0.39435768033027002 0.19017022674268841 0 0.41284724470213169 0.18708050042711841 0 0.39435768033027002 0.19017022674268841 0 0.41073734320500671 0.2013376560974319 0 0.38971159319660931 0.20967005624096299 0 0.39435768033027002 0.19017022674268841 0 0.41073734320500671 0.2013376560974319 0 0.41284724470213169 0.18708050042711841 0 0.41073734320500671 0.2013376560974319 0 0.42871891365593068 0.20116084263986331 0 0.41284724470213169 0.18708050042711841 0 0.43675658933864381 0.184788916277277 0 0.42871891365593068 0.20116084263986331 0 0.43675658933864381 0.184788916277277 0 0.42871891365593068 0.20116084263986331 0 0.4448866527527342 0.197792041890129 0 0.42871891365593068 0.20116084263986331 0 0.4336061741501181 0.2154931410657534 0 0.41999673244059788 0.21360181040439311 0 0.42871891365593068 0.20116084263986331 0 0.4336061741501181 0.2154931410657534 0 0.44207635447082788 0.20892284809896189 0 0.4336061741501181 0.2154931410657534 0 0.41999673244059788 0.21360181040439311 0 0.42662758067142881 0.2246372735294567 0 0.41073734320500671 0.2013376560974319 0 0.42871891365593068 0.20116084263986331 0 0.41999673244059788 0.21360181040439311 0 0.4058153679914912 0.2149735365994947 0 0.41073734320500671 0.2013376560974319 0 0.41999673244059788 0.21360181040439311 0 0.4058153679914912 0.2149735365994947 0 0.41999673244059788 0.21360181040439311 0 0.41447501496961209 0.22400841249435899 0 0.39510821727830558 0.2269700278130887 0 0.40926708219655239 0.23365577142783081 0 0.41447501496961209 0.22400841249435899 0 0.42042027467328752 0.23307380617324919 0 0.41447501496961209 0.22400841249435899 0 0.42662758067142881 0.2246372735294567 0 0.40926708219655239 0.23365577142783081 0 0.42042027467328752 0.23307380617324919 0 0.41447501496961209 0.22400841249435899 0 0.41999673244059788 0.21360181040439311 0 0.41447501496961209 0.22400841249435899 0 0.42662758067142881 0.2246372735294567 0 0.4336061741501181 0.2154931410657534 0 0.42662758067142881 0.2246372735294567 0 0.43925294859795389 0.22758626612667521 0 0.42662758067142881 0.2246372735294567 0 0.43078574161313637 0.23415775253742491 0 0.43925294859795389 0.22758626612667521 0 0.43078574161313637 0.23415775253742491 0 0.43903286203971842 0.23697084840781851 0 0.43925294859795389 0.22758626612667521 0 0.42042027467328752 0.23307380617324919 0 0.42662758067142881 0.2246372735294567 0 0.43078574161313637 0.23415775253742491 0 0.42042027467328752 0.23307380617324919 0 0.43078574161313637 0.23415775253742491 0 0.42598084512385481 0.24134817954256799 0 0.43078574161313637 0.23415775253742491 0 0.42598084512385481 0.24134817954256799 0 0.4330159271134576 0.2427328353983044 0 0.43078574161313637 0.23415775253742491 0 0.4330159271134576 0.2427328353983044 0 0.43903286203971842 0.23697084840781851 0 0.4330159271134576 0.2427328353983044 0 0.43833603885486938 0.24911929050397569 0 0.43903286203971842 0.23697084840781851 0 0.42700699583846108 0.25103027760885283 0 0.4330159271134576 0.2427328353983044 0 0.43833603885486938 0.24911929050397569 0 0.42700699583846108 0.25103027760885283 0 0.42598084512385481 0.24134817954256799 0 0.4330159271134576 0.2427328353983044 0 0.41865900974769332 0.2512550762760013 0 0.42700699583846108 0.25103027760885283 0 0.42598084512385481 0.24134817954256799 0 0.39798372082256839 0.2439770222975968 0 0.40926708219655239 0.23365577142783081 0 0.41538538346514081 0.24063544750785579 0 0.41865900974769332 0.2512550762760013 0 0.39798372082256839 0.2439770222975968 0 0.41538538346514081 0.24063544750785579 0 0.41865900974769332 0.2512550762760013 0 0.42598084512385481 0.24134817954256799 0 0.41538538346514081 0.24063544750785579 0 0.41865900974769332 0.2512550762760013 0 0.39798372082256839 0.2439770222975968 0 0.40926708219655239 0.23365577142783081 0 0.42042027467328752 0.23307380617324919 0 0.41538538346514081 0.24063544750785579 0 0.42042027467328752 0.23307380617324919 0 0.42598084512385481 0.24134817954256799 0 0.41538538346514081 0.24063544750785579 0 0.46576285555457803 0.24780483854819199 0 0.45929834121580088 0.2395573482819324 0 0.47047263312485349 0.23570462604083661 0 0.45929834121580088 0.2395573482819324 0 0.45288177042684191 0.2446947921780542 0 0.45014252408331201 0.2362296716975166 0 0.45442140526327968 0.25165413839784601 0 0.46576285555457803 0.24780483854819199 0 0.45929834121580088 0.2395573482819324 0 0.45442140526327968 0.25165413839784601 0 0.45929834121580088 0.2395573482819324 0 0.45288177042684191 0.2446947921780542 0 0.44170341293161153 0.25655924287046161 0 0.44969712660805761 0.2496796817576695 0 0.45014252408331201 0.2362296716975166 0 0.44170341293161153 0.25655924287046161 0 0.43833603885486938 0.24911929050397569 0 0.45014252408331201 0.2362296716975166 0 0.44969712660805761 0.2496796817576695 0 0.45288177042684191 0.2446947921780542 0 0.45014252408331201 0.2362296716975166 0 0.44170341293161153 0.25655924287046161 0 0.45014252408331201 0.2362296716975166 0 0.45442140526327968 0.25165413839784601 0 0.44969712660805761 0.2496796817576695 0 0.45288177042684191 0.2446947921780542 0 0.43833603885486938 0.24911929050397569 0 0.45014252408331201 0.2362296716975166 0 0.43833603885486938 0.24911929050397569 0 0.44306346639713939 0.23835197072086911 0 0.45014252408331201 0.2362296716975166 0 0.43833603885486938 0.24911929050397569 0 0.43903286203971842 0.23697084840781851 0 0.44306346639713939 0.23835197072086911 0 0.43903286203971842 0.23697084840781851 0 0.44306346639713939 0.23835197072086911 0 0.44474244061065787 0.2310880722741655 0 0.44306346639713939 0.23835197072086911 0 0.45014252408331201 0.2362296716975166 0 0.44474244061065787 0.2310880722741655 0 0.45014252408331201 0.2362296716975166 0 0.45219624605665271 0.23128231571701879 0 0.45219624605665271 0.23128231571701879 0 0.44474244061065787 0.2310880722741655 0 0.44759693087914598 0.22591187730876719 0 0.45014252408331201 0.2362296716975166 0 0.45219624605665271 0.23128231571701879 0 0.44474244061065787 0.2310880722741655 0 0.44474244061065787 0.2310880722741655 0 0.43925294859795389 0.22758626612667521 0 0.44759693087914598 0.22591187730876719 0 0.43903286203971842 0.23697084840781851 0 0.44474244061065787 0.2310880722741655 0 0.43925294859795389 0.22758626612667521 0 0.4336061741501181 0.2154931410657534 0 0.43925294859795389 0.22758626612667521 0 0.44637937786006032 0.21815188256668161 0 0.43925294859795389 0.22758626612667521 0 0.44759693087914598 0.22591187730876719 0 0.44637937786006032 0.21815188256668161 0 0.44759693087914598 0.22591187730876719 0 0.45425687230258821 0.2212826255287442 0 0.44637937786006032 0.21815188256668161 0 0.45219624605665271 0.23128231571701879 0 0.44759693087914598 0.22591187730876719 0 0.45425687230258821 0.2212826255287442 0 0.45929834121580088 0.2395573482819324 0 0.46391551647547757 0.22119313725696871 0 0.47047263312485349 0.23570462604083661 0 0.45219624605665271 0.23128231571701879 0 0.45425687230258821 0.2212826255287442 0 0.46391551647547757 0.22119313725696871 0 0.45929834121580088 0.2395573482819324 0 0.45014252408331201 0.2362296716975166 0 0.46391551647547757 0.22119313725696871 0 0.45014252408331201 0.2362296716975166 0 0.46391551647547757 0.22119313725696871 0 0.45014252408331201 0.2362296716975166 0 0.45219624605665271 0.23128231571701879 0 0.46391551647547757 0.22119313725696871 0 0.46391551647547757 0.22119313725696871 0 0.45564379919608061 0.2090664380076416 0 0.47768850886764358 0.20615660281642109 0 0.45425687230258821 0.2212826255287442 0 0.46391551647547757 0.22119313725696871 0 0.45564379919608061 0.2090664380076416 0 0.45425687230258821 0.2212826255287442 0 0.45564379919608061 0.2090664380076416 0 0.44637937786006032 0.21815188256668161 0 0.45564379919608061 0.2090664380076416 0 0.44637937786006032 0.21815188256668161 0 0.44207635447082788 0.20892284809896189 0 0.4336061741501181 0.2154931410657534 0 0.44637937786006032 0.21815188256668161 0 0.44207635447082788 0.20892284809896189 0 0.45564379919608061 0.2090664380076416 0 0.44207635447082788 0.20892284809896189 0 0.4448866527527342 0.197792041890129 0 0.42871891365593068 0.20116084263986331 0 0.44207635447082788 0.20892284809896189 0 0.4448866527527342 0.197792041890129 0 0.43675658933864381 0.184788916277277 0 0.4448866527527342 0.197792041890129 0 0.4585962625631067 0.19105468754875349 0 0.45564379919608061 0.2090664380076416 0 0.4448866527527342 0.197792041890129 0 0.4585962625631067 0.19105468754875349 0 0.45564379919608061 0.2090664380076416 0 0.4585962625631067 0.19105468754875349 0 0.47768850886764358 0.20615660281642109 0 0.47555832690325478 0.18823538290912059 0 0.4914615012598097 0.1911200683758735 0 0.47768850886764358 0.20615660281642109 0 0.4585962625631067 0.19105468754875349 0 0.47555832690325478 0.18823538290912059 0 0.47768850886764358 0.20615660281642109 0 0.4914615012598097 0.1911200683758735 0 0.5 0.20279497211699629 0 0.47768850886764358 0.20615660281642109 0 0.4914615012598097 0.1911200683758735 0 0.5 0.20279497211699629 0 0.5 0.1749889804910473 0 0.4914615012598097 0.1911200683758735 0 0.47768850886764358 0.20615660281642109 0 0.5 0.20279497211699629 0 0.47768850886764358 0.20615660281642109 0 0.48985415516916531 0.22009823148343469 0 0.5 0.20279497211699629 0 0.48985415516916531 0.22009823148343469 0 0.5 0.23060096374294509 0 0.47768850886764358 0.20615660281642109 0 0.48106495073075622 0.22627305409446269 0 0.48985415516916531 0.22009823148343469 0 0.46391551647547757 0.22119313725696871 0 0.47768850886764358 0.20615660281642109 0 0.48106495073075622 0.22627305409446269 0 0.46391551647547757 0.22119313725696871 0 0.47768850886764358 0.20615660281642109 0 0.46391551647547757 0.22119313725696871 0 0.48106495073075622 0.22627305409446269 0 0.47047263312485349 0.23570462604083661 0 0.48106495073075622 0.22627305409446269 0 0.4801331982041428 0.24032223597062741 0 0.47047263312485349 0.23570462604083661 0 0.48106495073075622 0.22627305409446269 0 0.48960791156870859 0.23199927076919441 0 0.4801331982041428 0.24032223597062741 0 0.48106495073075622 0.22627305409446269 0 0.48985415516916531 0.22009823148343469 0 0.48960791156870859 0.23199927076919441 0 0.48985415516916531 0.22009823148343469 0 0.5 0.23060096374294509 0 0.48960791156870859 0.23199927076919441 0 0.48960791156870859 0.23199927076919441 0 0.49698725373947911 0.24270186855450199 0 0.4801331982041428 0.24032223597062741 0 0.47574626975295681 0.25409751705080402 0 0.49698725373947911 0.24270186855450199 0 0.49999999999999589 0.25840695536889408 0 0.5 0.23060096374294509 0 0.49698725373947911 0.24270186855450199 0 0.5 0.23060096374294509 0 0.48960791156870859 0.23199927076919441 0 0.49698725373947911 0.24270186855450199 0 0.47574626975295681 0.25409751705080402 0 0.49698725373947911 0.24270186855450199 0 0.4801331982041428 0.24032223597062741 0 0.46576285555457803 0.24780483854819199 0 0.4801331982041428 0.24032223597062741 0 0.47047263312485349 0.23570462604083661 0 0.47574626975295681 0.25409751705080402 0 0.46576285555457803 0.24780483854819199 0 0.4801331982041428 0.24032223597062741 0 0.44719886262975062 0.15018522011558519 0 0.46671447303658592 0.16278773414982031 0 0.47175778739831692 0.1449914706745159 0 0.45974972085404342 0.1291025469127296 0 0.44719886262975062 0.15018522011558519 0 0.47175778739831692 0.1449914706745159 0 0.42493610681773503 0.13989144436705489 0 0.44091582039847049 0.1305950391239534 0 0.44719886262975062 0.15018522011558519 0 0.45974972085404342 0.1291025469127296 0 0.44091582039847049 0.1305950391239534 0 0.44719886262975062 0.15018522011558519 0 0.43681308752224052 0.16773842278749321 0 0.44719886262975062 0.15018522011558519 0 0.45259595145449483 0.17241851403074321 0 0.43675658933864381 0.184788916277277 0 0.4585962625631067 0.19105468754875349 0 0.45259595145449483 0.17241851403074321 0 0.43675658933864381 0.184788916277277 0 0.43681308752224052 0.16773842278749321 0 0.45259595145449483 0.17241851403074321 0 0.4585962625631067 0.19105468754875349 0 0.45259595145449483 0.17241851403074321 0 0.46611115286410087 0.17753686563652779 0 0.4585962625631067 0.19105468754875349 0 0.47555832690325478 0.18823538290912059 0 0.46611115286410087 0.17753686563652779 0 0.44719886262975062 0.15018522011558519 0 0.45259595145449483 0.17241851403074321 0 0.46671447303658592 0.16278773414982031 0 0.45259595145449483 0.17241851403074321 0 0.46611115286410087 0.17753686563652779 0 0.46671447303658592 0.16278773414982031 0 0.46671447303658592 0.16278773414982031 0 0.4770907503630627 0.17318800954420141 0 0.48671769491954059 0.16218631786039589 0 0.46671447303658592 0.16278773414982031 0 0.48671769491954059 0.16218631786039589 0 0.47175778739831692 0.1449914706745159 0 0.4770907503630627 0.17318800954420141 0 0.48743048666182748 0.17864362022235389 0 0.48671769491954059 0.16218631786039589 0 0.46611115286410087 0.17753686563652779 0 0.46671447303658592 0.16278773414982031 0 0.4770907503630627 0.17318800954420141 0 0.47555832690325478 0.18823538290912059 0 0.46611115286410087 0.17753686563652779 0 0.4770907503630627 0.17318800954420141 0 0.47555832690325478 0.18823538290912059 0 0.4770907503630627 0.17318800954420141 0 0.48743048666182748 0.17864362022235389 0 0.5 0.1749889804910473 0 0.48743048666182748 0.17864362022235389 0 0.48671769491954059 0.16218631786039589 0 0.4914615012598097 0.1911200683758735 0 0.5 0.1749889804910473 0 0.48743048666182748 0.17864362022235389 0 0.47555832690325478 0.18823538290912059 0 0.4914615012598097 0.1911200683758735 0 0.48743048666182748 0.17864362022235389 0 0.5 0.1749889804910473 0 0.48671769491954059 0.16218631786039589 0 0.5 0.14718298886509831 0 0.48671769491954059 0.16218631786039589 0 0.5 0.14718298886509831 0 0.47175778739831692 0.1449914706745159 0 0.5 0.14718298886509831 0 0.47175778739831692 0.1449914706745159 0 0.48342499682499679 0.13002170414321829 0 0.45974972085404342 0.1291025469127296 0 0.47175778739831692 0.1449914706745159 0 0.48342499682499679 0.13002170414321829 0 0.5 0.14718298886509831 0 0.48342499682499679 0.13002170414321829 0 0.5 0.1193769972391493 0 0.48342499682499679 0.13002170414321829 0 0.5 0.1193769972391493 0 0.47379112580283639 0.109811100409862 0 0.5 0.1193769972391493 0 0.47379112580283639 0.109811100409862 0 0.5 0.091571005613200418 0 0.47379112580283639 0.109811100409862 0 0.5 0.091571005613200418 0 0.47061892702199848 0.0881377332227605 0 0.45974972085404342 0.1291025469127296 0 0.48342499682499679 0.13002170414321829 0 0.47379112580283639 0.109811100409862 0 0.5 0.063765013987251651 0 0.5 0.091571005613200418 0 0.48009406866108062 0.070313893351344942 0 0.5 0.091571005613200418 0 0.47061892702199848 0.0881377332227605 0 0.48009406866108062 0.070313893351344942 0 0.48009406866108062 0.070313893351344942 0 0.46231178563193692 0.073381201424685072 0 0.46406104374095691 0.057570807932983331 0 0.47061892702199848 0.0881377332227605 0 0.48009406866108062 0.070313893351344942 0 0.46231178563193692 0.073381201424685072 0 0.46231178563193692 0.073381201424685072 0 0.44529157173994238 0.067392317992688397 0 0.46406104374095691 0.057570807932983331 0 0.47061892702199848 0.0881377332227605 0 0.46231178563193692 0.073381201424685072 0 0.45149331699570611 0.083491254623648203 0 0.47061892702199848 0.0881377332227605 0 0.45149331699570611 0.083491254623648203 0 0.45703220220168161 0.097813229342281274 0 0.45149331699570611 0.083491254623648203 0 0.45703220220168161 0.097813229342281274 0 0.43859324697559682 0.094946628835839 0 0.44047505886254212 0.080761007376139227 0 0.45149331699570611 0.083491254623648203 0 0.43859324697559682 0.094946628835839 0 0.44047505886254212 0.080761007376139227 0 0.45149331699570611 0.083491254623648203 0 0.44529157173994238 0.067392317992688397 0 0.46231178563193692 0.073381201424685072 0 0.45149331699570611 0.083491254623648203 0 0.44529157173994238 0.067392317992688397 0 0.45974972085404342 0.1291025469127296 0 0.47379112580283639 0.109811100409862 0 0.45066439421227028 0.11267942961929669 0 0.47379112580283639 0.109811100409862 0 0.47061892702199848 0.0881377332227605 0 0.45703220220168161 0.097813229342281274 0 0.47379112580283639 0.109811100409862 0 0.45703220220168161 0.097813229342281274 0 0.45066439421227028 0.11267942961929669 0 0.45703220220168161 0.097813229342281274 0 0.43859324697559682 0.094946628835839 0 0.45066439421227028 0.11267942961929669 0 0.43859324697559682 0.094946628835839 0 0.45066439421227028 0.11267942961929669 0 0.43859324697559682 0.094946628835839 0 0.45066439421227028 0.11267942961929669 0 0.42730349028420711 0.1072618860299494 0 0.45974972085404342 0.1291025469127296 0 0.44091582039847049 0.1305950391239534 0 0.45066439421227028 0.11267942961929669 0 0.44091582039847049 0.1305950391239534 0 0.45066439421227028 0.11267942961929669 0 0.42730349028420711 0.1072618860299494 0 0.44091582039847049 0.1305950391239534 0 0.42730349028420711 0.1072618860299494 0 0.44091582039847049 0.1305950391239534 0 0.42366000266713089 0.1228445275503523 0 0.42730349028420711 0.1072618860299494 0 0.42366000266713089 0.1228445275503523 0 0.41698748814197611 0.1106449428495324 0 0.42730349028420711 0.1072618860299494 0 0.40886707299735048 0.1328139505423451 0 0.42366000266713089 0.1228445275503523 0 0.41207362981193391 0.1189207857971802 0 0.42366000266713089 0.1228445275503523 0 0.41698748814197611 0.1106449428495324 0 0.41207362981193391 0.1189207857971802 0 0.41698748814197611 0.1106449428495324 0 0.41207362981193391 0.1189207857971802 0 0.40766043207986208 0.10884782960580359 0 0.40886707299735048 0.1328139505423451 0 0.41207362981193391 0.1189207857971802 0 0.39819014705471523 0.12213929996890741 0 0.41262444710444479 0.1001882685023667 0 0.4214145106535227 0.097153351155836773 0 0.41370535456349539 0.08392045206751679 0 0.41262444710444479 0.1001882685023667 0 0.40766043207986208 0.10884782960580359 0 0.40264185679986381 0.1008596839320124 0 0.41698748814197611 0.1106449428495324 0 0.41262444710444479 0.1001882685023667 0 0.40766043207986208 0.10884782960580359 0 0.41698748814197611 0.1106449428495324 0 0.41262444710444479 0.1001882685023667 0 0.42730349028420711 0.1072618860299494 0 0.41262444710444479 0.1001882685023667 0 0.4214145106535227 0.097153351155836773 0 0.42730349028420711 0.1072618860299494 0 0.43859324697559682 0.094946628835839 0 0.4214145106535227 0.097153351155836773 0 0.42730349028420711 0.1072618860299494 0 0.4214145106535227 0.097153351155836773 0 0.42730349028420711 0.1072618860299494 0 0.43859324697559682 0.094946628835839 0 0.42576064443862038 0.087934303465431421 0 0.42652209973892208 0.077213828052382139 0 0.44047505886254212 0.080761007376139227 0 0.43859324697559682 0.094946628835839 0 0.42652209973892208 0.077213828052382139 0 0.43859324697559682 0.094946628835839 0 0.4214145106535227 0.097153351155836773 0 0.42576064443862038 0.087934303465431421 0 0.43859324697559682 0.094946628835839 0 0.42652209973892208 0.077213828052382139 0 0.42576064443862038 0.087934303465431421 0 0.42652209973892208 0.077213828052382139 0 0.41603999652512241 0.082698802917733114 0 0.44529157173994238 0.067392317992688397 0 0.42652209973892208 0.077213828052382139 0 0.43081837116012489 0.058280421764194047 0 0.44047505886254212 0.080761007376139227 0 0.44529157173994238 0.067392317992688397 0 0.42652209973892208 0.077213828052382139 0 0.42652209973892208 0.077213828052382139 0 0.41179744459391121 0.055582961393880533 0 0.43081837116012489 0.058280421764194047 0 0.44529157173994238 0.067392317992688397 0 0.42652209973892208 0.077213828052382139 0 0.41603999652512241 0.082698802917733114 0 0.40249941679823298 0.064744753463738924 0 0.40624632114125858 0.05894981173438766 0 0.41603999652512241 0.082698802917733114 0 0.41370535456349539 0.08392045206751679 0 0.40249941679823298 0.064744753463738924 0 0.42652209973892208 0.077213828052382139 0 0.41603999652512241 0.082698802917733114 0 0.40624632114125858 0.05894981173438766 0 0.41370535456349539 0.08392045206751679 0 0.40249941679823298 0.064744753463738924 0 0.42652209973892208 0.077213828052382139 0 0.40624632114125858 0.05894981173438766 0 0.41179744459391121 0.055582961393880533 0 0.42652209973892208 0.077213828052382139 0 0.41179744459391121 0.055582961393880533 0 0.41603999652512241 0.082698802917733114 0 0.40624632114125858 0.05894981173438766 0 0.41262444710444479 0.1001882685023667 0 0.41370535456349539 0.08392045206751679 0 0.40295604101800397 0.091389210170692625 0 0.4214145106535227 0.097153351155836773 0 0.42576064443862038 0.087934303465431421 0 0.41603999652512241 0.082698802917733114 0 0.4214145106535227 0.097153351155836773 0 0.41370535456349539 0.08392045206751679 0 0.4214145106535227 0.097153351155836773 0 0.41603999652512241 0.082698802917733114 0 0.4214145106535227 0.097153351155836773 0 0.41603999652512241 0.082698802917733114 0 0.41370535456349539 0.08392045206751679 0 0.42652209973892208 0.077213828052382139 0 0.41603999652512241 0.082698802917733114 0 0.41603999652512241 0.082698802917733114 0 0.41370535456349539 0.08392045206751679 0 0.41370535456349539 0.08392045206751679 0 0.40295604101800397 0.091389210170692625 0 0.40017150268674218 0.079609090244892891 0 0.40017150268674218 0.079609090244892891 0 0.39126292950851033 0.085543472663492812 0 0.38847212457982472 0.075047256688389158 0 0.40295604101800397 0.091389210170692625 0 0.40017150268674218 0.079609090244892891 0 0.39126292950851033 0.085543472663492812 0 0.40295604101800397 0.091389210170692625 0 0.39126292950851033 0.085543472663492812 0 0.39295086309513477 0.096784749946011203 0 0.40249941679823298 0.064744753463738924 0 0.38847212457982472 0.075047256688389158 0 0.38348814788765401 0.061306227086249519 0 0.41370535456349539 0.08392045206751679 0 0.40017150268674218 0.079609090244892891 0 0.40249941679823298 0.064744753463738924 0 0.40017150268674218 0.079609090244892891 0 0.40249941679823298 0.064744753463738924 0 0.38847212457982472 0.075047256688389158 0 0.37019643066569818 0.077679914849374587 0 0.38847212457982472 0.075047256688389158 0 0.38348814788765401 0.061306227086249519 0 0.37019643066569818 0.077679914849374587 0 0.38847212457982472 0.075047256688389158 0 0.38007945782092589 0.088591357148056354 0 0.39126292950851033 0.085543472663492812 0 0.38007945782092589 0.088591357148056354 0 0.39295086309513477 0.096784749946011203 0 0.39126292950851033 0.085543472663492812 0 0.38847212457982472 0.075047256688389158 0 0.38007945782092589 0.088591357148056354 0 0.3644611438199572 0.100803704501796 0 0.38007945782092589 0.088591357148056354 0 0.38239048044551732 0.10105814789166991 0 0.38007945782092589 0.088591357148056354 0 0.38239048044551732 0.10105814789166991 0 0.39295086309513477 0.096784749946011203 0 0.38239048044551732 0.10105814789166991 0 0.38868045444247928 0.1144764634657689 0 0.39701750070187303 0.10708836143518791 0 0.37753456423920267 0.12606772520011819 0 0.37791396880342493 0.1153271289745038 0 0.38603097931252928 0.1230784595495979 0 0.37791396880342493 0.1153271289745038 0 0.38603097931252928 0.1230784595495979 0 0.38868045444247928 0.1144764634657689 0 0.38239048044551732 0.10105814789166991 0 0.37791396880342493 0.1153271289745038 0 0.38868045444247928 0.1144764634657689 0 0.38868045444247928 0.1144764634657689 0 0.39819014705471523 0.12213929996890741 0 0.39701750070187303 0.10708836143518791 0 0.38603097931252928 0.1230784595495979 0 0.38868045444247928 0.1144764634657689 0 0.39819014705471523 0.12213929996890741 0 0.40766043207986208 0.10884782960580359 0 0.39819014705471523 0.12213929996890741 0 0.39701750070187303 0.10708836143518791 0 0.41207362981193391 0.1189207857971802 0 0.40766043207986208 0.10884782960580359 0 0.39819014705471523 0.12213929996890741 0 0.40766043207986208 0.10884782960580359 0 0.40264185679986381 0.1008596839320124 0 0.39701750070187303 0.10708836143518791 0 0.40295604101800397 0.091389210170692625 0 0.40264185679986381 0.1008596839320124 0 0.39295086309513477 0.096784749946011203 0 0.41262444710444479 0.1001882685023667 0 0.40295604101800397 0.091389210170692625 0 0.40264185679986381 0.1008596839320124 0 0.38239048044551732 0.10105814789166991 0 0.39295086309513477 0.096784749946011203 0 0.39701750070187303 0.10708836143518791 0 0.40264185679986381 0.1008596839320124 0 0.39295086309513477 0.096784749946011203 0 0.39701750070187303 0.10708836143518791 0 0.39713978872470701 0.018036416383949299 0 0.39419329435479722 0.029722048339664051 0 0.39707278944890068 0.033952094735378711 0 0.39713978872470701 0.018036416383949299 0 0.39419329435479722 0.029722048339664051 0 0.38682312672805558 0.011849897270041831 0 0.39713978872470701 0.018036416383949299 0 0.39707278944890068 0.033952094735378711 0 0.40984434716759188 0.0082351938816782704 0 0.39707278944890068 0.033952094735378711 0 0.40984434716759188 0.0082351938816782704 0 0.39707278944890068 0.033952094735378711 0 0.4093317545172071 0.024277402314433379 0 0.40984434716759188 0.0082351938816782704 0 0.39776538592419108 0.0064228476929828462 0 0.38682312672805558 0.011849897270041831 0 0.39699898505056619 -0.0057672521067791867 0 0.39713978872470701 0.018036416383949299 0 0.39776538592419108 0.0064228476929828462 0 0.40984434716759188 0.0082351938816782704 0 0.39776538592419108 0.0064228476929828462 0 0.40984434716759188 0.0082351938816782704 0 0.39699898505056619 -0.0057672521067791867 0 0.39713978872470701 0.018036416383949299 0 0.39776538592419108 0.0064228476929828462 0 0.38682312672805558 0.011849897270041831 0 0.38271831722690208 0.01286503554592695 0 0.39699898505056619 -0.0057672521067791867 0 0.38271831722690208 0.01286503554592695 0 0.38682312672805558 0.011849897270041831 0 0.39699898505056619 -0.0057672521067791867 0 0.36685550851168908 0.033561575694548471 0 0.38271831722690208 0.01286503554592695 0 0.38287687232145767 0.03110937799699599 0 0.39419329435479722 0.029722048339664051 0 0.38271831722690208 0.01286503554592695 0 0.39419329435479722 0.029722048339664051 0 0.38682312672805558 0.011849897270041831 0 0.39419329435479722 0.029722048339664051 0 0.38271831722690208 0.01286503554592695 0 0.38682312672805558 0.011849897270041831 0 0.39419329435479722 0.029722048339664051 0 0.38271831722690208 0.01286503554592695 0 0.38287687232145767 0.03110937799699599 0 0.36685550851168908 0.033561575694548471 0 0.38287687232145767 0.03110937799699599 0 0.37834334897691152 0.04591186500673252 0 0.38287687232145767 0.03110937799699599 0 0.37834334897691152 0.04591186500673252 0 0.3913076734265224 0.045560773991532348 0 0.38287687232145767 0.03110937799699599 0 0.3913076734265224 0.045560773991532348 0 0.38287687232145767 0.03110937799699599 0 0.39707278944890068 0.033952094735378711 0 0.3913076734265224 0.045560773991532348 0 0.37834334897691152 0.04591186500673252 0 0.38348814788765401 0.061306227086249519 0 0.3913076734265224 0.045560773991532348 0 0.36718854273723422 0.058021370264336257 0 0.37834334897691152 0.04591186500673252 0 0.38348814788765401 0.061306227086249519 0 0.38348814788765401 0.061306227086249519 0 0.3913076734265224 0.045560773991532348 0 0.40249941679823298 0.064744753463738924 0 0.40624632114125858 0.05894981173438766 0 0.3913076734265224 0.045560773991532348 0 0.40249941679823298 0.064744753463738924 0 0.3913076734265224 0.045560773991532348 0 0.40624632114125858 0.05894981173438766 0 0.39707278944890068 0.033952094735378711 0 0.41179744459391121 0.055582961393880533 0 0.40249941679823298 0.064744753463738924 0 0.38348814788765401 0.061306227086249519 0 0.3913076734265224 0.045560773991532348 0 0.40624632114125858 0.05894981173438766 0 0.39707278944890068 0.033952094735378711 0 0.40624632114125858 0.05894981173438766 0 0.39707278944890068 0.033952094735378711 0 0.3913076734265224 0.045560773991532348 0 0.39707278944890068 0.033952094735378711 0 0.41179744459391121 0.055582961393880533 0 0.39419329435479722 0.029722048339664051 0 0.38287687232145767 0.03110937799699599 0 0.39707278944890068 0.033952094735378711 0 0.39419329435479722 0.029722048339664051 0 0.39707278944890068 0.033952094735378711 0 0.39707278944890068 0.033952094735378711 0 0.3913076734265224 0.045560773991532348 0 0.39707278944890068 0.033952094735378711 0 0.41154129832948461 0.03968126870318972 0 0.4093317545172071 0.024277402314433379 0 0.39707278944890068 0.033952094735378711 0 0.41154129832948461 0.03968126870318972 0 0.41179744459391121 0.055582961393880533 0 0.41154129832948461 0.03968126870318972 0 0.41179744459391121 0.055582961393880533 0 0.42555688906251621 0.038772342059998521 0 0.41154129832948461 0.03968126870318972 0 0.42555688906251621 0.038772342059998521 0 0.4093317545172071 0.024277402314433379 0 0.43081837116012489 0.058280421764194047 0 0.42555688906251621 0.038772342059998521 0 0.44727006181555762 0.048251295851492411 0 0.41179744459391121 0.055582961393880533 0 0.43081837116012489 0.058280421764194047 0 0.42555688906251621 0.038772342059998521 0 0.42555688906251621 0.038772342059998521 0 0.43850451071181717 0.028448399324779491 0 0.44727006181555762 0.048251295851492411 0 0.42555688906251621 0.038772342059998521 0 0.42679473467257301 0.015816280597756201 0 0.43850451071181717 0.028448399324779491 0 0.42679473467257301 0.015816280597756201 0 0.44259485422073502 0.01197967335213217 0 0.43850451071181717 0.028448399324779491 0 0.42555688906251621 0.038772342059998521 0 0.42679473467257301 0.015816280597756201 0 0.4093317545172071 0.024277402314433379 0 0.42679473467257301 0.015816280597756201 0 0.4093317545172071 0.024277402314433379 0 0.40984434716759188 0.0082351938816782704 0 0.42679473467257301 0.015816280597756201 0 0.4093317545172071 0.024277402314433379 0 0.42679473467257301 0.015816280597756201 0 0.40984434716759188 0.0082351938816782704 0 0.42339056673071968 0.0021825346760754099 0 0.42679473467257301 0.015816280597756201 0 0.43430728019643411 0.0021603711968910342 0 0.44425771482793841 0.0073551588810779793 0 0.42679473467257301 0.015816280597756201 0 0.42339056673071968 0.0021825346760754099 0 0.43430728019643411 0.0021603711968910342 0 0.42679473467257301 0.015816280597756201 0 0.44425771482793841 0.0073551588810779793 0 0.42679473467257301 0.015816280597756201 0 0.44425771482793841 0.0073551588810779793 0 0.44259485422073502 0.01197967335213217 0 0.43430728019643411 0.0021603711968910342 0 0.44528735278671711 0.0044916743414265582 0 0.44282671919620797 -0.0051482625720636332 0 0.43430728019643411 0.0021603711968910342 0 0.44528735278671711 0.0044916743414265582 0 0.44425771482793841 0.0073551588810779793 0 0.44528735278671711 0.0044916743414265582 0 0.44425771482793841 0.0073551588810779793 0 0.44582449703004418 0.0065960252854621844 0 0.44528735278671711 0.0044916743414265582 0 0.44425771482793841 0.0073551588810779793 0 0.44425771482793841 0.0073551588810779793 0 0.44582449703004418 0.0065960252854621844 0 0.44528735278671711 0.0044916743414265582 0 0.45488122831561378 0.002207879328662793 0 0.447687129129547 -0.0021822467176459931 0 0.44582449703004418 0.0065960252854621844 0 0.45488122831561378 0.002207879328662793 0 0.45444041976487259 0.0099720507091970428 0 0.44582449703004418 0.0065960252854621844 0 0.45488122831561378 0.002207879328662793 0 0.44528735278671711 0.0044916743414265582 0 0.447687129129547 -0.0021822467176459931 0 0.44528735278671711 0.0044916743414265582 0 0.44582449703004418 0.0065960252854621844 0 0.45488122831561378 0.002207879328662793 0 0.44528735278671711 0.0044916743414265582 0 0.44582449703004418 0.0065960252854621844 0 0.45488122831561378 0.002207879328662793 0 0.447687129129547 -0.0021822467176459931 0 0.44582449703004418 0.0065960252854621844 0 0.45604812849759591 0.01792603803550635 0 0.45444041976487259 0.0099720507091970428 0 0.44425771482793841 0.0073551588810779793 0 0.44259485422073502 0.01197967335213217 0 0.44425771482793841 0.0073551588810779793 0 0.44582449703004418 0.0065960252854621844 0 0.44259485422073502 0.01197967335213217 0 0.44259485422073502 0.01197967335213217 0 0.43850451071181717 0.028448399324779491 0 0.45250549802266088 0.032769945830239462 0 0.44582449703004418 0.0065960252854621844 0 0.45250549802266088 0.032769945830239462 0 0.44582449703004418 0.0065960252854621844 0 0.44259485422073502 0.01197967335213217 0 0.45250549802266088 0.032769945830239462 0 0.44582449703004418 0.0065960252854621844 0 0.45604812849759591 0.01792603803550635 0 0.45250549802266088 0.032769945830239462 0 0.45604812849759591 0.01792603803550635 0 0.45250549802266088 0.032769945830239462 0 0.46957819545837831 0.02845649598902723 0 0.45604812849759591 0.01792603803550635 0 0.46980160283170241 0.01131288651436691 0 0.46957819545837831 0.02845649598902723 0 0.45488122831561378 0.002207879328662793 0 0.46980160283170241 0.01131288651436691 0 0.47744061415780481 -0.0087225407809669551 0 0.45488122831561378 0.002207879328662793 0 0.46980160283170241 0.01131288651436691 0 0.45488122831561378 0.002207879328662793 0 0.45444041976487259 0.0099720507091970428 0 0.46980160283170241 0.01131288651436691 0 0.45604812849759591 0.01792603803550635 0 0.45444041976487259 0.0099720507091970428 0 0.46980160283170241 0.01131288651436691 0 0.44529157173994238 0.067392317992688397 0 0.44727006181555762 0.048251295851492411 0 0.46406104374095691 0.057570807932983331 0 0.44529157173994238 0.067392317992688397 0 0.43081837116012489 0.058280421764194047 0 0.44727006181555762 0.048251295851492411 0 0.43850451071181717 0.028448399324779491 0 0.44727006181555762 0.048251295851492411 0 0.45250549802266088 0.032769945830239462 0 0.44727006181555762 0.048251295851492411 0 0.45250549802266088 0.032769945830239462 0 0.46324906295590501 0.042959568695404141 0 0.45250549802266088 0.032769945830239462 0 0.46324906295590501 0.042959568695404141 0 0.46957819545837831 0.02845649598902723 0 0.44727006181555762 0.048251295851492411 0 0.46324906295590501 0.042959568695404141 0 0.46406104374095691 0.057570807932983331 0 0.44529157173994238 0.067392317992688397 0 0.46406104374095691 0.057570807932983331 0 0.48009406866108062 0.070313893351344942 0 0.46406104374095691 0.057570807932983331 0 0.48283051574197122 0.047749297873278272 0 0.46406104374095691 0.057570807932983331 0 0.48283051574197122 0.047749297873278272 0 0.46324906295590501 0.042959568695404141 0 0.46406104374095691 0.057570807932983331 0 0.48283051574197122 0.047749297873278272 0 0.46324906295590501 0.042959568695404141 0 0.48283051574197122 0.047749297873278272 0 0.46957819545837831 0.02845649598902723 0 0.48283051574197122 0.047749297873278272 0 0.46957819545837831 0.02845649598902723 0 0.4847219773477911 0.020417893700070671 0 0.48283051574197122 0.047749297873278272 0 0.5 0.035959022361302877 0 0.4847219773477911 0.020417893700070671 0 0.5 0.063765013987251651 0 0.48009406866108062 0.070313893351344942 0 0.48283051574197122 0.047749297873278272 0 0.5 0.063765013987251651 0 0.48283051574197122 0.047749297873278272 0 0.5 0.035959022361302877 0 0.46980160283170241 0.01131288651436691 0 0.4847219773477911 0.020417893700070671 0 0.48564850500683038 0.003121595799808155 0 0.46980160283170241 0.01131288651436691 0 0.48564850500683038 0.003121595799808155 0 0.47744061415780481 -0.0087225407809669551 0 0.46980160283170241 0.01131288651436691 0 0.46957819545837831 0.02845649598902723 0 0.4847219773477911 0.020417893700070671 0 0.46980160283170241 0.01131288651436691 0 0.4847219773477911 0.020417893700070671 0 0.5 0.035959022361302877 0 0.4847219773477911 0.020417893700070671 0 0.5 0.0081530307353540055 0 0.4847219773477911 0.020417893700070671 0 0.5 0.0081530307353540055 0 0.48564850500683038 0.003121595799808155 0 0.5 0.0081530307353540055 0 0.48564850500683038 0.003121595799808155 0 0.49999999999999672 -0.019652960890594751 0 0.48564850500683038 0.003121595799808155 0 0.47744061415780481 -0.0087225407809669551 0 0.49999999999999672 -0.019652960890594751 0 0.47744061415780481 -0.0087225407809669551 0 0.49999999999999672 -0.019652960890594751 0 0.47744061415780481 -0.0087225407809669551 0 0.47724869012457272 -0.030655281675191531 0 0.45985831065114779 -0.011965048684304499 0 0.47744061415780481 -0.0087225407809669551 0 0.47724869012457272 -0.030655281675191531 0 0.49999999999999672 -0.019652960890594751 0 0.47724869012457272 -0.030655281675191531 0 0.49999999999999672 -0.019652960890594751 0 0.5 -0.046886020315634942 0 0.47724869012457272 -0.030655281675191531 0 0.5 -0.046886020315634942 0 0.48244065842716588 -0.054856804403181213 0 0.5 -0.046886020315634942 0 0.48244065842716588 -0.054856804403181213 0 0.5 -0.074119079740675164 0 0.48244065842716588 -0.054856804403181213 0 0.46428786587377419 -0.048349885166302523 0 0.47258823424588797 -0.071433704390630723 0 0.47724869012457272 -0.030655281675191531 0 0.48244065842716588 -0.054856804403181213 0 0.46428786587377419 -0.048349885166302523 0 0.46428786587377419 -0.048349885166302523 0 0.45598749750166051 -0.02526606594197435 0 0.46428786587377419 -0.048349885166302523 0 0.44765134042966859 -0.037759680641894278 0 0.45598749750166051 -0.02526606594197435 0 0.47724869012457272 -0.030655281675191531 0 0.46428786587377419 -0.048349885166302523 0 0.45598749750166051 -0.02526606594197435 0 0.46428786587377419 -0.048349885166302523 0 0.44715869158702493 -0.050503923234746853 0 0.45495503501471207 -0.06640217842775481 0 0.46428786587377419 -0.048349885166302523 0 0.47258823424588797 -0.071433704390630723 0 0.46428786587377419 -0.048349885166302523 0 0.47258823424588797 -0.071433704390630723 0 0.45495503501471207 -0.06640217842775481 0 0.44715869158702493 -0.050503923234746853 0 0.45495503501471207 -0.06640217842775481 0 0.43401482423754789 -0.060095634355563227 0 0.44715869158702493 -0.050503923234746853 0 0.43356571300131158 -0.041429777958426457 0 0.43401482423754789 -0.060095634355563227 0 0.46428786587377419 -0.048349885166302523 0 0.44715869158702493 -0.050503923234746853 0 0.44765134042966859 -0.037759680641894278 0 0.44765134042966859 -0.037759680641894278 0 0.43819621609876008 -0.023289020265245128 0 0.43356571300131158 -0.041429777958426457 0 0.44715869158702493 -0.050503923234746853 0 0.44765134042966859 -0.037759680641894278 0 0.43356571300131158 -0.041429777958426457 0 0.44765134042966859 -0.037759680641894278 0 0.43819621609876008 -0.023289020265245128 0 0.45598749750166051 -0.02526606594197435 0 0.43819621609876008 -0.023289020265245128 0 0.44282671919620797 -0.0051482625720636332 0 0.45598749750166051 -0.02526606594197435 0 0.447687129129547 -0.0021822467176459931 0 0.45598749750166051 -0.02526606594197435 0 0.43819621609876008 -0.023289020265245128 0 0.44282671919620797 -0.0051482625720636332 0 0.44282671919620797 -0.0051482625720636332 0 0.447687129129547 -0.0021822467176459931 0 0.45598749750166051 -0.02526606594197435 0 0.44528735278671711 0.0044916743414265582 0 0.44282671919620797 -0.0051482625720636332 0 0.447687129129547 -0.0021822467176459931 0 0.44528735278671711 0.0044916743414265582 0 0.44282671919620797 -0.0051482625720636332 0 0.44282671919620797 -0.0051482625720636332 0 0.447687129129547 -0.0021822467176459931 0 0.45488122831561378 0.002207879328662793 0 0.47744061415780481 -0.0087225407809669551 0 0.447687129129547 -0.0021822467176459931 0 0.45985831065114779 -0.011965048684304499 0 0.45598749750166051 -0.02526606594197435 0 0.45488122831561378 0.002207879328662793 0 0.47744061415780481 -0.0087225407809669551 0 0.45985831065114779 -0.011965048684304499 0 0.45488122831561378 0.002207879328662793 0 0.447687129129547 -0.0021822467176459931 0 0.45985831065114779 -0.011965048684304499 0 0.47724869012457272 -0.030655281675191531 0 0.45985831065114779 -0.011965048684304499 0 0.45598749750166051 -0.02526606594197435 0 0.47939819449689902 -0.1132275866134279 0 0.5 -0.10135213916571539 0 0.5 -0.12858519859075559 0 0.47939819449689902 -0.1132275866134279 0 0.5 -0.10135213916571539 0 0.48151261848075938 -0.090773810073917591 0 0.47939819449689902 -0.1132275866134279 0 0.48151261848075938 -0.090773810073917591 0 0.46105071078657189 -0.096689438132449262 0 0.48151261848075938 -0.090773810073917591 0 0.47258823424588797 -0.071433704390630723 0 0.46105071078657189 -0.096689438132449262 0 0.5 -0.10135213916571539 0 0.48151261848075938 -0.090773810073917591 0 0.5 -0.074119079740675164 0 0.48151261848075938 -0.090773810073917591 0 0.5 -0.074119079740675164 0 0.47258823424588797 -0.071433704390630723 0 0.48244065842716588 -0.054856804403181213 0 0.5 -0.074119079740675164 0 0.47258823424588797 -0.071433704390630723 0 0.45495503501471207 -0.06640217842775481 0 0.44303429013955381 -0.080081517853788892 0 0.43401482423754789 -0.060095634355563227 0 0.45495503501471207 -0.06640217842775481 0 0.44303429013955381 -0.080081517853788892 0 0.46105071078657189 -0.096689438132449262 0 0.44303429013955381 -0.080081517853788892 0 0.46105071078657189 -0.096689438132449262 0 0.4460286652241513 -0.094624262834058046 0 0.44303429013955381 -0.080081517853788892 0 0.4460286652241513 -0.094624262834058046 0 0.43371681745398721 -0.088591292474842639 0 0.47258823424588797 -0.071433704390630723 0 0.45495503501471207 -0.06640217842775481 0 0.46105071078657189 -0.096689438132449262 0 0.46105071078657189 -0.096689438132449262 0 0.4460286652241513 -0.094624262834058046 0 0.4555790363616935 -0.1232335355056378 0 0.4460286652241513 -0.094624262834058046 0 0.43539956772732002 -0.10543856301000019 0 0.43371681745398721 -0.088591292474842639 0 0.4460286652241513 -0.094624262834058046 0 0.4555790363616935 -0.1232335355056378 0 0.43539956772732002 -0.10543856301000019 0 0.4555790363616935 -0.1232335355056378 0 0.43539956772732002 -0.10543856301000019 0 0.4555790363616935 -0.1232335355056378 0 0.43539956772732002 -0.10543856301000019 0 0.43664862519858522 -0.12523873688129941 0 0.47939819449689902 -0.1132275866134279 0 0.46105071078657189 -0.096689438132449262 0 0.4555790363616935 -0.1232335355056378 0 0.41892522507171598 -0.1241200010935793 0 0.40748473697506882 -0.1060304495468663 0 0.3928290236412163 -0.1219032059513412 0 0.41892522507171598 -0.1241200010935793 0 0.42939927241057391 -0.10241356719625901 0 0.40748473697506882 -0.1060304495468663 0 0.41892522507171598 -0.1241200010935793 0 0.42939927241057391 -0.10241356719625901 0 0.41892522507171598 -0.1241200010935793 0 0.43539956772732002 -0.10543856301000019 0 0.42939927241057391 -0.10241356719625901 0 0.41892522507171598 -0.1241200010935793 0 0.43539956772732002 -0.10543856301000019 0 0.43664862519858522 -0.12523873688129941 0 0.43539956772732002 -0.10543856301000019 0 0.41522009909294638 -0.087643590514362574 0 0.43539956772732002 -0.10543856301000019 0 0.41522009909294638 -0.087643590514362574 0 0.43371681745398721 -0.088591292474842639 0 0.43539956772732002 -0.10543856301000019 0 0.42939927241057391 -0.10241356719625901 0 0.41522009909294638 -0.087643590514362574 0 0.42939927241057391 -0.10241356719625901 0 0.40748473697506882 -0.1060304495468663 0 0.41522009909294638 -0.087643590514362574 0 0.41522009909294638 -0.087643590514362574 0 0.43371681745398721 -0.088591292474842639 0 0.42891547199704178 -0.076678539878925145 0 0.44303429013955381 -0.080081517853788892 0 0.43371681745398721 -0.088591292474842639 0 0.42891547199704178 -0.076678539878925145 0 0.44303429013955381 -0.080081517853788892 0 0.42891547199704178 -0.076678539878925145 0 0.43401482423754789 -0.060095634355563227 0 0.42891547199704178 -0.076678539878925145 0 0.4185913290611733 -0.066980664196068435 0 0.43401482423754789 -0.060095634355563227 0 0.41522009909294638 -0.087643590514362574 0 0.4185913290611733 -0.066980664196068435 0 0.40671795084001111 -0.071757620184326021 0 0.41522009909294638 -0.087643590514362574 0 0.42891547199704178 -0.076678539878925145 0 0.4185913290611733 -0.066980664196068435 0 0.4185913290611733 -0.066980664196068435 0 0.40671795084001111 -0.071757620184326021 0 0.40927703257625608 -0.059722927481571653 0 0.41522009909294638 -0.087643590514362574 0 0.40671795084001111 -0.071757620184326021 0 0.39504063045857318 -0.069848618018724884 0 0.40671795084001111 -0.071757620184326021 0 0.40088731579895848 -0.063310719884264843 0 0.39679692089357349 -0.068349719474519691 0 0.40671795084001111 -0.071757620184326021 0 0.39504063045857318 -0.069848618018724884 0 0.39679692089357349 -0.068349719474519691 0 0.40671795084001111 -0.071757620184326021 0 0.40088731579895848 -0.063310719884264843 0 0.40927703257625608 -0.059722927481571653 0 0.39504063045857318 -0.069848618018724884 0 0.39345546089451239 -0.065608188376808929 0 0.39039020157369853 -0.061919415571994652 0 0.39504063045857318 -0.069848618018724884 0 0.39679692089357349 -0.068349719474519691 0 0.39345546089451239 -0.065608188376808929 0 0.39504063045857318 -0.069848618018724884 0 0.39679692089357349 -0.068349719474519691 0 0.39660859286596167 -0.064654896577829968 0 0.39345546089451239 -0.065608188376808929 0 0.39569273287578549 -0.061112349427330438 0 0.40088731579895848 -0.063310719884264843 0 0.39660859286596167 -0.064654896577829968 0 0.39569273287578549 -0.061112349427330438 0 0.40088731579895848 -0.063310719884264843 0 0.39679692089357349 -0.068349719474519691 0 0.39660859286596167 -0.064654896577829968 0 0.39679692089357349 -0.068349719474519691 0 0.39660859286596167 -0.064654896577829968 0 0.39345546089451239 -0.065608188376808929 0 0.39345546089451239 -0.065608188376808929 0 0.39569273287578549 -0.061112349427330438 0 0.39039020157369853 -0.061919415571994652 0 0.39504063045857318 -0.069848618018724884 0 0.37847011931385921 -0.070063584383212182 0 0.37565360421553201 -0.086394392472092171 0 0.39504063045857318 -0.069848618018724884 0 0.37847011931385921 -0.070063584383212182 0 0.3766105745449283 -0.053596339823563661 0 0.39504063045857318 -0.069848618018724884 0 0.37565360421553201 -0.086394392472092171 0 0.39504063045857318 -0.069848618018724884 0 0.37565360421553201 -0.086394392472092171 0 0.3950026090555111 -0.091536817036382556 0 0.41522009909294638 -0.087643590514362574 0 0.39504063045857318 -0.069848618018724884 0 0.41522009909294638 -0.087643590514362574 0 0.39504063045857318 -0.069848618018724884 0 0.3950026090555111 -0.091536817036382556 0 0.37728204214865568 -0.1073227606761247 0 0.3928290236412163 -0.1219032059513412 0 0.36082883912689939 -0.1217620611446468 0 0.40748473697506882 -0.1060304495468663 0 0.41522009909294638 -0.087643590514362574 0 0.3950026090555111 -0.091536817036382556 0 0.40748473697506882 -0.1060304495468663 0 0.3950026090555111 -0.091536817036382556 0 0.39325891427606618 -0.10723179607027709 0 0.37565360421553201 -0.086394392472092171 0 0.3950026090555111 -0.091536817036382556 0 0.37728204214865568 -0.1073227606761247 0 0.3950026090555111 -0.091536817036382556 0 0.39325891427606618 -0.10723179607027709 0 0.37728204214865568 -0.1073227606761247 0 0.39325891427606618 -0.10723179607027709 0 0.37728204214865568 -0.1073227606761247 0 0.3928290236412163 -0.1219032059513412 0 0.40748473697506882 -0.1060304495468663 0 0.39325891427606618 -0.10723179607027709 0 0.3928290236412163 -0.1219032059513412 0 0.41127965287423152 -0.024399539759484331 0 0.42518608979669531 -0.02265704986853841 0 0.42261590488627993 -0.017481706972023781 0 0.41127965287423152 -0.024399539759484331 0 0.42261590488627993 -0.017481706972023781 0 0.41127965287423152 -0.024399539759484331 0 0.41018472249466748 -0.0098533262391521815 0 0.42261590488627993 -0.017481706972023781 0 0.41127965287423152 -0.024399539759484331 0 0.42518608979669531 -0.02265704986853841 0 0.41909809078586302 -0.034600420135884033 0 0.41127965287423152 -0.024399539759484331 0 0.41909809078586302 -0.034600420135884033 0 0.40984434716759188 0.0082351938816782704 0 0.41018472249466748 -0.0098533262391521815 0 0.42261590488627993 -0.017481706972023781 0 0.40984434716759188 0.0082351938816782704 0 0.42339056673071968 0.0021825346760754099 0 0.42261590488627993 -0.017481706972023781 0 0.40984434716759188 0.0082351938816782704 0 0.42261590488627993 -0.017481706972023781 0 0.42339056673071968 0.0021825346760754099 0 0.43430728019643411 0.0021603711968910342 0 0.42261590488627993 -0.017481706972023781 0 0.44282671919620797 -0.0051482625720636332 0 0.42261590488627993 -0.017481706972023781 0 0.43430728019643411 0.0021603711968910342 0 0.44282671919620797 -0.0051482625720636332 0 0.42261590488627993 -0.017481706972023781 0 0.43819621609876008 -0.023289020265245128 0 0.44282671919620797 -0.0051482625720636332 0 0.42261590488627993 -0.017481706972023781 0 0.43819621609876008 -0.023289020265245128 0 0.42518608979669531 -0.02265704986853841 0 0.42261590488627993 -0.017481706972023781 0 0.42518608979669531 -0.02265704986853841 0 0.42261590488627993 -0.017481706972023781 0 0.42518608979669531 -0.02265704986853841 0 0.42901152742065751 -0.0304940670570235 0 0.41909809078586302 -0.034600420135884033 0 0.43819621609876008 -0.023289020265245128 0 0.42518608979669531 -0.02265704986853841 0 0.42901152742065751 -0.0304940670570235 0 0.43819621609876008 -0.023289020265245128 0 0.42901152742065751 -0.0304940670570235 0 0.43356571300131158 -0.041429777958426457 0 0.43356571300131158 -0.041429777958426457 0 0.42049685165517059 -0.051622799809273513 0 0.41909809078586302 -0.034600420135884033 0 0.43819621609876008 -0.023289020265245128 0 0.43356571300131158 -0.041429777958426457 0 0.42901152742065751 -0.0304940670570235 0 0.43356571300131158 -0.041429777958426457 0 0.41909809078586302 -0.034600420135884033 0 0.43356571300131158 -0.041429777958426457 0 0.43401482423754789 -0.060095634355563227 0 0.42049685165517059 -0.051622799809273513 0 0.4185913290611733 -0.066980664196068435 0 0.43401482423754789 -0.060095634355563227 0 0.42049685165517059 -0.051622799809273513 0 0.4185913290611733 -0.066980664196068435 0 0.42049685165517059 -0.051622799809273513 0 0.40927703257625608 -0.059722927481571653 0 0.42049685165517059 -0.051622799809273513 0 0.40935430208728529 -0.048928790267427143 0 0.40927703257625608 -0.059722927481571653 0 0.42049685165517059 -0.051622799809273513 0 0.40935430208728529 -0.048928790267427143 0 0.41909809078586302 -0.034600420135884033 0 0.40935430208728529 -0.048928790267427143 0 0.41909809078586302 -0.034600420135884033 0 0.40707717027401641 -0.035988559751571038 0 0.41127965287423152 -0.024399539759484331 0 0.41909809078586302 -0.034600420135884033 0 0.40707717027401641 -0.035988559751571038 0 0.41127965287423152 -0.024399539759484331 0 0.40707717027401641 -0.035988559751571038 0 0.39405884178494388 -0.034908365026745478 0 0.40935430208728529 -0.048928790267427143 0 0.39405884178494388 -0.034908365026745478 0 0.39197299157947429 -0.048274211113751971 0 0.40935430208728529 -0.048928790267427143 0 0.40707717027401641 -0.035988559751571038 0 0.39405884178494388 -0.034908365026745478 0 0.40935430208728529 -0.048928790267427143 0 0.39405884178494388 -0.034908365026745478 0 0.40935430208728529 -0.048928790267427143 0 0.3996144460149379 -0.055736970548069989 0 0.39197299157947429 -0.048274211113751971 0 0.40088731579895848 -0.063310719884264843 0 0.40927703257625608 -0.059722927481571653 0 0.3996144460149379 -0.055736970548069989 0 0.40935430208728529 -0.048928790267427143 0 0.40927703257625608 -0.059722927481571653 0 0.3996144460149379 -0.055736970548069989 0 0.40088731579895848 -0.063310719884264843 0 0.3996144460149379 -0.055736970548069989 0 0.39569273287578549 -0.061112349427330438 0 0.3996144460149379 -0.055736970548069989 0 0.39197299157947429 -0.048274211113751971 0 0.39140584045318438 -0.055971047377980733 0 0.3996144460149379 -0.055736970548069989 0 0.39140584045318438 -0.055971047377980733 0 0.39569273287578549 -0.061112349427330438 0 0.39140584045318438 -0.055971047377980733 0 0.39569273287578549 -0.061112349427330438 0 0.39039020157369853 -0.061919415571994652 0 0.37847011931385921 -0.070063584383212182 0 0.3766105745449283 -0.053596339823563661 0 0.37050166054777439 -0.063639530699426253 0 0.39504063045857318 -0.069848618018724884 0 0.39039020157369853 -0.061919415571994652 0 0.3766105745449283 -0.053596339823563661 0 0.39504063045857318 -0.069848618018724884 0 0.3766105745449283 -0.053596339823563661 0 0.39039020157369853 -0.061919415571994652 0 0.38611894638933408 -0.0558387438719921 0 0.3766105745449283 -0.053596339823563661 0 0.39140584045318438 -0.055971047377980733 0 0.39039020157369853 -0.061919415571994652 0 0.38611894638933408 -0.0558387438719921 0 0.39197299157947429 -0.048274211113751971 0 0.38531318192092229 -0.051377750698835191 0 0.38045755663769021 -0.043208411306887497 0 0.39140584045318438 -0.055971047377980733 0 0.38611894638933408 -0.0558387438719921 0 0.38531318192092229 -0.051377750698835191 0 0.39197299157947429 -0.048274211113751971 0 0.39140584045318438 -0.055971047377980733 0 0.38531318192092229 -0.051377750698835191 0 0.38531318192092229 -0.051377750698835191 0 0.3766105745449283 -0.053596339823563661 0 0.38045755663769021 -0.043208411306887497 0 0.38611894638933408 -0.0558387438719921 0 0.38531318192092229 -0.051377750698835191 0 0.3766105745449283 -0.053596339823563661 0 0.38045755663769021 -0.043208411306887497 0 0.3805546520735637 -0.02252988941751994 0 0.36945734403846398 -0.029623916631636289 0 0.39405884178494388 -0.034908365026745478 0 0.38045755663769021 -0.043208411306887497 0 0.3805546520735637 -0.02252988941751994 0 0.39405884178494388 -0.034908365026745478 0 0.38045755663769021 -0.043208411306887497 0 0.39405884178494388 -0.034908365026745478 0 0.39197299157947429 -0.048274211113751971 0 0.38045755663769021 -0.043208411306887497 0 0.3805546520735637 -0.02252988941751994 0 0.39503506805700089 -0.020287982874940519 0 0.38323668702588259 -0.00833062909200619 0 0.39405884178494388 -0.034908365026745478 0 0.3805546520735637 -0.02252988941751994 0 0.39405884178494388 -0.034908365026745478 0 0.3805546520735637 -0.02252988941751994 0 0.39503506805700089 -0.020287982874940519 0 0.41127965287423152 -0.024399539759484331 0 0.39405884178494388 -0.034908365026745478 0 0.39503506805700089 -0.020287982874940519 0 0.41127965287423152 -0.024399539759484331 0 0.39503506805700089 -0.020287982874940519 0 0.39699898505056619 -0.0057672521067791867 0 0.41127965287423152 -0.024399539759484331 0 0.39405884178494388 -0.034908365026745478 0 0.41127965287423152 -0.024399539759484331 0 0.41018472249466748 -0.0098533262391521815 0 0.39699898505056619 -0.0057672521067791867 0 0.40984434716759188 0.0082351938816782704 0 0.41018472249466748 -0.0098533262391521815 0 0.39699898505056619 -0.0057672521067791867 0 0.41127965287423152 -0.024399539759484331 0 0.39699898505056619 -0.0057672521067791867 0 0.39503506805700089 -0.020287982874940519 0 0.39699898505056619 -0.0057672521067791867 0 0.38323668702588259 -0.00833062909200619 0 0.38271831722690208 0.01286503554592695 0 0.39699898505056619 -0.0057672521067791867 0 0.38323668702588259 -0.00833062909200619 0 0.3805546520735637 -0.02252988941751994 0 0.38323668702588259 -0.00833062909200619 0 0.36705046236217842 -0.010151413808299909 0 0.38271831722690208 0.01286503554592695 0 0.38323668702588259 -0.00833062909200619 0 0.36705046236217842 -0.010151413808299909 0 0.36705046236217842 -0.010151413808299909 0 0.35478160668705361 -0.028174652963811709 0 0.3805546520735637 -0.02252988941751994 0 0.36705046236217842 -0.010151413808299909 0 0.36945734403846398 -0.029623916631636289 0 0.36705046236217842 -0.010151413808299909 0 0.36945734403846398 -0.029623916631636289 0 0.35478160668705361 -0.028174652963811709 0 0.3805546520735637 -0.02252988941751994 0 0.36705046236217842 -0.010151413808299909 0 0.35478160668705361 -0.028174652963811709 0 0.3488765124727064 -0.01318930833572199 0 0.3409660938062456 -0.029551969808235771 0 0.36705046236217842 -0.010151413808299909 0 0.35478160668705361 -0.028174652963811709 0 0.3488765124727064 -0.01318930833572199 0 0.34507599742959921 0.0099912518389839687 0 0.36705046236217842 -0.010151413808299909 0 0.34507599742959921 0.0099912518389839687 0 0.36705046236217842 -0.010151413808299909 0 0.3488765124727064 -0.01318930833572199 0 0.34507599742959921 0.0099912518389839687 0 0.3488765124727064 -0.01318930833572199 0 0.33358620685756429 -0.010514286594233299 0 0.33358620685756429 -0.010514286594233299 0 0.3409660938062456 -0.029551969808235771 0 0.32752725050965847 -0.02815425865735895 0 0.3488765124727064 -0.01318930833572199 0 0.33358620685756429 -0.010514286594233299 0 0.3409660938062456 -0.029551969808235771 0 0.3409660938062456 -0.029551969808235771 0 0.32752725050965847 -0.02815425865735895 0 0.33586572589147029 -0.035846062913531311 0 0.32752725050965847 -0.02815425865735895 0 0.31418516747306452 -0.014854236649722409 0 0.31223388580653022 -0.034888355953539729 0 0.33358620685756429 -0.010514286594233299 0 0.32752725050965847 -0.02815425865735895 0 0.31418516747306452 -0.014854236649722409 0 0.3213405256380108 0.01287573289299193 0 0.33358620685756429 -0.010514286594233299 0 0.31418516747306452 -0.014854236649722409 0 0.32752725050965847 -0.02815425865735895 0 0.33060268708456908 -0.040857089185939922 0 0.31223388580653022 -0.034888355953539729 0 0.32160859256327518 -0.050107989406451628 0 0.33060268708456908 -0.040857089185939922 0 0.31223388580653022 -0.034888355953539729 0 0.32160859256327518 -0.050107989406451628 0 0.33060268708456908 -0.040857089185939922 0 0.34251275101192918 -0.04619789211932375 0 0.32752725050965847 -0.02815425865735895 0 0.33060268708456908 -0.040857089185939922 0 0.33586572589147029 -0.035846062913531311 0 0.3409660938062456 -0.029551969808235771 0 0.33586572589147029 -0.035846062913531311 0 0.34183666263882562 -0.043408647178999858 0 0.33060268708456908 -0.040857089185939922 0 0.33586572589147029 -0.035846062913531311 0 0.34183666263882562 -0.043408647178999858 0 0.33060268708456908 -0.040857089185939922 0 0.34183666263882562 -0.043408647178999858 0 0.34251275101192918 -0.04619789211932375 0 0.34183666263882562 -0.043408647178999858 0 0.34251275101192918 -0.04619789211932375 0 0.32160859256327518 -0.050107989406451628 0 0.34251275101192918 -0.04619789211932375 0 0.32708199651976971 -0.068866035418628263 0 0.34251275101192918 -0.04619789211932375 0 0.32708199651976971 -0.068866035418628263 0 0.34251275101192918 -0.04619789211932375 0 0.36131690726066801 -0.059274612355873231 0 0.34938966449221048 -0.074569029522392277 0 0.34251275101192918 -0.04619789211932375 0 0.36444244243183488 -0.0440552156616629 0 0.36131690726066801 -0.059274612355873231 0 0.34251275101192918 -0.04619789211932375 0 0.34938966449221048 -0.074569029522392277 0 0.35478160668705361 -0.028174652963811709 0 0.34183666263882562 -0.043408647178999858 0 0.34251275101192918 -0.04619789211932375 0 0.35478160668705361 -0.028174652963811709 0 0.34251275101192918 -0.04619789211932375 0 0.35478160668705361 -0.028174652963811709 0 0.34251275101192918 -0.04619789211932375 0 0.36444244243183488 -0.0440552156616629 0 0.35478160668705361 -0.028174652963811709 0 0.3409660938062456 -0.029551969808235771 0 0.34183666263882562 -0.043408647178999858 0 0.36945734403846398 -0.029623916631636289 0 0.35478160668705361 -0.028174652963811709 0 0.36444244243183488 -0.0440552156616629 0 0.38045755663769021 -0.043208411306887497 0 0.36945734403846398 -0.029623916631636289 0 0.36444244243183488 -0.0440552156616629 0 0.3766105745449283 -0.053596339823563661 0 0.38045755663769021 -0.043208411306887497 0 0.36444244243183488 -0.0440552156616629 0 0.3766105745449283 -0.053596339823563661 0 0.36444244243183488 -0.0440552156616629 0 0.36131690726066801 -0.059274612355873231 0 0.3766105745449283 -0.053596339823563661 0 0.36131690726066801 -0.059274612355873231 0 0.37050166054777439 -0.063639530699426253 0 0.37847011931385921 -0.070063584383212182 0 0.37050166054777439 -0.063639530699426253 0 0.36500534245641181 -0.075588332862002353 0 0.36131690726066801 -0.059274612355873231 0 0.37050166054777439 -0.063639530699426253 0 0.36500534245641181 -0.075588332862002353 0 0.37847011931385921 -0.070063584383212182 0 0.37565360421553201 -0.086394392472092171 0 0.36500534245641181 -0.075588332862002353 0 0.37565360421553201 -0.086394392472092171 0 0.36500534245641181 -0.075588332862002353 0 0.35626657797249178 -0.10294016692546069 0 0.36500534245641181 -0.075588332862002353 0 0.34938966449221048 -0.074569029522392277 0 0.35626657797249178 -0.10294016692546069 0 0.34938966449221048 -0.074569029522392277 0 0.35626657797249178 -0.10294016692546069 0 0.33623562714616451 -0.092776472448836564 0 0.34938966449221048 -0.074569029522392277 0 0.35626657797249178 -0.10294016692546069 0 0.36131690726066801 -0.059274612355873231 0 0.36500534245641181 -0.075588332862002353 0 0.34938966449221048 -0.074569029522392277 0 0.37728204214865568 -0.1073227606761247 0 0.36082883912689939 -0.1217620611446468 0 0.35626657797249178 -0.10294016692546069 0 0.37565360421553201 -0.086394392472092171 0 0.37728204214865568 -0.1073227606761247 0 0.35626657797249178 -0.10294016692546069 0 0.37565360421553201 -0.086394392472092171 0 0.35626657797249178 -0.10294016692546069 0 0.35626657797249178 -0.10294016692546069 0 0.34312495661441839 -0.1141558273478683 0 0.33623562714616451 -0.092776472448836564 0 0.35626657797249178 -0.10294016692546069 0 0.34312495661441839 -0.1141558273478683 0 0.36082883912689939 -0.1217620611446468 0 0.35626657797249178 -0.10294016692546069 0 0.36082883912689939 -0.1217620611446468 0 0.35626657797249178 -0.10294016692546069 0 0.34312495661441839 -0.1141558273478683 0 0.36082883912689939 -0.1217620611446468 0 0.34312495661441839 -0.1141558273478683 0 0.34638130094824232 -0.13283779787547481 0 0.34312495661441839 -0.1141558273478683 0 0.32794348257509981 -0.1084744740709294 0 0.32998333525634532 -0.1253714877702761 0 0.34312495661441839 -0.1141558273478683 0 0.32998333525634532 -0.1253714877702761 0 0.34638130094824232 -0.13283779787547481 0 0.34312495661441839 -0.1141558273478683 0 0.32998333525634532 -0.1253714877702761 0 0.34312495661441839 -0.1141558273478683 0 0.32794348257509981 -0.1084744740709294 0 0.33623562714616451 -0.092776472448836564 0 0.32794348257509981 -0.1084744740709294 0 0.33623562714616451 -0.092776472448836564 0 0.31165124202760969 -0.091534178717932568 0 0.32794348257509981 -0.1084744740709294 0 0.31621549421697631 -0.1141820818077072 0 0.31165124202760969 -0.091534178717932568 0 0.31621549421697631 -0.1141820818077072 0 0.31527892369037702 -0.13132794646216109 0 0.32998333525634532 -0.1253714877702761 0 0.32794348257509981 -0.1084744740709294 0 0.31621549421697631 -0.1141820818077072 0 0.32998333525634532 -0.1253714877702761 0 0.34251275101192918 -0.04619789211932375 0 0.34938966449221048 -0.074569029522392277 0 0.32708199651976971 -0.068866035418628263 0 0.34938966449221048 -0.074569029522392277 0 0.33623562714616451 -0.092776472448836564 0 0.32708199651976971 -0.068866035418628263 0 0.33623562714616451 -0.092776472448836564 0 0.32708199651976971 -0.068866035418628263 0 0.31165124202760969 -0.091534178717932568 0 0.32708199651976971 -0.068866035418628263 0 0.31165124202760969 -0.091534178717932568 0 0.32708199651976971 -0.068866035418628263 0 0.30137112103148528 -0.069895119382292495 0 0.31165124202760969 -0.091534178717932568 0 0.32160859256327518 -0.050107989406451628 0 0.32708199651976971 -0.068866035418628263 0 0.30137112103148528 -0.069895119382292495 0 0.30137112103148528 -0.069895119382292495 0 0.31165124202760969 -0.091534178717932568 0 0.28310987352980022 -0.090598951921933915 0 0.30137112103148528 -0.069895119382292495 0 0.28310987352980022 -0.090598951921933915 0 0.27080690316157202 -0.068661796115025597 0 0.30137112103148528 -0.069895119382292495 0 0.27080690316157202 -0.068661796115025597 0 0.29396811838688541 -0.049601764713783081 0 0.31621549421697631 -0.1141820818077072 0 0.29622048753544977 -0.114202322017237 0 0.31527892369037702 -0.13132794646216109 0 0.31165124202760969 -0.091534178717932568 0 0.28310987352980022 -0.090598951921933915 0 0.29622048753544977 -0.114202322017237 0 0.31621549421697631 -0.1141820818077072 0 0.31165124202760969 -0.091534178717932568 0 0.29622048753544977 -0.114202322017237 0 0.31165124202760969 -0.091534178717932568 0 0.29622048753544977 -0.114202322017237 0 0.28310987352980022 -0.090598951921933915 0 0.29622048753544977 -0.114202322017237 0 0.26803891018201309 -0.1115324088276283 0 0.29622048753544977 -0.114202322017237 0 0.26803891018201309 -0.1115324088276283 0 0.28078973304328969 -0.13687046531654151 0 0.28310987352980022 -0.090598951921933915 0 0.26803891018201309 -0.1115324088276283 0 0.24764568793625849 -0.087721827516268114 0 0.26803891018201309 -0.1115324088276283 0 0.24764568793625849 -0.087721827516268114 0 0.24678342630617159 -0.1145367174117326 0 0.26803891018201309 -0.1115324088276283 0 0.26105437232912282 -0.13059646526394561 0 0.24678342630617159 -0.1145367174117326 0 0.27080690316157202 -0.068661796115025597 0 0.25296892350641031 -0.054513079160722427 0 0.24764568793625849 -0.087721827516268114 0 0.28310987352980022 -0.090598951921933915 0 0.27080690316157202 -0.068661796115025597 0 0.24764568793625849 -0.087721827516268114 0 0.27080690316157202 -0.068661796115025597 0 0.24764568793625849 -0.087721827516268114 0 0.27080690316157202 -0.068661796115025597 0 0.25296892350641031 -0.054513079160722427 0 0.27319268538364611 -0.039287856491534177 0 0.27080690316157202 -0.068661796115025597 0 0.27319268538364611 -0.039287856491534177 0 0.29396811838688541 -0.049601764713783081 0 0.25296892350641031 -0.054513079160722427 0 0.27319268538364611 -0.039287856491534177 0 0.25197428176290781 -0.026616330140016908 0 0.24732928016819311 0.003842864563858316 0 0.25197428176290781 -0.026616330140016908 0 0.27470925908522409 -0.0136313110371924 0 0.24732928016819311 0.003842864563858316 0 0.27854720245428283 0.0066886364103462149 0 0.27470925908522409 -0.0136313110371924 0 0.27319268538364611 -0.039287856491534177 0 0.25197428176290781 -0.026616330140016908 0 0.27470925908522409 -0.0136313110371924 0 0.27319268538364611 -0.039287856491534177 0 0.27470925908522409 -0.0136313110371924 0 0.29429438085765242 -0.025866015272658319 0 0.27854720245428283 0.0066886364103462149 0 0.27470925908522409 -0.0136313110371924 0 0.29747716901056448 -0.002932566790178141 0 0.27470925908522409 -0.0136313110371924 0 0.29429438085765242 -0.025866015272658319 0 0.29747716901056448 -0.002932566790178141 0 0.31418516747306452 -0.014854236649722409 0 0.29429438085765242 -0.025866015272658319 0 0.29747716901056448 -0.002932566790178141 0 0.3213405256380108 0.01287573289299193 0 0.31418516747306452 -0.014854236649722409 0 0.29747716901056448 -0.002932566790178141 0 0.31418516747306452 -0.014854236649722409 0 0.29429438085765242 -0.025866015272658319 0 0.31223388580653022 -0.034888355953539729 0 0.29429438085765242 -0.025866015272658319 0 0.31223388580653022 -0.034888355953539729 0 0.29396811838688541 -0.049601764713783081 0 0.32160859256327518 -0.050107989406451628 0 0.31223388580653022 -0.034888355953539729 0 0.29396811838688541 -0.049601764713783081 0 0.32160859256327518 -0.050107989406451628 0 0.30137112103148528 -0.069895119382292495 0 0.29396811838688541 -0.049601764713783081 0 0.27080690316157202 -0.068661796115025597 0 0.29396811838688541 -0.049601764713783081 0 0.27319268538364611 -0.039287856491534177 0 0.29429438085765242 -0.025866015272658319 0 0.29396811838688541 -0.049601764713783081 0 0.28181839303987433 -0.20358024617226059 0 0.29812760946858541 -0.20096400495160441 0 0.30009179971313632 -0.21497445273809029 0 0.28181839303987433 -0.20358024617226059 0 0.30009179971313632 -0.21497445273809029 0 0.28798195436289281 -0.22309428378759941 0 0.28181839303987433 -0.20358024617226059 0 0.29055859355895619 -0.19101210867064791 0 0.29812760946858541 -0.20096400495160441 0 0.28181839303987433 -0.20358024617226059 0 0.29055859355895619 -0.19101210867064791 0 0.2790068335279941 -0.1873822474504914 0 0.30326915919262271 -0.18554095882442559 0 0.31897724507280811 -0.18445821287254879 0 0.31381621970539653 -0.20729739837581149 0 0.29812760946858541 -0.20096400495160441 0 0.30326915919262271 -0.18554095882442559 0 0.31381621970539653 -0.20729739837581149 0 0.29055859355895619 -0.19101210867064791 0 0.29812760946858541 -0.20096400495160441 0 0.30326915919262271 -0.18554095882442559 0 0.30865519433798511 -0.23013658387907421 0 0.31381621970539653 -0.20729739837581149 0 0.29812760946858541 -0.20096400495160441 0 0.30009179971313632 -0.21497445273809029 0 0.31381621970539653 -0.20729739837581149 0 0.30009179971313632 -0.21497445273809029 0 0.30865519433798511 -0.23013658387907421 0 0.31381621970539653 -0.20729739837581149 0 0.30865519433798511 -0.23013658387907421 0 0.28798195436289281 -0.22309428378759941 0 0.30865519433798511 -0.23013658387907421 0 0.29809701074916778 -0.23326573369134959 0 0.28798195436289281 -0.22309428378759941 0 0.30009179971313632 -0.21497445273809029 0 0.30865519433798511 -0.23013658387907421 0 0.28798195436289281 -0.22309428378759941 0 0.30865519433798511 -0.23013658387907421 0 0.31350263735423062 -0.2301372525870953 0 0.31446777903251921 -0.22746950327864229 0 0.30865519433798511 -0.23013658387907421 0 0.30674623202070278 -0.23858435178938961 0 0.31297647973393983 -0.2334010086676821 0 0.30865519433798511 -0.23013658387907421 0 0.30674623202070278 -0.23858435178938961 0 0.30865519433798511 -0.23013658387907421 0 0.31297647973393983 -0.2334010086676821 0 0.31350263735423062 -0.2301372525870953 0 0.30865519433798511 -0.23013658387907421 0 0.29809701074916778 -0.23326573369134959 0 0.30674623202070278 -0.23858435178938961 0 0.30555096608421928 -0.24652165195996231 0 0.31220663878437371 -0.24324972987698351 0 0.31411864482200891 -0.25042558310994151 0 0.30555096608421928 -0.24652165195996231 0 0.31220663878437371 -0.24324972987698351 0 0.30674623202070278 -0.23858435178938961 0 0.31220663878437371 -0.24324972987698351 0 0.30674623202070278 -0.23858435178938961 0 0.31623446313343689 -0.23751638341286291 0 0.30674623202070278 -0.23858435178938961 0 0.31623446313343689 -0.23751638341286291 0 0.31297647973393983 -0.2334010086676821 0 0.30555096608421928 -0.24652165195996231 0 0.30674623202070278 -0.23858435178938961 0 0.29610028694506479 -0.24142391760317261 0 0.29809701074916778 -0.23326573369134959 0 0.30674623202070278 -0.23858435178938961 0 0.29610028694506479 -0.24142391760317261 0 0.30555096608421928 -0.24652165195996231 0 0.29610028694506479 -0.24142391760317261 0 0.29946581785159798 -0.25169865608409547 0 0.29610028694506479 -0.24142391760317261 0 0.28582829497852708 -0.2489698592912391 0 0.29946581785159798 -0.25169865608409547 0 0.29809701074916778 -0.23326573369134959 0 0.29610028694506479 -0.24142391760317261 0 0.28944567895533663 -0.23399899495601939 0 0.29610028694506479 -0.24142391760317261 0 0.28524008515362859 -0.24042439619552769 0 0.28944567895533663 -0.23399899495601939 0 0.28524008515362859 -0.24042439619552769 0 0.28944567895533663 -0.23399899495601939 0 0.27669764331821439 -0.23360557061946199 0 0.28524008515362859 -0.24042439619552769 0 0.28582829497852708 -0.2489698592912391 0 0.2765728144471431 -0.2450331020662524 0 0.29610028694506479 -0.24142391760317261 0 0.28524008515362859 -0.24042439619552769 0 0.28582829497852708 -0.2489698592912391 0 0.29809701074916778 -0.23326573369134959 0 0.28944567895533663 -0.23399899495601939 0 0.28798195436289281 -0.22309428378759941 0 0.28944567895533663 -0.23399899495601939 0 0.28798195436289281 -0.22309428378759941 0 0.27669764331821439 -0.23360557061946199 0 0.28798195436289281 -0.22309428378759941 0 0.26730871438780029 -0.2160519836961253 0 0.27669764331821439 -0.23360557061946199 0 0.26411022222340758 -0.23318921974787579 0 0.26730871438780029 -0.2160519836961253 0 0.28798195436289281 -0.22309428378759941 0 0.27669764331821439 -0.23360557061946199 0 0.26730871438780029 -0.2160519836961253 0 0.28582829497852708 -0.2489698592912391 0 0.2765728144471431 -0.2450331020662524 0 0.27304168428005932 -0.25511452468494911 0 0.28524008515362859 -0.24042439619552769 0 0.27669764331821439 -0.23360557061946199 0 0.2765728144471431 -0.2450331020662524 0 0.27669764331821439 -0.23360557061946199 0 0.2765728144471431 -0.2450331020662524 0 0.26515546647560329 -0.2452269789710273 0 0.27669764331821439 -0.23360557061946199 0 0.26515546647560329 -0.2452269789710273 0 0.26411022222340758 -0.23318921974787579 0 0.2765728144471431 -0.2450331020662524 0 0.26515546647560329 -0.2452269789710273 0 0.27304168428005932 -0.25511452468494911 0 0.26515546647560329 -0.2452269789710273 0 0.25475906612319699 -0.24139413636627971 0 0.25592431973638508 -0.25133284336755879 0 0.26515546647560329 -0.2452269789710273 0 0.25475906612319699 -0.24139413636627971 0 0.26411022222340758 -0.23318921974787579 0 0.25475906612319699 -0.24139413636627971 0 0.26411022222340758 -0.23318921974787579 0 0.25140627590533687 -0.2319232051496454 0 0.25475906612319699 -0.24139413636627971 0 0.25140627590533687 -0.2319232051496454 0 0.24580781773274579 -0.23745599548454119 0 0.25475906612319699 -0.24139413636627971 0 0.25592431973638508 -0.25133284336755879 0 0.2470672804731909 -0.24755278856537619 0 0.25781880813153318 -0.2256999301015114 0 0.26730871438780029 -0.2160519836961253 0 0.2484500200095881 -0.2216353118123992 0 0.25781880813153318 -0.2256999301015114 0 0.26411022222340758 -0.23318921974787579 0 0.26730871438780029 -0.2160519836961253 0 0.25781880813153318 -0.2256999301015114 0 0.26411022222340758 -0.23318921974787579 0 0.25140627590533687 -0.2319232051496454 0 0.25781880813153318 -0.2256999301015114 0 0.25140627590533687 -0.2319232051496454 0 0.2484500200095881 -0.2216353118123992 0 0.26730871438780029 -0.2160519836961253 0 0.24663547441270761 -0.20900968360465191 0 0.2484500200095881 -0.2216353118123992 0 0.26730871438780029 -0.2160519836961253 0 0.24663547441270761 -0.20900968360465191 0 0.26730871438780029 -0.2160519836961253 0 0.26185065847554301 -0.2019059339874299 0 0.24663547441270761 -0.20900968360465191 0 0.28181839303987433 -0.20358024617226059 0 0.28798195436289281 -0.22309428378759941 0 0.26730871438780029 -0.2160519836961253 0 0.28181839303987433 -0.20358024617226059 0 0.26730871438780029 -0.2160519836961253 0 0.26185065847554301 -0.2019059339874299 0 0.28181839303987433 -0.20358024617226059 0 0.27051624290150988 -0.19385006099097091 0 0.26185065847554301 -0.2019059339874299 0 0.28181839303987433 -0.20358024617226059 0 0.27051624290150988 -0.19385006099097091 0 0.2790068335279941 -0.1873822474504914 0 0.27051624290150988 -0.19385006099097091 0 0.26214414993373131 -0.19076488167466521 0 0.26849587142956499 -0.18527371061523379 0 0.27051624290150988 -0.19385006099097091 0 0.2790068335279941 -0.1873822474504914 0 0.26849587142956499 -0.18527371061523379 0 0.27051624290150988 -0.19385006099097091 0 0.26214414993373131 -0.19076488167466521 0 0.26185065847554301 -0.2019059339874299 0 0.26214414993373131 -0.19076488167466521 0 0.26185065847554301 -0.2019059339874299 0 0.2524003079384961 -0.1947869229672409 0 0.26185065847554301 -0.2019059339874299 0 0.2524003079384961 -0.1947869229672409 0 0.24663547441270761 -0.20900968360465191 0 0.26214414993373131 -0.19076488167466521 0 0.2524003079384961 -0.1947869229672409 0 0.2581651414642846 -0.18056416232982991 0 0.2524003079384961 -0.1947869229672409 0 0.2581651414642846 -0.18056416232982991 0 0.2524003079384961 -0.1947869229672409 0 0.2581651414642846 -0.18056416232982991 0 0.24992822405896969 -0.18220675191515051 0 0.2581651414642846 -0.18056416232982991 0 0.26535897855112972 -0.15953860861584601 0 0.24992822405896969 -0.18220675191515051 0 0.26214414993373131 -0.19076488167466521 0 0.2581651414642846 -0.18056416232982991 0 0.26849587142956499 -0.18527371061523379 0 0.26535897855112972 -0.15953860861584601 0 0.24992822405896969 -0.18220675191515051 0 0.26535897855112972 -0.15953860861584601 0 0.2362814284028576 -0.16240917716207301 0 0.24992822405896969 -0.18220675191515051 0 0.26535897855112972 -0.15953860861584601 0 0.27354225139772842 -0.17440030752508709 0 0.28501019906549369 -0.15911524352599621 0 0.2581651414642846 -0.18056416232982991 0 0.26535897855112972 -0.15953860861584601 0 0.27354225139772842 -0.17440030752508709 0 0.27354225139772842 -0.17440030752508709 0 0.2790068335279941 -0.1873822474504914 0 0.2891096488403308 -0.17617705072874801 0 0.27354225139772842 -0.17440030752508709 0 0.2790068335279941 -0.1873822474504914 0 0.26849587142956499 -0.18527371061523379 0 0.2581651414642846 -0.18056416232982991 0 0.27354225139772842 -0.17440030752508709 0 0.26849587142956499 -0.18527371061523379 0 0.26535897855112972 -0.15953860861584601 0 0.26105437232912282 -0.13059646526394561 0 0.2410969503534677 -0.13612356642675211 0 0.26535897855112972 -0.15953860861584601 0 0.28078973304328969 -0.13687046531654151 0 0.28501019906549369 -0.15911524352599621 0 0.26535897855112972 -0.15953860861584601 0 0.28078973304328969 -0.13687046531654151 0 0.26535897855112972 -0.15953860861584601 0 0.26105437232912282 -0.13059646526394561 0 0.28078973304328969 -0.13687046531654151 0 0.26803891018201309 -0.1115324088276283 0 0.26105437232912282 -0.13059646526394561 0 0.28078973304328969 -0.13687046531654151 0 0.29622048753544977 -0.114202322017237 0 0.28078973304328969 -0.13687046531654151 0 0.29923889142075921 -0.14280310113739669 0 0.29622048753544977 -0.114202322017237 0 0.28078973304328969 -0.13687046531654151 0 0.28078973304328969 -0.13687046531654151 0 0.29923889142075921 -0.14280310113739669 0 0.28501019906549369 -0.15911524352599621 0 0.29923889142075921 -0.14280310113739669 0 0.28501019906549369 -0.15911524352599621 0 0.30188807863618028 -0.1651946069372357 0 0.29923889142075921 -0.14280310113739669 0 0.31527892369037702 -0.13132794646216109 0 0.31518028865391412 -0.1480396525138146 0 0.29923889142075921 -0.14280310113739669 0 0.30188807863618028 -0.1651946069372357 0 0.31518028865391412 -0.1480396525138146 0 0.29622048753544977 -0.114202322017237 0 0.29923889142075921 -0.14280310113739669 0 0.31527892369037702 -0.13132794646216109 0 0.29055859355895619 -0.19101210867064791 0 0.2891096488403308 -0.17617705072874801 0 0.30326915919262271 -0.18554095882442559 0 0.29055859355895619 -0.19101210867064791 0 0.2790068335279941 -0.1873822474504914 0 0.2891096488403308 -0.17617705072874801 0 0.2891096488403308 -0.17617705072874801 0 0.28501019906549369 -0.15911524352599621 0 0.30188807863618028 -0.1651946069372357 0 0.27354225139772842 -0.17440030752508709 0 0.2891096488403308 -0.17617705072874801 0 0.28501019906549369 -0.15911524352599621 0 0.30188807863618028 -0.1651946069372357 0 0.31092729088212762 -0.17405880468095641 0 0.3241382704402197 -0.16161902736928621 0 0.30188807863618028 -0.1651946069372357 0 0.31092729088212762 -0.17405880468095641 0 0.30326915919262271 -0.18554095882442559 0 0.31092729088212762 -0.17405880468095641 0 0.30326915919262271 -0.18554095882442559 0 0.31897724507280811 -0.18445821287254879 0 0.2891096488403308 -0.17617705072874801 0 0.30188807863618028 -0.1651946069372357 0 0.30326915919262271 -0.18554095882442559 0 0.31897724507280811 -0.18445821287254879 0 0.3241382704402197 -0.16161902736928621 0 0.3330654240927412 -0.176141099733404 0 0.31092729088212762 -0.17405880468095641 0 0.31897724507280811 -0.18445821287254879 0 0.3241382704402197 -0.16161902736928621 0 0.31897724507280811 -0.18445821287254879 0 0.3241382704402197 -0.16161902736928621 0 0.30188807863618028 -0.1651946069372357 0 0.3241382704402197 -0.16161902736928621 0 0.31518028865391412 -0.1480396525138146 0 0.3241382704402197 -0.16161902736928621 0 0.34136892510665179 -0.1672618715491688 0 0.34622734014481887 -0.1551724761479768 0 0.3241382704402197 -0.16161902736928621 0 0.34136892510665179 -0.1672618715491688 0 0.3330654240927412 -0.176141099733404 0 0.31897724507280811 -0.18445821287254879 0 0.3330654240927412 -0.176141099733404 0 0.33719213869681491 -0.19197212577859579 0 0.3330654240927412 -0.176141099733404 0 0.34945130757104742 -0.17787715558332101 0 0.33719213869681491 -0.19197212577859579 0 0.34136892510665179 -0.1672618715491688 0 0.3330654240927412 -0.176141099733404 0 0.34945130757104742 -0.17787715558332101 0 0.31527892369037702 -0.13132794646216109 0 0.31518028865391412 -0.1480396525138146 0 0.32929929580763129 -0.13877984186602371 0 0.31527892369037702 -0.13132794646216109 0 0.32929929580763129 -0.13877984186602371 0 0.32998333525634532 -0.1253714877702761 0 0.3241382704402197 -0.16161902736928621 0 0.31518028865391412 -0.1480396525138146 0 0.32929929580763129 -0.13877984186602371 0 0.3241382704402197 -0.16161902736928621 0 0.32929929580763129 -0.13877984186602371 0 0.3241382704402197 -0.16161902736928621 0 0.34036303370359461 -0.1443757890006945 0 0.34622734014481887 -0.1551724761479768 0 0.3241382704402197 -0.16161902736928621 0 0.34036303370359461 -0.1443757890006945 0 0.32929929580763129 -0.13877984186602371 0 0.32929929580763129 -0.13877984186602371 0 0.32998333525634532 -0.1253714877702761 0 0.34638130094824232 -0.13283779787547481 0 0.34036303370359461 -0.1443757890006945 0 0.32929929580763129 -0.13877984186602371 0 0.34638130094824232 -0.13283779787547481 0 0.36082883912689939 -0.1217620611446468 0 0.34638130094824232 -0.13283779787547481 0 0.36539110028130639 -0.140583955363833 0 0.34638130094824232 -0.13283779787547481 0 0.35187910430627389 -0.14565587677875649 0 0.36539110028130639 -0.140583955363833 0 0.34036303370359461 -0.1443757890006945 0 0.34638130094824232 -0.13283779787547481 0 0.35187910430627389 -0.14565587677875649 0 0.34036303370359461 -0.1443757890006945 0 0.35187910430627389 -0.14565587677875649 0 0.34622734014481887 -0.1551724761479768 0 0.35187910430627389 -0.14565587677875649 0 0.34622734014481887 -0.1551724761479768 0 0.36103274645340733 -0.1553093655058034 0 0.36103274645340733 -0.1553093655058034 0 0.36539110028130639 -0.140583955363833 0 0.38080320633489367 -0.15612251461207169 0 0.35187910430627389 -0.14565587677875649 0 0.36103274645340733 -0.1553093655058034 0 0.36539110028130639 -0.140583955363833 0 0.36082883912689939 -0.1217620611446468 0 0.36539110028130639 -0.140583955363833 0 0.36082883912689939 -0.1217620611446468 0 0.36539110028130639 -0.140583955363833 0 0.38150296378111709 -0.13760518613207651 0 0.34945130757104742 -0.17787715558332101 0 0.36635515889596881 -0.17072312924991731 0 0.36090575486544368 -0.18453318216985731 0 0.34945130757104742 -0.17787715558332101 0 0.36090575486544368 -0.18453318216985731 0 0.35461709219507481 -0.1956623993563737 0 0.34945130757104742 -0.17787715558332101 0 0.35396228328443158 -0.1654995989118562 0 0.36635515889596881 -0.17072312924991731 0 0.34136892510665179 -0.1672618715491688 0 0.34945130757104742 -0.17787715558332101 0 0.35396228328443158 -0.1654995989118562 0 0.34136892510665179 -0.1672618715491688 0 0.34622734014481887 -0.1551724761479768 0 0.35396228328443158 -0.1654995989118562 0 0.34622734014481887 -0.1551724761479768 0 0.36103274645340733 -0.1553093655058034 0 0.35396228328443158 -0.1654995989118562 0 0.36103274645340733 -0.1553093655058034 0 0.36635515889596881 -0.17072312924991731 0 0.38080320633489367 -0.15612251461207169 0 0.36103274645340733 -0.1553093655058034 0 0.35396228328443158 -0.1654995989118562 0 0.36635515889596881 -0.17072312924991731 0 0.36635515889596881 -0.17072312924991731 0 0.37285945820305139 -0.18372742453938021 0 0.38469101671576877 -0.1745021429383955 0 0.36635515889596881 -0.17072312924991731 0 0.36090575486544368 -0.18453318216985731 0 0.37285945820305139 -0.18372742453938021 0 0.36090575486544368 -0.18453318216985731 0 0.37204204569333499 -0.19935267293415029 0 0.35461709219507481 -0.1956623993563737 0 0.37204204569333499 -0.19935267293415029 0 0.35461709219507481 -0.1956623993563737 0 0.37204204569333499 -0.19935267293415029 0 0.34917155573606867 -0.20673986329495861 0 0.36090575486544368 -0.18453318216985731 0 0.37285945820305139 -0.18372742453938021 0 0.37204204569333499 -0.19935267293415029 0 0.37204204569333499 -0.19935267293415029 0 0.36336660934760268 -0.21416079488855411 0 0.37642222244583712 -0.21745036530537021 0 0.37204204569333499 -0.19935267293415029 0 0.36336660934760268 -0.21416079488855411 0 0.34917155573606867 -0.20673986329495861 0 0.36336660934760268 -0.21416079488855411 0 0.34917155573606867 -0.20673986329495861 0 0.35259837485594647 -0.22232486791767991 0 0.34917155573606867 -0.20673986329495861 0 0.34035866194391812 -0.21853460451538659 0 0.35259837485594647 -0.22232486791767991 0 0.34917155573606867 -0.20673986329495861 0 0.35461709219507481 -0.1956623993563737 0 0.33719213869681491 -0.19197212577859579 0 0.37204204569333499 -0.19935267293415029 0 0.34917155573606867 -0.20673986329495861 0 0.35461709219507481 -0.1956623993563737 0 0.35461709219507481 -0.1956623993563737 0 0.33719213869681491 -0.19197212577859579 0 0.34945130757104742 -0.17787715558332101 0 0.35461709219507481 -0.1956623993563737 0 0.33719213869681491 -0.19197212577859579 0 0.33719213869681491 -0.19197212577859579 0 0.33484628915088199 -0.20330824317396379 0 0.32672039639184192 -0.20039392996653291 0 0.34917155573606867 -0.20673986329495861 0 0.33719213869681491 -0.19197212577859579 0 0.33484628915088199 -0.20330824317396379 0 0.34917155573606867 -0.20673986329495861 0 0.32630106577880269 -0.21412705365576801 0 0.34917155573606867 -0.20673986329495861 0 0.33484628915088199 -0.20330824317396379 0 0.32630106577880269 -0.21412705365576801 0 0.34917155573606867 -0.20673986329495861 0 0.34035866194391812 -0.21853460451538659 0 0.32630106577880269 -0.21412705365576801 0 0.34035866194391812 -0.21853460451538659 0 0.32630106577880269 -0.21412705365576801 0 0.33203248004018338 -0.22292645258215149 0 0.33484628915088199 -0.20330824317396379 0 0.32630106577880269 -0.21412705365576801 0 0.32672039639184192 -0.20039392996653291 0 0.32630106577880269 -0.21412705365576801 0 0.31381621970539653 -0.20729739837581149 0 0.32672039639184192 -0.20039392996653291 0 0.32630106577880269 -0.21412705365576801 0 0.31381621970539653 -0.20729739837581149 0 0.31524556784218832 -0.22138767714138269 0 0.31897724507280811 -0.18445821287254879 0 0.31381621970539653 -0.20729739837581149 0 0.31897724507280811 -0.18445821287254879 0 0.33719213869681491 -0.19197212577859579 0 0.32672039639184192 -0.20039392996653291 0 0.31897724507280811 -0.18445821287254879 0 0.31381621970539653 -0.20729739837581149 0 0.32672039639184192 -0.20039392996653291 0 0.32497289346744068 -0.23978603487505529 0 0.31623446313343689 -0.23751638341286291 0 0.32183961720094639 -0.2329737888830947 0 0.32497289346744068 -0.23978603487505529 0 0.32183961720094639 -0.2329737888830947 0 0.32975208169800402 -0.23070155175896201 0 0.32497289346744068 -0.23978603487505529 0 0.32344685639206122 -0.24935119199465139 0 0.33376936407639252 -0.24716083501435521 0 0.32497289346744068 -0.23978603487505529 0 0.32344685639206122 -0.24935119199465139 0 0.31819589931986431 -0.24406578465389889 0 0.32344685639206122 -0.24935119199465139 0 0.31819589931986431 -0.24406578465389889 0 0.31411864482200891 -0.25042558310994151 0 0.31220663878437371 -0.24324972987698351 0 0.31819589931986431 -0.24406578465389889 0 0.31411864482200891 -0.25042558310994151 0 0.31220663878437371 -0.24324972987698351 0 0.31819589931986431 -0.24406578465389889 0 0.31623446313343689 -0.23751638341286291 0 0.32497289346744068 -0.23978603487505529 0 0.31819589931986431 -0.24406578465389889 0 0.31623446313343689 -0.23751638341286291 0 0.30865519433798511 -0.23013658387907421 0 0.31381621970539653 -0.20729739837581149 0 0.31524556784218832 -0.22138767714138269 0 0.31623446313343689 -0.23751638341286291 0 0.31297647973393983 -0.2334010086676821 0 0.31666823233289931 -0.23083302520105631 0 0.31297647973393983 -0.2334010086676821 0 0.31350263735423062 -0.2301372525870953 0 0.31666823233289931 -0.23083302520105631 0 0.31350263735423062 -0.2301372525870953 0 0.31446777903251921 -0.22746950327864229 0 0.31666823233289931 -0.23083302520105631 0 0.31666823233289931 -0.23083302520105631 0 0.3222206529045587 -0.2256673415553157 0 0.32183961720094639 -0.2329737888830947 0 0.31446777903251921 -0.22746950327864229 0 0.31666823233289931 -0.23083302520105631 0 0.3222206529045587 -0.2256673415553157 0 0.31623446313343689 -0.23751638341286291 0 0.31666823233289931 -0.23083302520105631 0 0.32183961720094639 -0.2329737888830947 0 0.30865519433798511 -0.23013658387907421 0 0.31446777903251921 -0.22746950327864229 0 0.31524556784218832 -0.22138767714138269 0 0.31446777903251921 -0.22746950327864229 0 0.31524556784218832 -0.22138767714138269 0 0.3222206529045587 -0.2256673415553157 0 0.32630106577880269 -0.21412705365576801 0 0.3222206529045587 -0.2256673415553157 0 0.33203248004018338 -0.22292645258215149 0 0.32630106577880269 -0.21412705365576801 0 0.31524556784218832 -0.22138767714138269 0 0.3222206529045587 -0.2256673415553157 0 0.3222206529045587 -0.2256673415553157 0 0.32975208169800402 -0.23070155175896201 0 0.33203248004018338 -0.22292645258215149 0 0.3222206529045587 -0.2256673415553157 0 0.32183961720094639 -0.2329737888830947 0 0.32975208169800402 -0.23070155175896201 0 0.32975208169800402 -0.23070155175896201 0 0.33203248004018338 -0.22292645258215149 0 0.34168983330858888 -0.22655478512637531 0 0.32975208169800402 -0.23070155175896201 0 0.34168983330858888 -0.22655478512637531 0 0.33575701326630591 -0.23630090753177951 0 0.34035866194391812 -0.21853460451538659 0 0.33203248004018338 -0.22292645258215149 0 0.34168983330858888 -0.22655478512637531 0 0.33376936407639252 -0.24716083501435521 0 0.35234403448868851 -0.2429808218476445 0 0.33812667790931328 -0.2577075464980233 0 0.34168983330858888 -0.22655478512637531 0 0.33575701326630591 -0.23630090753177951 0 0.35234403448868851 -0.2429808218476445 0 0.33575701326630591 -0.23630090753177951 0 0.33376936407639252 -0.24716083501435521 0 0.35234403448868851 -0.2429808218476445 0 0.32497289346744068 -0.23978603487505529 0 0.33575701326630591 -0.23630090753177951 0 0.33376936407639252 -0.24716083501435521 0 0.32497289346744068 -0.23978603487505529 0 0.32975208169800402 -0.23070155175896201 0 0.33575701326630591 -0.23630090753177951 0 0.34168983330858888 -0.22655478512637531 0 0.35234403448868851 -0.2429808218476445 0 0.35259837485594647 -0.22232486791767991 0 0.35234403448868851 -0.2429808218476445 0 0.35259837485594647 -0.22232486791767991 0 0.36656139106806362 -0.22825409719726569 0 0.34035866194391812 -0.21853460451538659 0 0.34168983330858888 -0.22655478512637531 0 0.35259837485594647 -0.22232486791767991 0 0.36336660934760268 -0.21416079488855411 0 0.35259837485594647 -0.22232486791767991 0 0.36656139106806362 -0.22825409719726569 0 0.36336660934760268 -0.21416079488855411 0 0.36656139106806362 -0.22825409719726569 0 0.37642222244583712 -0.21745036530537021 0 0.36656139106806362 -0.22825409719726569 0 0.38178314733347257 -0.22961440480660539 0 0.37642222244583712 -0.21745036530537021 0 0.35234403448868851 -0.2429808218476445 0 0.36656139106806362 -0.22825409719726569 0 0.36855982724803948 -0.2472246143488819 0 0.35234403448868851 -0.2429808218476445 0 0.36855982724803948 -0.2472246143488819 0 0.36051999124822331 -0.25514121804962792 0 0.36656139106806362 -0.22825409719726569 0 0.36855982724803948 -0.2472246143488819 0 0.37874571489923692 -0.24073607923693541 0 0.35234403448868851 -0.2429808218476445 0 0.36656139106806362 -0.22825409719726569 0 0.37874571489923692 -0.24073607923693541 0 0.38684188435697608 -0.24693704396077881 0 0.38019879772559811 -0.25299849313564698 0 0.36855982724803948 -0.2472246143488819 0 0.37874571489923692 -0.24073607923693541 0 0.38019879772559811 -0.25299849313564698 0 0.37874571489923692 -0.24073607923693541 0 0.3889475527966349 -0.23848156454282779 0 0.38684188435697608 -0.24693704396077881 0 0.37874571489923692 -0.24073607923693541 0 0.3889475527966349 -0.23848156454282779 0 0.38178314733347257 -0.22961440480660539 0 0.3889475527966349 -0.23848156454282779 0 0.38684188435697608 -0.24693704396077881 0 0.39590482638041408 -0.24653408264749641 0 0.38684188435697608 -0.24693704396077881 0 0.39590482638041408 -0.24653408264749641 0 0.39081027944997748 -0.25402376549864369 0 0.3889475527966349 -0.23848156454282779 0 0.39590482638041408 -0.24653408264749641 0 0.39736705830011609 -0.23783028330211009 0 0.3889475527966349 -0.23848156454282779 0 0.39736705830011609 -0.23783028330211009 0 0.39304268550959343 -0.22923749330304111 0 0.39736705830011609 -0.23783028330211009 0 0.40715592914017767 -0.24504535935550109 0 0.40816341478734308 -0.2357474944286849 0 0.39590482638041408 -0.24653408264749641 0 0.40715592914017767 -0.24504535935550109 0 0.40110985377298569 -0.25539920202715849 0 0.39590482638041408 -0.24653408264749641 0 0.39736705830011609 -0.23783028330211009 0 0.40715592914017767 -0.24504535935550109 0 0.40462797758206592 -0.2198419835305489 0 0.40360929021110131 -0.22773815283737939 0 0.3972560272836877 -0.22019214631309419 0 0.39736705830011609 -0.23783028330211009 0 0.40360929021110131 -0.22773815283737939 0 0.40816341478734308 -0.2357474944286849 0 0.39736705830011609 -0.23783028330211009 0 0.40360929021110131 -0.22773815283737939 0 0.39304268550959343 -0.22923749330304111 0 0.40360929021110131 -0.22773815283737939 0 0.39304268550959343 -0.22923749330304111 0 0.3972560272836877 -0.22019214631309419 0 0.39304268550959343 -0.22923749330304111 0 0.3972560272836877 -0.22019214631309419 0 0.38813277007821578 -0.21996065008338681 0 0.39304268550959343 -0.22923749330304111 0 0.38813277007821578 -0.21996065008338681 0 0.38178314733347257 -0.22961440480660539 0 0.3889475527966349 -0.23848156454282779 0 0.39304268550959343 -0.22923749330304111 0 0.38178314733347257 -0.22961440480660539 0 0.36656139106806362 -0.22825409719726569 0 0.37874571489923692 -0.24073607923693541 0 0.38178314733347257 -0.22961440480660539 0 0.38813277007821578 -0.21996065008338681 0 0.38178314733347257 -0.22961440480660539 0 0.37642222244583712 -0.21745036530537021 0 0.37204204569333499 -0.19935267293415029 0 0.37642222244583712 -0.21745036530537021 0 0.38452258667725042 -0.21066349085080699 0 0.37204204569333499 -0.19935267293415029 0 0.38452258667725042 -0.21066349085080699 0 0.39158260966848368 -0.203490992553746 0 0.38452258667725042 -0.21066349085080699 0 0.39443328550038048 -0.21306277337738169 0 0.39158260966848368 -0.203490992553746 0 0.38813277007821578 -0.21996065008338681 0 0.38452258667725042 -0.21066349085080699 0 0.39443328550038048 -0.21306277337738169 0 0.38813277007821578 -0.21996065008338681 0 0.37642222244583712 -0.21745036530537021 0 0.38452258667725042 -0.21066349085080699 0 0.37204204569333499 -0.19935267293415029 0 0.38028235358889051 -0.19042864544000199 0 0.39218389600320158 -0.1928468358167138 0 0.37204204569333499 -0.19935267293415029 0 0.39158260966848368 -0.203490992553746 0 0.37285945820305139 -0.18372742453938021 0 0.37204204569333499 -0.19935267293415029 0 0.38028235358889051 -0.19042864544000199 0 0.37204204569333499 -0.19935267293415029 0 0.39218389600320158 -0.1928468358167138 0 0.37204204569333499 -0.19935267293415029 0 0.39218389600320158 -0.1928468358167138 0 0.39158260966848368 -0.203490992553746 0 0.38028235358889051 -0.19042864544000199 0 0.38750308305514281 -0.1892393027855398 0 0.39218389600320158 -0.1928468358167138 0 0.38028235358889051 -0.19042864544000199 0 0.38750308305514281 -0.1892393027855398 0 0.38105718885294088 -0.184156277087205 0 0.39218389600320158 -0.1928468358167138 0 0.40697179348621032 -0.19475943141393931 0 0.41232574631306862 -0.18634099869927831 0 0.39218389600320158 -0.1928468358167138 0 0.41232574631306862 -0.18634099869927831 0 0.39218389600320158 -0.1928468358167138 0 0.40260495373044192 -0.1998641647658233 0 0.39158260966848368 -0.203490992553746 0 0.39218389600320158 -0.1928468358167138 0 0.40260495373044192 -0.1998641647658233 0 0.40697179348621032 -0.19475943141393931 0 0.39158260966848368 -0.203490992553746 0 0.40155945868601778 -0.21061911754977281 0 0.41112317364363288 -0.20762931217334021 0 0.40260495373044192 -0.1998641647658233 0 0.39158260966848368 -0.203490992553746 0 0.41112317364363288 -0.20762931217334021 0 0.39158260966848368 -0.203490992553746 0 0.41112317364363288 -0.20762931217334021 0 0.3972560272836877 -0.22019214631309419 0 0.38813277007821578 -0.21996065008338681 0 0.39443328550038048 -0.21306277337738169 0 0.3972560272836877 -0.22019214631309419 0 0.39443328550038048 -0.21306277337738169 0 0.40211728491879201 -0.21525857469712101 0 0.39443328550038048 -0.21306277337738169 0 0.39158260966848368 -0.203490992553746 0 0.40155945868601778 -0.21061911754977281 0 0.40155945868601778 -0.21061911754977281 0 0.40211728491879201 -0.21525857469712101 0 0.40932466634940268 -0.21429657591901299 0 0.39443328550038048 -0.21306277337738169 0 0.40155945868601778 -0.21061911754977281 0 0.40211728491879201 -0.21525857469712101 0 0.40462797758206592 -0.2198419835305489 0 0.3972560272836877 -0.22019214631309419 0 0.40211728491879201 -0.21525857469712101 0 0.40462797758206592 -0.2198419835305489 0 0.40211728491879201 -0.21525857469712101 0 0.40932466634940268 -0.21429657591901299 0 0.40932466634940268 -0.21429657591901299 0 0.41849234991595952 -0.21853469006118459 0 0.41083261914734559 -0.22172446788613689 0 0.40462797758206592 -0.2198419835305489 0 0.40932466634940268 -0.21429657591901299 0 0.41083261914734559 -0.22172446788613689 0 0.40932466634940268 -0.21429657591901299 0 0.41112317364363288 -0.20762931217334021 0 0.41849234991595952 -0.21853469006118459 0 0.41112317364363288 -0.20762931217334021 0 0.41849234991595952 -0.21853469006118459 0 0.43334238023272359 -0.2123349173276439 0 0.40155945868601778 -0.21061911754977281 0 0.40932466634940268 -0.21429657591901299 0 0.41112317364363288 -0.20762931217334021 0 0.41112317364363288 -0.20762931217334021 0 0.42344200108394331 -0.19904648817084231 0 0.41602893222419701 -0.19493298906875431 0 0.41232574631306862 -0.18634099869927831 0 0.42879074876125489 -0.18738821873157599 0 0.40697179348621032 -0.19475943141393931 0 0.41602893222419701 -0.19493298906875431 0 0.41232574631306862 -0.18634099869927831 0 0.40260495373044192 -0.1998641647658233 0 0.40697179348621032 -0.19475943141393931 0 0.41047985447015772 -0.20175465388899549 0 0.40260495373044192 -0.1998641647658233 0 0.41112317364363288 -0.20762931217334021 0 0.41047985447015772 -0.20175465388899549 0 0.40697179348621032 -0.19475943141393931 0 0.41047985447015772 -0.20175465388899549 0 0.41602893222419701 -0.19493298906875431 0 0.41047985447015772 -0.20175465388899549 0 0.42344200108394331 -0.19904648817084231 0 0.41112317364363288 -0.20762931217334021 0 0.41047985447015772 -0.20175465388899549 0 0.42344200108394331 -0.19904648817084231 0 0.41047985447015772 -0.20175465388899549 0 0.41602893222419701 -0.19493298906875431 0 0.42344200108394331 -0.19904648817084231 0 0.42344200108394331 -0.19904648817084231 0 0.44158004204792989 -0.18640927784394229 0 0.42344200108394331 -0.19904648817084231 0 0.43334238023272359 -0.2123349173276439 0 0.44896133405596123 -0.19371476459417339 0 0.42344200108394331 -0.19904648817084231 0 0.44896133405596123 -0.19371476459417339 0 0.42344200108394331 -0.19904648817084231 0 0.42879074876125489 -0.18738821873157599 0 0.44158004204792989 -0.18640927784394229 0 0.41602893222419701 -0.19493298906875431 0 0.42344200108394331 -0.19904648817084231 0 0.42879074876125489 -0.18738821873157599 0 0.41112317364363288 -0.20762931217334021 0 0.43334238023272359 -0.2123349173276439 0 0.41112317364363288 -0.20762931217334021 0 0.42344200108394331 -0.19904648817084231 0 0.43334238023272359 -0.2123349173276439 0 0.41849234991595952 -0.21853469006118459 0 0.43334238023272359 -0.2123349173276439 0 0.42870758817444199 -0.22433284501012429 0 0.43334238023272359 -0.2123349173276439 0 0.42870758817444199 -0.22433284501012429 0 0.44018402258438971 -0.22566375257248869 0 0.42870758817444199 -0.22433284501012429 0 0.43141587529713787 -0.23816970528153111 0 0.41724172653380459 -0.228885755494079 0 0.42870758817444199 -0.22433284501012429 0 0.43141587529713787 -0.23816970528153111 0 0.44018402258438971 -0.22566375257248869 0 0.43141587529713787 -0.23816970528153111 0 0.44354745492052228 -0.25043486493206207 0 0.431498742042359 -0.25118145705670702 0 0.43141587529713787 -0.23816970528153111 0 0.41989854151481809 -0.25044497605362598 0 0.431498742042359 -0.25118145705670702 0 0.43141587529713787 -0.23816970528153111 0 0.41677509745465618 -0.23965865812268439 0 0.41989854151481809 -0.25044497605362598 0 0.43141587529713787 -0.23816970528153111 0 0.41677509745465618 -0.23965865812268439 0 0.41724172653380459 -0.228885755494079 0 0.41677509745465618 -0.23965865812268439 0 0.40715592914017767 -0.24504535935550109 0 0.41989854151481809 -0.25044497605362598 0 0.41677509745465618 -0.23965865812268439 0 0.40715592914017767 -0.24504535935550109 0 0.40816341478734308 -0.2357474944286849 0 0.41677509745465618 -0.23965865812268439 0 0.40816341478734308 -0.2357474944286849 0 0.41724172653380459 -0.228885755494079 0 0.40360929021110131 -0.22773815283737939 0 0.40816341478734308 -0.2357474944286849 0 0.41724172653380459 -0.228885755494079 0 0.40462797758206592 -0.2198419835305489 0 0.40360929021110131 -0.22773815283737939 0 0.41083261914734559 -0.22172446788613689 0 0.40360929021110131 -0.22773815283737939 0 0.41083261914734559 -0.22172446788613689 0 0.41724172653380459 -0.228885755494079 0 0.41849234991595952 -0.21853469006118459 0 0.42870758817444199 -0.22433284501012429 0 0.41724172653380459 -0.228885755494079 0 0.41849234991595952 -0.21853469006118459 0 0.41083261914734559 -0.22172446788613689 0 0.41724172653380459 -0.228885755494079 0 0.3928290236412163 -0.1219032059513412 0 0.36082883912689939 -0.1217620611446468 0 0.38150296378111709 -0.13760518613207651 0 0.3928290236412163 -0.1219032059513412 0 0.38150296378111709 -0.13760518613207651 0 0.40845117773285827 -0.14582643499089951 0 0.38150296378111709 -0.13760518613207651 0 0.38080320633489367 -0.15612251461207169 0 0.40845117773285827 -0.14582643499089951 0 0.36539110028130639 -0.140583955363833 0 0.38150296378111709 -0.13760518613207651 0 0.38080320633489367 -0.15612251461207169 0 0.39797713039400062 -0.16753286888821961 0 0.40845117773285827 -0.14582643499089951 0 0.38080320633489367 -0.15612251461207169 0 0.39797713039400062 -0.16753286888821961 0 0.40845117773285827 -0.14582643499089951 0 0.38080320633489367 -0.15612251461207169 0 0.39797713039400062 -0.16753286888821961 0 0.38469101671576877 -0.1745021429383955 0 0.36635515889596881 -0.17072312924991731 0 0.38080320633489367 -0.15612251461207169 0 0.38469101671576877 -0.1745021429383955 0 0.38750308305514281 -0.1892393027855398 0 0.39797713039400062 -0.16753286888821961 0 0.38469101671576877 -0.1745021429383955 0 0.37285945820305139 -0.18372742453938021 0 0.38028235358889051 -0.19042864544000199 0 0.38105718885294088 -0.184156277087205 0 0.37285945820305139 -0.18372742453938021 0 0.38469101671576877 -0.1745021429383955 0 0.38105718885294088 -0.184156277087205 0 0.38750308305514281 -0.1892393027855398 0 0.38469101671576877 -0.1745021429383955 0 0.38105718885294088 -0.184156277087205 0 0.38750308305514281 -0.1892393027855398 0 0.39797713039400062 -0.16753286888821961 0 0.38750308305514281 -0.1892393027855398 0 0.39218389600320158 -0.1928468358167138 0 0.39797713039400062 -0.16753286888821961 0 0.39218389600320158 -0.1928468358167138 0 0.39797713039400062 -0.16753286888821961 0 0.41232574631306862 -0.18634099869927831 0 0.41232574631306862 -0.18634099869927831 0 0.42698016726797727 -0.17468994551470551 0 0.41551787359493447 -0.16216622017602689 0 0.39797713039400062 -0.16753286888821961 0 0.41232574631306862 -0.18634099869927831 0 0.41551787359493447 -0.16216622017602689 0 0.41232574631306862 -0.18634099869927831 0 0.42879074876125489 -0.18738821873157599 0 0.42698016726797727 -0.17468994551470551 0 0.42879074876125489 -0.18738821873157599 0 0.42698016726797727 -0.17468994551470551 0 0.44158004204792989 -0.18640927784394229 0 0.42698016726797727 -0.17468994551470551 0 0.43515041778005481 -0.15666243804212299 0 0.41551787359493447 -0.16216622017602689 0 0.42698016726797727 -0.17468994551470551 0 0.43515041778005481 -0.15666243804212299 0 0.44412046850410858 -0.16846370226735491 0 0.39797713039400062 -0.16753286888821961 0 0.41551787359493447 -0.16216622017602689 0 0.40845117773285827 -0.14582643499089951 0 0.41551787359493447 -0.16216622017602689 0 0.40845117773285827 -0.14582643499089951 0 0.42658901158235318 -0.14119827081575431 0 0.43515041778005481 -0.15666243804212299 0 0.41551787359493447 -0.16216622017602689 0 0.42658901158235318 -0.14119827081575431 0 0.43515041778005481 -0.15666243804212299 0 0.42658901158235318 -0.14119827081575431 0 0.44222814466707022 -0.1394235527327552 0 0.41892522507171598 -0.1241200010935793 0 0.42658901158235318 -0.14119827081575431 0 0.43664862519858522 -0.12523873688129941 0 0.42658901158235318 -0.14119827081575431 0 0.43664862519858522 -0.12523873688129941 0 0.44222814466707022 -0.1394235527327552 0 0.41892522507171598 -0.1241200010935793 0 0.3928290236412163 -0.1219032059513412 0 0.40845117773285827 -0.14582643499089951 0 0.41892522507171598 -0.1241200010935793 0 0.40845117773285827 -0.14582643499089951 0 0.41892522507171598 -0.1241200010935793 0 0.40845117773285827 -0.14582643499089951 0 0.42658901158235318 -0.14119827081575431 0 0.4555790363616935 -0.1232335355056378 0 0.4571736324126644 -0.15078478241896129 0 0.47824680135236919 -0.13873139821209149 0 0.4555790363616935 -0.1232335355056378 0 0.44222814466707022 -0.1394235527327552 0 0.4571736324126644 -0.15078478241896129 0 0.4555790363616935 -0.1232335355056378 0 0.43664862519858522 -0.12523873688129941 0 0.44222814466707022 -0.1394235527327552 0 0.43515041778005481 -0.15666243804212299 0 0.44222814466707022 -0.1394235527327552 0 0.4571736324126644 -0.15078478241896129 0 0.4571736324126644 -0.15078478241896129 0 0.45971808301191652 -0.17377206751704241 0 0.47785612397590299 -0.16113485719014239 0 0.4571736324126644 -0.15078478241896129 0 0.44412046850410858 -0.16846370226735491 0 0.45971808301191652 -0.17377206751704241 0 0.43515041778005481 -0.15666243804212299 0 0.4571736324126644 -0.15078478241896129 0 0.44412046850410858 -0.16846370226735491 0 0.44158004204792989 -0.18640927784394229 0 0.45971808301191652 -0.17377206751704241 0 0.44896133405596123 -0.19371476459417339 0 0.42698016726797727 -0.17468994551470551 0 0.44412046850410858 -0.16846370226735491 0 0.44158004204792989 -0.18640927784394229 0 0.44158004204792989 -0.18640927784394229 0 0.45971808301191652 -0.17377206751704241 0 0.44412046850410858 -0.16846370226735491 0 0.44158004204792989 -0.18640927784394229 0 0.45971808301191652 -0.17377206751704241 0 0.45971808301191652 -0.17377206751704241 0 0.44896133405596123 -0.19371476459417339 0 0.4744806670279792 -0.18838304101750461 0 0.45971808301191652 -0.17377206751704241 0 0.4844622978329905 -0.17497933379740691 0 0.4744806670279792 -0.18838304101750461 0 0.49999999999999722 -0.1830513174408363 0 0.4844622978329905 -0.17497933379740691 0 0.4744806670279792 -0.18838304101750461 0 0.49999999999999722 -0.1830513174408363 0 0.4744806670279792 -0.18838304101750461 0 0.49999999999999722 -0.1830513174408363 0 0.4844622978329905 -0.17497933379740691 0 0.5 -0.15581825801579599 0 0.4844622978329905 -0.17497933379740691 0 0.47785612397590299 -0.16113485719014239 0 0.5 -0.15581825801579599 0 0.45971808301191652 -0.17377206751704241 0 0.47785612397590299 -0.16113485719014239 0 0.45971808301191652 -0.17377206751704241 0 0.4844622978329905 -0.17497933379740691 0 0.47785612397590299 -0.16113485719014239 0 0.4571736324126644 -0.15078478241896129 0 0.47785612397590299 -0.16113485719014239 0 0.47824680135236919 -0.13873139821209149 0 0.5 -0.15581825801579599 0 0.5 -0.12858519859075559 0 0.47824680135236919 -0.13873139821209149 0 0.47785612397590299 -0.16113485719014239 0 0.5 -0.15581825801579599 0 0.47824680135236919 -0.13873139821209149 0 0.47939819449689902 -0.1132275866134279 0 0.5 -0.12858519859075559 0 0.47824680135236919 -0.13873139821209149 0 0.47939819449689902 -0.1132275866134279 0 0.4555790363616935 -0.1232335355056378 0 0.47824680135236919 -0.13873139821209149 0 0.46583791733403079 -0.23086601069352411 0 0.45556158682181452 -0.2170405224819473 0 0.47778079341090518 -0.22174612763625071 0 0.46583791733403079 -0.23086601069352411 0 0.45189268239583052 -0.23644077276119721 0 0.45556158682181452 -0.2170405224819473 0 0.45556158682181452 -0.2170405224819473 0 0.47778079341090518 -0.22174612763625071 0 0.46583791733403079 -0.23086601069352411 0 0.46664526108136822 -0.24335480739565871 0 0.45189268239583052 -0.23644077276119721 0 0.46664526108136822 -0.24335480739565871 0 0.45189268239583052 -0.23644077276119721 0 0.45688645627416041 -0.25297724685689499 0 0.43141587529713787 -0.23816970528153111 0 0.45189268239583052 -0.23644077276119721 0 0.44354745492052228 -0.25043486493206207 0 0.45189268239583052 -0.23644077276119721 0 0.45688645627416041 -0.25297724685689499 0 0.44354745492052228 -0.25043486493206207 0 0.43141587529713787 -0.23816970528153111 0 0.45189268239583052 -0.23644077276119721 0 0.44018402258438971 -0.22566375257248869 0 0.45189268239583052 -0.23644077276119721 0 0.44018402258438971 -0.22566375257248869 0 0.45556158682181452 -0.2170405224819473 0 0.43334238023272359 -0.2123349173276439 0 0.44896133405596123 -0.19371476459417339 0 0.45556158682181452 -0.2170405224819473 0 0.43334238023272359 -0.2123349173276439 0 0.45556158682181452 -0.2170405224819473 0 0.43334238023272359 -0.2123349173276439 0 0.44018402258438971 -0.22566375257248869 0 0.45556158682181452 -0.2170405224819473 0 0.42344200108394331 -0.19904648817084231 0 0.44158004204792989 -0.18640927784394229 0 0.44896133405596123 -0.19371476459417339 0 0.44896133405596123 -0.19371476459417339 0 0.4744806670279792 -0.18838304101750461 0 0.44896133405596123 -0.19371476459417339 0 0.46779156036486169 -0.2050702648655271 0 0.4744806670279792 -0.18838304101750461 0 0.46779156036486169 -0.2050702648655271 0 0.45556158682181452 -0.2170405224819473 0 0.47778079341090518 -0.22174612763625071 0 0.44896133405596123 -0.19371476459417339 0 0.46779156036486169 -0.2050702648655271 0 0.45556158682181452 -0.2170405224819473 0 0.46779156036486169 -0.2050702648655271 0 0.4821734205076485 -0.2044668685977592 0 0.47778079341090518 -0.22174612763625071 0 0.46779156036486169 -0.2050702648655271 0 0.4821734205076485 -0.2044668685977592 0 0.4744806670279792 -0.18838304101750461 0 0.49999999999999722 -0.1830513174408363 0 0.4821734205076485 -0.2044668685977592 0 0.5 -0.20475152511569489 0 0.49999999999999722 -0.1830513174408363 0 0.4821734205076485 -0.2044668685977592 0 0.4744806670279792 -0.18838304101750461 0 0.4821734205076485 -0.2044668685977592 0 0.49999999999999623 -0.22645173279055339 0 0.47778079341090518 -0.22174612763625071 0 0.4821734205076485 -0.2044668685977592 0 0.5 -0.20475152511569489 0 0.49999999999999623 -0.22645173279055339 0 0.49999999999999623 -0.22645173279055339 0 0.47778079341090518 -0.22174612763625071 0 0.49999999999999623 -0.22645173279055339 0 0.47778079341090518 -0.22174612763625071 0 0.4802777541082241 -0.24292178524012889 0 0.46583791733403079 -0.23086601069352411 0 0.47778079341090518 -0.22174612763625071 0 0.4802777541082241 -0.24292178524012889 0 0.46664526108136822 -0.24335480739565871 0 0.4802777541082241 -0.24292178524012889 0 0.46969010220469137 -0.25776309020007288 0 0.46583791733403079 -0.23086601069352411 0 0.46664526108136822 -0.24335480739565871 0 0.4802777541082241 -0.24292178524012889 0 0.49999999999999623 -0.22645173279055339 0 0.4802777541082241 -0.24292178524012889 0 0.5 -0.25540421684027947 0 0.4802777541082241 -0.24292178524012889 0 0.5 -0.25540421684027947 0 0.48216688459407858 -0.26528978629930122 0 0.5 -0.25540421684027947 0 0.48673231040062598 -0.27815622135182622 0 0.5 -0.28435670089000559 0 0.5 -0.25540421684027947 0 0.48673231040062598 -0.27815622135182622 0 0.48216688459407858 -0.26528978629930122 0 0.47195381014074661 -0.27409168004568579 0 0.48216688459407858 -0.26528978629930122 0 0.46969010220469137 -0.25776309020007288 0 0.48673231040062598 -0.27815622135182622 0 0.47195381014074661 -0.27409168004568579 0 0.47467381732567587 -0.28783587637164831 0 0.48673231040062598 -0.27815622135182622 0 0.47195381014074661 -0.27409168004568579 0 0.48216688459407858 -0.26528978629930122 0 0.4802777541082241 -0.24292178524012889 0 0.48216688459407858 -0.26528978629930122 0 0.46969010220469137 -0.25776309020007288 0 0.46664526108136822 -0.24335480739565871 0 0.46969010220469137 -0.25776309020007288 0 0.45688645627416041 -0.25297724685689499 0 0.45688645627416041 -0.25297724685689499 0 0.4602104470295702 -0.26794323536276832 0 0.44761135191333468 -0.26314537110606551 0 0.46969010220469137 -0.25776309020007288 0 0.45688645627416041 -0.25297724685689499 0 0.4602104470295702 -0.26794323536276832 0 0.47195381014074661 -0.27409168004568579 0 0.46969010220469137 -0.25776309020007288 0 0.4602104470295702 -0.26794323536276832 0 0.47195381014074661 -0.27409168004568579 0 0.4602104470295702 -0.26794323536276832 0 0.46028778376626378 -0.28329871712191568 0 0.4602104470295702 -0.26794323536276832 0 0.44964973056764301 -0.27535580659816877 0 0.46028778376626378 -0.28329871712191568 0 0.44964973056764301 -0.27535580659816877 0 0.43881371328043822 -0.27137514204288382 0 0.44761135191333468 -0.26314537110606551 0 0.4602104470295702 -0.26794323536276832 0 0.44964973056764301 -0.27535580659816877 0 0.44761135191333468 -0.26314537110606551 0 0.44964973056764301 -0.27535580659816877 0 0.43881371328043822 -0.27137514204288382 0 0.44003092115652498 -0.28194945228523899 0 0.43881371328043822 -0.27137514204288382 0 0.44761135191333468 -0.26314537110606551 0 0.43579881004824528 -0.26109926953976331 0 0.44354745492052228 -0.25043486493206207 0 0.44761135191333468 -0.26314537110606551 0 0.43579881004824528 -0.26109926953976331 0 0.45688645627416041 -0.25297724685689499 0 0.44354745492052228 -0.25043486493206207 0 0.44761135191333468 -0.26314537110606551 0 0.45235739961315002 -0.30320126245685369 0 0.44309180448674512 -0.29645385389928658 0 0.45413785974560178 -0.29395904580142762 0 0.45235739961315002 -0.30320126245685369 0 0.43906584572495788 -0.30831186215702178 0 0.45057694487732503 -0.31642074412372179 0 0.43906584572495788 -0.30831186215702178 0 0.44309180448674512 -0.29645385389928658 0 0.43618378883533437 -0.30062321343637732 0 0.45235739961315002 -0.30320126245685369 0 0.43906584572495788 -0.30831186215702178 0 0.44309180448674512 -0.29645385389928658 0 0.44309180448674512 -0.29645385389928658 0 0.43538626991748403 -0.29056857493672628 0 0.43618378883533437 -0.30062321343637732 0 0.44184590370491228 -0.28907975538500352 0 0.44309180448674512 -0.29645385389928658 0 0.44887461925889521 -0.2873471404187623 0 0.44184590370491228 -0.28907975538500352 0 0.44309180448674512 -0.29645385389928658 0 0.43538626991748403 -0.29056857493672628 0 0.44184590370491228 -0.28907975538500352 0 0.44003092115652498 -0.28194945228523899 0 0.44887461925889521 -0.2873471404187623 0 0.44184590370491228 -0.28907975538500352 0 0.44003092115652498 -0.28194945228523899 0 0.43538626991748403 -0.29056857493672628 0 0.44964973056764301 -0.27535580659816877 0 0.44887461925889521 -0.2873471404187623 0 0.46028778376626378 -0.28329871712191568 0 0.44964973056764301 -0.27535580659816877 0 0.44003092115652498 -0.28194945228523899 0 0.44887461925889521 -0.2873471404187623 0 0.44309180448674512 -0.29645385389928658 0 0.44887461925889521 -0.2873471404187623 0 0.45413785974560178 -0.29395904580142762 0 0.45413785974560178 -0.29395904580142762 0 0.46028778376626378 -0.28329871712191568 0 0.46279035426850779 -0.29457077142447091 0 0.44887461925889521 -0.2873471404187623 0 0.45413785974560178 -0.29395904580142762 0 0.46028778376626378 -0.28329871712191568 0 0.46028778376626378 -0.28329871712191568 0 0.46279035426850779 -0.29457077142447091 0 0.47467381732567587 -0.28783587637164831 0 0.46279035426850779 -0.29457077142447091 0 0.46376355902165789 -0.3090535249762601 0 0.47081461019733162 -0.30067262513609322 0 0.45235739961315002 -0.30320126245685369 0 0.46279035426850779 -0.29457077142447091 0 0.46376355902165789 -0.3090535249762601 0 0.45235739961315002 -0.30320126245685369 0 0.45413785974560178 -0.29395904580142762 0 0.46279035426850779 -0.29457077142447091 0 0.45235739961315002 -0.30320126245685369 0 0.46376355902165789 -0.3090535249762601 0 0.45057694487732503 -0.31642074412372179 0 0.46376355902165789 -0.3090535249762601 0 0.47595042929002268 -0.31032136801667792 0 0.47081461019733162 -0.30067262513609322 0 0.47595042929002268 -0.31032136801667792 0 0.47081461019733162 -0.30067262513609322 0 0.48056438749154168 -0.29954588967535578 0 0.47595042929002268 -0.31032136801667792 0 0.48056438749154168 -0.29954588967535578 0 0.49114843237852529 -0.30547640666971082 0 0.48056438749154168 -0.29954588967535578 0 0.47467381732567587 -0.28783587637164831 0 0.49099912668505907 -0.29299906901263811 0 0.48673231040062598 -0.27815622135182622 0 0.47467381732567587 -0.28783587637164831 0 0.49099912668505907 -0.29299906901263811 0 0.47195381014074661 -0.27409168004568579 0 0.46028778376626378 -0.28329871712191568 0 0.47467381732567587 -0.28783587637164831 0 0.46279035426850779 -0.29457077142447091 0 0.47081461019733162 -0.30067262513609322 0 0.47467381732567587 -0.28783587637164831 0 0.47081461019733162 -0.30067262513609322 0 0.48056438749154168 -0.29954588967535578 0 0.47467381732567587 -0.28783587637164831 0 0.48673231040062598 -0.27815622135182622 0 0.49099912668505907 -0.29299906901263811 0 0.5 -0.28435670089000559 0 0.49099912668505907 -0.29299906901263811 0 0.49114843237852529 -0.30547640666971082 0 0.5 -0.31330918493973181 0 0.49099912668505907 -0.29299906901263811 0 0.5 -0.28435670089000559 0 0.5 -0.31330918493973181 0 0.48056438749154168 -0.29954588967535578 0 0.49099912668505907 -0.29299906901263811 0 0.49114843237852529 -0.30547640666971082 0 0.49114843237852529 -0.30547640666971082 0 0.5 -0.31330918493973181 0 0.49218036102053653 -0.33539844102312888 0 0.49114843237852529 -0.30547640666971082 0 0.49218036102053653 -0.33539844102312888 0 0.48207886003055228 -0.32563896602487319 0 0.49114843237852529 -0.30547640666971082 0 0.49218036102053653 -0.33539844102312888 0 0.5 -0.31330918493973181 0 0.5 -0.3422616689894582 0 0.49218036102053653 -0.33539844102312888 0 0.49218036102053653 -0.33539844102312888 0 0.47979049624432668 -0.33909572936033378 0 0.484380552591892 -0.35064624632324748 0 0.49218036102053653 -0.33539844102312888 0 0.47979049624432668 -0.33909572936033378 0 0.48207886003055228 -0.32563896602487319 0 0.47979049624432668 -0.33909572936033378 0 0.48207886003055228 -0.32563896602487319 0 0.46052221133432591 -0.34469926407008572 0 0.48207886003055228 -0.32563896602487319 0 0.46052221133432591 -0.34469926407008572 0 0.46792098345021021 -0.32334230240083461 0 0.48207886003055228 -0.32563896602487319 0 0.46052221133432591 -0.34469926407008572 0 0.47595042929002268 -0.31032136801667792 0 0.49114843237852529 -0.30547640666971082 0 0.48207886003055228 -0.32563896602487319 0 0.46376355902165789 -0.3090535249762601 0 0.47595042929002268 -0.31032136801667792 0 0.46792098345021021 -0.32334230240083461 0 0.47595042929002268 -0.31032136801667792 0 0.48207886003055228 -0.32563896602487319 0 0.46792098345021021 -0.32334230240083461 0 0.5 -0.3422616689894582 0 0.5 -0.37121415303918459 0 0.49321228966254771 -0.36532047537654688 0 0.49321228966254771 -0.36532047537654688 0 0.48237875694998872 -0.36911462313912718 0 0.48488865916761681 -0.38031404922719247 0 0.49321228966254771 -0.36532047537654688 0 0.484380552591892 -0.35064624632324748 0 0.48331890561252172 -0.36222653456870318 0 0.49321228966254771 -0.36532047537654688 0 0.48331890561252172 -0.36222653456870318 0 0.48237875694998872 -0.36911462313912718 0 0.49218036102053653 -0.33539844102312888 0 0.49321228966254771 -0.36532047537654688 0 0.484380552591892 -0.35064624632324748 0 0.5 -0.3422616689894582 0 0.49218036102053653 -0.33539844102312888 0 0.49321228966254771 -0.36532047537654688 0 0.49218036102053653 -0.33539844102312888 0 0.49321228966254771 -0.36532047537654688 0 0.47979049624432668 -0.33909572936033378 0 0.484380552591892 -0.35064624632324748 0 0.46052221133432591 -0.34469926407008572 0 0.484380552591892 -0.35064624632324748 0 0.47330402324565862 -0.36382479343589141 0 0.46052221133432591 -0.34469926407008572 0 0.484380552591892 -0.35064624632324748 0 0.48331890561252172 -0.36222653456870318 0 0.47330402324565862 -0.36382479343589141 0 0.48331890561252172 -0.36222653456870318 0 0.47330402324565862 -0.36382479343589141 0 0.48237875694998872 -0.36911462313912718 0 0.47330402324565862 -0.36382479343589141 0 0.47665882205089682 -0.37567270161360278 0 0.46682657693639867 -0.37912995032484431 0 0.47330402324565862 -0.36382479343589141 0 0.48237875694998872 -0.36911462313912718 0 0.47665882205089682 -0.37567270161360278 0 0.47330402324565862 -0.36382479343589141 0 0.45760844779790127 -0.36655905718727527 0 0.46682657693639867 -0.37912995032484431 0 0.47330402324565862 -0.36382479343589141 0 0.45760844779790127 -0.36655905718727527 0 0.46052221133432591 -0.34469926407008572 0 0.46052221133432591 -0.34469926407008572 0 0.43896556263809938 -0.36375956211529831 0 0.43689367439901089 -0.34194908451545702 0 0.45760844779790127 -0.36655905718727527 0 0.46052221133432591 -0.34469926407008572 0 0.43896556263809938 -0.36375956211529831 0 0.46052221133432591 -0.34469926407008572 0 0.43896556263809938 -0.36375956211529831 0 0.45760844779790127 -0.36655905718727527 0 0.43896556263809938 -0.36375956211529831 0 0.45313139828126597 -0.3832686093961245 0 0.46376355902165789 -0.3090535249762601 0 0.45728985757449159 -0.32699838891627581 0 0.46792098345021021 -0.32334230240083461 0 0.46376355902165789 -0.3090535249762601 0 0.45728985757449159 -0.32699838891627581 0 0.45057694487732503 -0.31642074412372179 0 0.46052221133432591 -0.34469926407008572 0 0.45728985757449159 -0.32699838891627581 0 0.44498313262100042 -0.32934237849737952 0 0.46052221133432591 -0.34469926407008572 0 0.45728985757449159 -0.32699838891627581 0 0.46792098345021021 -0.32334230240083461 0 0.46052221133432591 -0.34469926407008572 0 0.44498313262100042 -0.32934237849737952 0 0.43689367439901089 -0.34194908451545702 0 0.44498313262100042 -0.32934237849737952 0 0.43322090249709871 -0.32719270849189408 0 0.43689367439901089 -0.34194908451545702 0 0.44498313262100042 -0.32934237849737952 0 0.44026581484010141 -0.31899758192640659 0 0.43322090249709871 -0.32719270849189408 0 0.44498313262100042 -0.32934237849737952 0 0.45057694487732503 -0.31642074412372179 0 0.44026581484010141 -0.31899758192640659 0 0.45728985757449159 -0.32699838891627581 0 0.44498313262100042 -0.32934237849737952 0 0.45057694487732503 -0.31642074412372179 0 0.43906584572495788 -0.30831186215702178 0 0.45057694487732503 -0.31642074412372179 0 0.44026581484010141 -0.31899758192640659 0 0.43906584572495788 -0.30831186215702178 0 0.44026581484010141 -0.31899758192640659 0 0.43150763516027119 -0.31685196830734891 0 0.43150763516027119 -0.31685196830734891 0 0.42191342252982178 -0.31511855363816388 0 0.42364444043020588 -0.32465653627439939 0 0.43150763516027119 -0.31685196830734891 0 0.42191342252982178 -0.31511855363816388 0 0.42874742992446602 -0.30720864882749471 0 0.43150763516027119 -0.31685196830734891 0 0.42364444043020588 -0.32465653627439939 0 0.43322090249709871 -0.32719270849189408 0 0.44026581484010141 -0.31899758192640659 0 0.43150763516027119 -0.31685196830734891 0 0.43322090249709871 -0.32719270849189408 0 0.43689367439901089 -0.34194908451545702 0 0.42104341087207531 -0.33292457740304021 0 0.42168593895704448 -0.3532770958561261 0 0.43322090249709871 -0.32719270849189408 0 0.43689367439901089 -0.34194908451545702 0 0.42104341087207531 -0.33292457740304021 0 0.42364444043020588 -0.32465653627439939 0 0.43322090249709871 -0.32719270849189408 0 0.42104341087207531 -0.33292457740304021 0 0.42364444043020588 -0.32465653627439939 0 0.42104341087207531 -0.33292457740304021 0 0.40123108104852162 -0.34284222962623562 0 0.42104341087207531 -0.33292457740304021 0 0.40432474971057297 -0.35309314060234193 0 0.40123108104852162 -0.34284222962623562 0 0.42364444043020588 -0.32465653627439939 0 0.40123108104852162 -0.34284222962623562 0 0.42364444043020588 -0.32465653627439939 0 0.40359948329646489 -0.33138563414632238 0 0.40123108104852162 -0.34284222962623562 0 0.42104341087207531 -0.33292457740304021 0 0.40432474971057297 -0.35309314060234193 0 0.42364444043020588 -0.32465653627439939 0 0.40777947856711011 -0.32415525644373477 0 0.40359948329646489 -0.33138563414632238 0 0.42364444043020588 -0.32465653627439939 0 0.40777947856711011 -0.32415525644373477 0 0.4142220422262346 -0.31860235159717759 0 0.40777947856711011 -0.32415525644373477 0 0.4142220422262346 -0.31860235159717759 0 0.40439233441715272 -0.31673670384363378 0 0.4142220422262346 -0.31860235159717759 0 0.40439233441715272 -0.31673670384363378 0 0.41312077430625538 -0.3116518339434956 0 0.42191342252982178 -0.31511855363816388 0 0.42364444043020588 -0.32465653627439939 0 0.4142220422262346 -0.31860235159717759 0 0.42191342252982178 -0.31511855363816388 0 0.4142220422262346 -0.31860235159717759 0 0.41312077430625538 -0.3116518339434956 0 0.43896556263809938 -0.36375956211529831 0 0.41740891394187302 -0.38281986016051073 0 0.43896556263809938 -0.36375956211529831 0 0.41880211676739648 -0.36641324896243371 0 0.41740891394187302 -0.38281986016051073 0 0.43896556263809938 -0.36375956211529831 0 0.42168593895704448 -0.3532770958561261 0 0.41880211676739648 -0.36641324896243371 0 0.43896556263809938 -0.36375956211529831 0 0.43689367439901089 -0.34194908451545702 0 0.42168593895704448 -0.3532770958561261 0 0.42104341087207531 -0.33292457740304021 0 0.42168593895704448 -0.3532770958561261 0 0.40432474971057297 -0.35309314060234193 0 0.42168593895704448 -0.3532770958561261 0 0.41155276215260278 -0.36134054936554422 0 0.40432474971057297 -0.35309314060234193 0 0.41155276215260278 -0.36134054936554422 0 0.40489927411455989 -0.3705831105933729 0 0.40432474971057297 -0.35309314060234193 0 0.41880211676739648 -0.36641324896243371 0 0.40489927411455989 -0.3705831105933729 0 0.41740891394187302 -0.38281986016051073 0 0.42168593895704448 -0.3532770958561261 0 0.41880211676739648 -0.36641324896243371 0 0.41155276215260278 -0.36134054936554422 0 0.41880211676739648 -0.36641324896243371 0 0.41155276215260278 -0.36134054936554422 0 0.40489927411455989 -0.3705831105933729 0 0.40432474971057297 -0.35309314060234193 0 0.38760608854906792 -0.37326170380164131 0 0.40489927411455989 -0.3705831105933729 0 0.38760608854906792 -0.37326170380164131 0 0.39940646750234932 -0.37915368025546953 0 0.40489927411455989 -0.3705831105933729 0 0.40432474971057297 -0.35309314060234193 0 0.38760608854906792 -0.37326170380164131 0 0.40432474971057297 -0.35309314060234193 0 0.37881772166683753 -0.3610279229780719 0 0.40123108104852162 -0.34284222962623562 0 0.37881772166683753 -0.3610279229780719 0 0.3862469452081449 -0.34330308136890919 0 0.37654488163576172 -0.34099457127218158 0 0.37881772166683753 -0.3610279229780719 0 0.40123108104852162 -0.34284222962623562 0 0.37881772166683753 -0.3610279229780719 0 0.40123108104852162 -0.34284222962623562 0 0.3862469452081449 -0.34330308136890919 0 0.40432474971057297 -0.35309314060234193 0 0.37881772166683753 -0.3610279229780719 0 0.38760608854906792 -0.37326170380164131 0 0.37881772166683753 -0.3610279229780719 0 0.38760608854906792 -0.37326170380164131 0 0.37881772166683753 -0.3610279229780719 0 0.3782268157896953 -0.37202312342517568 0 0.38760608854906792 -0.37326170380164131 0 0.3955541328590228 -0.32458212204319209 0 0.40439233441715272 -0.31673670384363378 0 0.39511102770876599 -0.31239466818569878 0 0.3955541328590228 -0.32458212204319209 0 0.38396635447443861 -0.31820584722374362 0 0.39511102770876599 -0.31239466818569878 0 0.40777947856711011 -0.32415525644373477 0 0.3955541328590228 -0.32458212204319209 0 0.40359948329646489 -0.33138563414632238 0 0.40777947856711011 -0.32415525644373477 0 0.3955541328590228 -0.32458212204319209 0 0.40439233441715272 -0.31673670384363378 0 0.40359948329646489 -0.33138563414632238 0 0.40123108104852162 -0.34284222962623562 0 0.39333371804947681 -0.33537558249945931 0 0.40123108104852162 -0.34284222962623562 0 0.39333371804947681 -0.33537558249945931 0 0.3862469452081449 -0.34330308136890919 0 0.3955541328590228 -0.32458212204319209 0 0.40359948329646489 -0.33138563414632238 0 0.39333371804947681 -0.33537558249945931 0 0.3955541328590228 -0.32458212204319209 0 0.39333371804947681 -0.33537558249945931 0 0.38272714223296611 -0.33113896238911927 0 0.39333371804947681 -0.33537558249945931 0 0.3862469452081449 -0.34330308136890919 0 0.38272714223296611 -0.33113896238911927 0 0.3862469452081449 -0.34330308136890919 0 0.37654488163576172 -0.34099457127218158 0 0.38272714223296611 -0.33113896238911927 0 0.37654488163576172 -0.34099457127218158 0 0.38272714223296611 -0.33113896238911927 0 0.36944291519131789 -0.33217738901249683 0 0.38272714223296611 -0.33113896238911927 0 0.38396635447443861 -0.31820584722374362 0 0.36945891216851728 -0.3211985425022521 0 0.3955541328590228 -0.32458212204319209 0 0.38272714223296611 -0.33113896238911927 0 0.38396635447443861 -0.31820584722374362 0 0.38396635447443861 -0.31820584722374362 0 0.38612221011722941 -0.30820349907795158 0 0.39511102770876599 -0.31239466818569878 0 0.38396635447443861 -0.31820584722374362 0 0.37283960130938609 -0.30861878246382202 0 0.36945891216851728 -0.3211985425022521 0 0.38231784118719969 -0.29924326340380047 0 0.38612221011722941 -0.30820349907795158 0 0.37283960130938609 -0.30861878246382202 0 0.38396635447443861 -0.31820584722374362 0 0.38612221011722941 -0.30820349907795158 0 0.37283960130938609 -0.30861878246382202 0 0.38231784118719969 -0.29924326340380047 0 0.3715544674884147 -0.29598840456977737 0 0.37283960130938609 -0.30861878246382202 0 0.38231784118719969 -0.29924326340380047 0 0.38612221011722941 -0.30820349907795158 0 0.39583753967655971 -0.29908326698496762 0 0.38612221011722941 -0.30820349907795158 0 0.39511102770876599 -0.31239466818569878 0 0.39583753967655971 -0.29908326698496762 0 0.39511102770876599 -0.31239466818569878 0 0.39583753967655971 -0.29908326698496762 0 0.40422618625145912 -0.30687017635652819 0 0.39583753967655971 -0.29908326698496762 0 0.40422618625145912 -0.30687017635652819 0 0.40713139500478451 -0.29787183679007428 0 0.40439233441715272 -0.31673670384363378 0 0.39511102770876599 -0.31239466818569878 0 0.40422618625145912 -0.30687017635652819 0 0.40565595440584462 -0.28153919464437271 0 0.40613898325500891 -0.28931958251810702 0 0.39751403369751731 -0.2876436074963491 0 0.40565595440584462 -0.28153919464437271 0 0.39751403369751731 -0.2876436074963491 0 0.39923048034746961 -0.27871657095995112 0 0.40613898325500891 -0.28931958251810702 0 0.40165548790846761 -0.29347957344737452 0 0.40713139500478451 -0.29787183679007428 0 0.40613898325500891 -0.28931958251810702 0 0.40165548790846761 -0.29347957344737452 0 0.39751403369751731 -0.2876436074963491 0 0.39583753967655971 -0.29908326698496762 0 0.40165548790846761 -0.29347957344737452 0 0.40713139500478451 -0.29787183679007428 0 0.39583753967655971 -0.29908326698496762 0 0.40165548790846761 -0.29347957344737452 0 0.39751403369751731 -0.2876436074963491 0 0.39583753967655971 -0.29908326698496762 0 0.39751403369751731 -0.2876436074963491 0 0.38799305595945732 -0.28975097398141342 0 0.39751403369751731 -0.2876436074963491 0 0.39166962649342962 -0.27995866171605832 0 0.39923048034746961 -0.27871657095995112 0 0.39751403369751731 -0.2876436074963491 0 0.38799305595945732 -0.28975097398141342 0 0.39166962649342962 -0.27995866171605832 0 0.38799305595945732 -0.28975097398141342 0 0.3819292084290361 -0.28116017763865181 0 0.39166962649342962 -0.27995866171605832 0 0.38799305595945732 -0.28975097398141342 0 0.37899937892576191 -0.29068825591381098 0 0.3819292084290361 -0.28116017763865181 0 0.38231784118719969 -0.29924326340380047 0 0.39583753967655971 -0.29908326698496762 0 0.38799305595945732 -0.28975097398141342 0 0.38231784118719969 -0.29924326340380047 0 0.38799305595945732 -0.28975097398141342 0 0.37899937892576191 -0.29068825591381098 0 0.38231784118719969 -0.29924326340380047 0 0.37899937892576191 -0.29068825591381098 0 0.3715544674884147 -0.29598840456977737 0 0.37899937892576191 -0.29068825591381098 0 0.3819292084290361 -0.28116017763865181 0 0.37219996021314811 -0.2847380110165515 0 0.3819292084290361 -0.28116017763865181 0 0.37502938507144801 -0.27164044876046539 0 0.37219996021314811 -0.2847380110165515 0 0.3819292084290361 -0.28116017763865181 0 0.37502938507144801 -0.27164044876046539 0 0.38606823343975932 -0.27127304504658822 0 0.37502938507144801 -0.27164044876046539 0 0.38606823343975932 -0.27127304504658822 0 0.38423980114442802 -0.26158528711118267 0 0.3819292084290361 -0.28116017763865181 0 0.38606823343975932 -0.27127304504658822 0 0.39166962649342962 -0.27995866171605832 0 0.38019879772559811 -0.25299849313564698 0 0.38423980114442802 -0.26158528711118267 0 0.37210088781197342 -0.25921768618074748 0 0.37502938507144801 -0.27164044876046539 0 0.38423980114442802 -0.26158528711118267 0 0.37210088781197342 -0.25921768618074748 0 0.38423980114442802 -0.26158528711118267 0 0.39081027944997748 -0.25402376549864369 0 0.39339325606209907 -0.26180664379103907 0 0.38606823343975932 -0.27127304504658822 0 0.38423980114442802 -0.26158528711118267 0 0.39339325606209907 -0.26180664379103907 0 0.38684188435697608 -0.24693704396077881 0 0.38019879772559811 -0.25299849313564698 0 0.39081027944997748 -0.25402376549864369 0 0.38019879772559811 -0.25299849313564698 0 0.38423980114442802 -0.26158528711118267 0 0.39081027944997748 -0.25402376549864369 0 0.39590482638041408 -0.24653408264749641 0 0.39081027944997748 -0.25402376549864369 0 0.40110985377298569 -0.25539920202715849 0 0.39081027944997748 -0.25402376549864369 0 0.39339325606209907 -0.26180664379103907 0 0.40110985377298569 -0.25539920202715849 0 0.39339325606209907 -0.26180664379103907 0 0.40079912033811271 -0.26366701458408132 0 0.39728274708733802 -0.27120759517339632 0 0.39339325606209907 -0.26180664379103907 0 0.40079912033811271 -0.26366701458408132 0 0.40110985377298569 -0.25539920202715849 0 0.40079912033811271 -0.26366701458408132 0 0.40110985377298569 -0.25539920202715849 0 0.40741587666780382 -0.26174310306917131 0 0.40079912033811271 -0.26366701458408132 0 0.40538688656337091 -0.268999012154022 0 0.40741587666780382 -0.26174310306917131 0 0.40715592914017767 -0.24504535935550109 0 0.40110985377298569 -0.25539920202715849 0 0.41044891776762499 -0.25482230871004358 0 0.39166962649342962 -0.27995866171605832 0 0.39728274708733802 -0.27120759517339632 0 0.39923048034746961 -0.27871657095995112 0 0.38606823343975932 -0.27127304504658822 0 0.39166962649342962 -0.27995866171605832 0 0.39728274708733802 -0.27120759517339632 0 0.38606823343975932 -0.27127304504658822 0 0.39339325606209907 -0.26180664379103907 0 0.39728274708733802 -0.27120759517339632 0 0.39728274708733802 -0.27120759517339632 0 0.40538688656337091 -0.268999012154022 0 0.40422236485154017 -0.27523726360407308 0 0.40079912033811271 -0.26366701458408132 0 0.39728274708733802 -0.27120759517339632 0 0.40538688656337091 -0.268999012154022 0 0.39728274708733802 -0.27120759517339632 0 0.40422236485154017 -0.27523726360407308 0 0.39923048034746961 -0.27871657095995112 0 0.40565595440584462 -0.28153919464437271 0 0.40422236485154017 -0.27523726360407308 0 0.39923048034746961 -0.27871657095995112 0 0.41195739611272358 -0.2747245212692867 0 0.41753436151208262 -0.2799807394731138 0 0.41205390616844523 -0.2835371671977468 0 0.40565595440584462 -0.28153919464437271 0 0.41195739611272358 -0.2747245212692867 0 0.41205390616844523 -0.2835371671977468 0 0.40565595440584462 -0.28153919464437271 0 0.40422236485154017 -0.27523726360407308 0 0.41195739611272358 -0.2747245212692867 0 0.40538688656337091 -0.268999012154022 0 0.41195739611272358 -0.2747245212692867 0 0.41153569600951551 -0.26703034913594109 0 0.40538688656337091 -0.268999012154022 0 0.40422236485154017 -0.27523726360407308 0 0.41195739611272358 -0.2747245212692867 0 0.40538688656337091 -0.268999012154022 0 0.41153569600951551 -0.26703034913594109 0 0.40741587666780382 -0.26174310306917131 0 0.41195739611272358 -0.2747245212692867 0 0.41153569600951551 -0.26703034913594109 0 0.41827115381163082 -0.26800959554283033 0 0.41827115381163082 -0.26800959554283033 0 0.42007745255873707 -0.27427176637771272 0 0.42716151446608458 -0.26997269095848558 0 0.41195739611272358 -0.2747245212692867 0 0.41827115381163082 -0.26800959554283033 0 0.42007745255873707 -0.27427176637771272 0 0.42007745255873707 -0.27427176637771272 0 0.41753436151208262 -0.2799807394731138 0 0.42559846173126931 -0.27791728012243561 0 0.41195739611272358 -0.2747245212692867 0 0.42007745255873707 -0.27427176637771272 0 0.41753436151208262 -0.2799807394731138 0 0.40110985377298569 -0.25539920202715849 0 0.41044891776762499 -0.25482230871004358 0 0.40741587666780382 -0.26174310306917131 0 0.40715592914017767 -0.24504535935550109 0 0.41044891776762499 -0.25482230871004358 0 0.41989854151481809 -0.25044497605362598 0 0.41153569600951551 -0.26703034913594109 0 0.40741587666780382 -0.26174310306917131 0 0.4159590926438782 -0.26097659217069169 0 0.41044891776762499 -0.25482230871004358 0 0.40741587666780382 -0.26174310306917131 0 0.4159590926438782 -0.26097659217069169 0 0.41827115381163082 -0.26800959554283033 0 0.4159590926438782 -0.26097659217069169 0 0.42496908407180201 -0.26079752168721149 0 0.41153569600951551 -0.26703034913594109 0 0.41827115381163082 -0.26800959554283033 0 0.4159590926438782 -0.26097659217069169 0 0.4159590926438782 -0.26097659217069169 0 0.41989854151481809 -0.25044497605362598 0 0.42496908407180201 -0.26079752168721149 0 0.41044891776762499 -0.25482230871004358 0 0.4159590926438782 -0.26097659217069169 0 0.41989854151481809 -0.25044497605362598 0 0.41989854151481809 -0.25044497605362598 0 0.42496908407180201 -0.26079752168721149 0 0.431498742042359 -0.25118145705670702 0 0.42496908407180201 -0.26079752168721149 0 0.43579881004824528 -0.26109926953976331 0 0.42716151446608458 -0.26997269095848558 0 0.42496908407180201 -0.26079752168721149 0 0.43579881004824528 -0.26109926953976331 0 0.431498742042359 -0.25118145705670702 0 0.44354745492052228 -0.25043486493206207 0 0.43579881004824528 -0.26109926953976331 0 0.431498742042359 -0.25118145705670702 0 0.42007745255873707 -0.27427176637771272 0 0.42559846173126931 -0.27791728012243561 0 0.42716151446608458 -0.26997269095848558 0 0.41753436151208262 -0.2799807394731138 0 0.42559846173126931 -0.27791728012243561 0 0.42496601921925098 -0.28450297137052388 0 0.42559846173126931 -0.27791728012243561 0 0.42716151446608458 -0.26997269095848558 0 0.43262995153079697 -0.27672826176958087 0 0.41827115381163082 -0.26800959554283033 0 0.42496908407180201 -0.26079752168721149 0 0.42716151446608458 -0.26997269095848558 0 0.43881371328043822 -0.27137514204288382 0 0.42716151446608458 -0.26997269095848558 0 0.43262995153079697 -0.27672826176958087 0 0.43881371328043822 -0.27137514204288382 0 0.43579881004824528 -0.26109926953976331 0 0.42716151446608458 -0.26997269095848558 0 0.44003092115652498 -0.28194945228523899 0 0.43262995153079697 -0.27672826176958087 0 0.43100228625356279 -0.28378978692480278 0 0.43881371328043822 -0.27137514204288382 0 0.44003092115652498 -0.28194945228523899 0 0.43262995153079697 -0.27672826176958087 0 0.42559846173126931 -0.27791728012243561 0 0.43262995153079697 -0.27672826176958087 0 0.43100228625356279 -0.28378978692480278 0 0.44003092115652498 -0.28194945228523899 0 0.43100228625356279 -0.28378978692480278 0 0.43538626991748403 -0.29056857493672628 0 0.43100228625356279 -0.28378978692480278 0 0.42740209396605128 -0.29107218106431132 0 0.43538626991748403 -0.29056857493672628 0 0.42496601921925098 -0.28450297137052388 0 0.42740209396605128 -0.29107218106431132 0 0.4193170829517599 -0.28764711873315207 0 0.42559846173126931 -0.27791728012243561 0 0.43100228625356279 -0.28378978692480278 0 0.42496601921925098 -0.28450297137052388 0 0.43100228625356279 -0.28378978692480278 0 0.42496601921925098 -0.28450297137052388 0 0.42740209396605128 -0.29107218106431132 0 0.42740209396605128 -0.29107218106431132 0 0.4193170829517599 -0.28764711873315207 0 0.42089784925858981 -0.2950871875800688 0 0.42740209396605128 -0.29107218106431132 0 0.42960410879416983 -0.29839856813407611 0 0.42089784925858981 -0.2950871875800688 0 0.42740209396605128 -0.29107218106431132 0 0.43538626991748403 -0.29056857493672628 0 0.42960410879416983 -0.29839856813407611 0 0.43538626991748403 -0.29056857493672628 0 0.43618378883533437 -0.30062321343637732 0 0.42960410879416983 -0.29839856813407611 0 0.43618378883533437 -0.30062321343637732 0 0.42874742992446602 -0.30720864882749471 0 0.42960410879416983 -0.29839856813407611 0 0.43906584572495788 -0.30831186215702178 0 0.43618378883533437 -0.30062321343637732 0 0.42874742992446602 -0.30720864882749471 0 0.43906584572495788 -0.30831186215702178 0 0.43150763516027119 -0.31685196830734891 0 0.42874742992446602 -0.30720864882749471 0 0.42191342252982178 -0.31511855363816388 0 0.42874742992446602 -0.30720864882749471 0 0.41874199045908678 -0.30774902954649391 0 0.42874742992446602 -0.30720864882749471 0 0.42257577360653559 -0.3020876111363695 0 0.41874199045908678 -0.30774902954649391 0 0.42874742992446602 -0.30720864882749471 0 0.42960410879416983 -0.29839856813407611 0 0.42257577360653559 -0.3020876111363695 0 0.42960410879416983 -0.29839856813407611 0 0.42257577360653559 -0.3020876111363695 0 0.42089784925858981 -0.2950871875800688 0 0.42257577360653559 -0.3020876111363695 0 0.41488748959636568 -0.30199462159371399 0 0.42089784925858981 -0.2950871875800688 0 0.42257577360653559 -0.3020876111363695 0 0.41488748959636568 -0.30199462159371399 0 0.41874199045908678 -0.30774902954649391 0 0.42191342252982178 -0.31511855363816388 0 0.41874199045908678 -0.30774902954649391 0 0.41312077430625538 -0.3116518339434956 0 0.41488748959636568 -0.30199462159371399 0 0.41874199045908678 -0.30774902954649391 0 0.41312077430625538 -0.3116518339434956 0 0.40439233441715272 -0.31673670384363378 0 0.40422618625145912 -0.30687017635652819 0 0.41312077430625538 -0.3116518339434956 0 0.40422618625145912 -0.30687017635652819 0 0.41488748959636568 -0.30199462159371399 0 0.41312077430625538 -0.3116518339434956 0 0.41488748959636568 -0.30199462159371399 0 0.40713139500478451 -0.29787183679007428 0 0.41304826758613961 -0.29170246571314817 0 0.40422618625145912 -0.30687017635652819 0 0.41488748959636568 -0.30199462159371399 0 0.40713139500478451 -0.29787183679007428 0 0.40613898325500891 -0.28931958251810702 0 0.40713139500478451 -0.29787183679007428 0 0.41304826758613961 -0.29170246571314817 0 0.40613898325500891 -0.28931958251810702 0 0.41304826758613961 -0.29170246571314817 0 0.41205390616844523 -0.2835371671977468 0 0.40565595440584462 -0.28153919464437271 0 0.40613898325500891 -0.28931958251810702 0 0.41205390616844523 -0.2835371671977468 0 0.41304826758613961 -0.29170246571314817 0 0.41205390616844523 -0.2835371671977468 0 0.4193170829517599 -0.28764711873315207 0 0.41753436151208262 -0.2799807394731138 0 0.41205390616844523 -0.2835371671977468 0 0.4193170829517599 -0.28764711873315207 0 0.41753436151208262 -0.2799807394731138 0 0.42496601921925098 -0.28450297137052388 0 0.4193170829517599 -0.28764711873315207 0 0.41488748959636568 -0.30199462159371399 0 0.41304826758613961 -0.29170246571314817 0 0.42089784925858981 -0.2950871875800688 0 0.41304826758613961 -0.29170246571314817 0 0.4193170829517599 -0.28764711873315207 0 0.42089784925858981 -0.2950871875800688 0 0.45184323652820269 -0.49122341345751841 0 0.45504380163158142 -0.5 0 0.42300266517287349 -0.49448348999462111 0 0.45184323652820269 -0.49122341345751841 0 0.43877239123646672 -0.48244970169226231 0 0.42300266517287349 -0.49448348999462111 0 0.45184323652820269 -0.49122341345751841 0 0.43877239123646672 -0.48244970169226231 0 0.44835891118094662 -0.48041312365437883 0 0.43877239123646672 -0.48244970169226231 0 0.44109767370751313 -0.47167943490861869 0 0.44835891118094662 -0.48041312365437883 0 0.45184323652820269 -0.49122341345751841 0 0.44835891118094662 -0.48041312365437883 0 0.45837255319229381 -0.47490747806499178 0 0.44109767370751313 -0.47167943490861869 0 0.44835891118094662 -0.48041312365437883 0 0.45837255319229381 -0.47490747806499178 0 0.45184323652820269 -0.49122341345751841 0 0.45504380163158142 -0.5 0 0.48068380788353188 -0.48796333692041571 0 0.45184323652820269 -0.49122341345751841 0 0.45837255319229381 -0.47490747806499178 0 0.48068380788353188 -0.48796333692041571 0 0.45184323652820269 -0.49122341345751841 0 0.48068380788353188 -0.48796333692041571 0 0.45504380163158142 -0.5 0 0.5 -0.5 0 0.48068380788353188 -0.48796333692041571 0 0.5 -0.5 0 0.48068380788353188 -0.48796333692041571 0 0.5 -0.45935456734178493 0 0.48068380788353188 -0.48796333692041571 0 0.47603080695666888 -0.46460478767489011 0 0.5 -0.45935456734178493 0 0.45837255319229381 -0.47490747806499178 0 0.48068380788353188 -0.48796333692041571 0 0.47603080695666888 -0.46460478767489011 0 0.47603080695666888 -0.46460478767489011 0 0.48036589123584139 -0.44330589239529911 0 0.46073178247167729 -0.45749266365195879 0 0.47603080695666888 -0.46460478767489011 0 0.5 -0.45935456734178493 0 0.48036589123584139 -0.44330589239529911 0 0.5 -0.45935456734178493 0 0.48036589123584139 -0.44330589239529911 0 0.50000000000000422 -0.42911912113863732 0 0.48036589123584139 -0.44330589239529911 0 0.46073178247167729 -0.45749266365195879 0 0.48036589123584139 -0.44330589239529911 0 0.46110592253035187 -0.44086948844942819 0 0.46073178247167729 -0.45749266365195879 0 0.46110592253035187 -0.44086948844942819 0 0.46073178247167729 -0.45749266365195879 0 0.44780093788349951 -0.44308765918912851 0 0.46110592253035187 -0.44086948844942819 0 0.44780093788349951 -0.44308765918912851 0 0.45241007892827201 -0.43121847741273961 0 0.45837255319229381 -0.47490747806499178 0 0.47603080695666888 -0.46460478767489011 0 0.46073178247167729 -0.45749266365195879 0 0.44109767370751313 -0.47167943490861869 0 0.45837255319229381 -0.47490747806499178 0 0.46073178247167729 -0.45749266365195879 0 0.44109767370751313 -0.47167943490861869 0 0.46073178247167729 -0.45749266365195879 0 0.44109767370751313 -0.47167943490861869 0 0.46073178247167729 -0.45749266365195879 0 0.44388691925195761 -0.45631271139764362 0 0.44109767370751313 -0.47167943490861869 0 0.44388691925195761 -0.45631271139764362 0 0.4312721983501151 -0.46057080605489092 0 0.46073178247167729 -0.45749266365195879 0 0.44388691925195761 -0.45631271139764362 0 0.44780093788349951 -0.44308765918912851 0 0.44388691925195761 -0.45631271139764362 0 0.44780093788349951 -0.44308765918912851 0 0.43412772784971021 -0.44439922937696108 0 0.44780093788349951 -0.44308765918912851 0 0.44172669679560728 -0.4298816433440687 0 0.43412772784971021 -0.44439922937696108 0 0.45241007892827201 -0.43121847741273961 0 0.44172669679560728 -0.4298816433440687 0 0.45077290852741858 -0.41846798806356361 0 0.44780093788349951 -0.44308765918912851 0 0.45241007892827201 -0.43121847741273961 0 0.44172669679560728 -0.4298816433440687 0 0.44172669679560728 -0.4298816433440687 0 0.45077290852741858 -0.41846798806356361 0 0.43687672932717703 -0.41437147979420069 0 0.45077290852741858 -0.41846798806356361 0 0.44809134106463888 -0.40316365643226598 0 0.43687672932717703 -0.41437147979420069 0 0.44809134106463888 -0.40316365643226598 0 0.43284912717076512 -0.40226218949476278 0 0.43687672932717703 -0.41437147979420069 0 0.45077290852741858 -0.41846798806356361 0 0.46003854085634882 -0.41140098080356202 0 0.44809134106463888 -0.40316365643226598 0 0.45077290852741858 -0.41846798806356361 0 0.46003854085634882 -0.41140098080356202 0 0.46645477506910688 -0.4257815701303288 0 0.46003854085634882 -0.41140098080356202 0 0.4704659996679102 -0.41497301823028809 0 0.47173559857668301 -0.40445129321325962 0 0.46003854085634882 -0.41140098080356202 0 0.46645477506910688 -0.4257815701303288 0 0.4704659996679102 -0.41497301823028809 0 0.45241007892827201 -0.43121847741273961 0 0.45077290852741858 -0.41846798806356361 0 0.46645477506910688 -0.4257815701303288 0 0.46110592253035187 -0.44086948844942819 0 0.45241007892827201 -0.43121847741273961 0 0.46645477506910688 -0.4257815701303288 0 0.48036589123584139 -0.44330589239529911 0 0.46110592253035187 -0.44086948844942819 0 0.46645477506910688 -0.4257815701303288 0 0.48036589123584139 -0.44330589239529911 0 0.46645477506910688 -0.4257815701303288 0 0.48097618970917477 -0.42693840297733748 0 0.46645477506910688 -0.4257815701303288 0 0.48097618970917477 -0.42693840297733748 0 0.47807008942078177 -0.41866564518218757 0 0.48036589123584139 -0.44330589239529911 0 0.50000000000000422 -0.42911912113863732 0 0.49527614694657007 -0.42516454408338339 0 0.48036589123584139 -0.44330589239529911 0 0.48097618970917477 -0.42693840297733748 0 0.49527614694657007 -0.42516454408338339 0 0.48036589123584139 -0.44330589239529911 0 0.50000000000000422 -0.42911912113863732 0 0.48097618970917477 -0.42693840297733748 0 0.49527614694657007 -0.42516454408338339 0 0.48640207528308271 -0.41949436903386828 0 0.50000000000000422 -0.42911912113863732 0 0.49527614694657007 -0.42516454408338339 0 0.5 -0.40016663708891093 0 0.49527614694657007 -0.42516454408338339 0 0.5 -0.40016663708891093 0 0.49424421830455889 -0.39524250972996522 0 0.49527614694657007 -0.42516454408338339 0 0.48851352057038461 -0.41048139877380441 0 0.49424421830455889 -0.39524250972996522 0 0.49527614694657007 -0.42516454408338339 0 0.49424421830455889 -0.39524250972996522 0 0.49527614694657007 -0.42516454408338339 0 0.48640207528308271 -0.41949436903386828 0 0.48851352057038461 -0.41048139877380441 0 0.48640207528308271 -0.41949436903386828 0 0.48851352057038461 -0.41048139877380441 0 0.48026544092877838 -0.41046784591122498 0 0.48851352057038461 -0.41048139877380441 0 0.48026544092877838 -0.41046784591122498 0 0.48637972138893237 -0.40203772511057978 0 0.48097618970917477 -0.42693840297733748 0 0.48640207528308271 -0.41949436903386828 0 0.47807008942078177 -0.41866564518218757 0 0.48640207528308271 -0.41949436903386828 0 0.48026544092877838 -0.41046784591122498 0 0.47807008942078177 -0.41866564518218757 0 0.48026544092877838 -0.41046784591122498 0 0.47807008942078177 -0.41866564518218757 0 0.4704659996679102 -0.41497301823028809 0 0.46645477506910688 -0.4257815701303288 0 0.47807008942078177 -0.41866564518218757 0 0.4704659996679102 -0.41497301823028809 0 0.48026544092877838 -0.41046784591122498 0 0.4704659996679102 -0.41497301823028809 0 0.47173559857668301 -0.40445129321325962 0 0.47173559857668301 -0.40445129321325962 0 0.47858440168115768 -0.39595818344676048 0 0.47903731271294031 -0.40331609952437331 0 0.47173559857668301 -0.40445129321325962 0 0.47858440168115768 -0.39595818344676048 0 0.46492841734918872 -0.39532462080318181 0 0.47858440168115768 -0.39595818344676048 0 0.47589609395482091 -0.38598009194095889 0 0.46492841734918872 -0.39532462080318181 0 0.47858440168115768 -0.39595818344676048 0 0.48489677447019358 -0.39039594674327471 0 0.47589609395482091 -0.38598009194095889 0 0.47858440168115768 -0.39595818344676048 0 0.48637972138893237 -0.40203772511057978 0 0.48799121938878992 -0.39595417830043411 0 0.47858440168115768 -0.39595818344676048 0 0.48799121938878992 -0.39595417830043411 0 0.48489677447019358 -0.39039594674327471 0 0.48026544092877838 -0.41046784591122498 0 0.47173559857668301 -0.40445129321325962 0 0.47903731271294031 -0.40331609952437331 0 0.48026544092877838 -0.41046784591122498 0 0.47903731271294031 -0.40331609952437331 0 0.48637972138893237 -0.40203772511057978 0 0.47858440168115768 -0.39595818344676048 0 0.47903731271294031 -0.40331609952437331 0 0.48637972138893237 -0.40203772511057978 0 0.48851352057038461 -0.41048139877380441 0 0.48637972138893237 -0.40203772511057978 0 0.49424421830455889 -0.39524250972996522 0 0.48637972138893237 -0.40203772511057978 0 0.48799121938878992 -0.39595417830043411 0 0.49424421830455889 -0.39524250972996522 0 0.48799121938878992 -0.39595417830043411 0 0.49424421830455889 -0.39524250972996522 0 0.48489677447019358 -0.39039594674327471 0 0.5 -0.37121415303918459 0 0.49321228966254771 -0.36532047537654688 0 0.49424421830455889 -0.39524250972996522 0 0.49321228966254771 -0.36532047537654688 0 0.49424421830455889 -0.39524250972996522 0 0.48488865916761681 -0.38031404922719247 0 0.5 -0.37121415303918459 0 0.5 -0.40016663708891093 0 0.49424421830455889 -0.39524250972996522 0 0.49321228966254771 -0.36532047537654688 0 0.49424421830455889 -0.39524250972996522 0 0.49424421830455889 -0.39524250972996522 0 0.48489677447019358 -0.39039594674327471 0 0.48488865916761681 -0.38031404922719247 0 0.48237875694998872 -0.36911462313912718 0 0.48488865916761681 -0.38031404922719247 0 0.47665882205089682 -0.37567270161360278 0 0.47589609395482091 -0.38598009194095889 0 0.46682657693639867 -0.37912995032484431 0 0.46492841734918872 -0.39532462080318181 0 0.48488865916761681 -0.38031404922719247 0 0.47665882205089682 -0.37567270161360278 0 0.47589609395482091 -0.38598009194095889 0 0.48489677447019358 -0.39039594674327471 0 0.48488865916761681 -0.38031404922719247 0 0.47589609395482091 -0.38598009194095889 0 0.47665882205089682 -0.37567270161360278 0 0.47589609395482091 -0.38598009194095889 0 0.46682657693639867 -0.37912995032484431 0 0.45760844779790127 -0.36655905718727527 0 0.45313139828126597 -0.3832686093961245 0 0.46682657693639867 -0.37912995032484431 0 0.45313139828126597 -0.3832686093961245 0 0.46682657693639867 -0.37912995032484431 0 0.46492841734918872 -0.39532462080318181 0 0.46003854085634882 -0.41140098080356202 0 0.47173559857668301 -0.40445129321325962 0 0.46492841734918872 -0.39532462080318181 0 0.45313139828126597 -0.3832686093961245 0 0.46492841734918872 -0.39532462080318181 0 0.44809134106463888 -0.40316365643226598 0 0.46003854085634882 -0.41140098080356202 0 0.46492841734918872 -0.39532462080318181 0 0.44809134106463888 -0.40316365643226598 0 0.45313139828126597 -0.3832686093961245 0 0.44809134106463888 -0.40316365643226598 0 0.44236804390136869 -0.39167480951388173 0 0.44809134106463888 -0.40316365643226598 0 0.44236804390136869 -0.39167480951388173 0 0.43284912717076512 -0.40226218949476278 0 0.43896556263809938 -0.36375956211529831 0 0.45313139828126597 -0.3832686093961245 0 0.44236804390136869 -0.39167480951388173 0 0.43896556263809938 -0.36375956211529831 0 0.42960110672695412 -0.3884247572891435 0 0.41740891394187302 -0.38281986016051073 0 0.43896556263809938 -0.36375956211529831 0 0.44236804390136869 -0.39167480951388173 0 0.42960110672695412 -0.3884247572891435 0 0.44236804390136869 -0.39167480951388173 0 0.42960110672695412 -0.3884247572891435 0 0.43284912717076512 -0.40226218949476278 0 0.42960110672695412 -0.3884247572891435 0 0.43284912717076512 -0.40226218949476278 0 0.41614235779996678 -0.40310754535672738 0 0.41614235779996678 -0.40310754535672738 0 0.41740891394187302 -0.38281986016051073 0 0.40339415670967388 -0.3952116495170695 0 0.42960110672695412 -0.3884247572891435 0 0.41614235779996678 -0.40310754535672738 0 0.41740891394187302 -0.38281986016051073 0 0.41740891394187302 -0.38281986016051073 0 0.40565361484082302 -0.38133993170043062 0 0.40339415670967388 -0.3952116495170695 0 0.41740891394187302 -0.38281986016051073 0 0.40339415670967388 -0.3952116495170695 0 0.40489927411455989 -0.3705831105933729 0 0.41740891394187302 -0.38281986016051073 0 0.40565361484082302 -0.38133993170043062 0 0.38760608854906792 -0.37326170380164131 0 0.39940646750234932 -0.37915368025546953 0 0.40339415670967388 -0.3952116495170695 0 0.38760608854906792 -0.37326170380164131 0 0.39130224663003499 -0.38899158941959749 0 0.40339415670967388 -0.3952116495170695 0 0.40489927411455989 -0.3705831105933729 0 0.40565361484082302 -0.38133993170043062 0 0.39940646750234932 -0.37915368025546953 0 0.38760608854906792 -0.37326170380164131 0 0.40339415670967388 -0.3952116495170695 0 0.40565361484082302 -0.38133993170043062 0 0.39940646750234932 -0.37915368025546953 0 0.40339415670967388 -0.3952116495170695 0 0.38760608854906792 -0.37326170380164131 0 0.39130224663003499 -0.38899158941959749 0 0.37916478991063751 -0.38344486759860669 0 0.38760608854906792 -0.37326170380164131 0 0.37916478991063751 -0.38344486759860669 0 0.37916478991063751 -0.38344486759860669 0 0.37192894915677971 -0.39217382682174279 0 0.3782268157896953 -0.37202312342517568 0 0.38760608854906792 -0.37326170380164131 0 0.37916478991063751 -0.38344486759860669 0 0.37916478991063751 -0.38344486759860669 0 0.37867240964417731 -0.4007127276584701 0 0.37192894915677971 -0.39217382682174279 0 0.37867240964417731 -0.4007127276584701 0 0.39585226524564521 -0.40188015820572182 0 0.37992272940009048 -0.41596498675290561 0 0.37916478991063751 -0.38344486759860669 0 0.39585226524564521 -0.40188015820572182 0 0.39130224663003499 -0.38899158941959749 0 0.37916478991063751 -0.38344486759860669 0 0.39585226524564521 -0.40188015820572182 0 0.37916478991063751 -0.38344486759860669 0 0.37867240964417731 -0.4007127276584701 0 0.39585226524564521 -0.40188015820572182 0 0.41614235779996678 -0.40310754535672738 0 0.39585226524564521 -0.40188015820572182 0 0.40339415670967388 -0.3952116495170695 0 0.39130224663003499 -0.38899158941959749 0 0.39585226524564521 -0.40188015820572182 0 0.40339415670967388 -0.3952116495170695 0 0.39585226524564521 -0.40188015820572182 0 0.40339415670967388 -0.3952116495170695 0 0.39585226524564521 -0.40188015820572182 0 0.41534927646533509 -0.42341925028462618 0 0.39585226524564521 -0.40188015820572182 0 0.39447681077750851 -0.41759613422346498 0 0.41534927646533509 -0.42341925028462618 0 0.39585226524564521 -0.40188015820572182 0 0.39447681077750851 -0.41759613422346498 0 0.37992272940009048 -0.41596498675290561 0 0.39585226524564521 -0.40188015820572182 0 0.37992272940009048 -0.41596498675290561 0 0.39447681077750851 -0.41759613422346498 0 0.37992272940009048 -0.41596498675290561 0 0.38507373234063502 -0.42802079466120402 0 0.37867240964417731 -0.4007127276584701 0 0.37992272940009048 -0.41596498675290561 0 0.36650320656496849 -0.40522880080322587 0 0.38507373234063502 -0.42802079466120402 0 0.39931007470996832 -0.42815265599062691 0 0.38074243866989049 -0.4413918290659018 0 0.38507373234063502 -0.42802079466120402 0 0.38074243866989049 -0.4413918290659018 0 0.3639931935545343 -0.43004981530008768 0 0.37992272940009048 -0.41596498675290561 0 0.38507373234063502 -0.42802079466120402 0 0.3639931935545343 -0.43004981530008768 0 0.39447681077750851 -0.41759613422346498 0 0.39931007470996832 -0.42815265599062691 0 0.41534927646533509 -0.42341925028462618 0 0.39447681077750851 -0.41759613422346498 0 0.38507373234063502 -0.42802079466120402 0 0.39931007470996832 -0.42815265599062691 0 0.39931007470996832 -0.42815265599062691 0 0.41534927646533509 -0.42341925028462618 0 0.41454986853556353 -0.44302873229077749 0 0.41534927646533509 -0.42341925028462618 0 0.42837179825756683 -0.42774502622781929 0 0.41454986853556353 -0.44302873229077749 0 0.41614235779996678 -0.40310754535672738 0 0.39585226524564521 -0.40188015820572182 0 0.41534927646533509 -0.42341925028462618 0 0.41614235779996678 -0.40310754535672738 0 0.41534927646533509 -0.42341925028462618 0 0.42591785780416219 -0.41418109823162719 0 0.43284912717076512 -0.40226218949476278 0 0.41614235779996678 -0.40310754535672738 0 0.42591785780416219 -0.41418109823162719 0 0.41534927646533509 -0.42341925028462618 0 0.42591785780416219 -0.41418109823162719 0 0.42837179825756683 -0.42774502622781929 0 0.43284912717076512 -0.40226218949476278 0 0.42591785780416219 -0.41418109823162719 0 0.43687672932717703 -0.41437147979420069 0 0.42591785780416219 -0.41418109823162719 0 0.43687672932717703 -0.41437147979420069 0 0.42837179825756683 -0.42774502622781929 0 0.44172669679560728 -0.4298816433440687 0 0.43687672932717703 -0.41437147979420069 0 0.42837179825756683 -0.42774502622781929 0 0.44172669679560728 -0.4298816433440687 0 0.42837179825756683 -0.42774502622781929 0 0.43412772784971021 -0.44439922937696108 0 0.42837179825756683 -0.42774502622781929 0 0.43412772784971021 -0.44439922937696108 0 0.41454986853556353 -0.44302873229077749 0 0.42270341288025509 -0.45311507658789052 0 0.43412772784971021 -0.44439922937696108 0 0.41454986853556353 -0.44302873229077749 0 0.42270341288025509 -0.45311507658789052 0 0.43412772784971021 -0.44439922937696108 0 0.4312721983501151 -0.46057080605489092 0 0.42270341288025509 -0.45311507658789052 0 0.4312721983501151 -0.46057080605489092 0 0.41352557668902218 -0.46359144463894503 0 0.44388691925195761 -0.45631271139764362 0 0.43412772784971021 -0.44439922937696108 0 0.4312721983501151 -0.46057080605489092 0 0.4312721983501151 -0.46057080605489092 0 0.41352557668902218 -0.46359144463894503 0 0.42955946959279773 -0.47444904644617408 0 0.42270341288025509 -0.45311507658789052 0 0.41352557668902218 -0.46359144463894503 0 0.41454986853556353 -0.44302873229077749 0 0.41352557668902218 -0.46359144463894503 0 0.41454986853556353 -0.44302873229077749 0 0.39749168378524669 -0.45273384283171592 0 0.39931007470996832 -0.42815265599062691 0 0.39749168378524669 -0.45273384283171592 0 0.39931007470996832 -0.42815265599062691 0 0.39749168378524669 -0.45273384283171592 0 0.38074243866989049 -0.4413918290659018 0 0.39931007470996832 -0.42815265599062691 0 0.41454986853556353 -0.44302873229077749 0 0.39749168378524669 -0.45273384283171592 0 0.38074243866989049 -0.4413918290659018 0 0.38005763075514909 -0.4592576647288214 0 0.36770421038608248 -0.4446848865892189 0 0.39749168378524669 -0.45273384283171592 0 0.38074243866989049 -0.4413918290659018 0 0.39749168378524669 -0.45273384283171592 0 0.38074243866989049 -0.4413918290659018 0 0.38005763075514909 -0.4592576647288214 0 0.41352557668902218 -0.46359144463894503 0 0.39749168378524669 -0.45273384283171592 0 0.39582688880139549 -0.47523870468171953 0 0.41352557668902218 -0.46359144463894503 0 0.39749168378524669 -0.45273384283171592 0 0.39749168378524669 -0.45273384283171592 0 0.39582688880139549 -0.47523870468171953 0 0.39749168378524669 -0.45273384283171592 0 0.38005763075514909 -0.4592576647288214 0 0.39582688880139549 -0.47523870468171953 0 0.39582688880139549 -0.47523870468171953 0 0.40670795330732762 -0.48696510335761339 0 0.41384016543749708 -0.48039465222239031 0 0.39582688880139549 -0.47523870468171953 0 0.37644416316153778 -0.47660274418856702 0 0.38204436542972148 -0.48904355279977119 0 0.38005763075514909 -0.4592576647288214 0 0.39582688880139549 -0.47523870468171953 0 0.37644416316153778 -0.47660274418856702 0 0.38723106658306389 -0.49852703503471418 0 0.39399517436945258 -0.49999999999999978 0 0.37367847099620699 -0.5 0 0.38204436542972148 -0.48904355279977119 0 0.38723106658306389 -0.49852703503471418 0 0.37367847099620699 -0.5 0 0.38204436542972148 -0.48904355279977119 0 0.38723106658306389 -0.49852703503471418 0 0.39416209381754441 -0.49774356653172303 0 0.39582688880139549 -0.47523870468171953 0 0.39416209381754441 -0.49774356653172303 0 0.39399517436945258 -0.49999999999999978 0 0.39416209381754441 -0.49774356653172303 0 0.42300266517287349 -0.49448348999462111 0 0.39582688880139549 -0.47523870468171953 0 0.38204436542972148 -0.48904355279977119 0 0.39416209381754441 -0.49774356653172303 0 0.38723106658306389 -0.49852703503471418 0 0.39416209381754441 -0.49774356653172303 0 0.39582688880139549 -0.47523870468171953 0 0.39416209381754441 -0.49774356653172303 0 0.40670795330732762 -0.48696510335761339 0 0.38723106658306389 -0.49852703503471418 0 0.39399517436945258 -0.49999999999999978 0 0.39416209381754441 -0.49774356653172303 0 0.39399517436945258 -0.49999999999999978 0 0.39416209381754441 -0.49774356653172303 0 0.39416209381754441 -0.49774356653172303 0 0.40670795330732762 -0.48696510335761339 0 0.42300266517287349 -0.49448348999462111 0 0.39416209381754441 -0.49774356653172303 0 0.42300266517287349 -0.49448348999462111 0 0.45504380163158142 -0.5 0 0.39399517436945258 -0.49999999999999978 0 0.42300266517287349 -0.49448348999462111 0 0.40670795330732762 -0.48696510335761339 0 0.41384016543749708 -0.48039465222239031 0 0.42300266517287349 -0.49448348999462111 0 0.41352557668902218 -0.46359144463894503 0 0.42955946959279773 -0.47444904644617408 0 0.41352557668902218 -0.46359144463894503 0 0.39582688880139549 -0.47523870468171953 0 0.41384016543749708 -0.48039465222239031 0 0.41352557668902218 -0.46359144463894503 0 0.41384016543749708 -0.48039465222239031 0 0.42955946959279773 -0.47444904644617408 0 0.43877239123646672 -0.48244970169226231 0 0.42955946959279773 -0.47444904644617408 0 0.42300266517287349 -0.49448348999462111 0 0.41384016543749708 -0.48039465222239031 0 0.42955946959279773 -0.47444904644617408 0 0.42300266517287349 -0.49448348999462111 0 0.43877239123646672 -0.48244970169226231 0 0.44109767370751313 -0.47167943490861869 0 0.42955946959279773 -0.47444904644617408 0 0.44109767370751313 -0.47167943490861869 0 0.4312721983501151 -0.46057080605489092 0 0.42955946959279773 -0.47444904644617408 0 0.45184323652820269 -0.49122341345751841 0 0.42300266517287349 -0.49448348999462111 0 0.32694898473927642 -0.47209718743320322 0 0.33304506424971558 -0.50000000000000255 0 0.30714444742462149 -0.5 0 0.32694898473927642 -0.47209718743320322 0 0.34762050039772718 -0.47991538497241659 0 0.34447339168656321 -0.46005868631569619 0 0.32694898473927642 -0.47209718743320322 0 0.33304506424971558 -0.50000000000000255 0 0.34762050039772718 -0.47991538497241659 0 0.32694898473927642 -0.47209718743320322 0 0.33304506424971558 -0.50000000000000255 0 0.35336176762296129 -0.5 0 0.36492350921858102 -0.48614926636190331 0 0.34762050039772718 -0.47991538497241659 0 0.33304506424971558 -0.50000000000000255 0 0.35336176762296129 -0.5 0 0.34762050039772718 -0.47991538497241659 0 0.38204436542972148 -0.48904355279977119 0 0.36492350921858102 -0.48614926636190331 0 0.37367847099620699 -0.5 0 0.35336176762296129 -0.5 0 0.36492350921858102 -0.48614926636190331 0 0.37367847099620699 -0.5 0 0.37644416316153778 -0.47660274418856702 0 0.36492350921858102 -0.48614926636190331 0 0.36213639972674228 -0.46489398101580548 0 0.37644416316153778 -0.47660274418856702 0 0.38204436542972148 -0.48904355279977119 0 0.36492350921858102 -0.48614926636190331 0 0.36492350921858102 -0.48614926636190331 0 0.34762050039772718 -0.47991538497241659 0 0.36213639972674228 -0.46489398101580548 0 0.34447339168656321 -0.46005868631569619 0 0.36213639972674228 -0.46489398101580548 0 0.35564519458707811 -0.4506363370504039 0 0.34762050039772718 -0.47991538497241659 0 0.34447339168656321 -0.46005868631569619 0 0.36213639972674228 -0.46489398101580548 0 0.38005763075514909 -0.4592576647288214 0 0.37644416316153778 -0.47660274418856702 0 0.36213639972674228 -0.46489398101580548 0 0.36213639972674228 -0.46489398101580548 0 0.36770421038608248 -0.4446848865892189 0 0.35564519458707811 -0.4506363370504039 0 0.38005763075514909 -0.4592576647288214 0 0.36213639972674228 -0.46489398101580548 0 0.36770421038608248 -0.4446848865892189 0 0.38074243866989049 -0.4413918290659018 0 0.36770421038608248 -0.4446848865892189 0 0.3639931935545343 -0.43004981530008768 0 0.36770421038608248 -0.4446848865892189 0 0.35733304017349571 -0.44297594866125761 0 0.35564519458707811 -0.4506363370504039 0 0.36770421038608248 -0.4446848865892189 0 0.35733304017349571 -0.44297594866125761 0 0.358192217230489 -0.43517901414948451 0 0.34447339168656321 -0.46005868631569619 0 0.35564519458707811 -0.4506363370504039 0 0.34231450051304918 -0.44240780430671389 0 0.35733304017349571 -0.44297594866125761 0 0.35564519458707811 -0.4506363370504039 0 0.35082948829980831 -0.439159975161871 0 0.35733304017349571 -0.44297594866125761 0 0.35082948829980831 -0.439159975161871 0 0.358192217230489 -0.43517901414948451 0 0.35564519458707811 -0.4506363370504039 0 0.35082948829980831 -0.439159975161871 0 0.34231450051304918 -0.44240780430671389 0 0.35082948829980831 -0.439159975161871 0 0.34231450051304918 -0.44240780430671389 0 0.34483432742882059 -0.43102094025814008 0 0.34231450051304918 -0.44240780430671389 0 0.3336474455419316 -0.45468951323050422 0 0.32085290522883753 -0.44419437486640378 0 0.32085290522883753 -0.44419437486640378 0 0.34483432742882059 -0.43102094025814008 0 0.34447339168656321 -0.46005868631569619 0 0.34231450051304918 -0.44240780430671389 0 0.3336474455419316 -0.45468951323050422 0 0.34231450051304918 -0.44240780430671389 0 0.32085290522883753 -0.44419437486640378 0 0.34483432742882059 -0.43102094025814008 0 0.32694898473927642 -0.47209718743320322 0 0.34447339168656321 -0.46005868631569619 0 0.3336474455419316 -0.45468951323050422 0 0.32694898473927642 -0.47209718743320322 0 0.3336474455419316 -0.45468951323050422 0 0.32085290522883753 -0.44419437486640378 0 0.32694898473927642 -0.47209718743320322 0 0.32085290522883753 -0.44419437486640378 0 0.32694898473927642 -0.47209718743320322 0 0.31264344144568512 -0.4614866266885429 0 0.32085290522883753 -0.44419437486640378 0 0.31953871191162242 -0.43817908426135133 0 0.32085290522883753 -0.44419437486640378 0 0.31049259046883299 -0.43786044156381121 0 0.31953871191162242 -0.43817908426135133 0 0.32085290522883753 -0.44419437486640378 0 0.32055479120283609 -0.42809158367924421 0 0.32421538897421459 -0.41633596835218839 0 0.32953612785145198 -0.42967655931459542 0 0.31953871191162242 -0.43817908426135133 0 0.32055479120283609 -0.42809158367924421 0 0.32953612785145198 -0.42967655931459542 0 0.31953871191162242 -0.43817908426135133 0 0.32085290522883753 -0.44419437486640378 0 0.32953612785145198 -0.42967655931459542 0 0.32055479120283609 -0.42809158367924421 0 0.30978770746169348 -0.4254314722915149 0 0.31049259046883299 -0.43786044156381121 0 0.31953871191162242 -0.43817908426135133 0 0.32055479120283609 -0.42809158367924421 0 0.31049259046883299 -0.43786044156381121 0 0.32055479120283609 -0.42809158367924421 0 0.32421538897421459 -0.41633596835218839 0 0.30978770746169348 -0.4254314722915149 0 0.32421538897421459 -0.41633596835218839 0 0.30121013558604881 -0.41243453223413329 0 0.32421538897421459 -0.41633596835218839 0 0.34722064236238048 -0.42023740447024349 0 0.33583192226533432 -0.40199715589841528 0 0.32421538897421459 -0.41633596835218839 0 0.34722064236238048 -0.42023740447024349 0 0.32421538897421459 -0.41633596835218839 0 0.32953612785145198 -0.42967655931459542 0 0.34722064236238048 -0.42023740447024349 0 0.32953612785145198 -0.42967655931459542 0 0.34483432742882059 -0.43102094025814008 0 0.34722064236238048 -0.42023740447024349 0 0.32085290522883753 -0.44419437486640378 0 0.32953612785145198 -0.42967655931459542 0 0.34483432742882059 -0.43102094025814008 0 0.34231450051304918 -0.44240780430671389 0 0.34483432742882059 -0.43102094025814008 0 0.35082948829980831 -0.439159975161871 0 0.34483432742882059 -0.43102094025814008 0 0.35317675826491712 -0.43173324919251432 0 0.35638518837804761 -0.42467584070087322 0 0.36307894852766442 -0.42292679751454038 0 0.34722064236238048 -0.42023740447024349 0 0.34483432742882059 -0.43102094025814008 0 0.35638518837804761 -0.42467584070087322 0 0.35317675826491712 -0.43173324919251432 0 0.34483432742882059 -0.43102094025814008 0 0.35638518837804761 -0.42467584070087322 0 0.34722064236238048 -0.42023740447024349 0 0.34483432742882059 -0.43102094025814008 0 0.35638518837804761 -0.42467584070087322 0 0.34483432742882059 -0.43102094025814008 0 0.34722064236238048 -0.42023740447024349 0 0.35782203833867349 -0.42587092085277323 0 0.35791387915333228 -0.42950176803914653 0 0.35638518837804761 -0.42467584070087322 0 0.35791387915333228 -0.42950176803914653 0 0.35638518837804761 -0.42467584070087322 0 0.35317675826491712 -0.43173324919251432 0 0.35782203833867349 -0.42587092085277323 0 0.35638518837804761 -0.42467584070087322 0 0.36307894852766442 -0.42292679751454038 0 0.35082948829980831 -0.439159975161871 0 0.35317675826491712 -0.43173324919251432 0 0.358192217230489 -0.43517901414948451 0 0.35791387915333228 -0.42950176803914653 0 0.35317675826491712 -0.43173324919251432 0 0.358192217230489 -0.43517901414948451 0 0.37992272940009048 -0.41596498675290561 0 0.3639931935545343 -0.43004981530008768 0 0.38074243866989049 -0.4413918290659018 0 0.3639931935545343 -0.43004981530008768 0 0.37992272940009048 -0.41596498675290561 0 0.3639931935545343 -0.43004981530008768 0 0.36307894852766442 -0.42292679751454038 0 0.36770421038608248 -0.4446848865892189 0 0.358192217230489 -0.43517901414948451 0 0.3639931935545343 -0.43004981530008768 0 0.358192217230489 -0.43517901414948451 0 0.3639931935545343 -0.43004981530008768 0 0.35791387915333228 -0.42950176803914653 0 0.358192217230489 -0.43517901414948451 0 0.3639931935545343 -0.43004981530008768 0 0.35782203833867349 -0.42587092085277323 0 0.3639931935545343 -0.43004981530008768 0 0.35782203833867349 -0.42587092085277323 0 0.35791387915333228 -0.42950176803914653 0 0.3639931935545343 -0.43004981530008768 0 0.35782203833867349 -0.42587092085277323 0 0.3639931935545343 -0.43004981530008768 0 0.36307894852766442 -0.42292679751454038 0 0.37992272940009048 -0.41596498675290561 0 0.36307894852766442 -0.42292679751454038 0 0.36539695004008738 -0.41482037865649057 0 0.37992272940009048 -0.41596498675290561 0 0.36539695004008738 -0.41482037865649057 0 0.36650320656496849 -0.40522880080322587 0 0.36307894852766442 -0.42292679751454038 0 0.36539695004008738 -0.41482037865649057 0 0.35839708482709659 -0.41742254445772742 0 0.36539695004008738 -0.41482037865649057 0 0.3578917983782573 -0.41170559718963579 0 0.35839708482709659 -0.41742254445772742 0 0.36539695004008738 -0.41482037865649057 0 0.3578917983782573 -0.41170559718963579 0 0.36650320656496849 -0.40522880080322587 0 0.36307894852766442 -0.42292679751454038 0 0.34722064236238048 -0.42023740447024349 0 0.34722064236238048 -0.42023740447024349 0 0.3517482290516023 -0.39977766028079548 0 0.33583192226533432 -0.40199715589841528 0 0.34722064236238048 -0.42023740447024349 0 0.3517482290516023 -0.39977766028079548 0 0.36307894852766442 -0.42292679751454038 0 0.35839708482709659 -0.41742254445772742 0 0.34722064236238048 -0.42023740447024349 0 0.3578917983782573 -0.41170559718963579 0 0.34722064236238048 -0.42023740447024349 0 0.3517482290516023 -0.39977766028079548 0 0.3578917983782573 -0.41170559718963579 0 0.35839708482709659 -0.41742254445772742 0 0.34722064236238048 -0.42023740447024349 0 0.3517482290516023 -0.39977766028079548 0 0.34449462343768172 -0.38887690931924701 0 0.33583192226533432 -0.40199715589841528 0 0.3578917983782573 -0.41170559718963579 0 0.3517482290516023 -0.39977766028079548 0 0.36650320656496849 -0.40522880080322587 0 0.3517482290516023 -0.39977766028079548 0 0.36650320656496849 -0.40522880080322587 0 0.36277095240578899 -0.3921999259197903 0 0.36650320656496849 -0.40522880080322587 0 0.36277095240578899 -0.3921999259197903 0 0.37192894915677971 -0.39217382682174279 0 0.37867240964417731 -0.4007127276584701 0 0.36650320656496849 -0.40522880080322587 0 0.37192894915677971 -0.39217382682174279 0 0.37916478991063751 -0.38344486759860669 0 0.36739856151476891 -0.38450142560183947 0 0.36731866303223892 -0.37035799932238261 0 0.37916478991063751 -0.38344486759860669 0 0.36731866303223892 -0.37035799932238261 0 0.3782268157896953 -0.37202312342517568 0 0.37916478991063751 -0.38344486759860669 0 0.36731866303223892 -0.37035799932238261 0 0.37916478991063751 -0.38344486759860669 0 0.37192894915677971 -0.39217382682174279 0 0.36739856151476891 -0.38450142560183947 0 0.36277095240578899 -0.3921999259197903 0 0.37192894915677971 -0.39217382682174279 0 0.36739856151476891 -0.38450142560183947 0 0.36277095240578899 -0.3921999259197903 0 0.36739856151476891 -0.38450142560183947 0 0.3562758157408264 -0.37931791609134802 0 0.36739856151476891 -0.38450142560183947 0 0.3562758157408264 -0.37931791609134802 0 0.36731866303223892 -0.37035799932238261 0 0.3517482290516023 -0.39977766028079548 0 0.36277095240578899 -0.3921999259197903 0 0.3562758157408264 -0.37931791609134802 0 0.3517482290516023 -0.39977766028079548 0 0.3562758157408264 -0.37931791609134802 0 0.34449462343768172 -0.38887690931924701 0 0.3562758157408264 -0.37931791609134802 0 0.34449462343768172 -0.38887690931924701 0 0.33405247214939432 -0.37154619327299993 0 0.3517482290516023 -0.39977766028079548 0 0.3562758157408264 -0.37931791609134802 0 0.3562758157408264 -0.37931791609134802 0 0.34449462343768172 -0.38887690931924701 0 0.34449462343768172 -0.38887690931924701 0 0.3312813174123439 -0.38482223657005288 0 0.33405247214939432 -0.37154619327299993 0 0.3312813174123439 -0.38482223657005288 0 0.33583192226533432 -0.40199715589841528 0 0.32107319661038769 -0.39297715338962041 0 0.34449462343768172 -0.38887690931924701 0 0.3312813174123439 -0.38482223657005288 0 0.33583192226533432 -0.40199715589841528 0 0.32421538897421459 -0.41633596835218839 0 0.33583192226533432 -0.40199715589841528 0 0.32107319661038769 -0.39297715338962041 0 0.32421538897421459 -0.41633596835218839 0 0.32107319661038769 -0.39297715338962041 0 0.30981290843704601 -0.40127774196380278 0 0.3312813174123439 -0.38482223657005288 0 0.32107319661038769 -0.39297715338962041 0 0.30962008197053098 -0.37375694703293161 0 0.3312813174123439 -0.38482223657005288 0 0.33405247214939432 -0.37154619327299993 0 0.30962008197053098 -0.37375694703293161 0 0.3002222658630766 -0.39000549128641782 0 0.28518769179166781 -0.37596770079286368 0 0.30962008197053098 -0.37375694703293161 0 0.32107319661038769 -0.39297715338962041 0 0.3002222658630766 -0.39000549128641782 0 0.30962008197053098 -0.37375694703293161 0 0.32107319661038769 -0.39297715338962041 0 0.3002222658630766 -0.39000549128641782 0 0.30981290843704601 -0.40127774196380278 0 0.3002222658630766 -0.39000549128641782 0 0.30981290843704601 -0.40127774196380278 0 0.29340688872313231 -0.40154194474166383 0 0.30981290843704601 -0.40127774196380278 0 0.29340688872313231 -0.40154194474166383 0 0.30121013558604881 -0.41243453223413329 0 0.3002222658630766 -0.39000549128641782 0 0.29340688872313231 -0.40154194474166383 0 0.28027485175429478 -0.39887947804068358 0 0.3002222658630766 -0.39000549128641782 0 0.28027485175429478 -0.39887947804068358 0 0.29340688872313231 -0.40154194474166383 0 0.28027485175429478 -0.39887947804068358 0 0.27820488219788281 -0.40853309611607808 0 0.28518769179166781 -0.37596770079286368 0 0.28027485175429478 -0.39887947804068358 0 0.3002222658630766 -0.39000549128641782 0 0.28518769179166781 -0.37596770079286368 0 0.28027485175429478 -0.39887947804068358 0 0.28518769179166781 -0.37596770079286368 0 0.26431280243697258 -0.37785655570190829 0 0.28518769179166781 -0.37596770079286368 0 0.26431280243697258 -0.37785655570190829 0 0.26632297568941132 -0.39269244715201052 0 0.28518769179166781 -0.37596770079286368 0 0.26632297568941132 -0.39269244715201052 0 0.28027485175429478 -0.39887947804068358 0 0.26431280243697258 -0.37785655570190829 0 0.25190981745730479 -0.39241813327882302 0 0.24343791308227761 -0.37974541061095352 0 0.26431280243697258 -0.37785655570190829 0 0.24343791308227761 -0.37974541061095352 0 0.26431280243697258 -0.37785655570190829 0 0.25190981745730479 -0.39241813327882302 0 0.26632297568941132 -0.39269244715201052 0 0.25190981745730479 -0.39241813327882302 0 0.25944334095341959 -0.40814677203228472 0 0.2449053002495431 -0.40417195178498272 0 0.25190981745730479 -0.39241813327882302 0 0.26632297568941132 -0.39269244715201052 0 0.25944334095341959 -0.40814677203228472 0 0.28027485175429478 -0.39887947804068358 0 0.27140041408084531 -0.40795573066770191 0 0.25944334095341959 -0.40814677203228472 0 0.26632297568941132 -0.39269244715201052 0 0.28027485175429478 -0.39887947804068358 0 0.25944334095341959 -0.40814677203228472 0 0.28027485175429478 -0.39887947804068358 0 0.25944334095341959 -0.40814677203228472 0 0.28027485175429478 -0.39887947804068358 0 0.27820488219788281 -0.40853309611607808 0 0.27140041408084531 -0.40795573066770191 0 0.28027485175429478 -0.39887947804068358 0 0.27820488219788281 -0.40853309611607808 0 0.27820488219788281 -0.40853309611607808 0 0.27250913089036483 -0.43509609923120263 0 0.27820488219788281 -0.40853309611607808 0 0.268660808071704 -0.41643015124097249 0 0.27250913089036483 -0.43509609923120263 0 0.27820488219788281 -0.40853309611607808 0 0.27250913089036483 -0.43509609923120263 0 0.28783684590813458 -0.42151438718583423 0 0.27820488219788281 -0.40853309611607808 0 0.268660808071704 -0.41643015124097249 0 0.27140041408084531 -0.40795573066770191 0 0.268660808071704 -0.41643015124097249 0 0.27140041408084531 -0.40795573066770191 0 0.25944334095341959 -0.40814677203228472 0 0.268660808071704 -0.41643015124097249 0 0.25944334095341959 -0.40814677203228472 0 0.25628186615539572 -0.42775248642316771 0 0.25944334095341959 -0.40814677203228472 0 0.25628186615539572 -0.42775248642316771 0 0.23861183015254431 -0.41741406602388509 0 0.25628186615539572 -0.42775248642316771 0 0.27250913089036483 -0.43509609923120263 0 0.26057790657102092 -0.44642991080753691 0 0.268660808071704 -0.41643015124097249 0 0.25628186615539572 -0.42775248642316771 0 0.27250913089036483 -0.43509609923120263 0 0.29436154120507152 -0.43444127256326198 0 0.28783684590813458 -0.42151438718583423 0 0.30121013558604881 -0.41243453223413329 0 0.27250913089036483 -0.43509609923120263 0 0.29436154120507152 -0.43444127256326198 0 0.28783684590813458 -0.42151438718583423 0 0.29340688872313231 -0.40154194474166383 0 0.27820488219788281 -0.40853309611607808 0 0.30121013558604881 -0.41243453223413329 0 0.27820488219788281 -0.40853309611607808 0 0.28783684590813458 -0.42151438718583423 0 0.30121013558604881 -0.41243453223413329 0 0.27820488219788281 -0.40853309611607808 0 0.30121013558604881 -0.41243453223413329 0 0.32421538897421459 -0.41633596835218839 0 0.30981290843704601 -0.40127774196380278 0 0.30121013558604881 -0.41243453223413329 0 0.32421538897421459 -0.41633596835218839 0 0.30121013558604881 -0.41243453223413329 0 0.30978770746169348 -0.4254314722915149 0 0.29436154120507152 -0.43444127256326198 0 0.30978770746169348 -0.4254314722915149 0 0.31049259046883299 -0.43786044156381121 0 0.29436154120507152 -0.43444127256326198 0 0.30121013558604881 -0.41243453223413329 0 0.30978770746169348 -0.4254314722915149 0 0.32085290522883753 -0.44419437486640378 0 0.31049259046883299 -0.43786044156381121 0 0.29785988580293721 -0.45682486172109071 0 0.29436154120507152 -0.43444127256326198 0 0.31049259046883299 -0.43786044156381121 0 0.29785988580293721 -0.45682486172109071 0 0.32085290522883753 -0.44419437486640378 0 0.29785988580293721 -0.45682486172109071 0 0.31264344144568512 -0.4614866266885429 0 0.32085290522883753 -0.44419437486640378 0 0.29785988580293721 -0.45682486172109071 0 0.31264344144568512 -0.4614866266885429 0 0.29785988580293721 -0.45682486172109071 0 0.29716803071377401 -0.47790636012032639 0 0.29785988580293721 -0.45682486172109071 0 0.28147829972007937 -0.45337441089476921 0 0.27486686637703711 -0.46945534857577809 0 0.29785988580293721 -0.45682486172109071 0 0.27486686637703711 -0.46945534857577809 0 0.29785988580293721 -0.45682486172109071 0 0.27486686637703711 -0.46945534857577809 0 0.29716803071377401 -0.47790636012032639 0 0.27250913089036483 -0.43509609923120263 0 0.29436154120507152 -0.43444127256326198 0 0.28147829972007937 -0.45337441089476921 0 0.29436154120507152 -0.43444127256326198 0 0.29785988580293721 -0.45682486172109071 0 0.28147829972007937 -0.45337441089476921 0 0.27250913089036483 -0.43509609923120263 0 0.26681337958284679 -0.46165910234632712 0 0.27250913089036483 -0.43509609923120263 0 0.28147829972007937 -0.45337441089476921 0 0.26681337958284679 -0.46165910234632712 0 0.27250913089036483 -0.43509609923120263 0 0.26057790657102092 -0.44642991080753691 0 0.26681337958284679 -0.46165910234632712 0 0.25628186615539572 -0.42775248642316771 0 0.26057790657102092 -0.44642991080753691 0 0.2441889580265072 -0.44494271068258939 0 0.26057790657102092 -0.44642991080753691 0 0.24976608590047039 -0.47247135534129381 0 0.2441889580265072 -0.44494271068258939 0 0.26057790657102092 -0.44642991080753691 0 0.26681337958284679 -0.46165910234632712 0 0.24976608590047039 -0.47247135534129381 0 0.26681337958284679 -0.46165910234632712 0 0.27486686637703711 -0.46945534857577809 0 0.24976608590047039 -0.47247135534129381 0 0.28147829972007937 -0.45337441089476921 0 0.26681337958284679 -0.46165910234632712 0 0.27486686637703711 -0.46945534857577809 0 0.28100893615131312 -0.48283177595232663 0 0.27486686637703711 -0.46945534857577809 0 0.26929528530227842 -0.4865565578049425 0 0.27486686637703711 -0.46945534857577809 0 0.25172022360441149 -0.48211695854094683 0 0.24976608590047039 -0.47247135534129381 0 0.27486686637703711 -0.46945534857577809 0 0.25172022360441149 -0.48211695854094683 0 0.27486686637703711 -0.46945534857577809 0 0.25172022360441149 -0.48211695854094683 0 0.26929528530227842 -0.4865565578049425 0 0.25172022360441149 -0.48211695854094683 0 0.24976608590047039 -0.47247135534129381 0 0.25172022360441149 -0.48211695854094683 0 0.25534321377443331 -0.49999999999999822 0 0.26929528530227842 -0.4865565578049425 0 0.25172022360441149 -0.48211695854094683 0 0.25534321377443331 -0.49999999999999822 0 0.28100893615131312 -0.48283177595232663 0 0.2812438305995274 -0.5 0 0.26929528530227842 -0.4865565578049425 0 0.25534321377443331 -0.49999999999999822 0 0.2812438305995274 -0.5 0 0.26929528530227842 -0.4865565578049425 0 0.28100893615131312 -0.48283177595232663 0 0.2812438305995274 -0.5 0 0.29716803071377401 -0.47790636012032639 0 0.2812438305995274 -0.5 0 0.29716803071377401 -0.47790636012032639 0 0.30714444742462149 -0.5 0 0.28100893615131312 -0.48283177595232663 0 0.27486686637703711 -0.46945534857577809 0 0.29716803071377401 -0.47790636012032639 0 0.32694898473927642 -0.47209718743320322 0 0.29716803071377401 -0.47790636012032639 0 0.30714444742462149 -0.5 0 0.32694898473927642 -0.47209718743320322 0 0.31264344144568512 -0.4614866266885429 0 0.29716803071377401 -0.47790636012032639 0 0.33244329107924753 -0.28535143035575378 0 0.34819925771994559 -0.28030206356202159 0 0.34675974942831078 -0.29231982833132009 0 0.33244329107924753 -0.28535143035575378 0 0.33412294702566059 -0.2972960789287093 0 0.34675974942831078 -0.29231982833132009 0 0.33412294702566059 -0.2972960789287093 0 0.34675974942831078 -0.29231982833132009 0 0.34443798700166439 -0.30338377589667581 0 0.32963226266632228 -0.30781457149938929 0 0.33412294702566059 -0.2972960789287093 0 0.34443798700166439 -0.30338377589667581 0 0.34031129046277281 -0.31193462603447458 0 0.32963226266632228 -0.30781457149938929 0 0.34443798700166439 -0.30338377589667581 0 0.34031129046277281 -0.31193462603447458 0 0.32963226266632228 -0.30781457149938929 0 0.33130614120217411 -0.31543562279774151 0 0.32963226266632228 -0.30781457149938929 0 0.31734144495275812 -0.2976107885604079 0 0.32298525221457408 -0.3153891631239274 0 0.32963226266632228 -0.30781457149938929 0 0.33412294702566059 -0.2972960789287093 0 0.31734144495275812 -0.2976107885604079 0 0.31734144495275812 -0.2976107885604079 0 0.32298525221457408 -0.3153891631239274 0 0.31077356857557242 -0.32278730597241062 0 0.31734144495275812 -0.2976107885604079 0 0.31077356857557242 -0.32278730597241062 0 0.31734144495275812 -0.2976107885604079 0 0.31328990292816761 -0.28343415357217938 0 0.3239093213299406 -0.27243427114840441 0 0.33244329107924753 -0.28535143035575378 0 0.33412294702566059 -0.2972960789287093 0 0.31734144495275812 -0.2976107885604079 0 0.33244329107924753 -0.28535143035575378 0 0.31734144495275812 -0.2976107885604079 0 0.3239093213299406 -0.27243427114840441 0 0.31734144495275812 -0.2976107885604079 0 0.3239093213299406 -0.27243427114840441 0 0.3239093213299406 -0.27243427114840441 0 0.31738998976111588 -0.26053822212571559 0 0.30781331524266442 -0.27044966221256772 0 0.31328990292816761 -0.28343415357217938 0 0.3239093213299406 -0.27243427114840441 0 0.31328990292816761 -0.28343415357217938 0 0.3239093213299406 -0.27243427114840441 0 0.30781331524266442 -0.27044966221256772 0 0.32344685639206122 -0.24935119199465139 0 0.31411864482200891 -0.25042558310994151 0 0.31738998976111588 -0.26053822212571559 0 0.31411864482200891 -0.25042558310994151 0 0.31738998976111588 -0.26053822212571559 0 0.30736197549640482 -0.25723576904572543 0 0.3239093213299406 -0.27243427114840441 0 0.31738998976111588 -0.26053822212571559 0 0.32781365659419498 -0.25746785596066668 0 0.3239093213299406 -0.27243427114840441 0 0.32781365659419498 -0.25746785596066668 0 0.32344685639206122 -0.24935119199465139 0 0.31738998976111588 -0.26053822212571559 0 0.32781365659419498 -0.25746785596066668 0 0.32344685639206122 -0.24935119199465139 0 0.33376936407639252 -0.24716083501435521 0 0.32781365659419498 -0.25746785596066668 0 0.33376936407639252 -0.24716083501435521 0 0.32781365659419498 -0.25746785596066668 0 0.33812667790931328 -0.2577075464980233 0 0.3239093213299406 -0.27243427114840441 0 0.33812667790931328 -0.2577075464980233 0 0.3239093213299406 -0.27243427114840441 0 0.32781365659419498 -0.25746785596066668 0 0.33812667790931328 -0.2577075464980233 0 0.33812667790931328 -0.2577075464980233 0 0.33875100663417662 -0.27238991024154152 0 0.351076485132438 -0.26615423964350649 0 0.33244329107924753 -0.28535143035575378 0 0.33875100663417662 -0.27238991024154152 0 0.34819925771994559 -0.28030206356202159 0 0.33244329107924753 -0.28535143035575378 0 0.3239093213299406 -0.27243427114840441 0 0.33875100663417662 -0.27238991024154152 0 0.3239093213299406 -0.27243427114840441 0 0.33812667790931328 -0.2577075464980233 0 0.33875100663417662 -0.27238991024154152 0 0.33875100663417662 -0.27238991024154152 0 0.34819925771994559 -0.28030206356202159 0 0.351076485132438 -0.26615423964350649 0 0.351076485132438 -0.26615423964350649 0 0.3615349239090081 -0.27691460128495582 0 0.36379020290023228 -0.26662736461696801 0 0.34819925771994559 -0.28030206356202159 0 0.351076485132438 -0.26615423964350649 0 0.3615349239090081 -0.27691460128495582 0 0.35234403448868851 -0.2429808218476445 0 0.33812667790931328 -0.2577075464980233 0 0.35058517612702977 -0.25539691701095951 0 0.35234403448868851 -0.2429808218476445 0 0.33812667790931328 -0.2577075464980233 0 0.33812667790931328 -0.2577075464980233 0 0.351076485132438 -0.26615423964350649 0 0.35058517612702977 -0.25539691701095951 0 0.351076485132438 -0.26615423964350649 0 0.36051999124822331 -0.25514121804962792 0 0.36379020290023228 -0.26662736461696801 0 0.351076485132438 -0.26615423964350649 0 0.35058517612702977 -0.25539691701095951 0 0.36051999124822331 -0.25514121804962792 0 0.35234403448868851 -0.2429808218476445 0 0.35058517612702977 -0.25539691701095951 0 0.36051999124822331 -0.25514121804962792 0 0.36855982724803948 -0.2472246143488819 0 0.36051999124822331 -0.25514121804962792 0 0.37210088781197342 -0.25921768618074748 0 0.36051999124822331 -0.25514121804962792 0 0.37210088781197342 -0.25921768618074748 0 0.36379020290023228 -0.26662736461696801 0 0.36855982724803948 -0.2472246143488819 0 0.38019879772559811 -0.25299849313564698 0 0.37210088781197342 -0.25921768618074748 0 0.37502938507144801 -0.27164044876046539 0 0.3615349239090081 -0.27691460128495582 0 0.36379020290023228 -0.26662736461696801 0 0.37502938507144801 -0.27164044876046539 0 0.37210088781197342 -0.25921768618074748 0 0.36379020290023228 -0.26662736461696801 0 0.37502938507144801 -0.27164044876046539 0 0.3615349239090081 -0.27691460128495582 0 0.37219996021314811 -0.2847380110165515 0 0.37219996021314811 -0.2847380110165515 0 0.3715544674884147 -0.29598840456977737 0 0.35996238872594027 -0.28830480160716387 0 0.37899937892576191 -0.29068825591381098 0 0.37219996021314811 -0.2847380110165515 0 0.3715544674884147 -0.29598840456977737 0 0.3715544674884147 -0.29598840456977737 0 0.35996238872594027 -0.28830480160716387 0 0.35952597359681521 -0.29956590087835711 0 0.3615349239090081 -0.27691460128495582 0 0.37219996021314811 -0.2847380110165515 0 0.35996238872594027 -0.28830480160716387 0 0.34819925771994559 -0.28030206356202159 0 0.35996238872594027 -0.28830480160716387 0 0.34675974942831078 -0.29231982833132009 0 0.34819925771994559 -0.28030206356202159 0 0.3615349239090081 -0.27691460128495582 0 0.35996238872594027 -0.28830480160716387 0 0.35996238872594027 -0.28830480160716387 0 0.34675974942831078 -0.29231982833132009 0 0.35952597359681521 -0.29956590087835711 0 0.34031129046277281 -0.31193462603447458 0 0.34443798700166439 -0.30338377589667581 0 0.35425789750604031 -0.31305130549642141 0 0.34675974942831078 -0.29231982833132009 0 0.34443798700166439 -0.30338377589667581 0 0.35952597359681521 -0.29956590087835711 0 0.34443798700166439 -0.30338377589667581 0 0.35952597359681521 -0.29956590087835711 0 0.35425789750604031 -0.31305130549642141 0 0.35952597359681521 -0.29956590087835711 0 0.37283960130938609 -0.30861878246382202 0 0.35425789750604031 -0.31305130549642141 0 0.3715544674884147 -0.29598840456977737 0 0.35952597359681521 -0.29956590087835711 0 0.37283960130938609 -0.30861878246382202 0 0.37283960130938609 -0.30861878246382202 0 0.36945891216851728 -0.3211985425022521 0 0.35425789750604031 -0.31305130549642141 0 0.36945891216851728 -0.3211985425022521 0 0.36944291519131789 -0.33217738901249683 0 0.35271651939061588 -0.32469393827326409 0 0.36944291519131789 -0.33217738901249683 0 0.36576712052872812 -0.34286093062566692 0 0.35271651939061588 -0.32469393827326409 0 0.38272714223296611 -0.33113896238911927 0 0.36945891216851728 -0.3211985425022521 0 0.36944291519131789 -0.33217738901249683 0 0.37654488163576172 -0.34099457127218158 0 0.36944291519131789 -0.33217738901249683 0 0.36576712052872812 -0.34286093062566692 0 0.36576712052872812 -0.34286093062566692 0 0.35271651939061588 -0.32469393827326409 0 0.35271651939061588 -0.32469393827326409 0 0.35571382932710871 -0.3463593856412287 0 0.34230909370535401 -0.33076377370702331 0 0.36576712052872812 -0.34286093062566692 0 0.35271651939061588 -0.32469393827326409 0 0.35571382932710871 -0.3463593856412287 0 0.35571382932710871 -0.3463593856412287 0 0.3450841996926135 -0.34579473945649891 0 0.34230909370535401 -0.33076377370702331 0 0.35271651939061588 -0.32469393827326409 0 0.34051499861251 -0.32196357242610429 0 0.34230909370535401 -0.33076377370702331 0 0.36945891216851728 -0.3211985425022521 0 0.35425789750604031 -0.31305130549642141 0 0.35271651939061588 -0.32469393827326409 0 0.35425789750604031 -0.31305130549642141 0 0.35271651939061588 -0.32469393827326409 0 0.34051499861251 -0.32196357242610429 0 0.34031129046277281 -0.31193462603447458 0 0.35425789750604031 -0.31305130549642141 0 0.34051499861251 -0.32196357242610429 0 0.3562758157408264 -0.37931791609134802 0 0.36731866303223892 -0.37035799932238261 0 0.3657943594261559 -0.36867404297862649 0 0.36731866303223892 -0.37035799932238261 0 0.35848486232825738 -0.36933543951306702 0 0.3562758157408264 -0.37931791609134802 0 0.36731866303223892 -0.37035799932238261 0 0.35848486232825738 -0.36933543951306702 0 0.3657943594261559 -0.36867404297862649 0 0.35848486232825738 -0.36933543951306702 0 0.3657943594261559 -0.36867404297862649 0 0.36827388495133428 -0.36844968423445662 0 0.36607206832689188 -0.36470591071742448 0 0.3657943594261559 -0.36867404297862649 0 0.36827388495133428 -0.36844968423445662 0 0.3657943594261559 -0.36867404297862649 0 0.36731866303223892 -0.37035799932238261 0 0.36827388495133428 -0.36844968423445662 0 0.3657943594261559 -0.36867404297862649 0 0.36731866303223892 -0.37035799932238261 0 0.37881772166683753 -0.3610279229780719 0 0.3782268157896953 -0.37202312342517568 0 0.36731866303223892 -0.37035799932238261 0 0.37881772166683753 -0.3610279229780719 0 0.36731866303223892 -0.37035799932238261 0 0.37881772166683753 -0.3610279229780719 0 0.36827388495133428 -0.36844968423445662 0 0.36791343119689929 -0.36033830276400403 0 0.37881772166683753 -0.3610279229780719 0 0.36731866303223892 -0.37035799932238261 0 0.36827388495133428 -0.36844968423445662 0 0.36827388495133428 -0.36844968423445662 0 0.36791343119689929 -0.36033830276400403 0 0.36607206832689188 -0.36470591071742448 0 0.36791343119689929 -0.36033830276400403 0 0.36607206832689188 -0.36470591071742448 0 0.36003838788856929 -0.36231520163855102 0 0.3657943594261559 -0.36867404297862649 0 0.36607206832689188 -0.36470591071742448 0 0.36003838788856929 -0.36231520163855102 0 0.3657943594261559 -0.36867404297862649 0 0.36003838788856929 -0.36231520163855102 0 0.35848486232825738 -0.36933543951306702 0 0.3657943594261559 -0.36867404297862649 0 0.36003838788856929 -0.36231520163855102 0 0.37881772166683753 -0.3610279229780719 0 0.37654488163576172 -0.34099457127218158 0 0.36576712052872812 -0.34286093062566692 0 0.37881772166683753 -0.3610279229780719 0 0.36576712052872812 -0.34286093062566692 0 0.36791343119689929 -0.36033830276400403 0 0.37881772166683753 -0.3610279229780719 0 0.36576712052872812 -0.34286093062566692 0 0.36576712052872812 -0.34286093062566692 0 0.36791343119689929 -0.36033830276400403 0 0.36160776752654461 -0.35522332065800838 0 0.36791343119689929 -0.36033830276400403 0 0.36003838788856929 -0.36231520163855102 0 0.36160776752654461 -0.35522332065800838 0 0.36003838788856929 -0.36231520163855102 0 0.36160776752654461 -0.35522332065800838 0 0.36576712052872812 -0.34286093062566692 0 0.36160776752654461 -0.35522332065800838 0 0.35571382932710871 -0.3463593856412287 0 0.36003838788856929 -0.36231520163855102 0 0.35571382932710871 -0.3463593856412287 0 0.3450841996926135 -0.34579473945649891 0 0.36003838788856929 -0.36231520163855102 0 0.3450841996926135 -0.34579473945649891 0 0.36003838788856929 -0.36231520163855102 0 0.36160776752654461 -0.35522332065800838 0 0.35571382932710871 -0.3463593856412287 0 0.36003838788856929 -0.36231520163855102 0 0.3450841996926135 -0.34579473945649891 0 0.34557702190705242 -0.36279702135916692 0 0.3562758157408264 -0.37931791609134802 0 0.35848486232825738 -0.36933543951306702 0 0.33405247214939432 -0.37154619327299993 0 0.34557702190705242 -0.36279702135916692 0 0.35848486232825738 -0.36933543951306702 0 0.33405247214939432 -0.37154619327299993 0 0.35848486232825738 -0.36933543951306702 0 0.33405247214939432 -0.37154619327299993 0 0.36003838788856929 -0.36231520163855102 0 0.34557702190705242 -0.36279702135916692 0 0.35848486232825738 -0.36933543951306702 0 0.36003838788856929 -0.36231520163855102 0 0.35848486232825738 -0.36933543951306702 0 0.3562758157408264 -0.37931791609134802 0 0.35848486232825738 -0.36933543951306702 0 0.34557702190705242 -0.36279702135916692 0 0.33405247214939432 -0.37154619327299993 0 0.32609852365801612 -0.34990898515927749 0 0.3450841996926135 -0.34579473945649891 0 0.34557702190705242 -0.36279702135916692 0 0.32609852365801612 -0.34990898515927749 0 0.3450841996926135 -0.34579473945649891 0 0.32609852365801612 -0.34990898515927749 0 0.32681514086623648 -0.338996769373131 0 0.32609852365801612 -0.34990898515927749 0 0.31567271332834052 -0.36000346153503038 0 0.30603208778501201 -0.34096273541515448 0 0.33405247214939432 -0.37154619327299993 0 0.32609852365801612 -0.34990898515927749 0 0.31567271332834052 -0.36000346153503038 0 0.33405247214939432 -0.37154619327299993 0 0.31567271332834052 -0.36000346153503038 0 0.30962008197053098 -0.37375694703293161 0 0.33405247214939432 -0.37154619327299993 0 0.30962008197053098 -0.37375694703293161 0 0.33230407364487868 -0.32320427974727739 0 0.34230909370535401 -0.33076377370702331 0 0.33013001149665822 -0.32927427727444608 0 0.33230407364487868 -0.32320427974727739 0 0.33130614120217411 -0.31543562279774151 0 0.34051499861251 -0.32196357242610429 0 0.33230407364487868 -0.32320427974727739 0 0.33130614120217411 -0.31543562279774151 0 0.32298525221457408 -0.3153891631239274 0 0.34031129046277281 -0.31193462603447458 0 0.33130614120217411 -0.31543562279774151 0 0.34051499861251 -0.32196357242610429 0 0.33230407364487868 -0.32320427974727739 0 0.34051499861251 -0.32196357242610429 0 0.34230909370535401 -0.33076377370702331 0 0.3450841996926135 -0.34579473945649891 0 0.34230909370535401 -0.33076377370702331 0 0.33013001149665822 -0.32927427727444608 0 0.3450841996926135 -0.34579473945649891 0 0.33013001149665822 -0.32927427727444608 0 0.32681514086623648 -0.338996769373131 0 0.3450841996926135 -0.34579473945649891 0 0.33013001149665822 -0.32927427727444608 0 0.32609852365801612 -0.34990898515927749 0 0.31768195312032182 -0.33429569486794519 0 0.30603208778501201 -0.34096273541515448 0 0.33013001149665822 -0.32927427727444608 0 0.32681514086623648 -0.338996769373131 0 0.31768195312032182 -0.33429569486794519 0 0.33013001149665822 -0.32927427727444608 0 0.31768195312032182 -0.33429569486794519 0 0.31077356857557242 -0.32278730597241062 0 0.32609852365801612 -0.34990898515927749 0 0.32681514086623648 -0.338996769373131 0 0.31768195312032182 -0.33429569486794519 0 0.33230407364487868 -0.32320427974727739 0 0.32298525221457408 -0.3153891631239274 0 0.31077356857557242 -0.32278730597241062 0 0.33230407364487868 -0.32320427974727739 0 0.31077356857557242 -0.32278730597241062 0 0.33230407364487868 -0.32320427974727739 0 0.33013001149665822 -0.32927427727444608 0 0.31077356857557242 -0.32278730597241062 0 0.32963226266632228 -0.30781457149938929 0 0.33130614120217411 -0.31543562279774151 0 0.32298525221457408 -0.3153891631239274 0 0.31077356857557242 -0.32278730597241062 0 0.29664950932313522 -0.32251377024791528 0 0.30685875184446582 -0.30933647519417262 0 0.31077356857557242 -0.32278730597241062 0 0.29664950932313522 -0.32251377024791528 0 0.31077356857557242 -0.32278730597241062 0 0.30603208778501201 -0.34096273541515448 0 0.31768195312032182 -0.33429569486794519 0 0.31077356857557242 -0.32278730597241062 0 0.30603208778501201 -0.34096273541515448 0 0.30603208778501201 -0.34096273541515448 0 0.29664950932313522 -0.32251377024791528 0 0.29091860055740182 -0.34924073552038948 0 0.31077356857557242 -0.32278730597241062 0 0.30603208778501201 -0.34096273541515448 0 0.29664950932313522 -0.32251377024791528 0 0.29664950932313522 -0.32251377024791528 0 0.29091860055740182 -0.34924073552038948 0 0.28552705545024237 -0.33277511934173809 0 0.29664950932313522 -0.32251377024791528 0 0.29091860055740182 -0.34924073552038948 0 0.28552705545024237 -0.33277511934173809 0 0.29091860055740182 -0.34924073552038948 0 0.28010968734453079 -0.33989586360279689 0 0.29664950932313522 -0.32251377024791528 0 0.27594900546763751 -0.32211287081677842 0 0.29664950932313522 -0.32251377024791528 0 0.27594900546763751 -0.32211287081677842 0 0.28930974499701673 -0.30827345340636692 0 0.28552705545024237 -0.33277511934173809 0 0.29664950932313522 -0.32251377024791528 0 0.27594900546763751 -0.32211287081677842 0 0.27594900546763751 -0.32211287081677842 0 0.28930974499701673 -0.30827345340636692 0 0.28518769179166781 -0.37596770079286368 0 0.30962008197053098 -0.37375694703293161 0 0.30129060699445198 -0.35913816485789862 0 0.28518769179166781 -0.37596770079286368 0 0.30962008197053098 -0.37375694703293161 0 0.31567271332834052 -0.36000346153503038 0 0.30962008197053098 -0.37375694703293161 0 0.30129060699445198 -0.35913816485789862 0 0.30603208778501201 -0.34096273541515448 0 0.30129060699445198 -0.35913816485789862 0 0.31567271332834052 -0.36000346153503038 0 0.30603208778501201 -0.34096273541515448 0 0.30129060699445198 -0.35913816485789862 0 0.30603208778501201 -0.34096273541515448 0 0.30129060699445198 -0.35913816485789862 0 0.29091860055740182 -0.34924073552038948 0 0.29091860055740182 -0.34924073552038948 0 0.27615474213792141 -0.34799501084082551 0 0.28010968734453079 -0.33989586360279689 0 0.28518769179166781 -0.37596770079286368 0 0.29091860055740182 -0.34924073552038948 0 0.28518769179166781 -0.37596770079286368 0 0.29091860055740182 -0.34924073552038948 0 0.27289984542303031 -0.36045347392196608 0 0.28518769179166781 -0.37596770079286368 0 0.30129060699445198 -0.35913816485789862 0 0.29091860055740182 -0.34924073552038948 0 0.28518769179166781 -0.37596770079286368 0 0.26431280243697258 -0.37785655570190829 0 0.27289984542303031 -0.36045347392196608 0 0.29091860055740182 -0.34924073552038948 0 0.27289984542303031 -0.36045347392196608 0 0.27615474213792141 -0.34799501084082551 0 0.27289984542303031 -0.36045347392196608 0 0.27615474213792141 -0.34799501084082551 0 0.26604660316599182 -0.34786916780896432 0 0.27615474213792141 -0.34799501084082551 0 0.26604660316599182 -0.34786916780896432 0 0.27234907410729159 -0.33787357125324768 0 0.27289984542303031 -0.36045347392196608 0 0.26604660316599182 -0.34786916780896432 0 0.25594967533553259 -0.36243180584397888 0 0.26604660316599182 -0.34786916780896432 0 0.2523005366625608 -0.34660859803238642 0 0.25594967533553259 -0.36243180584397888 0 0.26431280243697258 -0.37785655570190829 0 0.27289984542303031 -0.36045347392196608 0 0.25594967533553259 -0.36243180584397888 0 0.26431280243697258 -0.37785655570190829 0 0.25594967533553259 -0.36243180584397888 0 0.24343791308227761 -0.37974541061095352 0 0.27594900546763751 -0.32211287081677842 0 0.26681270227593729 -0.33157650216592111 0 0.25818990822885868 -0.3217689365806799 0 0.27594900546763751 -0.32211287081677842 0 0.25818990822885868 -0.3217689365806799 0 0.26369944557426001 -0.30915703977578329 0 0.27594900546763751 -0.32211287081677842 0 0.25818990822885868 -0.3217689365806799 0 0.27594900546763751 -0.32211287081677842 0 0.26681270227593729 -0.33157650216592111 0 0.28552705545024237 -0.33277511934173809 0 0.27594900546763751 -0.32211287081677842 0 0.27559896446979709 -0.33159488105778379 0 0.28552705545024237 -0.33277511934173809 0 0.27559896446979709 -0.33159488105778379 0 0.28010968734453079 -0.33989586360279689 0 0.26604660316599182 -0.34786916780896432 0 0.27234907410729159 -0.33787357125324768 0 0.26681270227593729 -0.33157650216592111 0 0.27559896446979709 -0.33159488105778379 0 0.28010968734453079 -0.33989586360279689 0 0.27234907410729159 -0.33787357125324768 0 0.27615474213792141 -0.34799501084082551 0 0.28010968734453079 -0.33989586360279689 0 0.27234907410729159 -0.33787357125324768 0 0.27594900546763751 -0.32211287081677842 0 0.27559896446979709 -0.33159488105778379 0 0.26681270227593729 -0.33157650216592111 0 0.27559896446979709 -0.33159488105778379 0 0.27234907410729159 -0.33787357125324768 0 0.26681270227593729 -0.33157650216592111 0 0.27234907410729159 -0.33787357125324768 0 0.26681270227593729 -0.33157650216592111 0 0.26681270227593729 -0.33157650216592111 0 0.25911098952020828 -0.32903742405375042 0 0.25483210627181607 -0.33390609778340719 0 0.26604660316599182 -0.34786916780896432 0 0.2523005366625608 -0.34660859803238642 0 0.26681270227593729 -0.33157650216592111 0 0.2523005366625608 -0.34660859803238642 0 0.26681270227593729 -0.33157650216592111 0 0.2523005366625608 -0.34660859803238642 0 0.26681270227593729 -0.33157650216592111 0 0.25483210627181607 -0.33390609778340719 0 0.2523005366625608 -0.34660859803238642 0 0.25483210627181607 -0.33390609778340719 0 0.24394719177421731 -0.33778803314250422 0 0.25911098952020828 -0.32903742405375042 0 0.25483210627181607 -0.33390609778340719 0 0.25457166962501487 -0.3270859613345572 0 0.25483210627181607 -0.33390609778340719 0 0.25457166962501487 -0.3270859613345572 0 0.24788449176679389 -0.32926237428205057 0 0.25091027278204919 -0.32510184442434648 0 0.25457166962501487 -0.3270859613345572 0 0.24788449176679389 -0.32926237428205057 0 0.25091027278204919 -0.32510184442434648 0 0.25301088374537017 -0.32350384512407032 0 0.25457166962501487 -0.3270859613345572 0 0.25091027278204919 -0.32510184442434648 0 0.25066752397543512 -0.32162325319108698 0 0.25301088374537017 -0.32350384512407032 0 0.25066752397543512 -0.32162325319108698 0 0.25818990822885868 -0.3217689365806799 0 0.25301088374537017 -0.32350384512407032 0 0.25457166962501487 -0.3270859613345572 0 0.25818990822885868 -0.3217689365806799 0 0.25066752397543512 -0.32162325319108698 0 0.25301088374537017 -0.32350384512407032 0 0.25818990822885868 -0.3217689365806799 0 0.25911098952020828 -0.32903742405375042 0 0.25457166962501487 -0.3270859613345572 0 0.25818990822885868 -0.3217689365806799 0 0.26681270227593729 -0.33157650216592111 0 0.25818990822885868 -0.3217689365806799 0 0.26681270227593729 -0.33157650216592111 0 0.25911098952020828 -0.32903742405375042 0 0.25818990822885868 -0.3217689365806799 0 0.25818990822885868 -0.3217689365806799 0 0.26369944557426001 -0.30915703977578329 0 0.24914169140544901 -0.31147749514759709 0 0.25066752397543512 -0.32162325319108698 0 0.25818990822885868 -0.3217689365806799 0 0.24914169140544901 -0.31147749514759709 0 0.25818990822885868 -0.3217689365806799 0 0.24914169140544901 -0.31147749514759709 0 0.26369944557426001 -0.30915703977578329 0 0.25661074055722921 -0.2967385339708567 0 0.24914169140544901 -0.31147749514759709 0 0.25661074055722921 -0.2967385339708567 0 0.24537170200185721 -0.28640960692199158 0 0.24914169140544901 -0.31147749514759709 0 0.26369944557426001 -0.30915703977578329 0 0.25661074055722921 -0.2967385339708567 0 0.26887758693149427 -0.29359631810463599 0 0.25872838647211899 -0.28607205409963188 0 0.25602759884384718 -0.27321073324572531 0 0.24537170200185721 -0.28640960692199158 0 0.25661074055722921 -0.2967385339708567 0 0.25872838647211899 -0.28607205409963188 0 0.24537170200185721 -0.28640960692199158 0 0.25661074055722921 -0.2967385339708567 0 0.25872838647211899 -0.28607205409963188 0 0.26887758693149427 -0.29359631810463599 0 0.25872838647211899 -0.28607205409963188 0 0.26887758693149427 -0.29359631810463599 0 0.26675430402616729 -0.2804050782549502 0 0.26887758693149427 -0.29359631810463599 0 0.27773996244135279 -0.28213102965556752 0 0.28539335139025829 -0.2935893733838062 0 0.26887758693149427 -0.29359631810463599 0 0.27773996244135279 -0.28213102965556752 0 0.26675430402616729 -0.2804050782549502 0 0.27594900546763751 -0.32211287081677842 0 0.26369944557426001 -0.30915703977578329 0 0.27664582687213313 -0.30534581109747388 0 0.27594900546763751 -0.32211287081677842 0 0.27664582687213313 -0.30534581109747388 0 0.28930974499701673 -0.30827345340636692 0 0.26887758693149427 -0.29359631810463599 0 0.27664582687213313 -0.30534581109747388 0 0.28539335139025829 -0.2935893733838062 0 0.26369944557426001 -0.30915703977578329 0 0.26887758693149427 -0.29359631810463599 0 0.27664582687213313 -0.30534581109747388 0 0.28930974499701673 -0.30827345340636692 0 0.28539335139025829 -0.2935893733838062 0 0.30267048452639739 -0.29443403599595702 0 0.29664950932313522 -0.32251377024791528 0 0.28930974499701673 -0.30827345340636692 0 0.30267048452639739 -0.29443403599595702 0 0.28930974499701673 -0.30827345340636692 0 0.30267048452639739 -0.29443403599595702 0 0.27664582687213313 -0.30534581109747388 0 0.28930974499701673 -0.30827345340636692 0 0.28539335139025829 -0.2935893733838062 0 0.28539335139025829 -0.2935893733838062 0 0.29534239876198048 -0.28314779048757288 0 0.30267048452639739 -0.29443403599595702 0 0.27773996244135279 -0.28213102965556752 0 0.28539335139025829 -0.2935893733838062 0 0.28672200403739229 -0.28380156436416709 0 0.28539335139025829 -0.2935893733838062 0 0.28672200403739229 -0.28380156436416709 0 0.29534239876198048 -0.28314779048757288 0 0.31328990292816761 -0.28343415357217938 0 0.30267048452639739 -0.29443403599595702 0 0.30781331524266442 -0.27044966221256772 0 0.29534239876198048 -0.28314779048757288 0 0.30267048452639739 -0.29443403599595702 0 0.30781331524266442 -0.27044966221256772 0 0.30267048452639739 -0.29443403599595702 0 0.30781331524266442 -0.27044966221256772 0 0.31328990292816761 -0.28343415357217938 0 0.30267048452639739 -0.29443403599595702 0 0.31734144495275812 -0.2976107885604079 0 0.31328990292816761 -0.28343415357217938 0 0.30267048452639739 -0.29443403599595702 0 0.29664950932313522 -0.32251377024791528 0 0.30267048452639739 -0.29443403599595702 0 0.29664950932313522 -0.32251377024791528 0 0.30267048452639739 -0.29443403599595702 0 0.30685875184446582 -0.30933647519417262 0 0.31734144495275812 -0.2976107885604079 0 0.31077356857557242 -0.32278730597241062 0 0.30685875184446582 -0.30933647519417262 0 0.31734144495275812 -0.2976107885604079 0 0.30267048452639739 -0.29443403599595702 0 0.30685875184446582 -0.30933647519417262 0 0.29863487195359673 -0.26233345266678559 0 0.30736197549640482 -0.25723576904572543 0 0.30781331524266442 -0.27044966221256772 0 0.29863487195359673 -0.26233345266678559 0 0.29946581785159798 -0.25169865608409547 0 0.30736197549640482 -0.25723576904572543 0 0.30555096608421928 -0.24652165195996231 0 0.29946581785159798 -0.25169865608409547 0 0.30736197549640482 -0.25723576904572543 0 0.30555096608421928 -0.24652165195996231 0 0.31411864482200891 -0.25042558310994151 0 0.30736197549640482 -0.25723576904572543 0 0.31738998976111588 -0.26053822212571559 0 0.30736197549640482 -0.25723576904572543 0 0.30781331524266442 -0.27044966221256772 0 0.29534239876198048 -0.28314779048757288 0 0.30781331524266442 -0.27044966221256772 0 0.29411283861319049 -0.2734643164813671 0 0.29863487195359673 -0.26233345266678559 0 0.30781331524266442 -0.27044966221256772 0 0.29411283861319049 -0.2734643164813671 0 0.29863487195359673 -0.26233345266678559 0 0.29411283861319049 -0.2734643164813671 0 0.2902991398198882 -0.26497053724128927 0 0.29411283861319049 -0.2734643164813671 0 0.28409514670850627 -0.27261426501047881 0 0.2902991398198882 -0.26497053724128927 0 0.28672200403739229 -0.28380156436416709 0 0.29534239876198048 -0.28314779048757288 0 0.29411283861319049 -0.2734643164813671 0 0.27773996244135279 -0.28213102965556752 0 0.28672200403739229 -0.28380156436416709 0 0.28409514670850627 -0.27261426501047881 0 0.28672200403739229 -0.28380156436416709 0 0.29411283861319049 -0.2734643164813671 0 0.28409514670850627 -0.27261426501047881 0 0.28409514670850627 -0.27261426501047881 0 0.2825442857454375 -0.25851241557815169 0 0.2902991398198882 -0.26497053724128927 0 0.2825442857454375 -0.25851241557815169 0 0.2902991398198882 -0.26497053724128927 0 0.29146230227196518 -0.25721119884641658 0 0.29863487195359673 -0.26233345266678559 0 0.2902991398198882 -0.26497053724128927 0 0.29146230227196518 -0.25721119884641658 0 0.28582829497852708 -0.2489698592912391 0 0.29946581785159798 -0.25169865608409547 0 0.29146230227196518 -0.25721119884641658 0 0.29863487195359673 -0.26233345266678559 0 0.29946581785159798 -0.25169865608409547 0 0.29146230227196518 -0.25721119884641658 0 0.28582829497852708 -0.2489698592912391 0 0.2825442857454375 -0.25851241557815169 0 0.29146230227196518 -0.25721119884641658 0 0.28582829497852708 -0.2489698592912391 0 0.2825442857454375 -0.25851241557815169 0 0.27304168428005932 -0.25511452468494911 0 0.2825442857454375 -0.25851241557815169 0 0.27304168428005932 -0.25511452468494911 0 0.2745973815542983 -0.26877957881536679 0 0.27304168428005932 -0.25511452468494911 0 0.26308247990981082 -0.25481592375074402 0 0.26431926958566021 -0.26421374065543862 0 0.27304168428005932 -0.25511452468494911 0 0.2745973815542983 -0.26877957881536679 0 0.26431926958566021 -0.26421374065543862 0 0.26515546647560329 -0.2452269789710273 0 0.27304168428005932 -0.25511452468494911 0 0.26308247990981082 -0.25481592375074402 0 0.2745973815542983 -0.26877957881536679 0 0.26675430402616729 -0.2804050782549502 0 0.26431926958566021 -0.26421374065543862 0 0.27773996244135279 -0.28213102965556752 0 0.28409514670850627 -0.27261426501047881 0 0.2745973815542983 -0.26877957881536679 0 0.28409514670850627 -0.27261426501047881 0 0.2825442857454375 -0.25851241557815169 0 0.2745973815542983 -0.26877957881536679 0 0.27773996244135279 -0.28213102965556752 0 0.2745973815542983 -0.26877957881536679 0 0.26675430402616729 -0.2804050782549502 0 0.26675430402616729 -0.2804050782549502 0 0.25602759884384718 -0.27321073324572531 0 0.26431926958566021 -0.26421374065543862 0 0.25602759884384718 -0.27321073324572531 0 0.2492314445604599 -0.26746644266421699 0 0.24537170200185721 -0.28640960692199158 0 0.25872838647211899 -0.28607205409963188 0 0.26675430402616729 -0.2804050782549502 0 0.25602759884384718 -0.27321073324572531 0 0.25602759884384718 -0.27321073324572531 0 0.26431926958566021 -0.26421374065543862 0 0.25594058061893199 -0.26077324329184981 0 0.25602759884384718 -0.27321073324572531 0 0.25594058061893199 -0.26077324329184981 0 0.2492314445604599 -0.26746644266421699 0 0.26308247990981082 -0.25481592375074402 0 0.25594058061893199 -0.26077324329184981 0 0.25592431973638508 -0.25133284336755879 0 0.26515546647560329 -0.2452269789710273 0 0.26308247990981082 -0.25481592375074402 0 0.25592431973638508 -0.25133284336755879 0 0.26308247990981082 -0.25481592375074402 0 0.26431926958566021 -0.26421374065543862 0 0.25594058061893199 -0.26077324329184981 0 0.25594058061893199 -0.26077324329184981 0 0.2499231222373636 -0.25753241138022009 0 0.2492314445604599 -0.26746644266421699 0 0.25592431973638508 -0.25133284336755879 0 0.2499231222373636 -0.25753241138022009 0 0.2470672804731909 -0.24755278856537619 0 0.25594058061893199 -0.26077324329184981 0 0.25592431973638508 -0.25133284336755879 0 0.2499231222373636 -0.25753241138022009 0 0.24160171259826549 -0.26134171869638601 0 0.2400583360995556 -0.25107930535304163 0 0.2470672804731909 -0.24755278856537619 0 0.2400583360995556 -0.25107930535304163 0 0.23468598679651889 -0.26564507716480962 0 0.23007816636152631 -0.2498591943768852 0 0.2499231222373636 -0.25753241138022009 0 0.24160171259826549 -0.26134171869638601 0 0.2470672804731909 -0.24755278856537619 0 0.2499231222373636 -0.25753241138022009 0 0.24160171259826549 -0.26134171869638601 0 0.2492314445604599 -0.26746644266421699 0 0.24160171259826549 -0.26134171869638601 0 0.2400583360995556 -0.25107930535304163 0 0.23468598679651889 -0.26564507716480962 0 0.2400583360995556 -0.25107930535304163 0 0.23468598679651889 -0.26564507716480962 0 0.24160171259826549 -0.26134171869638601 0 0.2400583360995556 -0.25107930535304163 0 0.24160171259826549 -0.26134171869638601 0 0.24537170200185721 -0.28640960692199158 0 0.24160171259826549 -0.26134171869638601 0 0.2492314445604599 -0.26746644266421699 0 0.24537170200185721 -0.28640960692199158 0 0.24160171259826549 -0.26134171869638601 0 0.23860729694465971 -0.27503922231888023 0 0.24537170200185721 -0.28640960692199158 0 0.23468598679651889 -0.26564507716480962 0 0.23860729694465971 -0.27503922231888023 0 0.23460585750441301 -0.27828656804475299 0 0.24160171259826549 -0.26134171869638601 0 0.23468598679651889 -0.26564507716480962 0 0.23860729694465971 -0.27503922231888023 0 0.23860729694465971 -0.27503922231888023 0 0.23460585750441301 -0.27828656804475299 0 0.23745090314562259 -0.28235823808966798 0 0.23460585750441301 -0.27828656804475299 0 0.2318039817377098 -0.28261164192218741 0 0.23745090314562259 -0.28235823808966798 0 0.23468598679651889 -0.26564507716480962 0 0.23460585750441301 -0.27828656804475299 0 0.22979667712992069 -0.28013820407348461 0 0.23460585750441301 -0.27828656804475299 0 0.22979667712992069 -0.28013820407348461 0 0.2318039817377098 -0.28261164192218741 0 0.23468598679651889 -0.26564507716480962 0 0.22979667712992069 -0.28013820407348461 0 0.22179951233593509 -0.27028394976300157 0 0.23468598679651889 -0.26564507716480962 0 0.22979667712992069 -0.28013820407348461 0 0.22179951233593509 -0.27028394976300157 0 0.21956429720342319 -0.27579858078584568 0 0.22979667712992069 -0.28013820407348461 0 0.22179951233593509 -0.27028394976300157 0 0.21956429720342319 -0.27579858078584568 0 0.22979667712992069 -0.28013820407348461 0 0.21956429720342319 -0.27579858078584568 0 0.2208889289415136 -0.2793428043134733 0 0.22979667712992069 -0.28013820407348461 0 0.22179951233593509 -0.27028394976300157 0 0.22179951233593509 -0.27028394976300157 0 0.23007816636152631 -0.2498591943768852 0 0.2044906400999788 -0.2489556373879889 0 0.23468598679651889 -0.26564507716480962 0 0.22179951233593509 -0.27028394976300157 0 0.23007816636152631 -0.2498591943768852 0 0.22179951233593509 -0.27028394976300157 0 0.23007816636152631 -0.2498591943768852 0 0.22179951233593509 -0.27028394976300157 0 0.2044906400999788 -0.2489556373879889 0 0.22179951233593509 -0.27028394976300157 0 0.20906883947940119 -0.27109167778056381 0 0.2044906400999788 -0.2489556373879889 0 0.22179951233593509 -0.27028394976300157 0 0.21956429720342319 -0.27579858078584568 0 0.20906883947940119 -0.27109167778056381 0 0.21956429720342319 -0.27579858078584568 0 0.21415934257522801 -0.279838297569934 0 0.20906883947940119 -0.27109167778056381 0 0.21956429720342319 -0.27579858078584568 0 0.2208889289415136 -0.2793428043134733 0 0.21415934257522801 -0.279838297569934 0 0.21415934257522801 -0.279838297569934 0 0.2045227052445662 -0.28124950424997391 0 0.20906883947940119 -0.27109167778056381 0 0.2045227052445662 -0.28124950424997391 0 0.1898765394172798 -0.27042409692663971 0 0.19155747453396541 -0.2871073875707929 0 0.2045227052445662 -0.28124950424997391 0 0.20906883947940119 -0.27109167778056381 0 0.1898765394172798 -0.27042409692663971 0 0.1898765394172798 -0.27042409692663971 0 0.2044906400999788 -0.2489556373879889 0 0.1898765394172798 -0.27042409692663971 0 0.18942126622895031 -0.25174801191084523 0 0.2044906400999788 -0.2489556373879889 0 0.20906883947940119 -0.27109167778056381 0 0.1898765394172798 -0.27042409692663971 0 0.2044906400999788 -0.2489556373879889 0 0.19617287124919611 -0.30530837602351513 0 0.20114158067748031 -0.31701576810061788 0 0.18508776036532859 -0.31386523558503282 0 0.19617287124919611 -0.30530837602351513 0 0.2010964659458479 -0.29326630299492479 0 0.20650932592977411 -0.30369009621986648 0 0.19617287124919611 -0.30530837602351513 0 0.20650932592977411 -0.30369009621986648 0 0.20114158067748031 -0.31701576810061788 0 0.19617287124919611 -0.30530837602351513 0 0.18508776036532859 -0.31386523558503282 0 0.18702922332754951 -0.29870447721713372 0 0.19617287124919611 -0.30530837602351513 0 0.2010964659458479 -0.29326630299492479 0 0.18702922332754951 -0.29870447721713372 0 0.19155747453396541 -0.2871073875707929 0 0.2010964659458479 -0.29326630299492479 0 0.18702922332754951 -0.29870447721713372 0 0.2045227052445662 -0.28124950424997391 0 0.19155747453396541 -0.2871073875707929 0 0.2010964659458479 -0.29326630299492479 0 0.2010964659458479 -0.29326630299492479 0 0.21509740432094421 -0.29048026223681489 0 0.20650932592977411 -0.30369009621986648 0 0.2045227052445662 -0.28124950424997391 0 0.2010964659458479 -0.29326630299492479 0 0.21509740432094421 -0.29048026223681489 0 0.2208889289415136 -0.2793428043134733 0 0.21415934257522801 -0.279838297569934 0 0.21509740432094421 -0.29048026223681489 0 0.21415934257522801 -0.279838297569934 0 0.2045227052445662 -0.28124950424997391 0 0.21509740432094421 -0.29048026223681489 0 0.21509740432094421 -0.29048026223681489 0 0.20650932592977411 -0.30369009621986648 0 0.21850030485099001 -0.31362345418244569 0 0.20650932592977411 -0.30369009621986648 0 0.21850030485099001 -0.31362345418244569 0 0.20114158067748031 -0.31701576810061788 0 0.2275204524238825 -0.28688549884244702 0 0.2383310719146654 -0.29918149699502228 0 0.21850030485099001 -0.31362345418244569 0 0.21509740432094421 -0.29048026223681489 0 0.2275204524238825 -0.28688549884244702 0 0.21850030485099001 -0.31362345418244569 0 0.2383310719146654 -0.29918149699502228 0 0.23431163076662359 -0.31357025825580331 0 0.21850030485099001 -0.31362345418244569 0 0.2275204524238825 -0.28688549884244702 0 0.21850030485099001 -0.31362345418244569 0 0.2208889289415136 -0.2793428043134733 0 0.21509740432094421 -0.29048026223681489 0 0.2275204524238825 -0.28688549884244702 0 0.22979667712992069 -0.28013820407348461 0 0.2208889289415136 -0.2793428043134733 0 0.2275204524238825 -0.28688549884244702 0 0.2208889289415136 -0.2793428043134733 0 0.2275204524238825 -0.28688549884244702 0 0.2275204524238825 -0.28688549884244702 0 0.23686567753947321 -0.28944415124052741 0 0.2383310719146654 -0.29918149699502228 0 0.2275204524238825 -0.28688549884244702 0 0.2383310719146654 -0.29918149699502228 0 0.2275204524238825 -0.28688549884244702 0 0.2318039817377098 -0.28261164192218741 0 0.23686567753947321 -0.28944415124052741 0 0.22979667712992069 -0.28013820407348461 0 0.2318039817377098 -0.28261164192218741 0 0.22979667712992069 -0.28013820407348461 0 0.2275204524238825 -0.28688549884244702 0 0.22979667712992069 -0.28013820407348461 0 0.2275204524238825 -0.28688549884244702 0 0.2318039817377098 -0.28261164192218741 0 0.23745090314562259 -0.28235823808966798 0 0.23686567753947321 -0.28944415124052741 0 0.24537170200185721 -0.28640960692199158 0 0.23860729694465971 -0.27503922231888023 0 0.23745090314562259 -0.28235823808966798 0 0.24537170200185721 -0.28640960692199158 0 0.2318039817377098 -0.28261164192218741 0 0.23745090314562259 -0.28235823808966798 0 0.23686567753947321 -0.28944415124052741 0 0.23686567753947321 -0.28944415124052741 0 0.24537170200185721 -0.28640960692199158 0 0.2383310719146654 -0.29918149699502228 0 0.24537170200185721 -0.28640960692199158 0 0.2383310719146654 -0.29918149699502228 0 0.24914169140544901 -0.31147749514759709 0 0.2383310719146654 -0.29918149699502228 0 0.24914169140544901 -0.31147749514759709 0 0.24200874602767211 -0.31526179311591063 0 0.24537170200185721 -0.28640960692199158 0 0.24914169140544901 -0.31147749514759709 0 0.2383310719146654 -0.29918149699502228 0 0.24200874602767211 -0.31526179311591063 0 0.23431163076662359 -0.31357025825580331 0 0.2383310719146654 -0.29918149699502228 0 0.24914169140544901 -0.31147749514759709 0 0.24200874602767211 -0.31526179311591063 0 0.23781305935583011 -0.32388904613758829 0 0.24835222533505791 -0.32157841361064432 0 0.24914169140544901 -0.31147749514759709 0 0.24200874602767211 -0.31526179311591063 0 0.24835222533505791 -0.32157841361064432 0 0.25066752397543512 -0.32162325319108698 0 0.24914169140544901 -0.31147749514759709 0 0.24835222533505791 -0.32157841361064432 0 0.25066752397543512 -0.32162325319108698 0 0.24914169140544901 -0.31147749514759709 0 0.24200874602767211 -0.31526179311591063 0 0.23781305935583011 -0.32388904613758829 0 0.23431163076662359 -0.31357025825580331 0 0.23781305935583011 -0.32388904613758829 0 0.24835222533505791 -0.32157841361064432 0 0.24788449176679389 -0.32926237428205057 0 0.25091027278204919 -0.32510184442434648 0 0.25066752397543512 -0.32162325319108698 0 0.24835222533505791 -0.32157841361064432 0 0.25066752397543512 -0.32162325319108698 0 0.24835222533505791 -0.32157841361064432 0 0.25091027278204919 -0.32510184442434648 0 0.24835222533505791 -0.32157841361064432 0 0.24788449176679389 -0.32926237428205057 0 0.2523005366625608 -0.34660859803238642 0 0.24394719177421731 -0.33778803314250422 0 0.23283386801287201 -0.34628003037528488 0 0.25483210627181607 -0.33390609778340719 0 0.24788449176679389 -0.32926237428205057 0 0.24394719177421731 -0.33778803314250422 0 0.24788449176679389 -0.32926237428205057 0 0.24394719177421731 -0.33778803314250422 0 0.23188495615704369 -0.33288306523939182 0 0.23781305935583011 -0.32388904613758829 0 0.24788449176679389 -0.32926237428205057 0 0.23188495615704369 -0.33288306523939182 0 0.24394719177421731 -0.33778803314250422 0 0.23188495615704369 -0.33288306523939182 0 0.23283386801287201 -0.34628003037528488 0 0.23188495615704369 -0.33288306523939182 0 0.23283386801287201 -0.34628003037528488 0 0.20948015727809699 -0.34036140952244431 0 0.23188495615704369 -0.33288306523939182 0 0.21850030485099001 -0.31362345418244569 0 0.20948015727809699 -0.34036140952244431 0 0.23781305935583011 -0.32388904613758829 0 0.23431163076662359 -0.31357025825580331 0 0.21850030485099001 -0.31362345418244569 0 0.23781305935583011 -0.32388904613758829 0 0.23188495615704369 -0.33288306523939182 0 0.21850030485099001 -0.31362345418244569 0 0.2377883710491844 -0.36164069389885178 0 0.24343791308227761 -0.37974541061095352 0 0.22327620543580801 -0.37667278976531732 0 0.25594967533553259 -0.36243180584397888 0 0.2377883710491844 -0.36164069389885178 0 0.24343791308227761 -0.37974541061095352 0 0.2523005366625608 -0.34660859803238642 0 0.25594967533553259 -0.36243180584397888 0 0.2377883710491844 -0.36164069389885178 0 0.2523005366625608 -0.34660859803238642 0 0.2377883710491844 -0.36164069389885178 0 0.23283386801287201 -0.34628003037528488 0 0.2523005366625608 -0.34660859803238642 0 0.2377883710491844 -0.36164069389885178 0 0.2377883710491844 -0.36164069389885178 0 0.21901986018427089 -0.35741315149003933 0 0.23283386801287201 -0.34628003037528488 0 0.21901986018427089 -0.35741315149003933 0 0.23283386801287201 -0.34628003037528488 0 0.20948015727809699 -0.34036140952244431 0 0.2377883710491844 -0.36164069389885178 0 0.21713100209186079 -0.36810224113613887 0 0.22327620543580801 -0.37667278976531732 0 0.2377883710491844 -0.36164069389885178 0 0.21901986018427089 -0.35741315149003933 0 0.21713100209186079 -0.36810224113613887 0 0.21713100209186079 -0.36810224113613887 0 0.22327620543580801 -0.37667278976531732 0 0.21755193554906671 -0.37784483151810389 0 0.2377883710491844 -0.36164069389885178 0 0.22327620543580801 -0.37667278976531732 0 0.21901986018427089 -0.35741315149003933 0 0.21713100209186079 -0.36810224113613887 0 0.200460009705204 -0.36709936486244282 0 0.21713100209186079 -0.36810224113613887 0 0.200460009705204 -0.36709936486244282 0 0.21014202066216089 -0.37599983358693551 0 0.21713100209186079 -0.36810224113613887 0 0.21755193554906671 -0.37784483151810389 0 0.21014202066216089 -0.37599983358693551 0 0.200460009705204 -0.36709936486244282 0 0.20948015727809699 -0.34036140952244431 0 0.21901986018427089 -0.35741315149003933 0 0.200460009705204 -0.36709936486244282 0 0.20948015727809699 -0.34036140952244431 0 0.200460009705204 -0.36709936486244282 0 0.20948015727809699 -0.34036140952244431 0 0.1893574214595535 -0.34275763723289859 0 0.200460009705204 -0.36709936486244282 0 0.1893574214595535 -0.34275763723289859 0 0.18107910943766589 -0.3574802897419137 0 0.21850030485099001 -0.31362345418244569 0 0.20948015727809699 -0.34036140952244431 0 0.21850030485099001 -0.31362345418244569 0 0.20948015727809699 -0.34036140952244431 0 0.20114158067748031 -0.31701576810061788 0 0.20948015727809699 -0.34036140952244431 0 0.1893574214595535 -0.34275763723289859 0 0.18883785125818431 -0.326699022166824 0 0.20948015727809699 -0.34036140952244431 0 0.18883785125818431 -0.326699022166824 0 0.20114158067748031 -0.31701576810061788 0 0.18883785125818431 -0.326699022166824 0 0.20114158067748031 -0.31701576810061788 0 0.18508776036532859 -0.31386523558503282 0 0.18508776036532859 -0.31386523558503282 0 0.1754657549535649 -0.32943053473367129 0 0.17041045388045201 -0.31702250276098343 0 0.18883785125818431 -0.326699022166824 0 0.18508776036532859 -0.31386523558503282 0 0.1754657549535649 -0.32943053473367129 0 0.1893574214595535 -0.34275763723289859 0 0.18883785125818431 -0.326699022166824 0 0.1754657549535649 -0.32943053473367129 0 0.1893574214595535 -0.34275763723289859 0 0.1754657549535649 -0.32943053473367129 0 0.1724076427335775 -0.34505028623651107 0 0.1754657549535649 -0.32943053473367129 0 0.1618586705774572 -0.33648737489222308 0 0.16065643273196001 -0.32402312801564831 0 0.1754657549535649 -0.32943053473367129 0 0.1618586705774572 -0.33648737489222308 0 0.1724076427335775 -0.34505028623651107 0 0.1618586705774572 -0.33648737489222308 0 0.1724076427335775 -0.34505028623651107 0 0.15849451804721079 -0.34837533778977531 0 0.1618586705774572 -0.33648737489222308 0 0.15849451804721079 -0.34837533778977531 0 0.15296003281486439 -0.34031764491601629 0 0.1618586705774572 -0.33648737489222308 0 0.16065643273196001 -0.32402312801564831 0 0.15078554366458011 -0.3308055313879163 0 0.16065643273196001 -0.32402312801564831 0 0.15694769592684929 -0.31263538382309219 0 0.17041045388045201 -0.31702250276098343 0 0.16065643273196001 -0.32402312801564831 0 0.15694769592684929 -0.31263538382309219 0 0.15118340847127901 -0.32081048388767791 0 0.1754657549535649 -0.32943053473367129 0 0.16065643273196001 -0.32402312801564831 0 0.17041045388045201 -0.31702250276098343 0 0.200460009705204 -0.36709936486244282 0 0.18107910943766589 -0.3574802897419137 0 0.17649145879250919 -0.37516482209655888 0 0.18107910943766589 -0.3574802897419137 0 0.16651233710024829 -0.35940348242825149 0 0.17649145879250919 -0.37516482209655888 0 0.1893574214595535 -0.34275763723289859 0 0.18107910943766589 -0.3574802897419137 0 0.1724076427335775 -0.34505028623651107 0 0.18107910943766589 -0.3574802897419137 0 0.1724076427335775 -0.34505028623651107 0 0.16651233710024829 -0.35940348242825149 0 0.1724076427335775 -0.34505028623651107 0 0.15849451804721079 -0.34837533778977531 0 0.16651233710024829 -0.35940348242825149 0 0.15849451804721079 -0.34837533778977531 0 0.16651233710024829 -0.35940348242825149 0 0.15485696059081289 -0.35880700882543809 0 0.16651233710024829 -0.35940348242825149 0 0.15574433299971391 -0.3715431498793122 0 0.17649145879250919 -0.37516482209655888 0 0.16651233710024829 -0.35940348242825149 0 0.15574433299971391 -0.3715431498793122 0 0.15485696059081289 -0.35880700882543809 0 0.142970387057962 -0.37073077677924599 0 0.15574433299971391 -0.3715431498793122 0 0.14623494351149161 -0.3623845774753105 0 0.142970387057962 -0.37073077677924599 0 0.15574433299971391 -0.3715431498793122 0 0.1468848380653881 -0.37813669679675121 0 0.15574433299971391 -0.3715431498793122 0 0.14623494351149161 -0.3623845774753105 0 0.15485696059081289 -0.35880700882543809 0 0.142970387057962 -0.37073077677924599 0 0.14623494351149161 -0.3623845774753105 0 0.13403179393249709 -0.36593976985768351 0 0.14623494351149161 -0.3623845774753105 0 0.14955031075566769 -0.35081904105231188 0 0.14029144286777631 -0.35312916778527531 0 0.14623494351149161 -0.3623845774753105 0 0.15485696059081289 -0.35880700882543809 0 0.14955031075566769 -0.35081904105231188 0 0.15849451804721079 -0.34837533778977531 0 0.15485696059081289 -0.35880700882543809 0 0.14955031075566769 -0.35081904105231188 0 0.15849451804721079 -0.34837533778977531 0 0.14955031075566769 -0.35081904105231188 0 0.15296003281486439 -0.34031764491601629 0 0.14955031075566769 -0.35081904105231188 0 0.15296003281486439 -0.34031764491601629 0 0.14446396670184999 -0.34190050952205631 0 0.14955031075566769 -0.35081904105231188 0 0.14029144286777631 -0.35312916778527531 0 0.14446396670184999 -0.34190050952205631 0 0.14029144286777631 -0.35312916778527531 0 0.14446396670184999 -0.34190050952205631 0 0.13382628661278209 -0.34309103135111718 0 0.13049570055047649 -0.35285864689292928 0 0.14029144286777631 -0.35312916778527531 0 0.13382628661278209 -0.34309103135111718 0 0.13049570055047649 -0.35285864689292928 0 0.13382628661278209 -0.34309103135111718 0 0.1213129697435847 -0.3465973439883393 0 0.13049570055047649 -0.35285864689292928 0 0.13403179393249709 -0.36593976985768351 0 0.1219235494000302 -0.35822020220788092 0 0.13049570055047649 -0.35285864689292928 0 0.14029144286777631 -0.35312916778527531 0 0.13403179393249709 -0.36593976985768351 0 0.14623494351149161 -0.3623845774753105 0 0.14029144286777631 -0.35312916778527531 0 0.13403179393249709 -0.36593976985768351 0 0.13403179393249709 -0.36593976985768351 0 0.1227092171370263 -0.36881370275337799 0 0.1219235494000302 -0.35822020220788092 0 0.13403179393249709 -0.36593976985768351 0 0.12792751609649039 -0.37726865906405288 0 0.1227092171370263 -0.36881370275337799 0 0.13403179393249709 -0.36593976985768351 0 0.13866154179008311 -0.37814764070703188 0 0.12792751609649039 -0.37726865906405288 0 0.142970387057962 -0.37073077677924599 0 0.13403179393249709 -0.36593976985768351 0 0.13866154179008311 -0.37814764070703188 0 0.14345680397471791 -0.32697098966312099 0 0.15118340847127901 -0.32081048388767791 0 0.13324222997277371 -0.32303645629870897 0 0.15694769592684929 -0.31263538382309219 0 0.15118340847127901 -0.32081048388767791 0 0.13324222997277371 -0.32303645629870897 0 0.15694769592684929 -0.31263538382309219 0 0.13324222997277371 -0.32303645629870897 0 0.1482063519549143 -0.31124889160348879 0 0.15694769592684929 -0.31263538382309219 0 0.13324222997277371 -0.32303645629870897 0 0.16065643273196001 -0.32402312801564831 0 0.15118340847127901 -0.32081048388767791 0 0.15078554366458011 -0.3308055313879163 0 0.14345680397471791 -0.32697098966312099 0 0.15118340847127901 -0.32081048388767791 0 0.15078554366458011 -0.3308055313879163 0 0.1618586705774572 -0.33648737489222308 0 0.15078554366458011 -0.3308055313879163 0 0.15296003281486439 -0.34031764491601629 0 0.15078554366458011 -0.3308055313879163 0 0.15296003281486439 -0.34031764491601629 0 0.14446396670184999 -0.34190050952205631 0 0.15078554366458011 -0.3308055313879163 0 0.14446396670184999 -0.34190050952205631 0 0.13861603379023871 -0.33323148707818079 0 0.14345680397471791 -0.32697098966312099 0 0.15078554366458011 -0.3308055313879163 0 0.13861603379023871 -0.33323148707818079 0 0.14446396670184999 -0.34190050952205631 0 0.13861603379023871 -0.33323148707818079 0 0.13382628661278209 -0.34309103135111718 0 0.13861603379023871 -0.33323148707818079 0 0.13382628661278209 -0.34309103135111718 0 0.1250735408798111 -0.33663343214137548 0 0.13382628661278209 -0.34309103135111718 0 0.1250735408798111 -0.33663343214137548 0 0.1213129697435847 -0.3465973439883393 0 0.13861603379023871 -0.33323148707818079 0 0.1250735408798111 -0.33663343214137548 0 0.13324222997277371 -0.32303645629870897 0 0.1482063519549143 -0.31124889160348879 0 0.1203941193033673 -0.31837813267550791 0 0.13266161500930471 -0.30904900062903901 0 0.1482063519549143 -0.31124889160348879 0 0.1203941193033673 -0.31837813267550791 0 0.13324222997277371 -0.32303645629870897 0 0.1482063519549143 -0.31124889160348879 0 0.1203941193033673 -0.31837813267550791 0 0.14345680397471791 -0.32697098966312099 0 0.13861603379023871 -0.33323148707818079 0 0.13324222997277371 -0.32303645629870897 0 0.13266161500930471 -0.30904900062903901 0 0.13053758301298499 -0.29636142867308402 0 0.11738380981796501 -0.30396624782269999 0 0.13898392062286871 -0.3036242665647278 0 0.14453013251427091 -0.29783774535329938 0 0.13053758301298499 -0.29636142867308402 0 0.13266161500930471 -0.30904900062903901 0 0.13898392062286871 -0.3036242665647278 0 0.13053758301298499 -0.29636142867308402 0 0.13266161500930471 -0.30904900062903901 0 0.13898392062286871 -0.3036242665647278 0 0.1482063519549143 -0.31124889160348879 0 0.13898392062286871 -0.3036242665647278 0 0.1482063519549143 -0.31124889160348879 0 0.14453013251427091 -0.29783774535329938 0 0.1482063519549143 -0.31124889160348879 0 0.14453013251427091 -0.29783774535329938 0 0.1578165070288286 -0.3002213084291474 0 0.1550687694269014 -0.29225358047459499 0 0.14780926171730169 -0.2859924401688787 0 0.15463429794700859 -0.27926033718565069 0 0.14453013251427091 -0.29783774535329938 0 0.1550687694269014 -0.29225358047459499 0 0.14780926171730169 -0.2859924401688787 0 0.14453013251427091 -0.29783774535329938 0 0.1550687694269014 -0.29225358047459499 0 0.1578165070288286 -0.3002213084291474 0 0.14453013251427091 -0.29783774535329938 0 0.14780926171730169 -0.2859924401688787 0 0.13869990852836839 -0.28674960101304819 0 0.14780926171730169 -0.2859924401688787 0 0.13869990852836839 -0.28674960101304819 0 0.14341953345254571 -0.27575479507514561 0 0.13869990852836839 -0.28674960101304819 0 0.13053758301298499 -0.29636142867308402 0 0.1272030319447387 -0.2778015957948336 0 0.13053758301298499 -0.29636142867308402 0 0.1272030319447387 -0.2778015957948336 0 0.1178463957341977 -0.29158266691672158 0 0.14453013251427091 -0.29783774535329938 0 0.13869990852836839 -0.28674960101304819 0 0.13053758301298499 -0.29636142867308402 0 0.1272030319447387 -0.2778015957948336 0 0.13222908187911531 -0.26016936100608751 0 0.1186124347047576 -0.26252979206140231 0 0.13869990852836839 -0.28674960101304819 0 0.1272030319447387 -0.2778015957948336 0 0.14341953345254571 -0.27575479507514561 0 0.1272030319447387 -0.2778015957948336 0 0.13222908187911531 -0.26016936100608751 0 0.14341953345254571 -0.27575479507514561 0 0.13222908187911531 -0.26016936100608751 0 0.14490446143813629 -0.25781358711477897 0 0.14341953345254571 -0.27575479507514561 0 0.13222908187911531 -0.26016936100608751 0 0.14490446143813629 -0.25781358711477897 0 0.1367400040882287 -0.24715954976977059 0 0.1525537561698822 -0.25448064090901751 0 0.1553674255951796 -0.26576712547219478 0 0.1585708701279219 -0.25628304930262708 0 0.14490446143813629 -0.25781358711477897 0 0.1525537561698822 -0.25448064090901751 0 0.1553674255951796 -0.26576712547219478 0 0.14490446143813629 -0.25781358711477897 0 0.1525537561698822 -0.25448064090901751 0 0.14797052066319569 -0.24376053413549151 0 0.1525537561698822 -0.25448064090901751 0 0.1585708701279219 -0.25628304930262708 0 0.15595550302497749 -0.24877890851999501 0 0.14490446143813629 -0.25781358711477897 0 0.14341953345254571 -0.27575479507514561 0 0.1553674255951796 -0.26576712547219478 0 0.14341953345254571 -0.27575479507514561 0 0.1553674255951796 -0.26576712547219478 0 0.14341953345254571 -0.27575479507514561 0 0.1553674255951796 -0.26576712547219478 0 0.15463429794700859 -0.27926033718565069 0 0.14780926171730169 -0.2859924401688787 0 0.14341953345254571 -0.27575479507514561 0 0.15463429794700859 -0.27926033718565069 0 0.15463429794700859 -0.27926033718565069 0 0.1618228382767837 -0.27126371299090107 0 0.16569131417275901 -0.27696749591518088 0 0.15463429794700859 -0.27926033718565069 0 0.16569131417275901 -0.27696749591518088 0 0.1645588567237363 -0.28686257374339391 0 0.1553674255951796 -0.26576712547219478 0 0.1618228382767837 -0.27126371299090107 0 0.16450717695979211 -0.26377648983009139 0 0.1553674255951796 -0.26576712547219478 0 0.15463429794700859 -0.27926033718565069 0 0.1618228382767837 -0.27126371299090107 0 0.16745711463444299 -0.26848128348446593 0 0.16569131417275901 -0.27696749591518088 0 0.17400290561053541 -0.2712995548049365 0 0.1618228382767837 -0.27126371299090107 0 0.16745711463444299 -0.26848128348446593 0 0.16569131417275901 -0.27696749591518088 0 0.1618228382767837 -0.27126371299090107 0 0.16745711463444299 -0.26848128348446593 0 0.16450717695979211 -0.26377648983009139 0 0.16745711463444299 -0.26848128348446593 0 0.17188548132950679 -0.26410290569240852 0 0.17400290561053541 -0.2712995548049365 0 0.16569131417275901 -0.27696749591518088 0 0.17387841093177889 -0.27948925557108872 0 0.17400290561053541 -0.2712995548049365 0 0.16569131417275901 -0.27696749591518088 0 0.17387841093177889 -0.27948925557108872 0 0.1645588567237363 -0.28686257374339391 0 0.1585708701279219 -0.25628304930262708 0 0.16731531773781361 -0.25577945586924422 0 0.16015383963439911 -0.2494441683434068 0 0.1585708701279219 -0.25628304930262708 0 0.16015383963439911 -0.2494441683434068 0 0.15595550302497749 -0.24877890851999501 0 0.1553674255951796 -0.26576712547219478 0 0.16450717695979211 -0.26377648983009139 0 0.16731531773781361 -0.25577945586924422 0 0.1553674255951796 -0.26576712547219478 0 0.1585708701279219 -0.25628304930262708 0 0.16731531773781361 -0.25577945586924422 0 0.1553674255951796 -0.26576712547219478 0 0.16731531773781361 -0.25577945586924422 0 0.16782924403802271 -0.26283653157780112 0 0.16450717695979211 -0.26377648983009139 0 0.16731531773781361 -0.25577945586924422 0 0.16745711463444299 -0.26848128348446593 0 0.16782924403802271 -0.26283653157780112 0 0.16450717695979211 -0.26377648983009139 0 0.16782924403802271 -0.26283653157780112 0 0.16972621415805461 -0.26021456675987048 0 0.17188548132950679 -0.26410290569240852 0 0.16745711463444299 -0.26848128348446593 0 0.16782924403802271 -0.26283653157780112 0 0.17188548132950679 -0.26410290569240852 0 0.16972621415805461 -0.26021456675987048 0 0.17262362557563041 -0.25695242774257909 0 0.17188548132950679 -0.26410290569240852 0 0.16782924403802271 -0.26283653157780112 0 0.16972621415805461 -0.26021456675987048 0 0.16731531773781361 -0.25577945586924422 0 0.16972621415805461 -0.26021456675987048 0 0.16731531773781361 -0.25577945586924422 0 0.17262362557563041 -0.25695242774257909 0 0.1898765394172798 -0.27042409692663971 0 0.18942126622895031 -0.25174801191084523 0 0.1799353918365644 -0.25971169096446162 0 0.16731531773781361 -0.25577945586924422 0 0.17262362557563041 -0.25695242774257909 0 0.18003969250958149 -0.24514269671479411 0 0.16731531773781361 -0.25577945586924422 0 0.18003969250958149 -0.24514269671479411 0 0.17262362557563041 -0.25695242774257909 0 0.1799353918365644 -0.25971169096446162 0 0.18003969250958149 -0.24514269671479411 0 0.17188548132950679 -0.26410290569240852 0 0.1799353918365644 -0.25971169096446162 0 0.17400290561053541 -0.2712995548049365 0 0.17262362557563041 -0.25695242774257909 0 0.17188548132950679 -0.26410290569240852 0 0.1799353918365644 -0.25971169096446162 0 0.18942126622895031 -0.25174801191084523 0 0.1799353918365644 -0.25971169096446162 0 0.18003969250958149 -0.24514269671479411 0 0.1898765394172798 -0.27042409692663971 0 0.1799353918365644 -0.25971169096446162 0 0.17400290561053541 -0.2712995548049365 0 0.1898765394172798 -0.27042409692663971 0 0.17387841093177889 -0.27948925557108872 0 0.17526243873458361 -0.29189255646529239 0 0.1898765394172798 -0.27042409692663971 0 0.17387841093177889 -0.27948925557108872 0 0.17400290561053541 -0.2712995548049365 0 0.1898765394172798 -0.27042409692663971 0 0.17526243873458361 -0.29189255646529239 0 0.1898765394172798 -0.27042409692663971 0 0.19155747453396541 -0.2871073875707929 0 0.17526243873458361 -0.29189255646529239 0 0.19155747453396541 -0.2871073875707929 0 0.17526243873458361 -0.29189255646529239 0 0.18702922332754951 -0.29870447721713372 0 0.18508776036532859 -0.31386523558503282 0 0.18702922332754951 -0.29870447721713372 0 0.17601858460646119 -0.30411965053146978 0 0.18508776036532859 -0.31386523558503282 0 0.17041045388045201 -0.31702250276098343 0 0.17601858460646119 -0.30411965053146978 0 0.17526243873458361 -0.29189255646529239 0 0.18702922332754951 -0.29870447721713372 0 0.17601858460646119 -0.30411965053146978 0 0.17526243873458361 -0.29189255646529239 0 0.17601858460646119 -0.30411965053146978 0 0.16525869664159529 -0.29564667418288398 0 0.15694769592684929 -0.31263538382309219 0 0.1482063519549143 -0.31124889160348879 0 0.17601858460646119 -0.30411965053146978 0 0.15694769592684929 -0.31263538382309219 0 0.17041045388045201 -0.31702250276098343 0 0.17601858460646119 -0.30411965053146978 0 0.17601858460646119 -0.30411965053146978 0 0.1578165070288286 -0.3002213084291474 0 0.16525869664159529 -0.29564667418288398 0 0.1482063519549143 -0.31124889160348879 0 0.17601858460646119 -0.30411965053146978 0 0.1482063519549143 -0.31124889160348879 0 0.17601858460646119 -0.30411965053146978 0 0.1578165070288286 -0.3002213084291474 0 0.1550687694269014 -0.29225358047459499 0 0.1578165070288286 -0.3002213084291474 0 0.16525869664159529 -0.29564667418288398 0 0.1550687694269014 -0.29225358047459499 0 0.1645588567237363 -0.28686257374339391 0 0.16525869664159529 -0.29564667418288398 0 0.1550687694269014 -0.29225358047459499 0 0.15463429794700859 -0.27926033718565069 0 0.1645588567237363 -0.28686257374339391 0 0.17387841093177889 -0.27948925557108872 0 0.17526243873458361 -0.29189255646529239 0 0.1645588567237363 -0.28686257374339391 0 0.17526243873458361 -0.29189255646529239 0 0.1645588567237363 -0.28686257374339391 0 0.16525869664159529 -0.29564667418288398 0 0.1975310404640489 -0.50000000000000411 0 0.21177973381485779 -0.4787369344687693 0 0.1861217591234495 -0.47638424174650401 0 0.1975310404640489 -0.50000000000000411 0 0.1861217591234495 -0.47638424174650401 0 0.21177973381485779 -0.4787369344687693 0 0.2043998222463177 -0.46046828682923829 0 0.1861217591234495 -0.47638424174650401 0 0.1975310404640489 -0.50000000000000411 0 0.21177973381485779 -0.4787369344687693 0 0.22643712711924111 -0.5 0 0.21177973381485779 -0.4787369344687693 0 0.22643712711924111 -0.5 0 0.2329089456131043 -0.48153552254788229 0 0.25172022360441149 -0.48211695854094683 0 0.25534321377443331 -0.49999999999999822 0 0.2329089456131043 -0.48153552254788229 0 0.25534321377443331 -0.49999999999999822 0 0.22643712711924111 -0.5 0 0.2329089456131043 -0.48153552254788229 0 0.25172022360441149 -0.48211695854094683 0 0.24976608590047039 -0.47247135534129381 0 0.2329089456131043 -0.48153552254788229 0 0.24976608590047039 -0.47247135534129381 0 0.2329089456131043 -0.48153552254788229 0 0.22539984213640049 -0.45575499383288481 0 0.21177973381485779 -0.4787369344687693 0 0.2329089456131043 -0.48153552254788229 0 0.22539984213640049 -0.45575499383288481 0 0.24976608590047039 -0.47247135534129381 0 0.22539984213640049 -0.45575499383288481 0 0.2441889580265072 -0.44494271068258939 0 0.24976608590047039 -0.47247135534129381 0 0.2441889580265072 -0.44494271068258939 0 0.22539984213640049 -0.45575499383288481 0 0.2441889580265072 -0.44494271068258939 0 0.2195471026651995 -0.43471159651014901 0 0.22539984213640049 -0.45575499383288481 0 0.20852279371453319 -0.44426082801975841 0 0.2195471026651995 -0.43471159651014901 0 0.22539984213640049 -0.45575499383288481 0 0.20852279371453319 -0.44426082801975841 0 0.2043998222463177 -0.46046828682923829 0 0.21177973381485779 -0.4787369344687693 0 0.22539984213640049 -0.45575499383288481 0 0.2043998222463177 -0.46046828682923829 0 0.2043998222463177 -0.46046828682923829 0 0.19017498244234751 -0.44720443607827531 0 0.1861217591234495 -0.47638424174650401 0 0.20852279371453319 -0.44426082801975841 0 0.2043998222463177 -0.46046828682923829 0 0.19017498244234751 -0.44720443607827531 0 0.20852279371453319 -0.44426082801975841 0 0.19017498244234751 -0.44720443607827531 0 0.1895150945451102 -0.4270135196284725 0 0.20852279371453319 -0.44426082801975841 0 0.1895150945451102 -0.4270135196284725 0 0.20846892492984501 -0.42591731771513369 0 0.20852279371453319 -0.44426082801975841 0 0.1895150945451102 -0.4270135196284725 0 0.1895150945451102 -0.4270135196284725 0 0.2076711511581367 -0.40563016308193578 0 0.1824197145594165 -0.42057527554243962 0 0.1895150945451102 -0.4270135196284725 0 0.20846892492984501 -0.42591731771513369 0 0.2076711511581367 -0.40563016308193578 0 0.1895150945451102 -0.4270135196284725 0 0.2076711511581367 -0.40563016308193578 0 0.2076711511581367 -0.40563016308193578 0 0.19143986213231109 -0.39383732020244139 0 0.1824197145594165 -0.42057527554243962 0 0.21708848256624541 -0.41797048133535269 0 0.22657789664826719 -0.41106134503729541 0 0.2076711511581367 -0.40563016308193578 0 0.21708848256624541 -0.41797048133535269 0 0.20846892492984501 -0.42591731771513369 0 0.2076711511581367 -0.40563016308193578 0 0.20852279371453319 -0.44426082801975841 0 0.20846892492984501 -0.42591731771513369 0 0.2195471026651995 -0.43471159651014901 0 0.21708848256624541 -0.41797048133535269 0 0.20846892492984501 -0.42591731771513369 0 0.2195471026651995 -0.43471159651014901 0 0.2441889580265072 -0.44494271068258939 0 0.2195471026651995 -0.43471159651014901 0 0.22738219201833279 -0.42240978424153303 0 0.21708848256624541 -0.41797048133535269 0 0.2195471026651995 -0.43471159651014901 0 0.22738219201833279 -0.42240978424153303 0 0.25628186615539572 -0.42775248642316771 0 0.2441889580265072 -0.44494271068258939 0 0.23861183015254431 -0.41741406602388509 0 0.2441889580265072 -0.44494271068258939 0 0.23861183015254431 -0.41741406602388509 0 0.2441889580265072 -0.44494271068258939 0 0.22738219201833279 -0.42240978424153303 0 0.23861183015254431 -0.41741406602388509 0 0.25944334095341959 -0.40814677203228472 0 0.23861183015254431 -0.41741406602388509 0 0.2449053002495431 -0.40417195178498272 0 0.25944334095341959 -0.40814677203228472 0 0.23861183015254431 -0.41741406602388509 0 0.23861183015254431 -0.41741406602388509 0 0.23736812139464861 -0.41127513264657112 0 0.23861183015254431 -0.41741406602388509 0 0.23736812139464861 -0.41127513264657112 0 0.2449053002495431 -0.40417195178498272 0 0.23736812139464861 -0.41127513264657112 0 0.2386888088705548 -0.40367660028671709 0 0.2449053002495431 -0.40417195178498272 0 0.23736812139464861 -0.41127513264657112 0 0.23305949048391519 -0.40385180936484322 0 0.2386888088705548 -0.40367660028671709 0 0.23861183015254431 -0.41741406602388509 0 0.23736812139464861 -0.41127513264657112 0 0.22657789664826719 -0.41106134503729541 0 0.23736812139464861 -0.41127513264657112 0 0.22657789664826719 -0.41106134503729541 0 0.23305949048391519 -0.40385180936484322 0 0.22738219201833279 -0.42240978424153303 0 0.23861183015254431 -0.41741406602388509 0 0.22657789664826719 -0.41106134503729541 0 0.22738219201833279 -0.42240978424153303 0 0.23861183015254431 -0.41741406602388509 0 0.21708848256624541 -0.41797048133535269 0 0.22738219201833279 -0.42240978424153303 0 0.22657789664826719 -0.41106134503729541 0 0.22657789664826719 -0.41106134503729541 0 0.22582892816231259 -0.39977715367739192 0 0.2076711511581367 -0.40563016308193578 0 0.22582892816231259 -0.39977715367739192 0 0.2258272077711625 -0.38424680653539872 0 0.2076711511581367 -0.40563016308193578 0 0.22582892816231259 -0.39977715367739192 0 0.2376655574506725 -0.39503326214156248 0 0.2258272077711625 -0.38424680653539872 0 0.22582892816231259 -0.39977715367739192 0 0.23305949048391519 -0.40385180936484322 0 0.2376655574506725 -0.39503326214156248 0 0.22657789664826719 -0.41106134503729541 0 0.22582892816231259 -0.39977715367739192 0 0.23305949048391519 -0.40385180936484322 0 0.2386888088705548 -0.40367660028671709 0 0.2376655574506725 -0.39503326214156248 0 0.2449053002495431 -0.40417195178498272 0 0.23305949048391519 -0.40385180936484322 0 0.2386888088705548 -0.40367660028671709 0 0.2376655574506725 -0.39503326214156248 0 0.25190981745730479 -0.39241813327882302 0 0.2376655574506725 -0.39503326214156248 0 0.2449053002495431 -0.40417195178498272 0 0.2376655574506725 -0.39503326214156248 0 0.24343791308227761 -0.37974541061095352 0 0.2258272077711625 -0.38424680653539872 0 0.25190981745730479 -0.39241813327882302 0 0.2376655574506725 -0.39503326214156248 0 0.24343791308227761 -0.37974541061095352 0 0.24343791308227761 -0.37974541061095352 0 0.2258272077711625 -0.38424680653539872 0 0.2225630237275826 -0.38163426551999852 0 0.24343791308227761 -0.37974541061095352 0 0.2225630237275826 -0.38163426551999852 0 0.24343791308227761 -0.37974541061095352 0 0.22327620543580801 -0.37667278976531732 0 0.2225630237275826 -0.38163426551999852 0 0.2258272077711625 -0.38424680653539872 0 0.2225630237275826 -0.38163426551999852 0 0.21596788871458111 -0.38232110439581929 0 0.22327620543580801 -0.37667278976531732 0 0.2225630237275826 -0.38163426551999852 0 0.21755193554906671 -0.37784483151810389 0 0.21596788871458111 -0.38232110439581929 0 0.21014202066216089 -0.37599983358693551 0 0.20744699614961259 -0.38887214971741779 0 0.2258272077711625 -0.38424680653539872 0 0.21596788871458111 -0.38232110439581929 0 0.20744699614961259 -0.38887214971741779 0 0.200460009705204 -0.36709936486244282 0 0.21014202066216089 -0.37599983358693551 0 0.20744699614961259 -0.38887214971741779 0 0.2225630237275826 -0.38163426551999852 0 0.21755193554906671 -0.37784483151810389 0 0.21596788871458111 -0.38232110439581929 0 0.21755193554906671 -0.37784483151810389 0 0.21596788871458111 -0.38232110439581929 0 0.21014202066216089 -0.37599983358693551 0 0.2258272077711625 -0.38424680653539872 0 0.2076711511581367 -0.40563016308193578 0 0.2258272077711625 -0.38424680653539872 0 0.20744699614961259 -0.38887214971741779 0 0.2076711511581367 -0.40563016308193578 0 0.20744699614961259 -0.38887214971741779 0 0.2076711511581367 -0.40563016308193578 0 0.19143986213231109 -0.39383732020244139 0 0.200460009705204 -0.36709936486244282 0 0.19143986213231109 -0.39383732020244139 0 0.200460009705204 -0.36709936486244282 0 0.19143986213231109 -0.39383732020244139 0 0.17649145879250919 -0.37516482209655888 0 0.200460009705204 -0.36709936486244282 0 0.20744699614961259 -0.38887214971741779 0 0.19143986213231109 -0.39383732020244139 0 0.19143986213231109 -0.39383732020244139 0 0.17649145879250919 -0.37516482209655888 0 0.17560031531983891 -0.39444584349362249 0 0.17649145879250919 -0.37516482209655888 0 0.17560031531983891 -0.39444584349362249 0 0.16440858542998649 -0.38561251546835418 0 0.19143986213231109 -0.39383732020244139 0 0.17560031531983891 -0.39444584349362249 0 0.1824197145594165 -0.42057527554243962 0 0.17560031531983891 -0.39444584349362249 0 0.1633457361276546 -0.40326782631731051 0 0.1824197145594165 -0.42057527554243962 0 0.1633457361276546 -0.40326782631731051 0 0.16440858542998649 -0.38561251546835418 0 0.15493105006372729 -0.38490411311078182 0 0.17560031531983891 -0.39444584349362249 0 0.1633457361276546 -0.40326782631731051 0 0.16440858542998649 -0.38561251546835418 0 0.15574433299971391 -0.3715431498793122 0 0.17649145879250919 -0.37516482209655888 0 0.16440858542998649 -0.38561251546835418 0 0.15574433299971391 -0.3715431498793122 0 0.16440858542998649 -0.38561251546835418 0 0.15493105006372729 -0.38490411311078182 0 0.1442717576958932 -0.38596037709218112 0 0.13866154179008311 -0.37814764070703188 0 0.14982444708951739 -0.40125343195613739 0 0.15574433299971391 -0.3715431498793122 0 0.15493105006372729 -0.38490411311078182 0 0.1468848380653881 -0.37813669679675121 0 0.13866154179008311 -0.37814764070703188 0 0.14982444708951739 -0.40125343195613739 0 0.13866154179008311 -0.37814764070703188 0 0.1339475287662058 -0.38828366568259998 0 0.14982444708951739 -0.40125343195613739 0 0.15493105006372729 -0.38490411311078182 0 0.1442717576958932 -0.38596037709218112 0 0.1468848380653881 -0.37813669679675121 0 0.142970387057962 -0.37073077677924599 0 0.1468848380653881 -0.37813669679675121 0 0.13866154179008311 -0.37814764070703188 0 0.1442717576958932 -0.38596037709218112 0 0.1468848380653881 -0.37813669679675121 0 0.13866154179008311 -0.37814764070703188 0 0.13866154179008311 -0.37814764070703188 0 0.1339475287662058 -0.38828366568259998 0 0.12792751609649039 -0.37726865906405288 0 0.1339475287662058 -0.38828366568259998 0 0.12792751609649039 -0.37726865906405288 0 0.1213060936813638 -0.38723960941902003 0 0.1339475287662058 -0.38828366568259998 0 0.13201804517357421 -0.39750898726675771 0 0.14982444708951739 -0.40125343195613739 0 0.13201804517357421 -0.39750898726675771 0 0.14982444708951739 -0.40125343195613739 0 0.13451935998428691 -0.4109793700859119 0 0.13201804517357421 -0.39750898726675771 0 0.13451935998428691 -0.4109793700859119 0 0.1209898220595844 -0.40370284902414949 0 0.1339475287662058 -0.38828366568259998 0 0.13201804517357421 -0.39750898726675771 0 0.1213060936813638 -0.38723960941902003 0 0.1633457361276546 -0.40326782631731051 0 0.15493105006372729 -0.38490411311078182 0 0.1442717576958932 -0.38596037709218112 0 0.1633457361276546 -0.40326782631731051 0 0.1442717576958932 -0.38596037709218112 0 0.1633457361276546 -0.40326782631731051 0 0.1442717576958932 -0.38596037709218112 0 0.14982444708951739 -0.40125343195613739 0 0.14982444708951739 -0.40125343195613739 0 0.13451935998428691 -0.4109793700859119 0 0.14472464920705941 -0.4246640856955094 0 0.14982444708951739 -0.40125343195613739 0 0.1609873523889519 -0.424359223205243 0 0.14982444708951739 -0.40125343195613739 0 0.14472464920705941 -0.4246640856955094 0 0.1609873523889519 -0.424359223205243 0 0.13451935998428691 -0.4109793700859119 0 0.14472464920705941 -0.4246640856955094 0 0.12374280164977521 -0.42538271748192041 0 0.13451935998428691 -0.4109793700859119 0 0.12374280164977521 -0.42538271748192041 0 0.1209898220595844 -0.40370284902414949 0 0.14188254590965491 -0.44336262783887881 0 0.12374280164977521 -0.42538271748192041 0 0.14472464920705941 -0.4246640856955094 0 0.14188254590965491 -0.44336262783887881 0 0.12374280164977521 -0.42538271748192041 0 0.14472464920705941 -0.4246640856955094 0 0.15739138822017029 -0.4426471436049656 0 0.14188254590965491 -0.44336262783887881 0 0.14472464920705941 -0.4246640856955094 0 0.1609873523889519 -0.424359223205243 0 0.15739138822017029 -0.4426471436049656 0 0.1609873523889519 -0.424359223205243 0 0.1721502576883884 -0.44746501445434761 0 0.1633457361276546 -0.40326782631731051 0 0.1609873523889519 -0.424359223205243 0 0.1824197145594165 -0.42057527554243962 0 0.1633457361276546 -0.40326782631731051 0 0.14982444708951739 -0.40125343195613739 0 0.1609873523889519 -0.424359223205243 0 0.19143986213231109 -0.39383732020244139 0 0.1824197145594165 -0.42057527554243962 0 0.1633457361276546 -0.40326782631731051 0 0.1824197145594165 -0.42057527554243962 0 0.1895150945451102 -0.4270135196284725 0 0.1741382171513173 -0.4451236885319978 0 0.1895150945451102 -0.4270135196284725 0 0.1824197145594165 -0.42057527554243962 0 0.1824197145594165 -0.42057527554243962 0 0.1741382171513173 -0.4451236885319978 0 0.1609873523889519 -0.424359223205243 0 0.1824197145594165 -0.42057527554243962 0 0.1741382171513173 -0.4451236885319978 0 0.1895150945451102 -0.4270135196284725 0 0.1824197145594165 -0.42057527554243962 0 0.1741382171513173 -0.4451236885319978 0 0.19017498244234751 -0.44720443607827531 0 0.1895150945451102 -0.4270135196284725 0 0.1741382171513173 -0.4451236885319978 0 0.19017498244234751 -0.44720443607827531 0 0.17471247778285201 -0.45276848349300303 0 0.1741382171513173 -0.4451236885319978 0 0.1721502576883884 -0.44746501445434761 0 0.17285573921952099 -0.44892527130964821 0 0.17112354311610761 -0.45405993032479508 0 0.17471247778285201 -0.45276848349300303 0 0.17285573921952099 -0.44892527130964821 0 0.17112354311610761 -0.45405993032479508 0 0.17285573921952099 -0.44892527130964821 0 0.17112354311610761 -0.45405993032479508 0 0.17471247778285201 -0.45276848349300303 0 0.17285573921952099 -0.44892527130964821 0 0.17471247778285201 -0.45276848349300303 0 0.17285573921952099 -0.44892527130964821 0 0.1741382171513173 -0.4451236885319978 0 0.1721502576883884 -0.44746501445434761 0 0.17285573921952099 -0.44892527130964821 0 0.1721502576883884 -0.44746501445434761 0 0.1741382171513173 -0.4451236885319978 0 0.17285573921952099 -0.44892527130964821 0 0.1741382171513173 -0.4451236885319978 0 0.1721502576883884 -0.44746501445434761 0 0.17285573921952099 -0.44892527130964821 0 0.1741382171513173 -0.4451236885319978 0 0.19017498244234751 -0.44720443607827531 0 0.17471247778285201 -0.45276848349300303 0 0.17471247778285201 -0.45276848349300303 0 0.1734926401992013 -0.46943073386235828 0 0.1861217591234495 -0.47638424174650401 0 0.17471247778285201 -0.45276848349300303 0 0.1861217591234495 -0.47638424174650401 0 0.19017498244234751 -0.44720443607827531 0 0.17471247778285201 -0.45276848349300303 0 0.1861217591234495 -0.47638424174650401 0 0.17471247778285201 -0.45276848349300303 0 0.17112354311610761 -0.45405993032479508 0 0.1734926401992013 -0.46943073386235828 0 0.17471247778285201 -0.45276848349300303 0 0.17112354311610761 -0.45405993032479508 0 0.16453885082706629 -0.4564293744035135 0 0.1573667687459355 -0.46487631811990371 0 0.16232696069744129 -0.48013518308027381 0 0.17112354311610761 -0.45405993032479508 0 0.16232696069744129 -0.48013518308027381 0 0.17112354311610761 -0.45405993032479508 0 0.16453885082706629 -0.4564293744035135 0 0.16232696069744129 -0.48013518308027381 0 0.17112354311610761 -0.45405993032479508 0 0.16232696069744129 -0.48013518308027381 0 0.1734926401992013 -0.46943073386235828 0 0.17112354311610761 -0.45405993032479508 0 0.16453885082706629 -0.4564293744035135 0 0.16453885082706629 -0.4564293744035135 0 0.1573667687459355 -0.46487631811990371 0 0.16453885082706629 -0.4564293744035135 0 0.16124294251806401 -0.44954643399319849 0 0.15089127333662761 -0.45164420350996459 0 0.16124294251806401 -0.44954643399319849 0 0.15739138822017029 -0.4426471436049656 0 0.15089127333662761 -0.45164420350996459 0 0.1609873523889519 -0.424359223205243 0 0.1721502576883884 -0.44746501445434761 0 0.15739138822017029 -0.4426471436049656 0 0.1721502576883884 -0.44746501445434761 0 0.16124294251806401 -0.44954643399319849 0 0.15739138822017029 -0.4426471436049656 0 0.1609873523889519 -0.424359223205243 0 0.1721502576883884 -0.44746501445434761 0 0.1741382171513173 -0.4451236885319978 0 0.1721502576883884 -0.44746501445434761 0 0.16453885082706629 -0.4564293744035135 0 0.16124294251806401 -0.44954643399319849 0 0.1721502576883884 -0.44746501445434761 0 0.17112354311610761 -0.45405993032479508 0 0.16453885082706629 -0.4564293744035135 0 0.1721502576883884 -0.44746501445434761 0 0.16453885082706629 -0.4564293744035135 0 0.15739138822017029 -0.4426471436049656 0 0.15089127333662761 -0.45164420350996459 0 0.14188254590965491 -0.44336262783887881 0 0.15089127333662761 -0.45164420350996459 0 0.14188254590965491 -0.44336262783887881 0 0.1378510368933108 -0.45405433924953359 0 0.14188254590965491 -0.44336262783887881 0 0.12686281888957701 -0.44689751039431291 0 0.12374280164977521 -0.42538271748192041 0 0.14188254590965491 -0.44336262783887881 0 0.12686281888957701 -0.44689751039431291 0 0.1378510368933108 -0.45405433924953359 0 0.12686281888957701 -0.44689751039431291 0 0.13114416761070971 -0.46330548308495623 0 0.1378510368933108 -0.45405433924953359 0 0.13114416761070971 -0.46330548308495623 0 0.1370550596143314 -0.4663191769168582 0 0.12931426499705079 -0.46910463433314858 0 0.13114416761070971 -0.46330548308495623 0 0.1378510368933108 -0.45405433924953359 0 0.1398987633560734 -0.46529589493241252 0 0.13114416761070971 -0.46330548308495623 0 0.1398987633560734 -0.46529589493241252 0 0.13114416761070971 -0.46330548308495623 0 0.1370550596143314 -0.4663191769168582 0 0.1398987633560734 -0.46529589493241252 0 0.13114416761070971 -0.46330548308495623 0 0.1370550596143314 -0.4663191769168582 0 0.1370550596143314 -0.4663191769168582 0 0.12931426499705079 -0.46910463433314858 0 0.1370550596143314 -0.4663191769168582 0 0.1398987633560734 -0.46529589493241252 0 0.1573667687459355 -0.46487631811990371 0 0.1398987633560734 -0.46529589493241252 0 0.14985579044011821 -0.46755968703086792 0 0.16453885082706629 -0.4564293744035135 0 0.15089127333662761 -0.45164420350996459 0 0.1398987633560734 -0.46529589493241252 0 0.1370550596143314 -0.4663191769168582 0 0.1398987633560734 -0.46529589493241252 0 0.14985579044011821 -0.46755968703086792 0 0.16453885082706629 -0.4564293744035135 0 0.1573667687459355 -0.46487631811990371 0 0.1398987633560734 -0.46529589493241252 0 0.16453885082706629 -0.4564293744035135 0 0.1398987633560734 -0.46529589493241252 0 0.1398987633560734 -0.46529589493241252 0 0.14985579044011821 -0.46755968703086792 0 0.15089127333662761 -0.45164420350996459 0 0.1378510368933108 -0.45405433924953359 0 0.1398987633560734 -0.46529589493241252 0 0.1370550596143314 -0.4663191769168582 0 0.1458206128472454 -0.47461990870671322 0 0.16232696069744129 -0.48013518308027381 0 0.1458206128472454 -0.47461990870671322 0 0.14267609909252979 -0.48747426062146992 0 0.16232696069744129 -0.48013518308027381 0 0.1370550596143314 -0.4663191769168582 0 0.14985579044011821 -0.46755968703086792 0 0.16232696069744129 -0.48013518308027381 0 0.1370550596143314 -0.4663191769168582 0 0.16232696069744129 -0.48013518308027381 0 0.1458206128472454 -0.47461990870671322 0 0.16232696069744129 -0.48013518308027381 0 0.1458206128472454 -0.47461990870671322 0 0.13396756442224389 -0.47909955763381479 0 0.14267609909252979 -0.48747426062146992 0 0.1370550596143314 -0.4663191769168582 0 0.1458206128472454 -0.47461990870671322 0 0.12931426499705079 -0.46910463433314858 0 0.1458206128472454 -0.47461990870671322 0 0.13396756442224389 -0.47909955763381479 0 0.12931426499705079 -0.46910463433314858 0 0.1458206128472454 -0.47461990870671322 0 0.12931426499705079 -0.46910463433314858 0 0.13396756442224389 -0.47909955763381479 0 0.12843345217293339 -0.48641950850895982 0 0.14267609909252979 -0.48747426062146992 0 0.13396756442224389 -0.47909955763381479 0 0.12843345217293339 -0.48641950850895982 0 0.12359339300146011 -0.477879475998782 0 0.13396756442224389 -0.47909955763381479 0 0.12931426499705079 -0.46910463433314858 0 0.12359339300146011 -0.477879475998782 0 0.12655126937131389 -0.5 0 0.12843345217293339 -0.48641950850895982 0 0.14267609909252979 -0.48747426062146992 0 0.12655126937131389 -0.5 0 0.1556254916491924 -0.50000000000000178 0 0.14267609909252979 -0.48747426062146992 0 0.1556254916491924 -0.50000000000000178 0 0.14267609909252979 -0.48747426062146992 0 0.16232696069744129 -0.48013518308027381 0 0.1556254916491924 -0.50000000000000178 0 0.16232696069744129 -0.48013518308027381 0 0.1556254916491924 -0.50000000000000178 0 0.16232696069744129 -0.48013518308027381 0 0.17291047215434899 -0.4846002139491562 0 0.1556254916491924 -0.50000000000000178 0 0.17657826605662061 -0.5 0 0.17291047215434899 -0.4846002139491562 0 0.1573667687459355 -0.46487631811990371 0 0.14985579044011821 -0.46755968703086792 0 0.16232696069744129 -0.48013518308027381 0 0.16232696069744129 -0.48013518308027381 0 0.17291047215434899 -0.4846002139491562 0 0.16232696069744129 -0.48013518308027381 0 0.1734926401992013 -0.46943073386235828 0 0.17291047215434899 -0.4846002139491562 0 0.1734926401992013 -0.46943073386235828 0 0.1861217591234495 -0.47638424174650401 0 0.17291047215434899 -0.4846002139491562 0 0.1861217591234495 -0.47638424174650401 0 0.17657826605662061 -0.5 0 0.17291047215434899 -0.4846002139491562 0 0.1975310404640489 -0.50000000000000411 0 0.1861217591234495 -0.47638424174650401 0 0.17657826605662061 -0.5 0 0.06840282481555704 -0.5 0 0.08695998764568863 -0.48971336426208228 0 0.060466141975464648 -0.49126538965071698 0 0.075613967940067639 -0.48395538114341058 0 0.08695998764568863 -0.48971336426208228 0 0.060466141975464648 -0.49126538965071698 0 0.08695998764568863 -0.48971336426208228 0 0.060466141975464648 -0.49126538965071698 0 0.065342577045435585 -0.48255073840761481 0 0.075613967940067639 -0.48395538114341058 0 0.060466141975464648 -0.49126538965071698 0 0.065342577045435585 -0.48255073840761481 0 0.064530391024906181 -0.4739287368096779 0 0.070319292744294493 -0.47541042773088088 0 0.065342577045435585 -0.48255073840761481 0 0.070319292744294493 -0.47541042773088088 0 0.07273730973570687 -0.48062458847578288 0 0.064530391024906181 -0.4739287368096779 0 0.070319292744294493 -0.47541042773088088 0 0.068508440886934197 -0.46670589250502909 0 0.064530391024906181 -0.4739287368096779 0 0.068508440886934197 -0.46670589250502909 0 0.05470639006032884 -0.46932951035174858 0 0.070319292744294493 -0.47541042773088088 0 0.074973344463372865 -0.47011597155029661 0 0.068508440886934197 -0.46670589250502909 0 0.070319292744294493 -0.47541042773088088 0 0.074973344463372865 -0.47011597155029661 0 0.076166894903011179 -0.47698335265222502 0 0.074973344463372865 -0.47011597155029661 0 0.076166894903011179 -0.47698335265222502 0 0.079613490304517504 -0.47243288950876788 0 0.065342577045435585 -0.48255073840761481 0 0.07273730973570687 -0.48062458847578288 0 0.075613967940067639 -0.48395538114341058 0 0.070319292744294493 -0.47541042773088088 0 0.07273730973570687 -0.48062458847578288 0 0.076166894903011179 -0.47698335265222502 0 0.076166894903011179 -0.47698335265222502 0 0.075613967940067639 -0.48395538114341058 0 0.081782953261370223 -0.47808267167069241 0 0.07273730973570687 -0.48062458847578288 0 0.076166894903011179 -0.47698335265222502 0 0.075613967940067639 -0.48395538114341058 0 0.075613967940067639 -0.48395538114341058 0 0.081782953261370223 -0.47808267167069241 0 0.08695998764568863 -0.48971336426208228 0 0.081782953261370223 -0.47808267167069241 0 0.088974035473406932 -0.47673537998949012 0 0.08695998764568863 -0.48971336426208228 0 0.079613490304517504 -0.47243288950876788 0 0.085102451204442583 -0.47035699503106537 0 0.080041807690390598 -0.46662545663956051 0 0.074973344463372865 -0.47011597155029661 0 0.079613490304517504 -0.47243288950876788 0 0.080041807690390598 -0.46662545663956051 0 0.076166894903011179 -0.47698335265222502 0 0.081782953261370223 -0.47808267167069241 0 0.079613490304517504 -0.47243288950876788 0 0.081782953261370223 -0.47808267167069241 0 0.079613490304517504 -0.47243288950876788 0 0.085102451204442583 -0.47035699503106537 0 0.081782953261370223 -0.47808267167069241 0 0.085102451204442583 -0.47035699503106537 0 0.088974035473406932 -0.47673537998949012 0 0.092606092364701492 -0.47049999173799351 0 0.088974035473406932 -0.47673537998949012 0 0.098337660625457318 -0.47470912415392058 0 0.085102451204442583 -0.47035699503106537 0 0.092606092364701492 -0.47049999173799351 0 0.088816670945082693 -0.46620416177277058 0 0.085102451204442583 -0.47035699503106537 0 0.092606092364701492 -0.47049999173799351 0 0.088974035473406932 -0.47673537998949012 0 0.088974035473406932 -0.47673537998949012 0 0.08695998764568863 -0.48971336426208228 0 0.098337660625457318 -0.47470912415392058 0 0.06840282481555704 -0.5 0 0.08695998764568863 -0.48971336426208228 0 0.09747704709343552 -0.5 0 0.08695998764568863 -0.48971336426208228 0 0.09747704709343552 -0.5 0 0.11345383331591261 -0.48816133887344748 0 0.08695998764568863 -0.48971336426208228 0 0.11345383331591261 -0.48816133887344748 0 0.10473139319243981 -0.48030446463428728 0 0.08695998764568863 -0.48971336426208228 0 0.11345383331591261 -0.48816133887344748 0 0.12655126937131389 -0.5 0 0.09747704709343552 -0.5 0 0.11345383331591261 -0.48816133887344748 0 0.12655126937131389 -0.5 0 0.12843345217293339 -0.48641950850895982 0 0.11345383331591261 -0.48816133887344748 0 0.12931426499705079 -0.46910463433314858 0 0.1134964984134188 -0.47479651965215142 0 0.12931426499705079 -0.46910463433314858 0 0.12359339300146011 -0.477879475998782 0 0.1134964984134188 -0.47479651965215142 0 0.12931426499705079 -0.46910463433314858 0 0.1134964984134188 -0.47479651965215142 0 0.11116353683988089 -0.46794960452426287 0 0.12843345217293339 -0.48641950850895982 0 0.11345383331591261 -0.48816133887344748 0 0.12359339300146011 -0.477879475998782 0 0.11345383331591261 -0.48816133887344748 0 0.1134964984134188 -0.47479651965215142 0 0.10473139319243981 -0.48030446463428728 0 0.11345383331591261 -0.48816133887344748 0 0.12359339300146011 -0.477879475998782 0 0.1134964984134188 -0.47479651965215142 0 0.1134964984134188 -0.47479651965215142 0 0.1058885681346442 -0.47115115177060762 0 0.11116353683988089 -0.46794960452426287 0 0.1134964984134188 -0.47479651965215142 0 0.1058885681346442 -0.47115115177060762 0 0.10473139319243981 -0.48030446463428728 0 0.08695998764568863 -0.48971336426208228 0 0.10473139319243981 -0.48030446463428728 0 0.098337660625457318 -0.47470912415392058 0 0.1058885681346442 -0.47115115177060762 0 0.10473139319243981 -0.48030446463428728 0 0.098337660625457318 -0.47470912415392058 0 0.1058885681346442 -0.47115115177060762 0 0.098337660625457318 -0.47470912415392058 0 0.1001192443621306 -0.46742412302912878 0 0.092606092364701492 -0.47049999173799351 0 0.098337660625457318 -0.47470912415392058 0 0.1001192443621306 -0.46742412302912878 0 0.092606092364701492 -0.47049999173799351 0 0.1001192443621306 -0.46742412302912878 0 0.093438569952811162 -0.46427659010007483 0 0.098061293850173495 -0.4629354244773195 0 0.1001192443621306 -0.46742412302912878 0 0.093438569952811162 -0.46427659010007483 0 0.095182013338778501 -0.46124714381510501 0 0.098061293850173495 -0.4629354244773195 0 0.093438569952811162 -0.46427659010007483 0 0.095182013338778501 -0.46124714381510501 0 0.098061293850173495 -0.4629354244773195 0 0.1022796556992204 -0.46007154662574862 0 0.1011615808121287 -0.46411343333745891 0 0.098061293850173495 -0.4629354244773195 0 0.1022796556992204 -0.46007154662574862 0 0.1011615808121287 -0.46411343333745891 0 0.098061293850173495 -0.4629354244773195 0 0.1001192443621306 -0.46742412302912878 0 0.095182013338778501 -0.46124714381510501 0 0.1022796556992204 -0.46007154662574862 0 0.092213250727397361 -0.4597430608229468 0 0.1022796556992204 -0.46007154662574862 0 0.1041861293369903 -0.46602263921763881 0 0.11116353683988089 -0.46794960452426287 0 0.1011615808121287 -0.46411343333745891 0 0.1001192443621306 -0.46742412302912878 0 0.1041861293369903 -0.46602263921763881 0 0.1058885681346442 -0.47115115177060762 0 0.1001192443621306 -0.46742412302912878 0 0.1041861293369903 -0.46602263921763881 0 0.1011615808121287 -0.46411343333745891 0 0.1022796556992204 -0.46007154662574862 0 0.1041861293369903 -0.46602263921763881 0 0.1058885681346442 -0.47115115177060762 0 0.1041861293369903 -0.46602263921763881 0 0.11116353683988089 -0.46794960452426287 0 0.13114416761070971 -0.46330548308495623 0 0.11072468537456261 -0.45289452182428869 0 0.13114416761070971 -0.46330548308495623 0 0.12931426499705079 -0.46910463433314858 0 0.1022796556992204 -0.46007154662574862 0 0.13114416761070971 -0.46330548308495623 0 0.1029661230153778 -0.45689902921409609 0 0.11072468537456261 -0.45289452182428869 0 0.13114416761070971 -0.46330548308495623 0 0.1029661230153778 -0.45689902921409609 0 0.1022796556992204 -0.46007154662574862 0 0.12686281888957701 -0.44689751039431291 0 0.13114416761070971 -0.46330548308495623 0 0.11072468537456261 -0.45289452182428869 0 0.13114416761070971 -0.46330548308495623 0 0.1029661230153778 -0.45689902921409609 0 0.12931426499705079 -0.46910463433314858 0 0.1022796556992204 -0.46007154662574862 0 0.12931426499705079 -0.46910463433314858 0 0.1022796556992204 -0.46007154662574862 0 0.11116353683988089 -0.46794960452426287 0 0.1158316758994489 -0.44238537288630009 0 0.11072468537456261 -0.45289452182428869 0 0.1072766144597409 -0.43442707612223591 0 0.12686281888957701 -0.44689751039431291 0 0.1158316758994489 -0.44238537288630009 0 0.11072468537456261 -0.45289452182428869 0 0.12686281888957701 -0.44689751039431291 0 0.1158316758994489 -0.44238537288630009 0 0.12374280164977521 -0.42538271748192041 0 0.1029661230153778 -0.45689902921409609 0 0.11072468537456261 -0.45289452182428869 0 0.090305203138415363 -0.44248356056362131 0 0.11072468537456261 -0.45289452182428869 0 0.090305203138415363 -0.44248356056362131 0 0.1072766144597409 -0.43442707612223591 0 0.11072468537456261 -0.45289452182428869 0 0.090305203138415363 -0.44248356056362131 0 0.1029661230153778 -0.45689902921409609 0 0.090305203138415363 -0.44248356056362131 0 0.074788078420045978 -0.45049257534323589 0 0.090305203138415363 -0.44248356056362131 0 0.073412865607435665 -0.44251495195415619 0 0.074788078420045978 -0.45049257534323589 0 0.1022796556992204 -0.46007154662574862 0 0.086713777293643782 -0.45650649335666171 0 0.074788078420045978 -0.45049257534323589 0 0.1029661230153778 -0.45689902921409609 0 0.1022796556992204 -0.46007154662574862 0 0.074788078420045978 -0.45049257534323589 0 0.1029661230153778 -0.45689902921409609 0 0.074788078420045978 -0.45049257534323589 0 0.1022796556992204 -0.46007154662574862 0 0.074788078420045978 -0.45049257534323589 0 0.1022796556992204 -0.46007154662574862 0 0.092213250727397361 -0.4597430608229468 0 0.086713777293643782 -0.45650649335666171 0 0.095182013338778501 -0.46124714381510501 0 0.092213250727397361 -0.4597430608229468 0 0.092486594076104753 -0.4617113964851326 0 0.092213250727397361 -0.4597430608229468 0 0.088643882506315747 -0.45940154352291818 0 0.089112542285431973 -0.46157879120240342 0 0.092213250727397361 -0.4597430608229468 0 0.088643882506315747 -0.45940154352291818 0 0.086713777293643782 -0.45650649335666171 0 0.088643882506315747 -0.45940154352291818 0 0.086535959718789926 -0.45977782870966089 0 0.089112542285431973 -0.46157879120240342 0 0.088643882506315747 -0.45940154352291818 0 0.086535959718789926 -0.45977782870966089 0 0.086713777293643782 -0.45650649335666171 0 0.092606092364701492 -0.47049999173799351 0 0.093438569952811162 -0.46427659010007483 0 0.088816670945082693 -0.46620416177277058 0 0.093438569952811162 -0.46427659010007483 0 0.089112542285431973 -0.46157879120240342 0 0.088816670945082693 -0.46620416177277058 0 0.093438569952811162 -0.46427659010007483 0 0.092486594076104753 -0.4617113964851326 0 0.089112542285431973 -0.46157879120240342 0 0.095182013338778501 -0.46124714381510501 0 0.093438569952811162 -0.46427659010007483 0 0.092486594076104753 -0.4617113964851326 0 0.092213250727397361 -0.4597430608229468 0 0.092486594076104753 -0.4617113964851326 0 0.089112542285431973 -0.46157879120240342 0 0.089112542285431973 -0.46157879120240342 0 0.088816670945082693 -0.46620416177277058 0 0.084493118721867877 -0.46304311636630091 0 0.086535959718789926 -0.45977782870966089 0 0.089112542285431973 -0.46157879120240342 0 0.084493118721867877 -0.46304311636630091 0 0.085102451204442583 -0.47035699503106537 0 0.088816670945082693 -0.46620416177277058 0 0.084493118721867877 -0.46304311636630091 0 0.085102451204442583 -0.47035699503106537 0 0.084493118721867877 -0.46304311636630091 0 0.080041807690390598 -0.46662545663956051 0 0.084493118721867877 -0.46304311636630091 0 0.080250470934259882 -0.4611311504025955 0 0.083863145709667242 -0.45938167798614399 0 0.084493118721867877 -0.46304311636630091 0 0.080250470934259882 -0.4611311504025955 0 0.080041807690390598 -0.46662545663956051 0 0.080250470934259882 -0.4611311504025955 0 0.080041807690390598 -0.46662545663956051 0 0.07540207972174065 -0.46231042831527358 0 0.086713777293643782 -0.45650649335666171 0 0.07828477420283525 -0.45527091303986672 0 0.074788078420045978 -0.45049257534323589 0 0.086713777293643782 -0.45650649335666171 0 0.08087921481941962 -0.4573272655779439 0 0.07828477420283525 -0.45527091303986672 0 0.086713777293643782 -0.45650649335666171 0 0.083863145709667242 -0.45938167798614399 0 0.08087921481941962 -0.4573272655779439 0 0.086535959718789926 -0.45977782870966089 0 0.086713777293643782 -0.45650649335666171 0 0.083863145709667242 -0.45938167798614399 0 0.086535959718789926 -0.45977782870966089 0 0.084493118721867877 -0.46304311636630091 0 0.083863145709667242 -0.45938167798614399 0 0.080250470934259882 -0.4611311504025955 0 0.083863145709667242 -0.45938167798614399 0 0.08087921481941962 -0.4573272655779439 0 0.080250470934259882 -0.4611311504025955 0 0.08087921481941962 -0.4573272655779439 0 0.077308288541267076 -0.45888096673697892 0 0.08087921481941962 -0.4573272655779439 0 0.07828477420283525 -0.45527091303986672 0 0.077308288541267076 -0.45888096673697892 0 0.07828477420283525 -0.45527091303986672 0 0.074862292893948232 -0.45625726742465572 0 0.074960174612603972 -0.45312447991004301 0 0.07828477420283525 -0.45527091303986672 0 0.074862292893948232 -0.45625726742465572 0 0.077308288541267076 -0.45888096673697892 0 0.080250470934259882 -0.4611311504025955 0 0.077308288541267076 -0.45888096673697892 0 0.07540207972174065 -0.46231042831527358 0 0.077308288541267076 -0.45888096673697892 0 0.071511272143315555 -0.45906078113590731 0 0.07540207972174065 -0.46231042831527358 0 0.074862292893948232 -0.45625726742465572 0 0.077308288541267076 -0.45888096673697892 0 0.071511272143315555 -0.45906078113590731 0 0.074862292893948232 -0.45625726742465572 0 0.071511272143315555 -0.45906078113590731 0 0.070143292612592445 -0.45324206096796732 0 0.074862292893948232 -0.45625726742465572 0 0.070143292612592445 -0.45324206096796732 0 0.074960174612603972 -0.45312447991004301 0 0.074973344463372865 -0.47011597155029661 0 0.080041807690390598 -0.46662545663956051 0 0.07540207972174065 -0.46231042831527358 0 0.071511272143315555 -0.45906078113590731 0 0.07540207972174065 -0.46231042831527358 0 0.068508440886934197 -0.46670589250502909 0 0.074973344463372865 -0.47011597155029661 0 0.07540207972174065 -0.46231042831527358 0 0.068508440886934197 -0.46670589250502909 0 0.071511272143315555 -0.45906078113590731 0 0.062843238203410756 -0.45696807086553948 0 0.070143292612592445 -0.45324206096796732 0 0.071511272143315555 -0.45906078113590731 0 0.068508440886934197 -0.46670589250502909 0 0.062843238203410756 -0.45696807086553948 0 0.090305203138415363 -0.44248356056362131 0 0.073412865607435665 -0.44251495195415619 0 0.069885720902268106 -0.43207259930295377 0 0.062843238203410756 -0.45696807086553948 0 0.070143292612592445 -0.45324206096796732 0 0.063672005934616277 -0.44358869276037399 0 0.070143292612592445 -0.45324206096796732 0 0.069440771956637878 -0.44670133403134449 0 0.063672005934616277 -0.44358869276037399 0 0.063672005934616277 -0.44358869276037399 0 0.073412865607435665 -0.44251495195415619 0 0.069885720902268106 -0.43207259930295377 0 0.069440771956637878 -0.44670133403134449 0 0.063672005934616277 -0.44358869276037399 0 0.073412865607435665 -0.44251495195415619 0 0.069440771956637878 -0.44670133403134449 0 0.073412865607435665 -0.44251495195415619 0 0.074788078420045978 -0.45049257534323589 0 0.07828477420283525 -0.45527091303986672 0 0.074788078420045978 -0.45049257534323589 0 0.074960174612603972 -0.45312447991004301 0 0.070143292612592445 -0.45324206096796732 0 0.074788078420045978 -0.45049257534323589 0 0.074960174612603972 -0.45312447991004301 0 0.070143292612592445 -0.45324206096796732 0 0.069440771956637878 -0.44670133403134449 0 0.074788078420045978 -0.45049257534323589 0 0.069885720902268106 -0.43207259930295377 0 0.074715648074151597 -0.4181743295226627 0 0.089217565913301738 -0.42362529331215809 0 0.069885720902268106 -0.43207259930295377 0 0.074715648074151597 -0.4181743295226627 0 0.058599789705156058 -0.41661050257197391 0 0.063672005934616277 -0.44358869276037399 0 0.069885720902268106 -0.43207259930295377 0 0.056858208183458103 -0.43302463548837872 0 0.07071473835907259 -0.40746517945643979 0 0.074715648074151597 -0.4181743295226627 0 0.058599789705156058 -0.41661050257197391 0 0.07071473835907259 -0.40746517945643979 0 0.060446896233721112 -0.40025939265128058 0 0.058599789705156058 -0.41661050257197391 0 0.07071473835907259 -0.40746517945643979 0 0.074715648074151597 -0.4181743295226627 0 0.083883622341622388 -0.40712092471083172 0 0.083883622341622388 -0.40712092471083172 0 0.089217565913301738 -0.42362529331215809 0 0.1056030573898955 -0.40740280712496202 0 0.074715648074151597 -0.4181743295226627 0 0.083883622341622388 -0.40712092471083172 0 0.089217565913301738 -0.42362529331215809 0 0.090305203138415363 -0.44248356056362131 0 0.069885720902268106 -0.43207259930295377 0 0.089217565913301738 -0.42362529331215809 0 0.090305203138415363 -0.44248356056362131 0 0.069885720902268106 -0.43207259930295377 0 0.090305203138415363 -0.44248356056362131 0 0.089217565913301738 -0.42362529331215809 0 0.1072766144597409 -0.43442707612223591 0 0.1158316758994489 -0.44238537288630009 0 0.1072766144597409 -0.43442707612223591 0 0.12374280164977521 -0.42538271748192041 0 0.1072766144597409 -0.43442707612223591 0 0.12374280164977521 -0.42538271748192041 0 0.1056030573898955 -0.40740280712496202 0 0.12374280164977521 -0.42538271748192041 0 0.1056030573898955 -0.40740280712496202 0 0.1209898220595844 -0.40370284902414949 0 0.12374280164977521 -0.42538271748192041 0 0.1056030573898955 -0.40740280712496202 0 0.089217565913301738 -0.42362529331215809 0 0.1072766144597409 -0.43442707612223591 0 0.1056030573898955 -0.40740280712496202 0 0.1056030573898955 -0.40740280712496202 0 0.107566532672053 -0.39281383335860443 0 0.087463313130015985 -0.38942289676800368 0 0.1056030573898955 -0.40740280712496202 0 0.087463313130015985 -0.38942289676800368 0 0.1056030573898955 -0.40740280712496202 0 0.107566532672053 -0.39281383335860443 0 0.1209898220595844 -0.40370284902414949 0 0.13201804517357421 -0.39750898726675771 0 0.1209898220595844 -0.40370284902414949 0 0.1213060936813638 -0.38723960941902003 0 0.107566532672053 -0.39281383335860443 0 0.1209898220595844 -0.40370284902414949 0 0.1213060936813638 -0.38723960941902003 0 0.12792751609649039 -0.37726865906405288 0 0.1213060936813638 -0.38723960941902003 0 0.1164146599960711 -0.37524153280570721 0 0.107566532672053 -0.39281383335860443 0 0.1213060936813638 -0.38723960941902003 0 0.1090356456702045 -0.38176826908647898 0 0.1164146599960711 -0.37524153280570721 0 0.1090356456702045 -0.38176826908647898 0 0.1039233168020009 -0.37145032694897551 0 0.1213060936813638 -0.38723960941902003 0 0.1164146599960711 -0.37524153280570721 0 0.1090356456702045 -0.38176826908647898 0 0.107566532672053 -0.39281383335860443 0 0.098380037517688534 -0.38548416439057459 0 0.087463313130015985 -0.38942289676800368 0 0.1090356456702045 -0.38176826908647898 0 0.098380037517688534 -0.38548416439057459 0 0.1039233168020009 -0.37145032694897551 0 0.107566532672053 -0.39281383335860443 0 0.1090356456702045 -0.38176826908647898 0 0.098380037517688534 -0.38548416439057459 0 0.098380037517688534 -0.38548416439057459 0 0.1039233168020009 -0.37145032694897551 0 0.076443977171130453 -0.37254185469649842 0 0.098380037517688534 -0.38548416439057459 0 0.087463313130015985 -0.38942289676800368 0 0.076443977171130453 -0.37254185469649842 0 0.098380037517688534 -0.38548416439057459 0 0.076443977171130453 -0.37254185469649842 0 0.083883622341622388 -0.40712092471083172 0 0.087463313130015985 -0.38942289676800368 0 0.072483060867278543 -0.39591757505902431 0 0.083883622341622388 -0.40712092471083172 0 0.1056030573898955 -0.40740280712496202 0 0.087463313130015985 -0.38942289676800368 0 0.07071473835907259 -0.40746517945643979 0 0.083883622341622388 -0.40712092471083172 0 0.072483060867278543 -0.39591757505902431 0 0.07071473835907259 -0.40746517945643979 0 0.072483060867278543 -0.39591757505902431 0 0.060446896233721112 -0.40025939265128058 0 0.072483060867278543 -0.39591757505902431 0 0.060233496241899782 -0.38788232401321432 0 0.060446896233721112 -0.40025939265128058 0 0.070332914600425553 -0.38371585737769093 0 0.076443977171130453 -0.37254185469649842 0 0.05139395699797529 -0.37353688559834319 0 0.087463313130015985 -0.38942289676800368 0 0.072483060867278543 -0.39591757505902431 0 0.070332914600425553 -0.38371585737769093 0 0.087463313130015985 -0.38942289676800368 0 0.070332914600425553 -0.38371585737769093 0 0.076443977171130453 -0.37254185469649842 0 0.072483060867278543 -0.39591757505902431 0 0.070332914600425553 -0.38371585737769093 0 0.060233496241899782 -0.38788232401321432 0 0.070332914600425553 -0.38371585737769093 0 0.060233496241899782 -0.38788232401321432 0 0.05139395699797529 -0.37353688559834319 0 0.051343147986104808 -0.3852933656338009 0 0.060233496241899782 -0.38788232401321432 0 0.050675658240316099 -0.39274971881130433 0 0.051343147986104808 -0.3852933656338009 0 0.050675658240316099 -0.39274971881130433 0 0.043069480464228073 -0.38700453411234181 0 0.051343147986104808 -0.3852933656338009 0 0.060233496241899782 -0.38788232401321432 0 0.05139395699797529 -0.37353688559834319 0 0.051343147986104808 -0.3852933656338009 0 0.043069480464228073 -0.38700453411234181 0 0.05139395699797529 -0.37353688559834319 0 0.060233496241899782 -0.38788232401321432 0 0.060446896233721112 -0.40025939265128058 0 0.050675658240316099 -0.39274971881130433 0 0.047508685247253803 -0.40220216310346601 0 0.050675658240316099 -0.39274971881130433 0 0.042588206009024562 -0.3953922707103788 0 0.060446896233721112 -0.40025939265128058 0 0.047508685247253803 -0.40220216310346601 0 0.050675658240316099 -0.39274971881130433 0 0.042588206009024562 -0.3953922707103788 0 0.036629393159651608 -0.3911503235536084 0 0.043069480464228073 -0.38700453411234181 0 0.050675658240316099 -0.39274971881130433 0 0.042588206009024562 -0.3953922707103788 0 0.043069480464228073 -0.38700453411234181 0 0.047508685247253803 -0.40220216310346601 0 0.037427134314921208 -0.4035218724548435 0 0.036921103270264093 -0.40159466515830022 0 0.047508685247253803 -0.40220216310346601 0 0.042588206009024562 -0.3953922707103788 0 0.036921103270264093 -0.40159466515830022 0 0.047508685247253803 -0.40220216310346601 0 0.037427134314921208 -0.4035218724548435 0 0.037427134314921208 -0.4035218724548435 0 0.036921103270264093 -0.40159466515830022 0 0.042588206009024562 -0.3953922707103788 0 0.036921103270264093 -0.40159466515830022 0 0.036629393159651608 -0.3911503235536084 0 0.036921103270264093 -0.40159466515830022 0 0.036629393159651608 -0.3911503235536084 0 0.026036021926684701 -0.39075784818509379 0 0.036629393159651608 -0.3911503235536084 0 0.043069480464228073 -0.38700453411234181 0 0.036076728232781859 -0.38271230102191861 0 0.036629393159651608 -0.3911503235536084 0 0.036076728232781859 -0.38271230102191861 0 0.026036021926684701 -0.39075784818509379 0 0.036076728232781859 -0.38271230102191861 0 0.05139395699797529 -0.37353688559834319 0 0.026343936824820141 -0.37453191650018808 0 0.043069480464228073 -0.38700453411234181 0 0.036076728232781859 -0.38271230102191861 0 0.05139395699797529 -0.37353688559834319 0 0.036076728232781859 -0.38271230102191861 0 0.026036021926684701 -0.39075784818509379 0 0.026343936824820141 -0.37453191650018808 0 0.0137497604529848 -0.38746609095079099 0 0.026036021926684701 -0.39075784818509379 0 0.026343936824820141 -0.37453191650018808 0 0.0137497604529848 -0.38746609095079099 0 0.00028119204996319801 -0.39109590938555239 0 0.0064397945350947311 -0.37378650621160159 0 0.0137497604529848 -0.38746609095079099 0 0.026343936824820141 -0.37453191650018808 0 0.0064397945350947311 -0.37378650621160159 0 -0.0065701789597016232 -0.39935381391183961 0 0.00028119204996319801 -0.39109590938555239 0 0.0096478569283612071 -0.40715827447151909 0 0.0137497604529848 -0.38746609095079099 0 0.00028119204996319801 -0.39109590938555239 0 0.0096478569283612071 -0.40715827447151909 0 0.037427134314921208 -0.4035218724548435 0 0.036921103270264093 -0.40159466515830022 0 0.0096478569283612071 -0.40715827447151909 0 0.037427134314921208 -0.4035218724548435 0 0.0096478569283612071 -0.40715827447151909 0 0.0137497604529848 -0.38746609095079099 0 0.026036021926684701 -0.39075784818509379 0 0.0096478569283612071 -0.40715827447151909 0 0.036921103270264093 -0.40159466515830022 0 0.026036021926684701 -0.39075784818509379 0 0.0096478569283612071 -0.40715827447151909 0 0.037427134314921208 -0.4035218724548435 0 0.025371226056169462 -0.42137007787662678 0 0.0096478569283612071 -0.40715827447151909 0 0.025371226056169462 -0.42137007787662678 0 0.0096478569283612071 -0.40715827447151909 0 0.0086228470973496642 -0.43408322599107407 0 -0.0035836006262223211 -0.42109404790360599 0 0.0096478569283612071 -0.40715827447151909 0 0.0086228470973496642 -0.43408322599107407 0 0.025371226056169462 -0.42137007787662678 0 0.0086228470973496642 -0.43408322599107407 0 0.028513964141454622 -0.44197102464839028 0 0.043186886230057057 -0.42545775175381179 0 0.048946638145192962 -0.44739363105278018 0 0.025371226056169462 -0.42137007787662678 0 0.043186886230057057 -0.42545775175381179 0 0.028513964141454622 -0.44197102464839028 0 0.037427134314921208 -0.4035218724548435 0 0.025371226056169462 -0.42137007787662678 0 0.043186886230057057 -0.42545775175381179 0 0.037427134314921208 -0.4035218724548435 0 0.043186886230057057 -0.42545775175381179 0 0.047508685247253803 -0.40220216310346601 0 0.037427134314921208 -0.4035218724548435 0 0.043186886230057057 -0.42545775175381179 0 0.047508685247253803 -0.40220216310346601 0 0.043186886230057057 -0.42545775175381179 0 0.058599789705156058 -0.41661050257197391 0 0.060446896233721112 -0.40025939265128058 0 0.047508685247253803 -0.40220216310346601 0 0.058599789705156058 -0.41661050257197391 0 0.069885720902268106 -0.43207259930295377 0 0.058599789705156058 -0.41661050257197391 0 0.056858208183458103 -0.43302463548837872 0 0.043186886230057057 -0.42545775175381179 0 0.056858208183458103 -0.43302463548837872 0 0.048946638145192962 -0.44739363105278018 0 0.043186886230057057 -0.42545775175381179 0 0.058599789705156058 -0.41661050257197391 0 0.056858208183458103 -0.43302463548837872 0 0.063672005934616277 -0.44358869276037399 0 0.056858208183458103 -0.43302463548837872 0 0.048946638145192962 -0.44739363105278018 0 0.062843238203410756 -0.45696807086553948 0 0.063672005934616277 -0.44358869276037399 0 0.048946638145192962 -0.44739363105278018 0 0.062843238203410756 -0.45696807086553948 0 0.048946638145192962 -0.44739363105278018 0 0.05470639006032884 -0.46932951035174858 0 0.048946638145192962 -0.44739363105278018 0 0.05470639006032884 -0.46932951035174858 0 0.068508440886934197 -0.46670589250502909 0 0.062843238203410756 -0.45696807086553948 0 0.05470639006032884 -0.46932951035174858 0 0.048946638145192962 -0.44739363105278018 0 0.03530607136770747 -0.45830070625332348 0 0.05470639006032884 -0.46932951035174858 0 0.03530607136770747 -0.45830070625332348 0 0.034717786677265328 -0.47309004718301018 0 0.05470639006032884 -0.46932951035174858 0 0.048946638145192962 -0.44739363105278018 0 0.03530607136770747 -0.45830070625332348 0 0.028513964141454622 -0.44197102464839028 0 0.043186886230057057 -0.42545775175381179 0 0.048946638145192962 -0.44739363105278018 0 0.028513964141454622 -0.44197102464839028 0 0.0086228470973496642 -0.43408322599107407 0 0.028513964141454622 -0.44197102464839028 0 0.016047004114265549 -0.45998468448422142 0 -0.00063600287822451068 -0.45042270870384937 0 0.0086228470973496642 -0.43408322599107407 0 0.016047004114265549 -0.45998468448422142 0 -0.00063600287822451068 -0.45042270870384937 0 -0.0031950402278951582 -0.47355988848270247 0 0.016047004114265549 -0.45998468448422142 0 0.03530607136770747 -0.45830070625332348 0 0.016047004114265549 -0.45998468448422142 0 0.034717786677265328 -0.47309004718301018 0 0.03530607136770747 -0.45830070625332348 0 0.028513964141454622 -0.44197102464839028 0 0.016047004114265549 -0.45998468448422142 0 0.016047004114265549 -0.45998468448422142 0 0.02020540504909386 -0.48083132847119081 0 0.034717786677265328 -0.47309004718301018 0 0.02020540504909386 -0.48083132847119081 0 0.035389538258226591 -0.48494494026823948 0 0.034717786677265328 -0.47309004718301018 0 -0.0031950402278951582 -0.47355988848270247 0 0.016047004114265549 -0.45998468448422142 0 0.02020540504909386 -0.48083132847119081 0 -0.0031950402278951582 -0.47355988848270247 0 0.02020540504909386 -0.48083132847119081 0 0.010254380259800079 -0.5 0 0.010254380259800079 -0.5 0 0.02784707001121756 -0.49317623447378889 0 0.039328602537678559 -0.5 0 0.02020540504909386 -0.48083132847119081 0 0.010254380259800079 -0.5 0 0.02784707001121756 -0.49317623447378889 0 0.02020540504909386 -0.48083132847119081 0 0.02784707001121756 -0.49317623447378889 0 0.035389538258226591 -0.48494494026823948 0 0.02784707001121756 -0.49317623447378889 0 0.039328602537678559 -0.5 0 0.044156605993341112 -0.49222081206225288 0 0.02784707001121756 -0.49317623447378889 0 0.044156605993341112 -0.49222081206225288 0 0.035389538258226591 -0.48494494026823948 0 0.02784707001121756 -0.49317623447378889 0 0.044156605993341112 -0.49222081206225288 0 0.044156605993341112 -0.49222081206225288 0 0.035389538258226591 -0.48494494026823948 0 0.047581434966699677 -0.4821075234638863 0 0.034717786677265328 -0.47309004718301018 0 0.047581434966699677 -0.4821075234638863 0 0.05470639006032884 -0.46932951035174858 0 0.035389538258226591 -0.48494494026823948 0 0.034717786677265328 -0.47309004718301018 0 0.047581434966699677 -0.4821075234638863 0 0.047581434966699677 -0.4821075234638863 0 0.05470639006032884 -0.46932951035174858 0 0.060466141975464648 -0.49126538965071698 0 0.065342577045435585 -0.48255073840761481 0 0.05470639006032884 -0.46932951035174858 0 0.060466141975464648 -0.49126538965071698 0 0.05470639006032884 -0.46932951035174858 0 0.060466141975464648 -0.49126538965071698 0 0.065342577045435585 -0.48255073840761481 0 0.064530391024906181 -0.4739287368096779 0 0.05470639006032884 -0.46932951035174858 0 0.044156605993341112 -0.49222081206225288 0 0.060466141975464648 -0.49126538965071698 0 0.039328602537678559 -0.5 0 0.044156605993341112 -0.49222081206225288 0 0.060466141975464648 -0.49126538965071698 0 0.06840282481555704 -0.5 0 0.039328602537678559 -0.5 0 0.060466141975464648 -0.49126538965071698 0 0.044156605993341112 -0.49222081206225288 0 0.047581434966699677 -0.4821075234638863 0 0.060466141975464648 -0.49126538965071698 0 0.082598381704794666 -0.28127596123230048 0 0.087590134178308021 -0.30339166748991542 0 0.095476511833910621 -0.29021055830859133 0 0.082598381704794666 -0.28127596123230048 0 0.087590134178308021 -0.30339166748991542 0 0.068753969264882406 -0.29590646793094078 0 0.082598381704794666 -0.28127596123230048 0 0.087590134178308021 -0.30339166748991542 0 0.087590134178308021 -0.30339166748991542 0 0.083441717661050407 -0.31859860290080849 0 0.072614879554170841 -0.31267978498903609 0 0.087590134178308021 -0.30339166748991542 0 0.068753969264882406 -0.29590646793094078 0 0.072614879554170841 -0.31267978498903609 0 0.068753969264882406 -0.29590646793094078 0 0.072614879554170841 -0.31267978498903609 0 0.054909556824970181 -0.31053697462958119 0 0.068753969264882406 -0.29590646793094078 0 0.063412701726820772 -0.28289312113853538 0 0.056183321560734113 -0.29326967712824431 0 0.082598381704794666 -0.28127596123230048 0 0.068753969264882406 -0.29590646793094078 0 0.063412701726820772 -0.28289312113853538 0 0.082598381704794666 -0.28127596123230048 0 0.068753969264882406 -0.29590646793094078 0 0.082598381704794666 -0.28127596123230048 0 0.077103636391453137 -0.2569317706990028 0 0.061417581027768127 -0.26650687231348219 0 0.082598381704794666 -0.28127596123230048 0 0.063412701726820772 -0.28289312113853538 0 0.061417581027768127 -0.26650687231348219 0 0.077103636391453137 -0.2569317706990028 0 0.049469282095688592 -0.25080690235199599 0 0.061417581027768127 -0.26650687231348219 0 0.077103636391453137 -0.2569317706990028 0 0.1020329899664829 -0.26073784395269961 0 0.097339208476673211 -0.23748768981959781 0 0.082598381704794666 -0.28127596123230048 0 0.077103636391453137 -0.2569317706990028 0 0.1020329899664829 -0.26073784395269961 0 0.082598381704794666 -0.28127596123230048 0 0.077103636391453137 -0.2569317706990028 0 0.082598381704794666 -0.28127596123230048 0 0.1020329899664829 -0.26073784395269961 0 0.082598381704794666 -0.28127596123230048 0 0.1077806962431261 -0.27752194908132799 0 0.1020329899664829 -0.26073784395269961 0 0.1020329899664829 -0.26073784395269961 0 0.1214675982281712 -0.24019972667309869 0 0.13222908187911531 -0.26016936100608751 0 0.1186124347047576 -0.26252979206140231 0 0.1214675982281712 -0.24019972667309869 0 0.1020329899664829 -0.26073784395269961 0 0.1186124347047576 -0.26252979206140231 0 0.1214675982281712 -0.24019972667309869 0 0.1077806962431261 -0.27752194908132799 0 0.1020329899664829 -0.26073784395269961 0 0.1186124347047576 -0.26252979206140231 0 0.1272030319447387 -0.2778015957948336 0 0.1077806962431261 -0.27752194908132799 0 0.1186124347047576 -0.26252979206140231 0 0.1272030319447387 -0.2778015957948336 0 0.1077806962431261 -0.27752194908132799 0 0.1178463957341977 -0.29158266691672158 0 0.1178463957341977 -0.29158266691672158 0 0.1065907386655372 -0.28876560290406728 0 0.10468907999331011 -0.29847584557975487 0 0.1077806962431261 -0.27752194908132799 0 0.1178463957341977 -0.29158266691672158 0 0.1065907386655372 -0.28876560290406728 0 0.082598381704794666 -0.28127596123230048 0 0.1077806962431261 -0.27752194908132799 0 0.095476511833910621 -0.29021055830859133 0 0.1077806962431261 -0.27752194908132799 0 0.1065907386655372 -0.28876560290406728 0 0.095476511833910621 -0.29021055830859133 0 0.1065907386655372 -0.28876560290406728 0 0.095476511833910621 -0.29021055830859133 0 0.10468907999331011 -0.29847584557975487 0 0.087590134178308021 -0.30339166748991542 0 0.10468907999331011 -0.29847584557975487 0 0.104054246079667 -0.31088436586856522 0 0.087590134178308021 -0.30339166748991542 0 0.095476511833910621 -0.29021055830859133 0 0.10468907999331011 -0.29847584557975487 0 0.10468907999331011 -0.29847584557975487 0 0.104054246079667 -0.31088436586856522 0 0.11738380981796501 -0.30396624782269999 0 0.104054246079667 -0.31088436586856522 0 0.11738380981796501 -0.30396624782269999 0 0.1203941193033673 -0.31837813267550791 0 0.1178463957341977 -0.29158266691672158 0 0.10468907999331011 -0.29847584557975487 0 0.11738380981796501 -0.30396624782269999 0 0.13053758301298499 -0.29636142867308402 0 0.1178463957341977 -0.29158266691672158 0 0.11738380981796501 -0.30396624782269999 0 0.13266161500930471 -0.30904900062903901 0 0.11738380981796501 -0.30396624782269999 0 0.1203941193033673 -0.31837813267550791 0 0.13324222997277371 -0.32303645629870897 0 0.1203941193033673 -0.31837813267550791 0 0.1095367640186979 -0.33343752877432592 0 0.1203941193033673 -0.31837813267550791 0 0.1095367640186979 -0.33343752877432592 0 0.1044151059630069 -0.32854947763989162 0 0.1250735408798111 -0.33663343214137548 0 0.13324222997277371 -0.32303645629870897 0 0.1095367640186979 -0.33343752877432592 0 0.13324222997277371 -0.32303645629870897 0 0.1095367640186979 -0.33343752877432592 0 0.1095367640186979 -0.33343752877432592 0 0.1213129697435847 -0.3465973439883393 0 0.110099681114901 -0.35051122895870579 0 0.1250735408798111 -0.33663343214137548 0 0.1095367640186979 -0.33343752877432592 0 0.1213129697435847 -0.3465973439883393 0 0.1095367640186979 -0.33343752877432592 0 0.1044151059630069 -0.32854947763989162 0 0.095147653878141225 -0.3368748753622024 0 0.1095367640186979 -0.33343752877432592 0 0.10033756429307709 -0.34635917444208503 0 0.085831298064622252 -0.34383860124994281 0 0.1095367640186979 -0.33343752877432592 0 0.095147653878141225 -0.3368748753622024 0 0.085831298064622252 -0.34383860124994281 0 0.1095367640186979 -0.33343752877432592 0 0.085831298064622252 -0.34383860124994281 0 0.1095367640186979 -0.33343752877432592 0 0.110099681114901 -0.35051122895870579 0 0.10033756429307709 -0.34635917444208503 0 0.1044151059630069 -0.32854947763989162 0 0.095147653878141225 -0.3368748753622024 0 0.092581886651821266 -0.32550737374753053 0 0.095147653878141225 -0.3368748753622024 0 0.092581886651821266 -0.32550737374753053 0 0.1203941193033673 -0.31837813267550791 0 0.092581886651821266 -0.32550737374753053 0 0.1203941193033673 -0.31837813267550791 0 0.1044151059630069 -0.32854947763989162 0 0.092581886651821266 -0.32550737374753053 0 0.087590134178308021 -0.30339166748991542 0 0.104054246079667 -0.31088436586856522 0 0.092581886651821266 -0.32550737374753053 0 0.104054246079667 -0.31088436586856522 0 0.1203941193033673 -0.31837813267550791 0 0.092581886651821266 -0.32550737374753053 0 0.1164146599960711 -0.37524153280570721 0 0.1227092171370263 -0.36881370275337799 0 0.1119398196628066 -0.36372959918612779 0 0.1164146599960711 -0.37524153280570721 0 0.1119398196628066 -0.36372959918612779 0 0.1039233168020009 -0.37145032694897551 0 0.12792751609649039 -0.37726865906405288 0 0.1164146599960711 -0.37524153280570721 0 0.1227092171370263 -0.36881370275337799 0 0.1227092171370263 -0.36881370275337799 0 0.1119398196628066 -0.36372959918612779 0 0.1219235494000302 -0.35822020220788092 0 0.1119398196628066 -0.36372959918612779 0 0.1219235494000302 -0.35822020220788092 0 0.110099681114901 -0.35051122895870579 0 0.13049570055047649 -0.35285864689292928 0 0.1219235494000302 -0.35822020220788092 0 0.1213129697435847 -0.3465973439883393 0 0.1219235494000302 -0.35822020220788092 0 0.1213129697435847 -0.3465973439883393 0 0.110099681114901 -0.35051122895870579 0 0.1119398196628066 -0.36372959918612779 0 0.110099681114901 -0.35051122895870579 0 0.095882513974087452 -0.35764933878536548 0 0.110099681114901 -0.35051122895870579 0 0.10033756429307709 -0.34635917444208503 0 0.095882513974087452 -0.35764933878536548 0 0.10033756429307709 -0.34635917444208503 0 0.095882513974087452 -0.35764933878536548 0 0.085831298064622252 -0.34383860124994281 0 0.1119398196628066 -0.36372959918612779 0 0.095882513974087452 -0.35764933878536548 0 0.1039233168020009 -0.37145032694897551 0 0.1039233168020009 -0.37145032694897551 0 0.076443977171130453 -0.37254185469649842 0 0.095882513974087452 -0.35764933878536548 0 0.1039233168020009 -0.37145032694897551 0 0.076443977171130453 -0.37254185469649842 0 0.095882513974087452 -0.35764933878536548 0 0.081329640333080863 -0.35528746138775352 0 0.076443977171130453 -0.37254185469649842 0 0.095882513974087452 -0.35764933878536548 0 0.081329640333080863 -0.35528746138775352 0 0.085831298064622252 -0.34383860124994281 0 0.081329640333080863 -0.35528746138775352 0 0.085831298064622252 -0.34383860124994281 0 0.075809931037895073 -0.34362300219963698 0 0.081329640333080863 -0.35528746138775352 0 0.069233176510665836 -0.35295156225574431 0 0.075809931037895073 -0.34362300219963698 0 0.069233176510665836 -0.35295156225574431 0 0.075809931037895073 -0.34362300219963698 0 0.066394029104130614 -0.34318550843088008 0 0.069233176510665836 -0.35295156225574431 0 0.066394029104130614 -0.34318550843088008 0 0.058815125931141937 -0.3493692332051897 0 0.076443977171130453 -0.37254185469649842 0 0.05139395699797529 -0.37353688559834319 0 0.069233176510665836 -0.35295156225574431 0 0.076443977171130453 -0.37254185469649842 0 0.054969558943847141 -0.35987191457020651 0 0.081329640333080863 -0.35528746138775352 0 0.069233176510665836 -0.35295156225574431 0 0.076443977171130453 -0.37254185469649842 0 0.076443977171130453 -0.37254185469649842 0 0.054969558943847141 -0.35987191457020651 0 0.087590134178308021 -0.30339166748991542 0 0.083441717661050407 -0.31859860290080849 0 0.092581886651821266 -0.32550737374753053 0 0.087590134178308021 -0.30339166748991542 0 0.092581886651821266 -0.32550737374753053 0 0.083441717661050407 -0.31859860290080849 0 0.087790626431674401 -0.32673554012942629 0 0.076631061489277508 -0.32467864814813452 0 0.083441717661050407 -0.31859860290080849 0 0.087790626431674401 -0.32673554012942629 0 0.092581886651821266 -0.32550737374753053 0 0.087790626431674401 -0.32673554012942629 0 0.092581886651821266 -0.32550737374753053 0 0.095147653878141225 -0.3368748753622024 0 0.092581886651821266 -0.32550737374753053 0 0.088799068838440784 -0.33362252796510772 0 0.087790626431674401 -0.32673554012942629 0 0.092581886651821266 -0.32550737374753053 0 0.088799068838440784 -0.33362252796510772 0 0.087790626431674401 -0.32673554012942629 0 0.088799068838440784 -0.33362252796510772 0 0.081355573492556038 -0.33438516535429602 0 0.095147653878141225 -0.3368748753622024 0 0.085831298064622252 -0.34383860124994281 0 0.088799068838440784 -0.33362252796510772 0 0.085831298064622252 -0.34383860124994281 0 0.088799068838440784 -0.33362252796510772 0 0.081355573492556038 -0.33438516535429602 0 0.085831298064622252 -0.34383860124994281 0 0.081355573492556038 -0.33438516535429602 0 0.075809931037895073 -0.34362300219963698 0 0.087790626431674401 -0.32673554012942629 0 0.081355573492556038 -0.33438516535429602 0 0.076631061489277508 -0.32467864814813452 0 0.081355573492556038 -0.33438516535429602 0 0.071580151504723077 -0.33372903173462981 0 0.076631061489277508 -0.32467864814813452 0 0.081355573492556038 -0.33438516535429602 0 0.071580151504723077 -0.33372903173462981 0 0.075809931037895073 -0.34362300219963698 0 0.071580151504723077 -0.33372903173462981 0 0.075809931037895073 -0.34362300219963698 0 0.066394029104130614 -0.34318550843088008 0 0.071580151504723077 -0.33372903173462981 0 0.066394029104130614 -0.34318550843088008 0 0.056531760536227188 -0.33625471275919949 0 0.071580151504723077 -0.33372903173462981 0 0.063380796221354535 -0.32346484097258599 0 0.056531760536227188 -0.33625471275919949 0 0.063380796221354535 -0.32346484097258599 0 0.072614879554170841 -0.31267978498903609 0 0.054909556824970181 -0.31053697462958119 0 0.071580151504723077 -0.33372903173462981 0 0.063380796221354535 -0.32346484097258599 0 0.076631061489277508 -0.32467864814813452 0 0.083441717661050407 -0.31859860290080849 0 0.076631061489277508 -0.32467864814813452 0 0.072614879554170841 -0.31267978498903609 0 0.063380796221354535 -0.32346484097258599 0 0.076631061489277508 -0.32467864814813452 0 0.072614879554170841 -0.31267978498903609 0 0.048147865799649532 -0.32220865907583368 0 0.038939485077069153 -0.3072357678893039 0 0.054909556824970181 -0.31053697462958119 0 0.063380796221354535 -0.32346484097258599 0 0.048147865799649532 -0.32220865907583368 0 0.054909556824970181 -0.31053697462958119 0 0.063380796221354535 -0.32346484097258599 0 0.048147865799649532 -0.32220865907583368 0 0.056531760536227188 -0.33625471275919949 0 0.056531760536227188 -0.33625471275919949 0 0.058815125931141937 -0.3493692332051897 0 0.048943802927042132 -0.34557136339138728 0 0.066394029104130614 -0.34318550843088008 0 0.056531760536227188 -0.33625471275919949 0 0.058815125931141937 -0.3493692332051897 0 0.056531760536227188 -0.33625471275919949 0 0.043685611289478031 -0.33461626706229458 0 0.048943802927042132 -0.34557136339138728 0 0.048147865799649532 -0.32220865907583368 0 0.056531760536227188 -0.33625471275919949 0 0.043685611289478031 -0.33461626706229458 0 0.031439984848798147 -0.32114339114203749 0 0.033495140716564308 -0.34720197444391382 0 0.043685611289478031 -0.33461626706229458 0 0.031439984848798147 -0.32114339114203749 0 0.033495140716564308 -0.34720197444391382 0 0.043685611289478031 -0.33461626706229458 0 0.048943802927042132 -0.34557136339138728 0 0.033495140716564308 -0.34720197444391382 0 0.048147865799649532 -0.32220865907583368 0 0.031439984848798147 -0.32114339114203749 0 0.038939485077069153 -0.3072357678893039 0 0.048147865799649532 -0.32220865907583368 0 0.043685611289478031 -0.33461626706229458 0 0.031439984848798147 -0.32114339114203749 0 0.076443977171130453 -0.37254185469649842 0 0.05139395699797529 -0.37353688559834319 0 0.054969558943847141 -0.35987191457020651 0 0.05139395699797529 -0.37353688559834319 0 0.054969558943847141 -0.35987191457020651 0 0.037073464601224189 -0.36133099869415758 0 0.054969558943847141 -0.35987191457020651 0 0.058815125931141937 -0.3493692332051897 0 0.048943802927042132 -0.34557136339138728 0 0.069233176510665836 -0.35295156225574431 0 0.054969558943847141 -0.35987191457020651 0 0.058815125931141937 -0.3493692332051897 0 0.054969558943847141 -0.35987191457020651 0 0.033495140716564308 -0.34720197444391382 0 0.037073464601224189 -0.36133099869415758 0 0.054969558943847141 -0.35987191457020651 0 0.048943802927042132 -0.34557136339138728 0 0.033495140716564308 -0.34720197444391382 0 0.054969558943847141 -0.35987191457020651 0 0.033495140716564308 -0.34720197444391382 0 0.033495140716564308 -0.34720197444391382 0 0.031173611150742839 -0.35291126436636322 0 0.0303883728555112 -0.3479479534036844 0 0.033495140716564308 -0.34720197444391382 0 0.037073464601224189 -0.36133099869415758 0 0.031173611150742839 -0.35291126436636322 0 0.037073464601224189 -0.36133099869415758 0 0.02949102760058819 -0.35799921444080568 0 0.031173611150742839 -0.35291126436636322 0 0.05139395699797529 -0.37353688559834319 0 0.037073464601224189 -0.36133099869415758 0 0.026343936824820141 -0.37453191650018808 0 0.05139395699797529 -0.37353688559834319 0 0.026343936824820141 -0.37453191650018808 0 0.037073464601224189 -0.36133099869415758 0 0.02857364069460399 -0.3635589485722116 0 0.02949102760058819 -0.35799921444080568 0 0.026343936824820141 -0.37453191650018808 0 0.021386133751783401 -0.36037366465369469 0 0.0064397945350947311 -0.37378650621160159 0 0.037073464601224189 -0.36133099869415758 0 0.026343936824820141 -0.37453191650018808 0 0.02857364069460399 -0.3635589485722116 0 0.026343936824820141 -0.37453191650018808 0 0.02857364069460399 -0.3635589485722116 0 0.021386133751783401 -0.36037366465369469 0 0.02857364069460399 -0.3635589485722116 0 0.021386133751783401 -0.36037366465369469 0 0.02949102760058819 -0.35799921444080568 0 0.021386133751783401 -0.36037366465369469 0 0.02540682776771018 -0.34990852830218772 0 0.016684420710394179 -0.34669873021559322 0 0.02949102760058819 -0.35799921444080568 0 0.031173611150742839 -0.35291126436636322 0 0.02540682776771018 -0.34990852830218772 0 0.021386133751783401 -0.36037366465369469 0 0.02949102760058819 -0.35799921444080568 0 0.02540682776771018 -0.34990852830218772 0 0.02540682776771018 -0.34990852830218772 0 0.027799768100569382 -0.34384169574961709 0 0.021254273712787122 -0.34142707763045471 0 0.031173611150742839 -0.35291126436636322 0 0.02540682776771018 -0.34990852830218772 0 0.0303883728555112 -0.3479479534036844 0 0.033495140716564308 -0.34720197444391382 0 0.0303883728555112 -0.3479479534036844 0 0.027799768100569382 -0.34384169574961709 0 0.033495140716564308 -0.34720197444391382 0 0.027799768100569382 -0.34384169574961709 0 0.02540682776771018 -0.34990852830218772 0 0.0303883728555112 -0.3479479534036844 0 0.027799768100569382 -0.34384169574961709 0 0.02540682776771018 -0.34990852830218772 0 0.016684420710394179 -0.34669873021559322 0 0.021254273712787122 -0.34142707763045471 0 0.016684420710394179 -0.34669873021559322 0 0.0063003120656644216 -0.34388798576577179 0 0.0072896530918497614 -0.3572746125926608 0 -0.0035546916292847502 -0.35191356541576851 0 0.0063003120656644216 -0.34388798576577179 0 0.0072896530918497614 -0.3572746125926608 0 0.021386133751783401 -0.36037366465369469 0 0.016684420710394179 -0.34669873021559322 0 0.0072896530918497614 -0.3572746125926608 0 -0.0044151325190836394 -0.36555497356786892 0 0.0072896530918497614 -0.3572746125926608 0 0.0064397945350947311 -0.37378650621160159 0 0.021386133751783401 -0.36037366465369469 0 0.0072896530918497614 -0.3572746125926608 0 0.0064397945350947311 -0.37378650621160159 0 0.031439984848798147 -0.32114339114203749 0 0.01951748034400079 -0.33467004971605141 0 0.0144894786246352 -0.32019546967828272 0 0.031439984848798147 -0.32114339114203749 0 0.0144894786246352 -0.32019546967828272 0 0.019339547095335679 -0.308619028409511 0 0.031439984848798147 -0.32114339114203749 0 0.027799768100569382 -0.34384169574961709 0 0.01951748034400079 -0.33467004971605141 0 0.031439984848798147 -0.32114339114203749 0 0.033495140716564308 -0.34720197444391382 0 0.027799768100569382 -0.34384169574961709 0 0.016684420710394179 -0.34669873021559322 0 0.021254273712787122 -0.34142707763045471 0 0.01951748034400079 -0.33467004971605141 0 0.027799768100569382 -0.34384169574961709 0 0.021254273712787122 -0.34142707763045471 0 0.01951748034400079 -0.33467004971605141 0 0.0063003120656644216 -0.34388798576577179 0 0.01951748034400079 -0.33467004971605141 0 0.0072742440764781337 -0.32873799983209401 0 0.016684420710394179 -0.34669873021559322 0 0.0063003120656644216 -0.34388798576577179 0 0.01951748034400079 -0.33467004971605141 0 -0.0052977523197558392 -0.33907190723812147 0 0.0063003120656644216 -0.34388798576577179 0 0.0072742440764781337 -0.32873799983209401 0 -0.0073090187898726703 -0.32644714733581232 0 0.0072742440764781337 -0.32873799983209401 0 0.0019524439344398539 -0.31934945332578601 0 0.0072742440764781337 -0.32873799983209401 0 0.0144894786246352 -0.32019546967828272 0 0.0019524439344398539 -0.31934945332578601 0 0.01951748034400079 -0.33467004971605141 0 0.0072742440764781337 -0.32873799983209401 0 0.0144894786246352 -0.32019546967828272 0 0.0144894786246352 -0.32019546967828272 0 0.0019524439344398539 -0.31934945332578601 0 0.0077678606697885611 -0.30863260880146182 0 -0.0074209204564366664 -0.31244580551942253 0 0.0019524439344398539 -0.31934945332578601 0 0.0077678606697885611 -0.30863260880146182 0 -0.0074209204564366664 -0.31244580551942253 0 0.0077678606697885611 -0.30863260880146182 0 0.00070050571613747476 -0.2985815963608216 0 0.0077678606697885611 -0.30863260880146182 0 0.00070050571613747476 -0.2985815963608216 0 0.012815757529628449 -0.29982540799296598 0 0.0077678606697885611 -0.30863260880146182 0 0.012815757529628449 -0.29982540799296598 0 0.019339547095335679 -0.308619028409511 0 0.0144894786246352 -0.32019546967828272 0 0.0077678606697885611 -0.30863260880146182 0 0.019339547095335679 -0.308619028409511 0 -0.0060768745930243557 -0.28868453192696197 0 0.00070050571613747476 -0.2985815963608216 0 0.0078613088204720159 -0.28479831103914188 0 0.00070050571613747476 -0.2985815963608216 0 0.012815757529628449 -0.29982540799296598 0 0.0078613088204720159 -0.28479831103914188 0 0.0078613088204720159 -0.28479831103914188 0 0.02092152836162051 -0.28712778765760949 0 0.016167428994933401 -0.27808632698340741 0 0.0078613088204720159 -0.28479831103914188 0 0.027589265434054391 -0.29869660211680249 0 0.02938482898103148 -0.29508480784016122 0 0.027329673113272359 -0.2690262245382844 0 0.02338182527693913 -0.28036548559157931 0 0.02938482898103148 -0.29508480784016122 0 0.033930117062216332 -0.28293929845237498 0 0.027329673113272359 -0.2690262245382844 0 0.012815757529628449 -0.29982540799296598 0 0.0078613088204720159 -0.28479831103914188 0 0.027589265434054391 -0.29869660211680249 0 0.0078613088204720159 -0.28479831103914188 0 0.02092152836162051 -0.28712778765760949 0 0.027589265434054391 -0.29869660211680249 0 0.02938482898103148 -0.29508480784016122 0 0.027329673113272359 -0.2690262245382844 0 0.02092152836162051 -0.28712778765760949 0 0.02338182527693913 -0.28036548559157931 0 0.016167428994933401 -0.27808632698340741 0 0.02092152836162051 -0.28712778765760949 0 0.02938482898103148 -0.29508480784016122 0 0.027589265434054391 -0.29869660211680249 0 0.02092152836162051 -0.28712778765760949 0 0.02938482898103148 -0.29508480784016122 0 0.02338182527693913 -0.28036548559157931 0 0.031439984848798147 -0.32114339114203749 0 0.019339547095335679 -0.308619028409511 0 0.027589265434054391 -0.29869660211680249 0 0.031439984848798147 -0.32114339114203749 0 0.02938482898103148 -0.29508480784016122 0 0.027589265434054391 -0.29869660211680249 0 0.031439984848798147 -0.32114339114203749 0 0.02938482898103148 -0.29508480784016122 0 0.012815757529628449 -0.29982540799296598 0 0.019339547095335679 -0.308619028409511 0 0.027589265434054391 -0.29869660211680249 0 0.038939485077069153 -0.3072357678893039 0 0.045899702876710267 -0.29661229157464869 0 0.054909556824970181 -0.31053697462958119 0 0.031439984848798147 -0.32114339114203749 0 0.02938482898103148 -0.29508480784016122 0 0.038939485077069153 -0.3072357678893039 0 0.038939485077069153 -0.3072357678893039 0 0.037733940748711767 -0.29485737837451531 0 0.045899702876710267 -0.29661229157464869 0 0.02938482898103148 -0.29508480784016122 0 0.038939485077069153 -0.3072357678893039 0 0.037733940748711767 -0.29485737837451531 0 0.02938482898103148 -0.29508480784016122 0 0.034266106617936588 -0.28980794956754818 0 0.033930117062216332 -0.28293929845237498 0 0.038827785811100503 -0.28748968908471179 0 0.045899702876710267 -0.29661229157464869 0 0.047940677110286933 -0.28039953036751553 0 0.02938482898103148 -0.29508480784016122 0 0.034266106617936588 -0.28980794956754818 0 0.037733940748711767 -0.29485737837451531 0 0.034266106617936588 -0.28980794956754818 0 0.037733940748711767 -0.29485737837451531 0 0.038827785811100503 -0.28748968908471179 0 0.034266106617936588 -0.28980794956754818 0 0.033930117062216332 -0.28293929845237498 0 0.038827785811100503 -0.28748968908471179 0 0.033930117062216332 -0.28293929845237498 0 0.038827785811100503 -0.28748968908471179 0 0.038674442715344877 -0.28136745612709602 0 0.038827785811100503 -0.28748968908471179 0 0.038674442715344877 -0.28136745612709602 0 0.047940677110286933 -0.28039953036751553 0 0.037733940748711767 -0.29485737837451531 0 0.038827785811100503 -0.28748968908471179 0 0.045899702876710267 -0.29661229157464869 0 0.045899702876710267 -0.29661229157464869 0 0.056183321560734113 -0.29326967712824431 0 0.047940677110286933 -0.28039953036751553 0 0.063412701726820772 -0.28289312113853538 0 0.056183321560734113 -0.29326967712824431 0 0.047940677110286933 -0.28039953036751553 0 0.045899702876710267 -0.29661229157464869 0 0.056183321560734113 -0.29326967712824431 0 0.054909556824970181 -0.31053697462958119 0 0.068753969264882406 -0.29590646793094078 0 0.054909556824970181 -0.31053697462958119 0 0.068753969264882406 -0.29590646793094078 0 0.056183321560734113 -0.29326967712824431 0 0.054909556824970181 -0.31053697462958119 0 0.049469282095688592 -0.25080690235199599 0 0.061417581027768127 -0.26650687231348219 0 0.044617240448604448 -0.26839262427643418 0 0.063412701726820772 -0.28289312113853538 0 0.061417581027768127 -0.26650687231348219 0 0.047940677110286933 -0.28039953036751553 0 0.061417581027768127 -0.26650687231348219 0 0.047940677110286933 -0.28039953036751553 0 0.044617240448604448 -0.26839262427643418 0 0.044617240448604448 -0.26839262427643418 0 0.036928988896006237 -0.27522359181089318 0 0.027329673113272359 -0.2690262245382844 0 0.038674442715344877 -0.28136745612709602 0 0.047940677110286933 -0.28039953036751553 0 0.036928988896006237 -0.27522359181089318 0 0.047940677110286933 -0.28039953036751553 0 0.044617240448604448 -0.26839262427643418 0 0.036928988896006237 -0.27522359181089318 0 0.033930117062216332 -0.28293929845237498 0 0.036928988896006237 -0.27522359181089318 0 0.027329673113272359 -0.2690262245382844 0 0.033930117062216332 -0.28293929845237498 0 0.038674442715344877 -0.28136745612709602 0 0.036928988896006237 -0.27522359181089318 0 0.049469282095688592 -0.25080690235199599 0 0.044617240448604448 -0.26839262427643418 0 0.027329673113272359 -0.2690262245382844 0 0.049469282095688592 -0.25080690235199599 0 0.034171789628625548 -0.25287538908362028 0 0.027329673113272359 -0.2690262245382844 0 0.049469282095688592 -0.25080690235199599 0 0.027329673113272359 -0.2690262245382844 0 0.027329673113272359 -0.2690262245382844 0 0.02508285790449984 -0.2405374747554527 0 0.017549179963494581 -0.24947376405350211 0 0.019543272477460322 -0.26422534066941478 0 0.027329673113272359 -0.2690262245382844 0 0.017549179963494581 -0.24947376405350211 0 0.027329673113272359 -0.2690262245382844 0 0.02508285790449984 -0.2405374747554527 0 0.034171789628625548 -0.25287538908362028 0 0.027329673113272359 -0.2690262245382844 0 0.02508285790449984 -0.2405374747554527 0 0.019543272477460322 -0.26422534066941478 0 0.014526761222252559 -0.26930004008173358 0 0.015205081154444199 -0.26082439373512001 0 0.019543272477460322 -0.26422534066941478 0 0.015205081154444199 -0.26082439373512001 0 0.017549179963494581 -0.24947376405350211 0 0.027329673113272359 -0.2690262245382844 0 0.023105666933837889 -0.27250228093843398 0 0.02338182527693913 -0.28036548559157931 0 0.027329673113272359 -0.2690262245382844 0 0.023105666933837889 -0.27250228093843398 0 0.019543272477460322 -0.26422534066941478 0 0.027329673113272359 -0.2690262245382844 0 0.023105666933837889 -0.27250228093843398 0 0.023105666933837889 -0.27250228093843398 0 0.016167428994933401 -0.27808632698340741 0 0.014526761222252559 -0.26930004008173358 0 0.019543272477460322 -0.26422534066941478 0 0.023105666933837889 -0.27250228093843398 0 0.014526761222252559 -0.26930004008173358 0 0.023105666933837889 -0.27250228093843398 0 0.02338182527693913 -0.28036548559157931 0 0.016167428994933401 -0.27808632698340741 0 -0.01186664779311036 -0.27090001996148128 0 0.0078613088204720159 -0.28479831103914188 0 0.0053490981021702948 -0.27300109275042561 0 0.016167428994933401 -0.27808632698340741 0 0.014526761222252559 -0.26930004008173358 0 0.0053490981021702948 -0.27300109275042561 0 0.0078613088204720159 -0.28479831103914188 0 0.016167428994933401 -0.27808632698340741 0 0.0053490981021702948 -0.27300109275042561 0 0.014526761222252559 -0.26930004008173358 0 0.0061908193287953696 -0.2678833139689864 0 0.0053490981021702948 -0.27300109275042561 0 0.014526761222252559 -0.26930004008173358 0 0.0061908193287953696 -0.2678833139689864 0 0.0094128328966840511 -0.2635694313055813 0 -0.00078508196032120968 -0.26703854446780351 0 0.0061908193287953696 -0.2678833139689864 0 0.0028799528272470888 -0.26276843333515038 0 -0.00078508196032120968 -0.26703854446780351 0 0.0061908193287953696 -0.2678833139689864 0 0.0053490981021702948 -0.27300109275042561 0 -0.0027879324552719381 -0.24539863686431981 0 0.0059842086934125353 -0.25674621383972213 0 0.017549179963494581 -0.24947376405350211 0 0.015205081154444199 -0.26082439373512001 0 0.0059842086934125353 -0.25674621383972213 0 0.017549179963494581 -0.24947376405350211 0 0.015205081154444199 -0.26082439373512001 0 0.0094128328966840511 -0.2635694313055813 0 0.0059842086934125353 -0.25674621383972213 0 0.014526761222252559 -0.26930004008173358 0 0.015205081154444199 -0.26082439373512001 0 0.0094128328966840511 -0.2635694313055813 0 -0.0064030148223353034 -0.25860466309365893 0 0.0028799528272470888 -0.26276843333515038 0 0.0059842086934125353 -0.25674621383972213 0 0.0094128328966840511 -0.2635694313055813 0 0.0028799528272470888 -0.26276843333515038 0 0.0059842086934125353 -0.25674621383972213 0 0.0061908193287953696 -0.2678833139689864 0 0.0094128328966840511 -0.2635694313055813 0 0.0028799528272470888 -0.26276843333515038 0 -0.0027879324552719381 -0.24539863686431981 0 0.0077026290604160132 -0.22551752340324691 0 0.017549179963494581 -0.24947376405350211 0 -0.0027879324552719381 -0.24539863686431981 0 0.0077026290604160132 -0.22551752340324691 0 0.0077026290604160132 -0.22551752340324691 0 0.02508285790449984 -0.2405374747554527 0 0.02283604269573648 -0.21204872497262031 0 0.02508285790449984 -0.2405374747554527 0 0.02283604269573648 -0.21204872497262031 0 0.040300062982761869 -0.23616855409765669 0 0.02508285790449984 -0.2405374747554527 0 0.02283604269573648 -0.21204872497262031 0 0.0077026290604160132 -0.22551752340324691 0 0.02508285790449984 -0.2405374747554527 0 0.017549179963494581 -0.24947376405350211 0 0.018193190576100211 -0.205636409942172 0 0.0024364171524568871 -0.1838744859238792 0 -0.0046935374609555604 -0.2061930603991465 0 0.018193190576100211 -0.205636409942172 0 0.0024364171524568871 -0.1838744859238792 0 0.0077026290604160132 -0.22551752340324691 0 0.018193190576100211 -0.205636409942172 0 -0.0046935374609555604 -0.2061930603991465 0 0.0077026290604160132 -0.22551752340324691 0 0.018193190576100211 -0.205636409942172 0 0.0077026290604160132 -0.22551752340324691 0 0.02283604269573648 -0.21204872497262031 0 0.018193190576100211 -0.205636409942172 0 0.02283604269573648 -0.21204872497262031 0 0.022717500660365791 -0.21054565771047831 0 0.02283604269573648 -0.21204872497262031 0 0.028846831409850782 -0.21142433390963461 0 0.03729436365179363 -0.22010873301398159 0 0.02283604269573648 -0.21204872497262031 0 0.028846831409850782 -0.21142433390963461 0 0.02504253310595532 -0.21074251287133339 0 0.02283604269573648 -0.21204872497262031 0 0.02504253310595532 -0.21074251287133339 0 0.022717500660365791 -0.21054565771047831 0 0.02504253310595532 -0.21074251287133339 0 0.025769757657868219 -0.2089513348926007 0 0.022717500660365791 -0.21054565771047831 0 0.025769757657868219 -0.2089513348926007 0 0.02306161208383559 -0.20782196673111111 0 0.022717500660365791 -0.21054565771047831 0 0.025565999441008149 -0.2061544643791936 0 0.018193190576100211 -0.205636409942172 0 0.027810158993265138 -0.20154891586615789 0 0.025769757657868219 -0.2089513348926007 0 0.029995998943042401 -0.2069863460660305 0 0.025565999441008149 -0.2061544643791936 0 0.025769757657868219 -0.2089513348926007 0 0.025565999441008149 -0.2061544643791936 0 0.02306161208383559 -0.20782196673111111 0 0.028846831409850782 -0.21142433390963461 0 0.02504253310595532 -0.21074251287133339 0 0.025769757657868219 -0.2089513348926007 0 0.028846831409850782 -0.21142433390963461 0 0.025769757657868219 -0.2089513348926007 0 0.029995998943042401 -0.2069863460660305 0 0.029995998943042401 -0.2069863460660305 0 0.025565999441008149 -0.2061544643791936 0 0.027810158993265138 -0.20154891586615789 0 0.025565999441008149 -0.2061544643791936 0 0.02306161208383559 -0.20782196673111111 0 0.018193190576100211 -0.205636409942172 0 0.02306161208383559 -0.20782196673111111 0 0.022717500660365791 -0.21054565771047831 0 0.018193190576100211 -0.205636409942172 0 0.02283604269573648 -0.21204872497262031 0 0.018193190576100211 -0.205636409942172 0 0.02283604269573648 -0.21204872497262031 0 0.022717500660365791 -0.21054565771047831 0 0.018193190576100211 -0.205636409942172 0 0.018193190576100211 -0.205636409942172 0 0.02808508799023033 -0.18688985051907309 0 0.018193190576100211 -0.205636409942172 0 0.027810158993265138 -0.20154891586615789 0 0.02808508799023033 -0.18688985051907309 0 0.018193190576100211 -0.205636409942172 0 0.02808508799023033 -0.18688985051907309 0 0.0024364171524568871 -0.1838744859238792 0 0.027810158993265138 -0.20154891586615789 0 0.036718760507578121 -0.20055340944334121 0 0.02808508799023033 -0.18688985051907309 0 0.046106593912229432 -0.18979702970700271 0 0.036718760507578121 -0.20055340944334121 0 0.02808508799023033 -0.18688985051907309 0 0.029995998943042401 -0.2069863460660305 0 0.027810158993265138 -0.20154891586615789 0 0.036718760507578121 -0.20055340944334121 0 0.046106593912229432 -0.18979702970700271 0 0.036718760507578121 -0.20055340944334121 0 0.047878700185904968 -0.200851467022749 0 0.036718760507578121 -0.20055340944334121 0 0.042296343248897569 -0.20943136181629909 0 0.047878700185904968 -0.200851467022749 0 0.036718760507578121 -0.20055340944334121 0 0.042296343248897569 -0.20943136181629909 0 0.035105813707411108 -0.20895637066767789 0 0.029995998943042401 -0.2069863460660305 0 0.036718760507578121 -0.20055340944334121 0 0.035105813707411108 -0.20895637066767789 0 0.028846831409850782 -0.21142433390963461 0 0.029995998943042401 -0.2069863460660305 0 0.035105813707411108 -0.20895637066767789 0 0.042296343248897569 -0.20943136181629909 0 0.035105813707411108 -0.20895637066767789 0 0.037930817893497858 -0.21339599456323949 0 0.028846831409850782 -0.21142433390963461 0 0.037930817893497858 -0.21339599456323949 0 0.03729436365179363 -0.22010873301398159 0 0.028846831409850782 -0.21142433390963461 0 0.035105813707411108 -0.20895637066767789 0 0.037930817893497858 -0.21339599456323949 0 0.037930817893497858 -0.21339599456323949 0 0.04536722876819968 -0.2172009127760425 0 0.03729436365179363 -0.22010873301398159 0 0.042296343248897569 -0.20943136181629909 0 0.04536722876819968 -0.2172009127760425 0 0.052821669638652452 -0.21171259997261169 0 0.042296343248897569 -0.20943136181629909 0 0.037930817893497858 -0.21339599456323949 0 0.04536722876819968 -0.2172009127760425 0 0.04536722876819968 -0.2172009127760425 0 0.052821669638652452 -0.21171259997261169 0 0.055211298264222157 -0.22192651232391941 0 0.052821669638652452 -0.21171259997261169 0 0.055211298264222157 -0.22192651232391941 0 0.067995552701424711 -0.21657886768002171 0 0.052821669638652452 -0.21171259997261169 0 0.057437385981929122 -0.20442821758407639 0 0.067995552701424711 -0.21657886768002171 0 0.042296343248897569 -0.20943136181629909 0 0.052821669638652452 -0.21171259997261169 0 0.047878700185904968 -0.200851467022749 0 0.052821669638652452 -0.21171259997261169 0 0.057437385981929122 -0.20442821758407639 0 0.047878700185904968 -0.200851467022749 0 0.046106593912229432 -0.18979702970700271 0 0.05556227872353995 -0.19655422051499249 0 0.062130296102084412 -0.189442287344296 0 0.046106593912229432 -0.18979702970700271 0 0.047878700185904968 -0.200851467022749 0 0.05556227872353995 -0.19655422051499249 0 0.057437385981929122 -0.20442821758407639 0 0.047878700185904968 -0.200851467022749 0 0.05556227872353995 -0.19655422051499249 0 0.057437385981929122 -0.20442821758407639 0 0.05556227872353995 -0.19655422051499249 0 0.065433134879305882 -0.20010316820403279 0 0.05556227872353995 -0.19655422051499249 0 0.062130296102084412 -0.189442287344296 0 0.065433134879305882 -0.20010316820403279 0 0.049469282095688592 -0.25080690235199599 0 0.034171789628625548 -0.25287538908362028 0 0.040300062982761869 -0.23616855409765669 0 0.034171789628625548 -0.25287538908362028 0 0.02508285790449984 -0.2405374747554527 0 0.040300062982761869 -0.23616855409765669 0 0.040300062982761869 -0.23616855409765669 0 0.03729436365179363 -0.22010873301398159 0 0.046648879912134407 -0.22663027496620369 0 0.02283604269573648 -0.21204872497262031 0 0.040300062982761869 -0.23616855409765669 0 0.02283604269573648 -0.21204872497262031 0 0.040300062982761869 -0.23616855409765669 0 0.03729436365179363 -0.22010873301398159 0 0.04536722876819968 -0.2172009127760425 0 0.03729436365179363 -0.22010873301398159 0 0.046648879912134407 -0.22663027496620369 0 0.040300062982761869 -0.23616855409765669 0 0.046648879912134407 -0.22663027496620369 0 0.05280043326165279 -0.234011640890711 0 0.046648879912134407 -0.22663027496620369 0 0.05280043326165279 -0.234011640890711 0 0.055211298264222157 -0.22192651232391941 0 0.05280043326165279 -0.234011640890711 0 0.055211298264222157 -0.22192651232391941 0 0.071608891078104198 -0.23258758016570691 0 0.04536722876819968 -0.2172009127760425 0 0.046648879912134407 -0.22663027496620369 0 0.055211298264222157 -0.22192651232391941 0 0.049469282095688592 -0.25080690235199599 0 0.05280043326165279 -0.234011640890711 0 0.071608891078104198 -0.23258758016570691 0 0.049469282095688592 -0.25080690235199599 0 0.040300062982761869 -0.23616855409765669 0 0.05280043326165279 -0.234011640890711 0 0.049469282095688592 -0.25080690235199599 0 0.071608891078104198 -0.23258758016570691 0 0.077103636391453137 -0.2569317706990028 0 0.049469282095688592 -0.25080690235199599 0 0.071608891078104198 -0.23258758016570691 0 0.077103636391453137 -0.2569317706990028 0 0.071608891078104198 -0.23258758016570691 0 0.077103636391453137 -0.2569317706990028 0 0.071608891078104198 -0.23258758016570691 0 0.097339208476673211 -0.23748768981959781 0 0.071608891078104198 -0.23258758016570691 0 0.092291856233168101 -0.21556697215824899 0 0.071608891078104198 -0.23258758016570691 0 0.092291856233168101 -0.21556697215824899 0 0.097339208476673211 -0.23748768981959781 0 0.071608891078104198 -0.23258758016570691 0 0.067995552701424711 -0.21657886768002171 0 0.092291856233168101 -0.21556697215824899 0 0.055211298264222157 -0.22192651232391941 0 0.071608891078104198 -0.23258758016570691 0 0.067995552701424711 -0.21657886768002171 0 0.071608891078104198 -0.23258758016570691 0 0.067995552701424711 -0.21657886768002171 0 0.067995552701424711 -0.21657886768002171 0 0.065433134879305882 -0.20010316820403279 0 0.075722879991388631 -0.20271533310842471 0 0.057437385981929122 -0.20442821758407639 0 0.067995552701424711 -0.21657886768002171 0 0.065433134879305882 -0.20010316820403279 0 0.062130296102084412 -0.189442287344296 0 0.065433134879305882 -0.20010316820403279 0 0.073750415775468481 -0.19090008299238539 0 0.065433134879305882 -0.20010316820403279 0 0.075722879991388631 -0.20271533310842471 0 0.073750415775468481 -0.19090008299238539 0 0.073750415775468481 -0.19090008299238539 0 0.089091476372092207 -0.20086912166042481 0 0.089012460143836361 -0.18614373730337719 0 0.075722879991388631 -0.20271533310842471 0 0.073750415775468481 -0.19090008299238539 0 0.089091476372092207 -0.20086912166042481 0 0.067995552701424711 -0.21657886768002171 0 0.075722879991388631 -0.20271533310842471 0 0.092291856233168101 -0.21556697215824899 0 0.075722879991388631 -0.20271533310842471 0 0.089091476372092207 -0.20086912166042481 0 0.092291856233168101 -0.21556697215824899 0 0.092291856233168101 -0.21556697215824899 0 0.1129748213882342 -0.19854636415079371 0 0.092291856233168101 -0.21556697215824899 0 0.1129748213882342 -0.19854636415079371 0 0.11859185545849001 -0.21921522977555821 0 0.089091476372092207 -0.20086912166042481 0 0.092291856233168101 -0.21556697215824899 0 0.1129748213882342 -0.19854636415079371 0 0.1129748213882342 -0.19854636415079371 0 0.1015154476131819 -0.17845164243626241 0 0.089012460143836361 -0.18614373730337719 0 0.089091476372092207 -0.20086912166042481 0 0.1129748213882342 -0.19854636415079371 0 0.089012460143836361 -0.18614373730337719 0 0.1129748213882342 -0.19854636415079371 0 0.13365778654329899 -0.1815257561433368 0 0.1129748213882342 -0.19854636415079371 0 0.11859185545849001 -0.21921522977555821 0 0.1296143143859014 -0.20375147385639891 0 0.11859185545849001 -0.21921522977555821 0 0.1214675982281712 -0.24019972667309869 0 0.097339208476673211 -0.23748768981959781 0 0.1020329899664829 -0.26073784395269961 0 0.1214675982281712 -0.24019972667309869 0 0.097339208476673211 -0.23748768981959781 0 0.092291856233168101 -0.21556697215824899 0 0.11859185545849001 -0.21921522977555821 0 0.097339208476673211 -0.23748768981959781 0 0.1042816649433871 -0.14067814804426429 0 0.1061041385844321 -0.15418176228540609 0 0.081402384116282048 -0.1599957813114973 0 0.1042816649433871 -0.14067814804426429 0 0.1061041385844321 -0.15418176228540609 0 0.11470516389012581 -0.14464250391171121 0 0.1042816649433871 -0.14067814804426429 0 0.096701975003532351 -0.12947646281519801 0 0.088716814636970898 -0.14192803582553071 0 0.096701975003532351 -0.12947646281519801 0 0.1158871722151367 -0.1250518708355618 0 0.1042816649433871 -0.14067814804426429 0 0.096701975003532351 -0.12947646281519801 0 0.1158871722151367 -0.1250518708355618 0 0.1042816649433871 -0.14067814804426429 0 0.12716094577049211 -0.1213605147770313 0 0.1042816649433871 -0.14067814804426429 0 0.1158871722151367 -0.1250518708355618 0 0.12716094577049211 -0.1213605147770313 0 0.1042816649433871 -0.14067814804426429 0 0.1208326872731787 -0.13588182141165739 0 0.11470516389012581 -0.14464250391171121 0 0.1042816649433871 -0.14067814804426429 0 0.1208326872731787 -0.13588182141165739 0 0.12716094577049211 -0.1213605147770313 0 0.1208326872731787 -0.13588182141165739 0 0.11470516389012581 -0.14464250391171121 0 0.12518603117586979 -0.14405737709000771 0 0.11470516389012581 -0.14464250391171121 0 0.11853627128133901 -0.15134526648366989 0 0.12518603117586979 -0.14405737709000771 0 0.1061041385844321 -0.15418176228540609 0 0.11470516389012581 -0.14464250391171121 0 0.11853627128133901 -0.15134526648366989 0 0.11853627128133901 -0.15134526648366989 0 0.11627434658515449 -0.16325418730786029 0 0.12909537210344421 -0.15414988372408961 0 0.11853627128133901 -0.15134526648366989 0 0.12909537210344421 -0.15414988372408961 0 0.12518603117586979 -0.14405737709000771 0 0.11627434658515449 -0.16325418730786029 0 0.11588740707284929 -0.17929700287070821 0 0.12736989321495501 -0.16765369463017951 0 0.11627434658515449 -0.16325418730786029 0 0.12736989321495501 -0.16765369463017951 0 0.12909537210344421 -0.15414988372408961 0 0.11627434658515449 -0.16325418730786029 0 0.11588740707284929 -0.17929700287070821 0 0.102209540774751 -0.166832260779503 0 0.1061041385844321 -0.15418176228540609 0 0.11853627128133901 -0.15134526648366989 0 0.11627434658515449 -0.16325418730786029 0 0.1129748213882342 -0.19854636415079371 0 0.11588740707284929 -0.17929700287070821 0 0.1015154476131819 -0.17845164243626241 0 0.1129748213882342 -0.19854636415079371 0 0.11588740707284929 -0.17929700287070821 0 0.13365778654329899 -0.1815257561433368 0 0.11588740707284929 -0.17929700287070821 0 0.1015154476131819 -0.17845164243626241 0 0.102209540774751 -0.166832260779503 0 0.1015154476131819 -0.17845164243626241 0 0.102209540774751 -0.166832260779503 0 0.088727768506337748 -0.17376668495652409 0 0.1061041385844321 -0.15418176228540609 0 0.102209540774751 -0.166832260779503 0 0.081402384116282048 -0.1599957813114973 0 0.1061041385844321 -0.15418176228540609 0 0.11627434658515449 -0.16325418730786029 0 0.102209540774751 -0.166832260779503 0 0.102209540774751 -0.166832260779503 0 0.081402384116282048 -0.1599957813114973 0 0.088727768506337748 -0.17376668495652409 0 0.081402384116282048 -0.1599957813114973 0 0.088727768506337748 -0.17376668495652409 0 0.075007666637038214 -0.17962825685811359 0 0.1015154476131819 -0.17845164243626241 0 0.089012460143836361 -0.18614373730337719 0 0.088727768506337748 -0.17376668495652409 0 0.089012460143836361 -0.18614373730337719 0 0.088727768506337748 -0.17376668495652409 0 0.075007666637038214 -0.17962825685811359 0 0.073750415775468481 -0.19090008299238539 0 0.089012460143836361 -0.18614373730337719 0 0.075007666637038214 -0.17962825685811359 0 0.062130296102084412 -0.189442287344296 0 0.075007666637038214 -0.17962825685811359 0 0.058523103289177272 -0.1793134145787306 0 0.081402384116282048 -0.1599957813114973 0 0.075007666637038214 -0.17962825685811359 0 0.058523103289177272 -0.1793134145787306 0 0.062130296102084412 -0.189442287344296 0 0.073750415775468481 -0.19090008299238539 0 0.075007666637038214 -0.17962825685811359 0 0.081402384116282048 -0.1599957813114973 0 0.058523103289177272 -0.1793134145787306 0 0.081402384116282048 -0.1599957813114973 0 0.06217094980208087 -0.15064221322644011 0 0.053195993053828668 -0.16435507312580089 0 0.081402384116282048 -0.1599957813114973 0 0.058523103289177272 -0.1793134145787306 0 0.053195993053828668 -0.16435507312580089 0 0.070914958464303679 -0.13925614029418759 0 0.055282230224470853 -0.14700727916529011 0 0.06217094980208087 -0.15064221322644011 0 0.081402384116282048 -0.1599957813114973 0 0.07364674388955085 -0.14894381977599411 0 0.06217094980208087 -0.15064221322644011 0 0.07364674388955085 -0.14894381977599411 0 0.070914958464303679 -0.13925614029418759 0 0.06217094980208087 -0.15064221322644011 0 0.07364674388955085 -0.14894381977599411 0 0.079481120577789013 -0.14306966951548769 0 0.070914958464303679 -0.13925614029418759 0 0.081402384116282048 -0.1599957813114973 0 0.07364674388955085 -0.14894381977599411 0 0.079481120577789013 -0.14306966951548769 0 0.1042816649433871 -0.14067814804426429 0 0.081402384116282048 -0.1599957813114973 0 0.1042816649433871 -0.14067814804426429 0 0.081402384116282048 -0.1599957813114973 0 0.088716814636970898 -0.14192803582553071 0 0.081402384116282048 -0.1599957813114973 0 0.079481120577789013 -0.14306966951548769 0 0.088716814636970898 -0.14192803582553071 0 0.096701975003532351 -0.12947646281519801 0 0.077516777791927588 -0.13390105479483211 0 0.095187973741638565 -0.1195670113303786 0 0.096701975003532351 -0.12947646281519801 0 0.077516777791927588 -0.13390105479483211 0 0.096701975003532351 -0.12947646281519801 0 0.088716814636970898 -0.14192803582553071 0 0.077516777791927588 -0.13390105479483211 0 0.077516777791927588 -0.13390105479483211 0 0.095187973741638565 -0.1195670113303786 0 0.079481120577789013 -0.14306966951548769 0 0.088716814636970898 -0.14192803582553071 0 0.077516777791927588 -0.13390105479483211 0 0.077516777791927588 -0.13390105479483211 0 0.053070463092267491 -0.13953899360561911 0 0.065617448561886116 -0.1157606628324887 0 0.077516777791927588 -0.13390105479483211 0 0.053070463092267491 -0.13953899360561911 0 0.077516777791927588 -0.13390105479483211 0 0.070914958464303679 -0.13925614029418759 0 0.053070463092267491 -0.13953899360561911 0 0.079481120577789013 -0.14306966951548769 0 0.077516777791927588 -0.13390105479483211 0 0.070914958464303679 -0.13925614029418759 0 0.077516777791927588 -0.13390105479483211 0 0.070914958464303679 -0.13925614029418759 0 0.053070463092267491 -0.13953899360561911 0 0.065617448561886116 -0.1157606628324887 0 0.053070463092267491 -0.13953899360561911 0 0.045019495474563687 -0.14139575047689951 0 0.055282230224470853 -0.14700727916529011 0 0.047868882818481423 -0.14939673167287071 0 0.053195993053828668 -0.16435507312580089 0 0.055282230224470853 -0.14700727916529011 0 0.06217094980208087 -0.15064221322644011 0 0.053195993053828668 -0.16435507312580089 0 0.070914958464303679 -0.13925614029418759 0 0.053070463092267491 -0.13953899360561911 0 0.055282230224470853 -0.14700727916529011 0 0.053070463092267491 -0.13953899360561911 0 0.047868882818481423 -0.14939673167287071 0 0.045019495474563687 -0.14139575047689951 0 0.053070463092267491 -0.13953899360561911 0 0.047868882818481423 -0.14939673167287071 0 0.053070463092267491 -0.13953899360561911 0 0.055282230224470853 -0.14700727916529011 0 0.047868882818481423 -0.14939673167287071 0 0.047868882818481423 -0.14939673167287071 0 0.045019495474563687 -0.14139575047689951 0 0.040482535598584793 -0.14747389890712401 0 0.047868882818481423 -0.14939673167287071 0 0.045019495474563687 -0.14139575047689951 0 0.045019495474563687 -0.14139575047689951 0 0.040482535598584793 -0.14747389890712401 0 0.038034763012819058 -0.1430066065389603 0 0.045019495474563687 -0.14139575047689951 0 0.038034763012819058 -0.1430066065389603 0 0.047868882818481423 -0.14939673167287071 0 0.040482535598584793 -0.14747389890712401 0 0.037331613792064303 -0.1548509222419667 0 0.037331613792064303 -0.1548509222419667 0 0.03304137044771311 -0.1471478393015353 0 0.02548683185137823 -0.15554617333094589 0 0.040482535598584793 -0.14747389890712401 0 0.037331613792064303 -0.1548509222419667 0 0.03304137044771311 -0.1471478393015353 0 0.045019495474563687 -0.14139575047689951 0 0.038034763012819058 -0.1430066065389603 0 0.032368332498961358 -0.13872407106012771 0 0.038034763012819058 -0.1430066065389603 0 0.03304137044771311 -0.1471478393015353 0 0.032368332498961358 -0.13872407106012771 0 0.040482535598584793 -0.14747389890712401 0 0.038034763012819058 -0.1430066065389603 0 0.03304137044771311 -0.1471478393015353 0 0.053070463092267491 -0.13953899360561911 0 0.045019495474563687 -0.14139575047689951 0 0.03659042672802007 -0.11772721671832879 0 0.045019495474563687 -0.14139575047689951 0 0.032368332498961358 -0.13872407106012771 0 0.03086167819538253 -0.12918778365530811 0 0.045019495474563687 -0.14139575047689951 0 0.03086167819538253 -0.12918778365530811 0 0.03659042672802007 -0.11772721671832879 0 0.045019495474563687 -0.14139575047689951 0 0.03659042672802007 -0.11772721671832879 0 0.046106593912229432 -0.18979702970700271 0 0.062130296102084412 -0.189442287344296 0 0.058523103289177272 -0.1793134145787306 0 0.046106593912229432 -0.18979702970700271 0 0.058523103289177272 -0.1793134145787306 0 0.046106593912229432 -0.18979702970700271 0 0.058523103289177272 -0.1793134145787306 0 0.046261580743599047 -0.17738589589526171 0 0.062130296102084412 -0.189442287344296 0 0.058523103289177272 -0.1793134145787306 0 0.058523103289177272 -0.1793134145787306 0 0.053195993053828668 -0.16435507312580089 0 0.046261580743599047 -0.17738589589526171 0 0.058523103289177272 -0.1793134145787306 0 0.053195993053828668 -0.16435507312580089 0 0.047868882818481423 -0.14939673167287071 0 0.053195993053828668 -0.16435507312580089 0 0.047868882818481423 -0.14939673167287071 0 0.037976985404356657 -0.16814329109597231 0 0.047868882818481423 -0.14939673167287071 0 0.037331613792064303 -0.1548509222419667 0 0.037976985404356657 -0.16814329109597231 0 0.047868882818481423 -0.14939673167287071 0 0.053195993053828668 -0.16435507312580089 0 0.037976985404356657 -0.16814329109597231 0 0.037331613792064303 -0.1548509222419667 0 0.037976985404356657 -0.16814329109597231 0 0.02548683185137823 -0.15554617333094589 0 0.053195993053828668 -0.16435507312580089 0 0.037976985404356657 -0.16814329109597231 0 0.046261580743599047 -0.17738589589526171 0 0.037976985404356657 -0.16814329109597231 0 0.046261580743599047 -0.17738589589526171 0 0.02808508799023033 -0.18688985051907309 0 0.046106593912229432 -0.18979702970700271 0 0.046261580743599047 -0.17738589589526171 0 0.02808508799023033 -0.18688985051907309 0 0.037976985404356657 -0.16814329109597231 0 0.02808508799023033 -0.18688985051907309 0 0.037976985404356657 -0.16814329109597231 0 0.02808508799023033 -0.18688985051907309 0 0.020147453678819299 -0.17144704336766051 0 0.02808508799023033 -0.18688985051907309 0 0.020147453678819299 -0.17144704336766051 0 0.0024364171524568871 -0.1838744859238792 0 0.020147453678819299 -0.17144704336766051 0 0.0067519459956744054 -0.1627814159684321 0 0.02548683185137823 -0.15554617333094589 0 0.037976985404356657 -0.16814329109597231 0 0.020147453678819299 -0.17144704336766051 0 0.02548683185137823 -0.15554617333094589 0 0.020147453678819299 -0.17144704336766051 0 0.0067519459956744054 -0.1627814159684321 0 0.0024364171524568871 -0.1838744859238792 0 0.01687280198920851 -0.13664878505759059 0 0.025442907668348631 -0.1343359559508083 0 0.024544145932470961 -0.1432853637300873 0 0.01687280198920851 -0.13664878505759059 0 0.0204635679162605 -0.1291027352012559 0 0.025442907668348631 -0.1343359559508083 0 0.0204635679162605 -0.1291027352012559 0 0.011525924517098661 -0.12996276117536501 0 0.019406998230413329 -0.1188913781082738 0 0.01687280198920851 -0.13664878505759059 0 0.0204635679162605 -0.1291027352012559 0 0.011525924517098661 -0.12996276117536501 0 0.0204635679162605 -0.1291027352012559 0 0.03086167819538253 -0.12918778365530811 0 0.019406998230413329 -0.1188913781082738 0 0.0204635679162605 -0.1291027352012559 0 0.03086167819538253 -0.12918778365530811 0 0.025442907668348631 -0.1343359559508083 0 0.032368332498961358 -0.13872407106012771 0 0.025442907668348631 -0.1343359559508083 0 0.024544145932470961 -0.1432853637300873 0 0.032368332498961358 -0.13872407106012771 0 0.03086167819538253 -0.12918778365530811 0 0.025442907668348631 -0.1343359559508083 0 0.03304137044771311 -0.1471478393015353 0 0.032368332498961358 -0.13872407106012771 0 0.024544145932470961 -0.1432853637300873 0 0.03304137044771311 -0.1471478393015353 0 0.024544145932470961 -0.1432853637300873 0 0.02548683185137823 -0.15554617333094589 0 0.024544145932470961 -0.1432853637300873 0 0.02548683185137823 -0.15554617333094589 0 0.0134391848339077 -0.14657840425958579 0 0.01687280198920851 -0.13664878505759059 0 0.024544145932470961 -0.1432853637300873 0 0.0134391848339077 -0.14657840425958579 0 0.0067519459956744054 -0.1627814159684321 0 0.02548683185137823 -0.15554617333094589 0 0.0134391848339077 -0.14657840425958579 0 0.0067519459956744054 -0.1627814159684321 0 0.0134391848339077 -0.14657840425958579 0 0.0015128397872320701 -0.1492119739186559 0 0.0134391848339077 -0.14657840425958579 0 0.0015128397872320701 -0.1492119739186559 0 0.0067173165767391799 -0.1383839839989742 0 -0.0058812764280807492 -0.13747873212161871 0 0.0015128397872320701 -0.1492119739186559 0 0.0067173165767391799 -0.1383839839989742 0 0.0067173165767391799 -0.1383839839989742 0 0.011525924517098661 -0.12996276117536501 0 0.0026997577518843752 -0.13067008757766649 0 -0.0058812764280807492 -0.13747873212161871 0 0.0067173165767391799 -0.1383839839989742 0 0.0026997577518843752 -0.13067008757766649 0 0.01687280198920851 -0.13664878505759059 0 0.0067173165767391799 -0.1383839839989742 0 0.011525924517098661 -0.12996276117536501 0 0.01687280198920851 -0.13664878505759059 0 0.0134391848339077 -0.14657840425958579 0 0.0067173165767391799 -0.1383839839989742 0 0.011525924517098661 -0.12996276117536501 0 0.0026997577518843752 -0.13067008757766649 0 0.0064943971825770913 -0.12536627872469511 0 -0.002867853252260967 -0.124711792585839 0 0.0026997577518843752 -0.13067008757766649 0 0.0064943971825770913 -0.12536627872469511 0 -0.002867853252260967 -0.124711792585839 0 0.0064943971825770913 -0.12536627872469511 0 0.0022235697328065532 -0.12005553949821809 0 0.0064943971825770913 -0.12536627872469511 0 0.0022235697328065532 -0.12005553949821809 0 0.019406998230413329 -0.1188913781082738 0 0.0022235697328065532 -0.12005553949821809 0 0.019406998230413329 -0.1188913781082738 0 0.0022235697328065532 -0.12005553949821809 0 0.0058589971554254758 -0.11764571191452811 0 0.019406998230413329 -0.1188913781082738 0 0.0022235697328065532 -0.12005553949821809 0 0.0058589971554254758 -0.11764571191452811 0 0.0011804868638339221 -0.1150632320095166 0 -0.0015245481095283991 -0.1098675185925166 0 0.0054468516300478888 -0.11190937874551379 0 0.0057146216931318649 -0.1075549498000659 0 -0.0015245481095283991 -0.1098675185925166 0 0.0011804868638339221 -0.1150632320095166 0 0.0054468516300478888 -0.11190937874551379 0 0.0058589971554254758 -0.11764571191452811 0 0.0011804868638339221 -0.1150632320095166 0 0.0054468516300478888 -0.11190937874551379 0 0.0058589971554254758 -0.11764571191452811 0 0.0054468516300478888 -0.11190937874551379 0 0.015829087744842929 -0.1070691082807112 0 0.011525924517098661 -0.12996276117536501 0 0.0064943971825770913 -0.12536627872469511 0 0.019406998230413329 -0.1188913781082738 0 0.0058589971554254758 -0.11764571191452811 0 0.030298202971871521 -0.10845184301124609 0 0.015829087744842929 -0.1070691082807112 0 0.0058589971554254758 -0.11764571191452811 0 0.019406998230413329 -0.1188913781082738 0 0.030298202971871521 -0.10845184301124609 0 0.019406998230413329 -0.1188913781082738 0 0.030298202971871521 -0.10845184301124609 0 0.035908418912500531 -0.115812162340355 0 0.019406998230413329 -0.1188913781082738 0 0.03659042672802007 -0.11772721671832879 0 0.0058589971554254758 -0.11764571191452811 0 0.030298202971871521 -0.10845184301124609 0 0.019406998230413329 -0.1188913781082738 0 0.03659042672802007 -0.11772721671832879 0 0.035908418912500531 -0.115812162340355 0 0.03086167819538253 -0.12918778365530811 0 0.019406998230413329 -0.1188913781082738 0 0.03659042672802007 -0.11772721671832879 0 0.02467759113720892 -0.10037497782278031 0 0.015829087744842929 -0.1070691082807112 0 0.022192185199379939 -0.088712970941261043 0 0.030390888632741291 -0.097265989057902624 0 0.02467759113720892 -0.10037497782278031 0 0.022192185199379939 -0.088712970941261043 0 0.02467759113720892 -0.10037497782278031 0 0.030298202971871521 -0.10845184301124609 0 0.015829087744842929 -0.1070691082807112 0 0.030390888632741291 -0.097265989057902624 0 0.02467759113720892 -0.10037497782278031 0 0.030298202971871521 -0.10845184301124609 0 0.015829087744842929 -0.1070691082807112 0 0.0030192891058982152 -0.1002006070164069 0 0.022192185199379939 -0.088712970941261043 0 0.0030192891058982152 -0.1002006070164069 0 0.022192185199379939 -0.088712970941261043 0 0.0054468516300478888 -0.11190937874551379 0 0.015829087744842929 -0.1070691082807112 0 0.0057146216931318649 -0.1075549498000659 0 0.015829087744842929 -0.1070691082807112 0 0.0057146216931318649 -0.1075549498000659 0 0.0030192891058982152 -0.1002006070164069 0 -0.0015245481095283991 -0.1098675185925166 0 0.0057146216931318649 -0.1075549498000659 0 0.0030192891058982152 -0.1002006070164069 0 0.0030192891058982152 -0.1002006070164069 0 0.0013718725137959219 -0.084861861412949505 0 0.022192185199379939 -0.088712970941261043 0 0.0013718725137959219 -0.084861861412949505 0 0.01176404020682973 -0.071033850231580098 0 0.022192185199379939 -0.088712970941261043 0 0.01176404020682973 -0.071033850231580098 0 0.02490536705962321 -0.070214775853594091 0 0.022192185199379939 -0.088712970941261043 0 0.01176404020682973 -0.071033850231580098 0 0.02490536705962321 -0.070214775853594091 0 0.0123861565104519 -0.055655138003827508 0 0.02490536705962321 -0.070214775853594091 0 0.022192185199379939 -0.088712970941261043 0 0.041365081292861768 -0.077225334866115075 0 0.030390888632741291 -0.097265989057902624 0 0.022192185199379939 -0.088712970941261043 0 0.036299573376968972 -0.089338195406520771 0 0.022192185199379939 -0.088712970941261043 0 0.041365081292861768 -0.077225334866115075 0 0.022192185199379939 -0.088712970941261043 0 0.036299573376968972 -0.089338195406520771 0 0.041365081292861768 -0.077225334866115075 0 0.04290249432874578 -0.083897861025005044 0 0.041365081292861768 -0.077225334866115075 0 0.055597533190080817 -0.080946198271572969 0 0.036299573376968972 -0.089338195406520771 0 0.04290249432874578 -0.083897861025005044 0 0.041365081292861768 -0.077225334866115075 0 0.04290249432874578 -0.083897861025005044 0 0.041365081292861768 -0.077225334866115075 0 0.04290249432874578 -0.083897861025005044 0 0.041341889655608512 -0.090352391606439944 0 0.047141152751727478 -0.090828230308198227 0 0.036299573376968972 -0.089338195406520771 0 0.041341889655608512 -0.090352391606439944 0 0.039676300977898073 -0.096508852406060622 0 0.041341889655608512 -0.090352391606439944 0 0.047141152751727478 -0.090828230308198227 0 0.039676300977898073 -0.096508852406060622 0 0.036299573376968972 -0.089338195406520771 0 0.04290249432874578 -0.083897861025005044 0 0.041341889655608512 -0.090352391606439944 0 0.02490536705962321 -0.070214775853594091 0 0.041365081292861768 -0.077225334866115075 0 0.035363741761283513 -0.051178921782456789 0 0.041365081292861768 -0.077225334866115075 0 0.035363741761283513 -0.051178921782456789 0 0.048565984674115173 -0.059506139374946213 0 0.041365081292861768 -0.077225334866115075 0 0.035363741761283513 -0.051178921782456789 0 0.041365081292861768 -0.077225334866115075 0 0.055597533190080817 -0.080946198271572969 0 0.063282277434023315 -0.064093423451706877 0 0.041365081292861768 -0.077225334866115075 0 0.048565984674115173 -0.059506139374946213 0 0.063282277434023315 -0.064093423451706877 0 0.041365081292861768 -0.077225334866115075 0 0.063282277434023315 -0.064093423451706877 0 0.047141152751727478 -0.090828230308198227 0 0.055597533190080817 -0.080946198271572969 0 0.054737408788317517 -0.099257974107964109 0 0.04290249432874578 -0.083897861025005044 0 0.047141152751727478 -0.090828230308198227 0 0.055597533190080817 -0.080946198271572969 0 0.047141152751727478 -0.090828230308198227 0 0.054737408788317517 -0.099257974107964109 0 0.039676300977898073 -0.096508852406060622 0 0.03659042672802007 -0.11772721671832879 0 0.065617448561886116 -0.1157606628324887 0 0.053070463092267491 -0.13953899360561911 0 0.03659042672802007 -0.11772721671832879 0 0.065617448561886116 -0.1157606628324887 0 0.054737408788317517 -0.099257974107964109 0 0.03659042672802007 -0.11772721671832879 0 0.065617448561886116 -0.1157606628324887 0 0.054737408788317517 -0.099257974107964109 0 0.03659042672802007 -0.11772721671832879 0 0.035908418912500531 -0.115812162340355 0 0.03659042672802007 -0.11772721671832879 0 0.035908418912500531 -0.115812162340355 0 0.030298202971871521 -0.10845184301124609 0 0.054737408788317517 -0.099257974107964109 0 0.039676300977898073 -0.096508852406060622 0 0.030298202971871521 -0.10845184301124609 0 0.054737408788317517 -0.099257974107964109 0 0.030298202971871521 -0.10845184301124609 0 0.054737408788317517 -0.099257974107964109 0 0.035908418912500531 -0.115812162340355 0 0.030390888632741291 -0.097265989057902624 0 0.030298202971871521 -0.10845184301124609 0 0.039676300977898073 -0.096508852406060622 0 0.030390888632741291 -0.097265989057902624 0 0.036299573376968972 -0.089338195406520771 0 0.039676300977898073 -0.096508852406060622 0 0.02336106269812703 0.00091390438485969283 0 0.01470889098275989 -0.01133742718195838 0 0.029362402229705261 -0.025132508698798489 0 0.02336106269812703 0.00091390438485969283 0 0.029362402229705261 -0.025132508698798489 0 0.036332415927468303 -0.0099090392340483585 0 0.02336106269812703 0.00091390438485969283 0 0.029362402229705261 -0.025132508698798489 0 0.0063828244129049781 0.0025647612679847069 0 0.0114893599922821 0.0084546309914183011 0 0.01470889098275989 -0.01133742718195838 0 0.0063828244129049781 0.0025647612679847069 0 0.003381286086920498 -0.0028614156450472439 0 0.01470889098275989 -0.01133742718195838 0 -3.0483325887532769e-05 -0.0080437905340390685 0 0.00074313100808037769 0.0046406821159502556 0 0.003381286086920498 -0.0028614156450472439 0 -3.0483325887532769e-05 -0.0080437905340390685 0 0.003381286086920498 -0.0028614156450472439 0 0.01470889098275989 -0.01133742718195838 0 -3.0483325887532769e-05 -0.0080437905340390685 0 0.01470889098275989 -0.01133742718195838 0 0.00087121664655170873 -0.021536788382980631 0 0.01470889098275989 -0.01133742718195838 0 0.00087121664655170873 -0.021536788382980631 0 0.011289282780618861 -0.038717292824338147 0 0.01470889098275989 -0.01133742718195838 0 0.011289282780618861 -0.038717292824338147 0 0.01470889098275989 -0.01133742718195838 0 0.029362402229705261 -0.025132508698798489 0 0.011289282780618861 -0.038717292824338147 0 0.029362402229705261 -0.025132508698798489 0 0.011289282780618861 -0.038717292824338147 0 0.035363741761283513 -0.051178921782456789 0 -0.0072972502983304158 -0.034748904429526939 0 0.00087121664655170873 -0.021536788382980631 0 0.011289282780618861 -0.038717292824338147 0 -0.0055195432453418224 -0.053805599270284499 0 0.011289282780618861 -0.038717292824338147 0 0.0123861565104519 -0.055655138003827508 0 -0.0055195432453418224 -0.053805599270284499 0 0.01176404020682973 -0.071033850231580098 0 0.0123861565104519 -0.055655138003827508 0 0.02490536705962321 -0.070214775853594091 0 0.0123861565104519 -0.055655138003827508 0 0.035363741761283513 -0.051178921782456789 0 0.011289282780618861 -0.038717292824338147 0 0.0123861565104519 -0.055655138003827508 0 0.035363741761283513 -0.051178921782456789 0 0.035363741761283513 -0.051178921782456789 0 0.048565984674115173 -0.059506139374946213 0 0.054282841945589307 -0.046113833911586737 0 0.048565984674115173 -0.059506139374946213 0 0.054282841945589307 -0.046113833911586737 0 0.063282277434023315 -0.064093423451706877 0 0.054282841945589307 -0.046113833911586737 0 0.050033554577249569 -0.027078060727929759 0 0.074594944380793934 -0.037052102344535508 0 0.029362402229705261 -0.025132508698798489 0 0.035363741761283513 -0.051178921782456789 0 0.050033554577249569 -0.027078060727929759 0 0.029362402229705261 -0.025132508698798489 0 0.035363741761283513 -0.051178921782456789 0 0.035363741761283513 -0.051178921782456789 0 0.054282841945589307 -0.046113833911586737 0 0.050033554577249569 -0.027078060727929759 0 0.029362402229705261 -0.025132508698798489 0 0.050033554577249569 -0.027078060727929759 0 0.036332415927468303 -0.0099090392340483585 0 0.050033554577249569 -0.027078060727929759 0 0.049204038009894972 -0.0054557019415801163 0 0.073832557565593301 -0.01476438871074272 0 0.02336106269812703 0.00091390438485969283 0 0.035117134206933388 0.0082609407808874047 0 0.036332415927468303 -0.0099090392340483585 0 0.050033554577249569 -0.027078060727929759 0 0.049204038009894972 -0.0054557019415801163 0 0.036332415927468303 -0.0099090392340483585 0 0.035117134206933388 0.0082609407808874047 0 0.049204038009894972 -0.0054557019415801163 0 0.036332415927468303 -0.0099090392340483585 0 0.081625812361846267 0.0043142162544619559 0 0.1040343233732574 0.0055112649514856022 0 0.092370588779474794 -0.0098496039988752535 0 0.092370588779474794 -0.0098496039988752535 0 0.073832557565593301 -0.01476438871074272 0 0.085994599141786102 -0.019902529796870991 0 0.081625812361846267 0.0043142162544619559 0 0.092370588779474794 -0.0098496039988752535 0 0.073832557565593301 -0.01476438871074272 0 0.065523571445864737 0.0048623888904800374 0 0.081625812361846267 0.0043142162544619559 0 0.073832557565593301 -0.01476438871074272 0 0.065523571445864737 0.0048623888904800374 0 0.049204038009894972 -0.0054557019415801163 0 0.073832557565593301 -0.01476438871074272 0 0.050033554577249569 -0.027078060727929759 0 0.073832557565593301 -0.01476438871074272 0 0.074594944380793934 -0.037052102344535508 0 0.085994599141786102 -0.019902529796870991 0 0.091906484174868602 -0.030582362997221991 0 0.074594944380793934 -0.037052102344535508 0 0.073832557565593301 -0.01476438871074272 0 0.085994599141786102 -0.019902529796870991 0 0.074594944380793934 -0.037052102344535508 0 0.092370588779474794 -0.0098496039988752535 0 0.085994599141786102 -0.019902529796870991 0 0.098531456136002726 -0.021365323145539791 0 0.085994599141786102 -0.019902529796870991 0 0.091906484174868602 -0.030582362997221991 0 0.098531456136002726 -0.021365323145539791 0 0.091521288710749271 -0.041932386911699052 0 0.074594944380793934 -0.037052102344535508 0 0.08519947357518487 -0.050961512037298651 0 0.091906484174868602 -0.030582362997221991 0 0.091521288710749271 -0.041932386911699052 0 0.074594944380793934 -0.037052102344535508 0 0.074594944380793934 -0.037052102344535508 0 0.08519947357518487 -0.050961512037298651 0 0.063282277434023315 -0.064093423451706877 0 0.054282841945589307 -0.046113833911586737 0 0.074594944380793934 -0.037052102344535508 0 0.063282277434023315 -0.064093423451706877 0 0.08519947357518487 -0.050961512037298651 0 0.063282277434023315 -0.064093423451706877 0 0.08519947357518487 -0.050961512037298651 0 0.1007915200123279 -0.049100770094781768 0 0.089984067308545676 -0.069582437649731793 0 0.08519947357518487 -0.050961512037298651 0 0.063282277434023315 -0.064093423451706877 0 0.089984067308545676 -0.069582437649731793 0 0.091521288710749271 -0.041932386911699052 0 0.08519947357518487 -0.050961512037298651 0 0.1007915200123279 -0.049100770094781768 0 0.1007915200123279 -0.049100770094781768 0 0.1029690968962667 -0.065496415725414786 0 0.11601394843892079 -0.062985611219766813 0 0.1007915200123279 -0.049100770094781768 0 0.089984067308545676 -0.069582437649731793 0 0.1007915200123279 -0.049100770094781768 0 0.089984067308545676 -0.069582437649731793 0 0.1029690968962667 -0.065496415725414786 0 0.1007915200123279 -0.049100770094781768 0 0.1237998356743315 -0.044601028672229578 0 0.11601394843892079 -0.062985611219766813 0 0.1007915200123279 -0.049100770094781768 0 0.1237998356743315 -0.044601028672229578 0 0.1115989727161109 -0.028619102539832089 0 0.1237998356743315 -0.044601028672229578 0 0.1115989727161109 -0.028619102539832089 0 0.1237998356743315 -0.044601028672229578 0 0.1115989727161109 -0.028619102539832089 0 0.12992018651693879 -0.026744705334764501 0 0.1007915200123279 -0.049100770094781768 0 0.099943421053059006 -0.035736101430475287 0 0.1115989727161109 -0.028619102539832089 0 0.1007915200123279 -0.049100770094781768 0 0.1115989727161109 -0.028619102539832089 0 0.091521288710749271 -0.041932386911699052 0 0.1007915200123279 -0.049100770094781768 0 0.099943421053059006 -0.035736101430475287 0 0.091906484174868602 -0.030582362997221991 0 0.091521288710749271 -0.041932386911699052 0 0.099943421053059006 -0.035736101430475287 0 0.091906484174868602 -0.030582362997221991 0 0.099943421053059006 -0.035736101430475287 0 0.1033058808946437 -0.027731539923729322 0 0.091906484174868602 -0.030582362997221991 0 0.098531456136002726 -0.021365323145539791 0 0.1033058808946437 -0.027731539923729322 0 0.098531456136002726 -0.021365323145539791 0 0.10993251731345489 -0.026436210457573099 0 0.10553879841081081 -0.01189676944776002 0 0.1033058808946437 -0.027731539923729322 0 0.1115989727161109 -0.028619102539832089 0 0.10993251731345489 -0.026436210457573099 0 0.099943421053059006 -0.035736101430475287 0 0.1033058808946437 -0.027731539923729322 0 0.1115989727161109 -0.028619102539832089 0 0.098531456136002726 -0.021365323145539791 0 0.1033058808946437 -0.027731539923729322 0 0.10993251731345489 -0.026436210457573099 0 0.1115989727161109 -0.028619102539832089 0 0.10993251731345489 -0.026436210457573099 0 0.12282510645186411 -0.0073439745882975596 0 0.1115989727161109 -0.028619102539832089 0 0.12282510645186411 -0.0073439745882975596 0 0.1115989727161109 -0.028619102539832089 0 0.12282510645186411 -0.0073439745882975596 0 0.12992018651693879 -0.026744705334764501 0 0.1115989727161109 -0.028619102539832089 0 0.10993251731345489 -0.026436210457573099 0 0.10993251731345489 -0.026436210457573099 0 0.12282510645186411 -0.0073439745882975596 0 0.10553879841081081 -0.01189676944776002 0 0.1040343233732574 0.0055112649514856022 0 0.12282510645186411 -0.0073439745882975596 0 0.10553879841081081 -0.01189676944776002 0 0.1040343233732574 0.0055112649514856022 0 0.092370588779474794 -0.0098496039988752535 0 0.10553879841081081 -0.01189676944776002 0 0.092370588779474794 -0.0098496039988752535 0 0.098531456136002726 -0.021365323145539791 0 0.10553879841081081 -0.01189676944776002 0 0.082636616661727377 -0.1045080957473345 0 0.079176614604763662 -0.090064105204681874 0 0.094253225669499965 -0.1019070626545731 0 0.082636616661727377 -0.1045080957473345 0 0.089027043628061381 -0.11417468441531289 0 0.094253225669499965 -0.1019070626545731 0 0.089027043628061381 -0.11417468441531289 0 0.094253225669499965 -0.1019070626545731 0 0.095187973741638565 -0.1195670113303786 0 0.077516777791927588 -0.13390105479483211 0 0.089027043628061381 -0.11417468441531289 0 0.095187973741638565 -0.1195670113303786 0 0.082636616661727377 -0.1045080957473345 0 0.089027043628061381 -0.11417468441531289 0 0.065617448561886116 -0.1157606628324887 0 0.089027043628061381 -0.11417468441531289 0 0.065617448561886116 -0.1157606628324887 0 0.077516777791927588 -0.13390105479483211 0 0.089027043628061381 -0.11417468441531289 0 0.065617448561886116 -0.1157606628324887 0 0.065617448561886116 -0.1157606628324887 0 0.079176614604763662 -0.090064105204681874 0 0.054737408788317517 -0.099257974107964109 0 0.065617448561886116 -0.1157606628324887 0 0.079176614604763662 -0.090064105204681874 0 0.054737408788317517 -0.099257974107964109 0 0.079176614604763662 -0.090064105204681874 0 0.082636616661727377 -0.1045080957473345 0 0.065617448561886116 -0.1157606628324887 0 0.079176614604763662 -0.090064105204681874 0 0.055597533190080817 -0.080946198271572969 0 0.063282277434023315 -0.064093423451706877 0 0.079176614604763662 -0.090064105204681874 0 0.055597533190080817 -0.080946198271572969 0 0.054737408788317517 -0.099257974107964109 0 0.079176614604763662 -0.090064105204681874 0 0.063282277434023315 -0.064093423451706877 0 0.089984067308545676 -0.069582437649731793 0 0.079176614604763662 -0.090064105204681874 0 0.079176614604763662 -0.090064105204681874 0 0.1050868518252726 -0.080316843937378771 0 0.089984067308545676 -0.069582437649731793 0 0.079176614604763662 -0.090064105204681874 0 0.1050868518252726 -0.080316843937378771 0 0.089984067308545676 -0.069582437649731793 0 0.079176614604763662 -0.090064105204681874 0 0.079176614604763662 -0.090064105204681874 0 0.1050868518252726 -0.080316843937378771 0 0.094253225669499965 -0.1019070626545731 0 0.1050868518252726 -0.080316843937378771 0 0.1029690968962667 -0.065496415725414786 0 0.11601394843892079 -0.062985611219766813 0 0.089984067308545676 -0.069582437649731793 0 0.1050868518252726 -0.080316843937378771 0 0.1029690968962667 -0.065496415725414786 0 0.1050868518252726 -0.080316843937378771 0 0.11601394843892079 -0.062985611219766813 0 0.12716668522571639 -0.074269843060054339 0 0.1050868518252726 -0.080316843937378771 0 0.13053036564106299 -0.090898924401474832 0 0.12716668522571639 -0.074269843060054339 0 0.1050868518252726 -0.080316843937378771 0 0.11285916969135081 -0.1052329678659267 0 0.13053036564106299 -0.090898924401474832 0 0.11285916969135081 -0.1052329678659267 0 0.13053036564106299 -0.090898924401474832 0 0.11285916969135081 -0.1052329678659267 0 0.1170732183955331 -0.11487071723486859 0 0.1310795589110679 -0.1039104366860067 0 0.11285916969135081 -0.1052329678659267 0 0.1310795589110679 -0.1039104366860067 0 0.13053036564106299 -0.090898924401474832 0 0.1050868518252726 -0.080316843937378771 0 0.11285916969135081 -0.1052329678659267 0 0.094253225669499965 -0.1019070626545731 0 0.11285916969135081 -0.1052329678659267 0 0.094253225669499965 -0.1019070626545731 0 0.095187973741638565 -0.1195670113303786 0 0.11285916969135081 -0.1052329678659267 0 0.095187973741638565 -0.1195670113303786 0 0.1170732183955331 -0.11487071723486859 0 0.11285916969135081 -0.1052329678659267 0 0.095187973741638565 -0.1195670113303786 0 0.096701975003532351 -0.12947646281519801 0 0.1158871722151367 -0.1250518708355618 0 0.095187973741638565 -0.1195670113303786 0 0.1158871722151367 -0.1250518708355618 0 0.095187973741638565 -0.1195670113303786 0 0.1170732183955331 -0.11487071723486859 0 0.1158871722151367 -0.1250518708355618 0 0.1170732183955331 -0.11487071723486859 0 0.12716094577049211 -0.1213605147770313 0 0.1170732183955331 -0.11487071723486859 0 0.12716094577049211 -0.1213605147770313 0 0.1310795589110679 -0.1039104366860067 0 0.12716094577049211 -0.1213605147770313 0 0.13544557496476359 -0.1247904767855378 0 0.14289018880504281 -0.1153283390602971 0 0.12716094577049211 -0.1213605147770313 0 0.14289018880504281 -0.1153283390602971 0 0.15004022659759719 -0.1020428815097984 0 0.12716094577049211 -0.1213605147770313 0 0.15004022659759719 -0.1020428815097984 0 0.13544557496476359 -0.1247904767855378 0 0.14289018880504281 -0.1153283390602971 0 0.14070822824113521 -0.12980885322655969 0 0.14289018880504281 -0.1153283390602971 0 0.15004022659759719 -0.1020428815097984 0 0.15870030883470981 -0.1135146461615802 0 0.14289018880504281 -0.1153283390602971 0 0.14070822824113521 -0.12980885322655969 0 0.151887976519681 -0.12743892282010691 0 0.14289018880504281 -0.1153283390602971 0 0.15870030883470981 -0.1135146461615802 0 0.151887976519681 -0.12743892282010691 0 0.15004022659759719 -0.1020428815097984 0 0.1310795589110679 -0.1039104366860067 0 0.14636714862134881 -0.090383391897729121 0 0.15004022659759719 -0.1020428815097984 0 0.14636714862134881 -0.090383391897729121 0 0.1598980956873732 -0.091886186042832774 0 0.12716094577049211 -0.1213605147770313 0 0.15004022659759719 -0.1020428815097984 0 0.1310795589110679 -0.1039104366860067 0 0.1310795589110679 -0.1039104366860067 0 0.13053036564106299 -0.090898924401474832 0 0.14636714862134881 -0.090383391897729121 0 0.13053036564106299 -0.090898924401474832 0 0.12716668522571639 -0.074269843060054339 0 0.1482015615907751 -0.07656488093702285 0 0.13053036564106299 -0.090898924401474832 0 0.1482015615907751 -0.07656488093702285 0 0.11601394843892079 -0.062985611219766813 0 0.12716668522571639 -0.074269843060054339 0 0.1360006986325506 -0.060582954804628247 0 0.12716668522571639 -0.074269843060054339 0 0.1482015615907751 -0.07656488093702285 0 0.1360006986325506 -0.060582954804628247 0 0.1482015615907751 -0.07656488093702285 0 0.16396733911192851 -0.063776423331652454 0 0.15070973350486469 -0.055824279566058267 0 0.1482015615907751 -0.07656488093702285 0 0.1360006986325506 -0.060582954804628247 0 0.15070973350486469 -0.055824279566058267 0 0.1482015615907751 -0.07656488093702285 0 0.16396733911192851 -0.063776423331652454 0 0.1482015615907751 -0.07656488093702285 0 0.1360006986325506 -0.060582954804628247 0 0.13053036564106299 -0.090898924401474832 0 0.1482015615907751 -0.07656488093702285 0 0.14636714862134881 -0.090383391897729121 0 0.1482015615907751 -0.07656488093702285 0 0.1598980956873732 -0.091886186042832774 0 0.1482015615907751 -0.07656488093702285 0 0.14636714862134881 -0.090383391897729121 0 0.1598980956873732 -0.091886186042832774 0 0.15004022659759719 -0.1020428815097984 0 0.1598980956873732 -0.091886186042832774 0 0.1729195074247025 -0.082725248242565205 0 0.15004022659759719 -0.1020428815097984 0 0.1729195074247025 -0.082725248242565205 0 0.1482015615907751 -0.07656488093702285 0 0.1598980956873732 -0.091886186042832774 0 0.16258920406111771 -0.078068622191431208 0 0.1598980956873732 -0.091886186042832774 0 0.16258920406111771 -0.078068622191431208 0 0.1729195074247025 -0.082725248242565205 0 0.1482015615907751 -0.07656488093702285 0 0.16396733911192851 -0.063776423331652454 0 0.16258920406111771 -0.078068622191431208 0 0.16396733911192851 -0.063776423331652454 0 0.16258920406111771 -0.078068622191431208 0 0.17712108551864131 -0.070134779394424224 0 0.16258920406111771 -0.078068622191431208 0 0.17712108551864131 -0.070134779394424224 0 0.1729195074247025 -0.082725248242565205 0 0.17712108551864131 -0.070134779394424224 0 0.1729195074247025 -0.082725248242565205 0 0.18701880805878199 -0.079275454298080444 0 0.17712108551864131 -0.070134779394424224 0 0.18701880805878199 -0.079275454298080444 0 0.19132858919674139 -0.065381961060969621 0 0.1729195074247025 -0.082725248242565205 0 0.16916337083289049 -0.1016030906228151 0 0.1879948407193017 -0.096825106457468404 0 0.1729195074247025 -0.082725248242565205 0 0.18701880805878199 -0.079275454298080444 0 0.1879948407193017 -0.096825106457468404 0 0.17616197058814109 -0.1129075707426635 0 0.16916337083289049 -0.1016030906228151 0 0.1879948407193017 -0.096825106457468404 0 0.17616197058814109 -0.1129075707426635 0 0.1662266333596169 -0.1240276150378375 0 0.17719406839141599 -0.129049301533325 0 0.17616197058814109 -0.1129075707426635 0 0.20132325748563171 -0.12584189031875309 0 0.17719406839141599 -0.129049301533325 0 0.17616197058814109 -0.1129075707426635 0 0.1662266333596169 -0.1240276150378375 0 0.15870030883470981 -0.1135146461615802 0 0.1662266333596169 -0.1240276150378375 0 0.15870030883470981 -0.1135146461615802 0 0.151887976519681 -0.12743892282010691 0 0.15004022659759719 -0.1020428815097984 0 0.15870030883470981 -0.1135146461615802 0 0.16916337083289049 -0.1016030906228151 0 0.15004022659759719 -0.1020428815097984 0 0.1729195074247025 -0.082725248242565205 0 0.16916337083289049 -0.1016030906228151 0 0.17616197058814109 -0.1129075707426635 0 0.15870030883470981 -0.1135146461615802 0 0.16916337083289049 -0.1016030906228151 0 0.14914929414019731 0.0058972064670669688 0 0.1476306879064353 -0.01113773911524259 0 0.16671696224836291 -0.0096910931753822552 0 0.12282510645186411 -0.0073439745882975596 0 0.1476306879064353 -0.01113773911524259 0 0.12992018651693879 -0.026744705334764501 0 0.14914929414019731 0.0058972064670669688 0 0.12282510645186411 -0.0073439745882975596 0 0.1476306879064353 -0.01113773911524259 0 0.1476306879064353 -0.01113773911524259 0 0.12992018651693879 -0.026744705334764501 0 0.14469410496758059 -0.040309631428859252 0 0.1476306879064353 -0.01113773911524259 0 0.14469410496758059 -0.040309631428859252 0 0.16368190226976101 -0.031062852420760342 0 0.1476306879064353 -0.01113773911524259 0 0.16368190226976101 -0.031062852420760342 0 0.1237998356743315 -0.044601028672229578 0 0.12992018651693879 -0.026744705334764501 0 0.14469410496758059 -0.040309631428859252 0 0.1237998356743315 -0.044601028672229578 0 0.14469410496758059 -0.040309631428859252 0 0.1360006986325506 -0.060582954804628247 0 0.1237998356743315 -0.044601028672229578 0 0.1360006986325506 -0.060582954804628247 0 0.1237998356743315 -0.044601028672229578 0 0.11601394843892079 -0.062985611219766813 0 0.1360006986325506 -0.060582954804628247 0 0.14469410496758059 -0.040309631428859252 0 0.15070973350486469 -0.055824279566058267 0 0.16147501682295659 -0.048114484400835517 0 0.14469410496758059 -0.040309631428859252 0 0.1360006986325506 -0.060582954804628247 0 0.15070973350486469 -0.055824279566058267 0 0.16396733911192851 -0.063776423331652454 0 0.17973311663308181 -0.050987965726281989 0 0.16396733911192851 -0.063776423331652454 0 0.16147501682295659 -0.048114484400835517 0 0.17973311663308181 -0.050987965726281989 0 0.16396733911192851 -0.063776423331652454 0 0.15070973350486469 -0.055824279566058267 0 0.16147501682295659 -0.048114484400835517 0 0.16396733911192851 -0.063776423331652454 0 0.17712108551864131 -0.070134779394424224 0 0.17973311663308181 -0.050987965726281989 0 0.17712108551864131 -0.070134779394424224 0 0.17973311663308181 -0.050987965726281989 0 0.19132858919674139 -0.065381961060969621 0 0.17973311663308181 -0.050987965726281989 0 0.19132858919674139 -0.065381961060969621 0 0.17973311663308181 -0.050987965726281989 0 0.16368190226976101 -0.031062852420760342 0 0.18151307462724739 -0.028964604933017991 0 0.14469410496758059 -0.040309631428859252 0 0.16147501682295659 -0.048114484400835517 0 0.16368190226976101 -0.031062852420760342 0 0.16147501682295659 -0.048114484400835517 0 0.17973311663308181 -0.050987965726281989 0 0.16368190226976101 -0.031062852420760342 0 0.17973311663308181 -0.050987965726281989 0 0.16368190226976101 -0.031062852420760342 0 0.16368190226976101 -0.031062852420760342 0 0.18151307462724739 -0.028964604933017991 0 0.16671696224836291 -0.0096910931753822552 0 0.1476306879064353 -0.01113773911524259 0 0.16368190226976101 -0.031062852420760342 0 0.16671696224836291 -0.0096910931753822552 0 0.18151307462724739 -0.028964604933017991 0 0.16671696224836291 -0.0096910931753822552 0 0.1881713423680581 -0.0060306205692716641 0 0.1881713423680581 -0.0060306205692716641 0 0.20226517114478551 -0.032711022296235251 0 0.2247972256564893 -0.014434078866188469 0 0.20792237099143179 0.004933202875899512 0 0.1881713423680581 -0.0060306205692716641 0 0.2247972256564893 -0.014434078866188469 0 0.18151307462724739 -0.028964604933017991 0 0.1881713423680581 -0.0060306205692716641 0 0.20226517114478551 -0.032711022296235251 0 0.20226517114478551 -0.032711022296235251 0 0.2247972256564893 -0.014434078866188469 0 0.17973311663308181 -0.050987965726281989 0 0.18151307462724739 -0.028964604933017991 0 0.20226517114478551 -0.032711022296235251 0 0.17973311663308181 -0.050987965726281989 0 0.20226517114478551 -0.032711022296235251 0 0.17973311663308181 -0.050987965726281989 0 0.20226517114478551 -0.032711022296235251 0 0.1960767899426526 -0.052624869372722982 0 0.1960767899426526 -0.052624869372722982 0 0.21098028279600151 -0.061418528407405089 0 0.19132858919674139 -0.065381961060969621 0 0.20226517114478551 -0.032711022296235251 0 0.1960767899426526 -0.052624869372722982 0 0.21098028279600151 -0.061418528407405089 0 0.17973311663308181 -0.050987965726281989 0 0.1960767899426526 -0.052624869372722982 0 0.19132858919674139 -0.065381961060969621 0 0.20226517114478551 -0.032711022296235251 0 0.21098028279600151 -0.061418528407405089 0 0.23024063609785361 -0.055856455915395238 0 0.25296892350641031 -0.054513079160722427 0 0.23024063609785361 -0.055856455915395238 0 0.23214486285280331 -0.034537362963016467 0 0.25296892350641031 -0.054513079160722427 0 0.25197428176290781 -0.026616330140016908 0 0.23214486285280331 -0.034537362963016467 0 0.20226517114478551 -0.032711022296235251 0 0.23024063609785361 -0.055856455915395238 0 0.23214486285280331 -0.034537362963016467 0 0.20226517114478551 -0.032711022296235251 0 0.23214486285280331 -0.034537362963016467 0 0.2247972256564893 -0.014434078866188469 0 0.25197428176290781 -0.026616330140016908 0 0.23214486285280331 -0.034537362963016467 0 0.2247972256564893 -0.014434078866188469 0 0.24732928016819311 0.003842864563858316 0 0.25197428176290781 -0.026616330140016908 0 0.2247972256564893 -0.014434078866188469 0 0.24732928016819311 0.003842864563858316 0 0.2247972256564893 -0.014434078866188469 0 0.2077673137364287 -0.097975885009293398 0 0.22072193691905059 -0.081557082930618613 0 0.2244844727109451 -0.1067818589175106 0 0.2244844727109451 -0.1067818589175106 0 0.21939969140019111 -0.1379861382013344 0 0.20132325748563171 -0.12584189031875309 0 0.2244844727109451 -0.1067818589175106 0 0.20132325748563171 -0.12584189031875309 0 0.2077673137364287 -0.097975885009293398 0 0.2244844727109451 -0.1067818589175106 0 0.20132325748563171 -0.12584189031875309 0 0.17616197058814109 -0.1129075707426635 0 0.1879948407193017 -0.096825106457468404 0 0.20132325748563171 -0.12584189031875309 0 0.2077673137364287 -0.097975885009293398 0 0.1879948407193017 -0.096825106457468404 0 0.20132325748563171 -0.12584189031875309 0 0.18701880805878199 -0.079275454298080444 0 0.1879948407193017 -0.096825106457468404 0 0.20292406176039621 -0.079775956395661179 0 0.2077673137364287 -0.097975885009293398 0 0.1879948407193017 -0.096825106457468404 0 0.20292406176039621 -0.079775956395661179 0 0.21098028279600151 -0.061418528407405089 0 0.20292406176039621 -0.079775956395661179 0 0.19132858919674139 -0.065381961060969621 0 0.18701880805878199 -0.079275454298080444 0 0.20292406176039621 -0.079775956395661179 0 0.19132858919674139 -0.065381961060969621 0 0.20292406176039621 -0.079775956395661179 0 0.19132858919674139 -0.065381961060969621 0 0.21098028279600151 -0.061418528407405089 0 0.20292406176039621 -0.079775956395661179 0 0.22072193691905059 -0.081557082930618613 0 0.2077673137364287 -0.097975885009293398 0 0.20292406176039621 -0.079775956395661179 0 0.22072193691905059 -0.081557082930618613 0 0.22072193691905059 -0.081557082930618613 0 0.24764568793625849 -0.087721827516268114 0 0.2244844727109451 -0.1067818589175106 0 0.23024063609785361 -0.055856455915395238 0 0.22072193691905059 -0.081557082930618613 0 0.24764568793625849 -0.087721827516268114 0 0.25296892350641031 -0.054513079160722427 0 0.23024063609785361 -0.055856455915395238 0 0.24764568793625849 -0.087721827516268114 0 0.21098028279600151 -0.061418528407405089 0 0.23024063609785361 -0.055856455915395238 0 0.22072193691905059 -0.081557082930618613 0 0.24764568793625849 -0.087721827516268114 0 0.2244844727109451 -0.1067818589175106 0 0.24764568793625849 -0.087721827516268114 0 0.2244844727109451 -0.1067818589175106 0 0.24678342630617159 -0.1145367174117326 0 0.2244844727109451 -0.1067818589175106 0 0.24678342630617159 -0.1145367174117326 0 0.2410969503534677 -0.13612356642675211 0 0.26105437232912282 -0.13059646526394561 0 0.24678342630617159 -0.1145367174117326 0 0.2410969503534677 -0.13612356642675211 0 0.26535897855112972 -0.15953860861584601 0 0.2410969503534677 -0.13612356642675211 0 0.2362814284028576 -0.16240917716207301 0 0.2410969503534677 -0.13612356642675211 0 0.21939969140019111 -0.1379861382013344 0 0.2362814284028576 -0.16240917716207301 0 0.21939969140019111 -0.1379861382013344 0 0.21691465359294529 -0.1596209436499067 0 0.2362814284028576 -0.16240917716207301 0 0.2244844727109451 -0.1067818589175106 0 0.2410969503534677 -0.13612356642675211 0 0.21939969140019111 -0.1379861382013344 0 0.21939969140019111 -0.1379861382013344 0 0.20132325748563171 -0.12584189031875309 0 0.19572709901770399 -0.15703013439139279 0 0.21939969140019111 -0.1379861382013344 0 0.19572709901770399 -0.15703013439139279 0 0.21691465359294529 -0.1596209436499067 0 0.20132325748563171 -0.12584189031875309 0 0.19572709901770399 -0.15703013439139279 0 0.1781620422603182 -0.14490192171999561 0 0.20132325748563171 -0.12584189031875309 0 0.1781620422603182 -0.14490192171999561 0 0.2003571004860118 -0.1766227025703801 0 0.19157018885947569 -0.1884627626162744 0 0.18431892349285639 -0.17584455208100391 0 0.2003571004860118 -0.1766227025703801 0 0.20336839654122951 -0.19427083537286771 0 0.19157018885947569 -0.1884627626162744 0 0.2003571004860118 -0.1766227025703801 0 0.19572709901770399 -0.15703013439139279 0 0.18431892349285639 -0.17584455208100391 0 0.2003571004860118 -0.1766227025703801 0 0.19572709901770399 -0.15703013439139279 0 0.21691465359294529 -0.1596209436499067 0 0.2003571004860118 -0.1766227025703801 0 0.2170371162184207 -0.1796416973657477 0 0.20336839654122951 -0.19427083537286771 0 0.2003571004860118 -0.1766227025703801 0 0.21691465359294529 -0.1596209436499067 0 0.2170371162184207 -0.1796416973657477 0 0.2170371162184207 -0.1796416973657477 0 0.2362814284028576 -0.16240917716207301 0 0.23144928873472889 -0.18832658475190381 0 0.21691465359294529 -0.1596209436499067 0 0.2170371162184207 -0.1796416973657477 0 0.2362814284028576 -0.16240917716207301 0 0.2362814284028576 -0.16240917716207301 0 0.24992822405896969 -0.18220675191515051 0 0.23144928873472889 -0.18832658475190381 0 0.2524003079384961 -0.1947869229672409 0 0.24992822405896969 -0.18220675191515051 0 0.23449746956681131 -0.20487489521445609 0 0.24992822405896969 -0.18220675191515051 0 0.23449746956681131 -0.20487489521445609 0 0.2524003079384961 -0.1947869229672409 0 0.24663547441270761 -0.20900968360465191 0 0.23449746956681131 -0.20487489521445609 0 0.24992822405896969 -0.18220675191515051 0 0.23449746956681131 -0.20487489521445609 0 0.23144928873472889 -0.18832658475190381 0 0.2524003079384961 -0.1947869229672409 0 0.24663547441270761 -0.20900968360465191 0 0.24663547441270761 -0.20900968360465191 0 0.23449746956681131 -0.20487489521445609 0 0.23835682038711689 -0.22943443899076851 0 0.24663547441270761 -0.20900968360465191 0 0.23449746956681131 -0.20487489521445609 0 0.23449746956681131 -0.20487489521445609 0 0.21949405483339279 -0.226915266301221 0 0.23449746956681131 -0.20487489521445609 0 0.2189329330540192 -0.19957286529366541 0 0.21803279870101189 -0.2125257342530702 0 0.23449746956681131 -0.20487489521445609 0 0.21949405483339279 -0.226915266301221 0 0.21803279870101189 -0.2125257342530702 0 0.2170371162184207 -0.1796416973657477 0 0.23144928873472889 -0.18832658475190381 0 0.2189329330540192 -0.19957286529366541 0 0.23449746956681131 -0.20487489521445609 0 0.23144928873472889 -0.18832658475190381 0 0.2189329330540192 -0.19957286529366541 0 0.23449746956681131 -0.20487489521445609 0 0.2189329330540192 -0.19957286529366541 0 0.23783172319467391 -0.23627383047078049 0 0.23835682038711689 -0.22943443899076851 0 0.23007816636152631 -0.2498591943768852 0 0.2400583360995556 -0.25107930535304163 0 0.23783172319467391 -0.23627383047078049 0 0.2400583360995556 -0.25107930535304163 0 0.23783172319467391 -0.23627383047078049 0 0.23007816636152631 -0.2498591943768852 0 0.2400583360995556 -0.25107930535304163 0 0.2470672804731909 -0.24755278856537619 0 0.23783172319467391 -0.23627383047078049 0 0.25475906612319699 -0.24139413636627971 0 0.2470672804731909 -0.24755278856537619 0 0.24580781773274579 -0.23745599548454119 0 0.2470672804731909 -0.24755278856537619 0 0.24580781773274579 -0.23745599548454119 0 0.23783172319467391 -0.23627383047078049 0 0.24580781773274579 -0.23745599548454119 0 0.23783172319467391 -0.23627383047078049 0 0.23835682038711689 -0.22943443899076851 0 0.24663547441270761 -0.20900968360465191 0 0.23835682038711689 -0.22943443899076851 0 0.24663547441270761 -0.20900968360465191 0 0.23835682038711689 -0.22943443899076851 0 0.2484500200095881 -0.2216353118123992 0 0.25140627590533687 -0.2319232051496454 0 0.24580781773274579 -0.23745599548454119 0 0.23835682038711689 -0.22943443899076851 0 0.25140627590533687 -0.2319232051496454 0 0.23835682038711689 -0.22943443899076851 0 0.2484500200095881 -0.2216353118123992 0 0.23449746956681131 -0.20487489521445609 0 0.23835682038711689 -0.22943443899076851 0 0.21949405483339279 -0.226915266301221 0 0.23835682038711689 -0.22943443899076851 0 0.23007816636152631 -0.2498591943768852 0 0.23835682038711689 -0.22943443899076851 0 0.21949405483339279 -0.226915266301221 0 0.23007816636152631 -0.2498591943768852 0 0.21949405483339279 -0.226915266301221 0 0.2044906400999788 -0.2489556373879889 0 0.20468319693933221 -0.23429387163261481 0 0.21949405483339279 -0.226915266301221 0 0.23007816636152631 -0.2498591943768852 0 0.2044906400999788 -0.2489556373879889 0 0.21949405483339279 -0.226915266301221 0 0.2044906400999788 -0.2489556373879889 0 0.21949405483339279 -0.226915266301221 0 0.20468319693933221 -0.23429387163261481 0 0.20198402554261041 -0.22679864528090701 0 0.2111439042045542 -0.21988825007174859 0 0.20198402554261041 -0.22679864528090701 0 0.2064586227283543 -0.2106957183041426 0 0.21949405483339279 -0.226915266301221 0 0.2111439042045542 -0.21988825007174859 0 0.20198402554261041 -0.22679864528090701 0 0.21949405483339279 -0.226915266301221 0 0.2111439042045542 -0.21988825007174859 0 0.21803279870101189 -0.2125257342530702 0 0.19276406728134959 -0.2345059375603441 0 0.19438257750004531 -0.21777378858329249 0 0.1797567572726364 -0.21847808968886751 0 0.20198402554261041 -0.22679864528090701 0 0.19276406728134959 -0.2345059375603441 0 0.19438257750004531 -0.21777378858329249 0 0.20198402554261041 -0.22679864528090701 0 0.19276406728134959 -0.2345059375603441 0 0.20468319693933221 -0.23429387163261481 0 0.20198402554261041 -0.22679864528090701 0 0.19276406728134959 -0.2345059375603441 0 0.18942126622895031 -0.25174801191084523 0 0.2044906400999788 -0.2489556373879889 0 0.19276406728134959 -0.2345059375603441 0 0.2044906400999788 -0.2489556373879889 0 0.20468319693933221 -0.23429387163261481 0 0.19276406728134959 -0.2345059375603441 0 0.2044906400999788 -0.2489556373879889 0 0.19276406728134959 -0.2345059375603441 0 0.2170371162184207 -0.1796416973657477 0 0.2189329330540192 -0.19957286529366541 0 0.20336839654122951 -0.19427083537286771 0 0.2189329330540192 -0.19957286529366541 0 0.20336839654122951 -0.19427083537286771 0 0.2064586227283543 -0.2106957183041426 0 0.2189329330540192 -0.19957286529366541 0 0.20336839654122951 -0.19427083537286771 0 0.2189329330540192 -0.19957286529366541 0 0.21803279870101189 -0.2125257342530702 0 0.2064586227283543 -0.2106957183041426 0 0.2111439042045542 -0.21988825007174859 0 0.21803279870101189 -0.2125257342530702 0 0.2064586227283543 -0.2106957183041426 0 0.20198402554261041 -0.22679864528090701 0 0.2064586227283543 -0.2106957183041426 0 0.19438257750004531 -0.21777378858329249 0 0.2064586227283543 -0.2106957183041426 0 0.19438257750004531 -0.21777378858329249 0 0.1921753705641697 -0.20394889640275271 0 0.19438257750004531 -0.21777378858329249 0 0.1921753705641697 -0.20394889640275271 0 0.1797567572726364 -0.21847808968886751 0 0.20336839654122951 -0.19427083537286771 0 0.2064586227283543 -0.2106957183041426 0 0.1921753705641697 -0.20394889640275271 0 0.20336839654122951 -0.19427083537286771 0 0.1921753705641697 -0.20394889640275271 0 0.19157018885947569 -0.1884627626162744 0 0.1921753705641697 -0.20394889640275271 0 0.19157018885947569 -0.1884627626162744 0 0.17748529292279469 -0.19463990942915119 0 0.17748529292279469 -0.19463990942915119 0 0.1797567572726364 -0.21847808968886751 0 0.16511230046843331 -0.20708791535462409 0 0.1921753705641697 -0.20394889640275271 0 0.17748529292279469 -0.19463990942915119 0 0.1797567572726364 -0.21847808968886751 0 0.1797567572726364 -0.21847808968886751 0 0.16511230046843331 -0.20708791535462409 0 0.16526933967795529 -0.22268793329274381 0 0.16511230046843331 -0.20708791535462409 0 0.16526933967795529 -0.22268793329274381 0 0.1502320175559515 -0.21809106349427879 0 0.17748529292279469 -0.19463990942915119 0 0.16511230046843331 -0.20708791535462409 0 0.1526164222954802 -0.1910265083077595 0 0.17748529292279469 -0.19463990942915119 0 0.1526164222954802 -0.1910265083077595 0 0.16905736736997001 -0.17781490362202021 0 0.19276406728134959 -0.2345059375603441 0 0.18003969250958149 -0.24514269671479411 0 0.175383888571642 -0.23200687237925091 0 0.18942126622895031 -0.25174801191084523 0 0.19276406728134959 -0.2345059375603441 0 0.18003969250958149 -0.24514269671479411 0 0.16731531773781361 -0.25577945586924422 0 0.18003969250958149 -0.24514269671479411 0 0.1703781416164801 -0.24246607116126251 0 0.19276406728134959 -0.2345059375603441 0 0.18003969250958149 -0.24514269671479411 0 0.18003969250958149 -0.24514269671479411 0 0.175383888571642 -0.23200687237925091 0 0.1703781416164801 -0.24246607116126251 0 0.19276406728134959 -0.2345059375603441 0 0.1797567572726364 -0.21847808968886751 0 0.175383888571642 -0.23200687237925091 0 0.19276406728134959 -0.2345059375603441 0 0.1797567572726364 -0.21847808968886751 0 0.1797567572726364 -0.21847808968886751 0 0.175383888571642 -0.23200687237925091 0 0.16526933967795529 -0.22268793329274381 0 0.16526933967795529 -0.22268793329274381 0 0.15877366764688339 -0.2369352596817611 0 0.1502320175559515 -0.21809106349427879 0 0.175383888571642 -0.23200687237925091 0 0.16526933967795529 -0.22268793329274381 0 0.15877366764688339 -0.2369352596817611 0 0.16731531773781361 -0.25577945586924422 0 0.15877366764688339 -0.2369352596817611 0 0.16015383963439911 -0.2494441683434068 0 0.16731531773781361 -0.25577945586924422 0 0.15877366764688339 -0.2369352596817611 0 0.1703781416164801 -0.24246607116126251 0 0.16731531773781361 -0.25577945586924422 0 0.15877366764688339 -0.2369352596817611 0 0.175383888571642 -0.23200687237925091 0 0.15877366764688339 -0.2369352596817611 0 0.1703781416164801 -0.24246607116126251 0 0.15877366764688339 -0.2369352596817611 0 0.16015383963439911 -0.2494441683434068 0 0.15595550302497749 -0.24877890851999501 0 0.14490446143813629 -0.25781358711477897 0 0.14797052066319569 -0.24376053413549151 0 0.1367400040882287 -0.24715954976977059 0 0.1525537561698822 -0.25448064090901751 0 0.14797052066319569 -0.24376053413549151 0 0.15595550302497749 -0.24877890851999501 0 0.15877366764688339 -0.2369352596817611 0 0.14797052066319569 -0.24376053413549151 0 0.15595550302497749 -0.24877890851999501 0 0.14797052066319569 -0.24376053413549151 0 0.13946246940508139 -0.2337744966932275 0 0.1367400040882287 -0.24715954976977059 0 0.14090220648985929 -0.21966160939349799 0 0.13946246940508139 -0.2337744966932275 0 0.1502320175559515 -0.21809106349427879 0 0.15877366764688339 -0.2369352596817611 0 0.14797052066319569 -0.24376053413549151 0 0.1502320175559515 -0.21809106349427879 0 0.14797052066319569 -0.24376053413549151 0 0.1502320175559515 -0.21809106349427879 0 0.14797052066319569 -0.24376053413549151 0 0.13946246940508139 -0.2337744966932275 0 0.1502320175559515 -0.21809106349427879 0 0.15877366764688339 -0.2369352596817611 0 0.1502320175559515 -0.21809106349427879 0 0.1214675982281712 -0.24019972667309869 0 0.14090220648985929 -0.21966160939349799 0 0.1214675982281712 -0.24019972667309869 0 0.14090220648985929 -0.21966160939349799 0 0.13946246940508139 -0.2337744966932275 0 0.11859185545849001 -0.21921522977555821 0 0.1214675982281712 -0.24019972667309869 0 0.14090220648985929 -0.21966160939349799 0 0.1214675982281712 -0.24019972667309869 0 0.13946246940508139 -0.2337744966932275 0 0.1367400040882287 -0.24715954976977059 0 0.13222908187911531 -0.26016936100608751 0 0.1214675982281712 -0.24019972667309869 0 0.1367400040882287 -0.24715954976977059 0 0.1419449020496252 -0.19980840981880779 0 0.1526164222954802 -0.1910265083077595 0 0.1502320175559515 -0.21809106349427879 0 0.1419449020496252 -0.19980840981880779 0 0.1526164222954802 -0.1910265083077595 0 0.13365778654329899 -0.1815257561433368 0 0.14090220648985929 -0.21966160939349799 0 0.1419449020496252 -0.19980840981880779 0 0.1502320175559515 -0.21809106349427879 0 0.1526164222954802 -0.1910265083077595 0 0.1502320175559515 -0.21809106349427879 0 0.1419449020496252 -0.19980840981880779 0 0.1502320175559515 -0.21809106349427879 0 0.16511230046843331 -0.20708791535462409 0 0.1526164222954802 -0.1910265083077595 0 0.1502320175559515 -0.21809106349427879 0 0.14090220648985929 -0.21966160939349799 0 0.1419449020496252 -0.19980840981880779 0 0.1296143143859014 -0.20375147385639891 0 0.11859185545849001 -0.21921522977555821 0 0.14090220648985929 -0.21966160939349799 0 0.1296143143859014 -0.20375147385639891 0 0.1419449020496252 -0.19980840981880779 0 0.1296143143859014 -0.20375147385639891 0 0.13365778654329899 -0.1815257561433368 0 0.1129748213882342 -0.19854636415079371 0 0.1296143143859014 -0.20375147385639891 0 0.13365778654329899 -0.1815257561433368 0 0.1419449020496252 -0.19980840981880779 0 0.13365778654329899 -0.1815257561433368 0 0.11588740707284929 -0.17929700287070821 0 0.13365778654329899 -0.1815257561433368 0 0.12736989321495501 -0.16765369463017951 0 0.13365778654329899 -0.1815257561433368 0 0.12736989321495501 -0.16765369463017951 0 0.13365778654329899 -0.1815257561433368 0 0.1550008270350062 -0.16396195312124001 0 0.1526164222954802 -0.1910265083077595 0 0.13365778654329899 -0.1815257561433368 0 0.1550008270350062 -0.16396195312124001 0 0.1526164222954802 -0.1910265083077595 0 0.1550008270350062 -0.16396195312124001 0 0.1550008270350062 -0.16396195312124001 0 0.1391368624576288 -0.15918068625907661 0 0.14695240061388021 -0.1520088350884789 0 0.13365778654329899 -0.1815257561433368 0 0.1550008270350062 -0.16396195312124001 0 0.1391368624576288 -0.15918068625907661 0 0.1550008270350062 -0.16396195312124001 0 0.15600472053923559 -0.15256710446317279 0 0.13365778654329899 -0.1815257561433368 0 0.1391368624576288 -0.15918068625907661 0 0.12736989321495501 -0.16765369463017951 0 0.1391368624576288 -0.15918068625907661 0 0.12736989321495501 -0.16765369463017951 0 0.12909537210344421 -0.15414988372408961 0 0.1391368624576288 -0.15918068625907661 0 0.12909537210344421 -0.15414988372408961 0 0.13603610282356671 -0.14345282215548461 0 0.12909537210344421 -0.15414988372408961 0 0.12518603117586979 -0.14405737709000771 0 0.13603610282356671 -0.14345282215548461 0 0.1208326872731787 -0.13588182141165739 0 0.12716094577049211 -0.1213605147770313 0 0.13102293704238421 -0.13266420007826271 0 0.12716094577049211 -0.1213605147770313 0 0.13544557496476359 -0.1247904767855378 0 0.13102293704238421 -0.13266420007826271 0 0.12518603117586979 -0.14405737709000771 0 0.13603610282356671 -0.14345282215548461 0 0.13102293704238421 -0.13266420007826271 0 0.1208326872731787 -0.13588182141165739 0 0.12518603117586979 -0.14405737709000771 0 0.13102293704238421 -0.13266420007826271 0 0.13603610282356671 -0.14345282215548461 0 0.13102293704238421 -0.13266420007826271 0 0.14070822824113521 -0.12980885322655969 0 0.13544557496476359 -0.1247904767855378 0 0.13102293704238421 -0.13266420007826271 0 0.14070822824113521 -0.12980885322655969 0 0.14070822824113521 -0.12980885322655969 0 0.151887976519681 -0.12743892282010691 0 0.1485834902139653 -0.14088160944342229 0 0.13603610282356671 -0.14345282215548461 0 0.14070822824113521 -0.12980885322655969 0 0.1485834902139653 -0.14088160944342229 0 0.151887976519681 -0.12743892282010691 0 0.1485834902139653 -0.14088160944342229 0 0.1640964382633725 -0.13756750984737531 0 0.1391368624576288 -0.15918068625907661 0 0.13603610282356671 -0.14345282215548461 0 0.14695240061388021 -0.1520088350884789 0 0.13603610282356671 -0.14345282215548461 0 0.14695240061388021 -0.1520088350884789 0 0.1485834902139653 -0.14088160944342229 0 0.1485834902139653 -0.14088160944342229 0 0.15600472053923559 -0.15256710446317279 0 0.1640964382633725 -0.13756750984737531 0 0.14695240061388021 -0.1520088350884789 0 0.1485834902139653 -0.14088160944342229 0 0.15600472053923559 -0.15256710446317279 0 0.1550008270350062 -0.16396195312124001 0 0.14695240061388021 -0.1520088350884789 0 0.15600472053923559 -0.15256710446317279 0 0.1550008270350062 -0.16396195312124001 0 0.1781620422603182 -0.14490192171999561 0 0.15600472053923559 -0.15256710446317279 0 0.1640964382633725 -0.13756750984737531 0 0.1781620422603182 -0.14490192171999561 0 0.1550008270350062 -0.16396195312124001 0 0.15600472053923559 -0.15256710446317279 0 0.1781620422603182 -0.14490192171999561 0 0.1662266333596169 -0.1240276150378375 0 0.151887976519681 -0.12743892282010691 0 0.1640964382633725 -0.13756750984737531 0 0.1662266333596169 -0.1240276150378375 0 0.1640964382633725 -0.13756750984737531 0 0.17719406839141599 -0.129049301533325 0 0.20132325748563171 -0.12584189031875309 0 0.17719406839141599 -0.129049301533325 0 0.1781620422603182 -0.14490192171999561 0 0.1640964382633725 -0.13756750984737531 0 0.17719406839141599 -0.129049301533325 0 0.1781620422603182 -0.14490192171999561 0 0.19572709901770399 -0.15703013439139279 0 0.1781620422603182 -0.14490192171999561 0 0.175865371103714 -0.16360159517094849 0 0.19572709901770399 -0.15703013439139279 0 0.175865371103714 -0.16360159517094849 0 0.18431892349285639 -0.17584455208100391 0 0.17748529292279469 -0.19463990942915119 0 0.18431892349285639 -0.17584455208100391 0 0.16905736736997001 -0.17781490362202021 0 0.19157018885947569 -0.1884627626162744 0 0.17748529292279469 -0.19463990942915119 0 0.18431892349285639 -0.17584455208100391 0 0.175865371103714 -0.16360159517094849 0 0.18431892349285639 -0.17584455208100391 0 0.16905736736997001 -0.17781490362202021 0 0.1526164222954802 -0.1910265083077595 0 0.1550008270350062 -0.16396195312124001 0 0.16905736736997001 -0.17781490362202021 0 0.1550008270350062 -0.16396195312124001 0 0.175865371103714 -0.16360159517094849 0 0.16905736736997001 -0.17781490362202021 0 0.1550008270350062 -0.16396195312124001 0 0.1781620422603182 -0.14490192171999561 0 0.175865371103714 -0.16360159517094849 0 
</DataArray>
</Points>
<Cells>
<DataArray type="UInt32" Name="connectivity" format="ascii">
0 1 2 3 4 5 6 7 8 9 10 11 12 13 14 15 16 17 18 19 20 21 22 23 24 25 26 27 28 29 30 31 32 33 34 35 36 37 38 39 40 41 42 43 44 45 46 47 48 49 50 51 52 53 54 55 56 57 58 59 60 61 62 63 64 65 66 67 68 69 70 71 72 73 74 75 76 77 78 79 80 81 82 83 84 85 86 87 88 89 90 91 92 93 94 95 96 97 98 99 100 101 102 103 104 105 106 107 108 109 110 111 112 113 114 115 116 117 118 119 120 121 122 123 124 125 126 127 128 129 130 131 132 133 134 135 136 137 138 139 140 141 142 143 144 145 146 147 148 149 150 151 152 153 154 155 156 157 158 159 160 161 162 163 164 165 166 167 168 169 170 171 172 173 174 175 176 177 178 179 180 181 182 183 184 185 186 187 188 189 190 191 192 193 194 195 196 197 198 199 200 201 202 203 204 205 206 207 208 209 210 211 212 213 214 215 216 217 218 219 220 221 222 223 224 225 226 227 228 229 230 231 232 233 234 235 236 237 238 239 240 241 242 243 244 245 246 247 248 249 250 251 252 253 254 255 256 257 258 259 260 261 262 263 264 265 266 267 268 269 270 271 272 273 274 275 276 277 278 279 280 281 282 283 284 285 286 287 288 289 290 291 292 293 294 295 296 297 298 299 300 301 302 303 304 305 306 307 308 309 310 311 312 313 314 315 316 317 318 319 320 321 322 323 324 325 326 327 328 329 330 331 332 333 334 335 336 337 338 339 340 341 342 343 344 345 346 347 348 349 350 351 352 353 354 355 356 357 358 359 360 361 362 363 364 365 366 367 368 369 370 371 372 373 374 375 376 377 378 379 380 381 382 383 384 385 386 387 388 389 390 391 392 393 394 395 396 397 398 399 400 401 402 403 404 405 406 407 408 409 410 411 412 413 414 415 416 417 418 419 420 421 422 423 424 425 426 427 428 429 430 431 432 433 434 435 436 437 438 439 440 441 442 443 444 445 446 447 448 449 450 451 452 453 454 455 456 457 458 459 460 461 462 463 464 465 466 467 468 469 470 471 472 473 474 475 476 477 478 479 480 481 482 483 484 485 486 487 488 489 490 491 492 493 494 495 496 497 498 499 500 501 502 503 504 505 506 507 508 509 510 511 512 513 514 515 516 517 518 519 520 521 522 523 524 525 526 527 528 529 530 531 532 533 534 535 536 537 538 539 540 541 542 543 544 545 546 547 548 549 550 551 552 553 554 555 556 557 558 559 560 561 562 563 564 565 566 567 568 569 570 571 572 573 574 575 576 577 578 579 580 581 582 583 584 585 586 587 588 589 590 591 592 593 594 595 596 597 598 599 600 601 602 603 604 605 606 607 608 609 610 611 612 613 614 615 616 617 618 619 620 621 622 623 624 625 626 627 628 629 630 631 632 633 634 635 636 637 638 639 640 641 642 643 644 645 646 647 648 649 650 651 652 653 654 655 656 657 658 659 660 661 662 663 664 665 666 667 668 669 670 671 672 673 674 675 676 677 678 679 680 681 682 683 684 685 686 687 688 689 690 691 692 693 694 695 696 697 698 699 700 701 702 703 704 705 706 707 708 709 710 711 712 713 714 715 716 717 718 719 720 721 722 723 724 725 726 727 728 729 730 731 732 733 734 735 736 737 738 739 740 741 742 743 744 745 746 747 748 749 750 751 752 753 754 755 756 757 758 759 760 761 762 763 764 765 766 767 768 769 770 771 772 773 774 775 776 777 778 779 780 781 782 783 784 785 786 787 788 789 790 791 792 793 794 795 796 797 798 799 800 801 802 803 804 805 806 807 808 809 810 811 812 813 814 815 816 817 818 819 820 821 822 823 824 825 826 827 828 829 830 831 832 833 834 835 836 837 838 839 840 841 842 843 844 845 846 847 848 849 850 851 852 853 854 855 856 857 858 859 860 861 862 863 864 865 866 867 868 869 870 871 872 873 874 875 876 877 878 879 880 881 882 883 884 885 886 887 888 889 890 891 892 893 894 895 896 897 898 899 900 901 902 903 904 905 906 907 908 909 910 911 912 913 914 915 916 917 918 919 920 921 922 923 924 925 926 927 928 929 930 931 932 933 934 935 936 937 938 939 940 941 942 943 944 945 946 947 948 949 950 951 952 953 954 955 956 957 958 959 960 961 962 963 964 965 966 967 968 969 970 971 972 973 974 975 976 977 978 979 980 981 982 983 984 985 986 987 988 989 990 991 992 993 994 995 996 997 998 999 1000 1001 1002 1003 1004 1005 1006 1007 1008 1009 1010 1011 1012 1013 1014 1015 1016 1017 1018 1019 1020 1021 1022 1023 1024 1025 1026 1027 1028 1029 1030 1031 1032 1033 1034 1035 1036 1037 1038 1039 1040 1041 1042 1043 1044 1045 1046 1047 1048 1049 1050 1051 1052 1053 1054 1055 1056 1057 1058 1059 1060 1061 1062 1063 1064 1065 1066 1067 1068 1069 1070 1071 1072 1073 1074 1075 1076 1077 1078 1079 1080 1081 1082 1083 1084 1085 1086 1087 1088 1089 1090 1091 1092 1093 1094 1095 1096 1097 1098 1099 1100 1101 1102 1103 1104 1105 1106 1107 1108 1109 1110 1111 1112 1113 1114 1115 1116 1117 1118 1119 1120 1121 1122 1123 1124 1125 1126 1127 1128 1129 1130 1131 1132 1133 1134 1135 1136 1137 1138 1139 1140 1141 1142 1143 1144 1145 1146 1147 1148 1149 1150 1151 1152 1153 1154 1155 1156 1157 1158 1159 1160 1161 1162 1163 1164 1165 1166 1167 1168 1169 1170 1171 1172 1173 1174 1175 1176 1177 1178 1179 1180 1181 1182 1183 1184 1185 1186 1187 1188 1189 1190 1191 1192 1193 1194 1195 1196 1197 1198 1199 1200 1201 1202 1203 1204 1205 1206 1207 1208 1209 1210 1211 1212 1213 1214 1215 1216 1217 1218 1219 1220 1221 1222 1223 1224 1225 1226 1227 1228 1229 1230 1231 1232 1233 1234 1235 1236 1237 1238 1239 1240 1241 1242 1243 1244 1245 1246 1247 1248 1249 1250 1251 1252 1253 1254 1255 1256 1257 1258 1259 1260 1261 1262 1263 1264 1265 1266 1267 1268 1269 1270 1271 1272 1273 1274 1275 1276 1277 1278 1279 1280 1281 1282 1283 1284 1285 1286 1287 1288 1289 1290 1291 1292 1293 1294 1295 1296 1297 1298 1299 1300 1301 1302 1303 1304 1305 1306 1307 1308 1309 1310 1311 1312 1313 1314 1315 1316 1317 1318 1319 1320 1321 1322 1323 1324 1325 1326 1327 1328 1329 1330 1331 1332 1333 1334 1335 1336 1337 1338 1339 1340 1341 1342 1343 1344 1345 1346 1347 1348 1349 1350 1351 1352 1353 1354 1355 1356 1357 1358 1359 1360 1361 1362 1363 1364 1365 1366 1367 1368 1369 1370 1371 1372 1373 1374 1375 1376 1377 1378 1379 1380 1381 1382 1383 1384 1385 1386 1387 1388 1389 1390 1391 1392 1393 1394 1395 1396 1397 1398 1399 1400 1401 1402 1403 1404 1405 1406 1407 1408 1409 1410 1411 1412 1413 1414 1415 1416 1417 1418 1419 1420 1421 1422 1423 1424 1425 1426 1427 1428 1429 1430 1431 1432 1433 1434 1435 1436 1437 1438 1439 1440 1441 1442 1443 1444 1445 1446 1447 1448 1449 1450 1451 1452 1453 1454 1455 1456 1457 1458 1459 1460 1461 1462 1463 1464 1465 1466 1467 1468 1469 1470 1471 1472 1473 1474 1475 1476 1477 1478 1479 1480 1481 1482 1483 1484 1485 1486 1487 1488 1489 1490 1491 1492 1493 1494 1495 1496 1497 1498 1499 1500 1501 1502 1503 1504 1505 1506 1507 1508 1509 1510 1511 1512 1513 1514 1515 1516 1517 1518 1519 1520 1521 1522 1523 1524 1525 1526 1527 1528 1529 1530 1531 1532 1533 1534 1535 1536 1537 1538 1539 1540 1541 1542 1543 1544 1545 1546 1547 1548 1549 1550 1551 1552 1553 1554 1555 1556 1557 1558 1559 1560 1561 1562 1563 1564 1565 1566 1567 1568 1569 1570 1571 1572 1573 1574 1575 1576 1577 1578 1579 1580 1581 1582 1583 1584 1585 1586 1587 1588 1589 1590 1591 1592 1593 1594 1595 1596 1597 1598 1599 1600 1601 1602 1603 1604 1605 1606 1607 1608 1609 1610 1611 1612 1613 1614 1615 1616 1617 1618 1619 1620 1621 1622 1623 1624 1625 1626 1627 1628 1629 1630 1631 1632 1633 1634 1635 1636 1637 1638 1639 1640 1641 1642 1643 1644 1645 1646 1647 1648 1649 1650 1651 1652 1653 1654 1655 1656 1657 1658 1659 1660 1661 1662 1663 1664 1665 1666 1667 1668 1669 1670 1671 1672 1673 1674 1675 1676 1677 1678 1679 1680 1681 1682 1683 1684 1685 1686 1687 1688 1689 1690 1691 1692 1693 1694 1695 1696 1697 1698 1699 1700 1701 1702 1703 1704 1705 1706 1707 1708 1709 1710 1711 1712 1713 1714 1715 1716 1717 1718 1719 1720 1721 1722 1723 1724 1725 1726 1727 1728 1729 1730 1731 1732 1733 1734 1735 1736 1737 1738 1739 1740 1741 1742 1743 1744 1745 1746 1747 1748 1749 1750 1751 1752 1753 1754 1755 1756 1757 1758 1759 1760 1761 1762 1763 1764 1765 1766 1767 1768 1769 1770 1771 1772 1773 1774 1775 1776 1777 1778 1779 1780 1781 1782 1783 1784 1785 1786 1787 1788 1789 1790 1791 1792 1793 1794 1795 1796 1797 1798 1799 1800 1801 1802 1803 1804 1805 1806 1807 1808 1809 1810 1811 1812 1813 1814 1815 1816 1817 1818 1819 1820 1821 1822 1823 1824 1825 1826 1827 1828 1829 1830 1831 1832 1833 1834 1835 1836 1837 1838 1839 1840 1841 1842 1843 1844 1845 1846 1847 1848 1849 1850 1851 1852 1853 1854 1855 1856 1857 1858 1859 1860 1861 1862 1863 1864 1865 1866 1867 1868 1869 1870 1871 1872 1873 1874 1875 1876 1877 1878 1879 1880 1881 1882 1883 1884 1885 1886 1887 1888 1889 1890 1891 1892 1893 1894 1895 1896 1897 1898 1899 1900 1901 1902 1903 1904 1905 1906 1907 1908 1909 1910 1911 1912 1913 1914 1915 1916 1917 1918 1919 1920 1921 1922 1923 1924 1925 1926 1927 1928 1929 1930 1931 1932 1933 1934 1935 1936 1937 1938 1939 1940 1941 1942 1943 1944 1945 1946 1947 1948 1949 1950 1951 1952 1953 1954 1955 1956 1957 1958 1959 1960 1961 1962 1963 1964 1965 1966 1967 1968 1969 1970 1971 1972 1973 1974 1975 1976 1977 1978 1979 1980 1981 1982 1983 1984 1985 1986 1987 1988 1989 1990 1991 1992 1993 1994 1995 1996 1997 1998 1999 2000 2001 2002 2003 2004 2005 2006 2007 2008 2009 2010 2011 2012 2013 2014 2015 2016 2017 2018 2019 2020 2021 2022 2023 2024 2025 2026 2027 2028 2029 2030 2031 2032 2033 2034 2035 2036 2037 2038 2039 2040 2041 2042 2043 2044 2045 2046 2047 2048 2049 2050 2051 2052 2053 2054 2055 2056 2057 2058 2059 2060 2061 2062 2063 2064 2065 2066 2067 2068 2069 2070 2071 2072 2073 2074 2075 2076 2077 2078 2079 2080 2081 2082 2083 2084 2085 2086 2087 2088 2089 2090 2091 2092 2093 2094 2095 2096 2097 2098 2099 2100 2101 2102 2103 2104 2105 2106 2107 2108 2109 2110 2111 2112 2113 2114 2115 2116 2117 2118 2119 2120 2121 2122 2123 2124 2125 2126 2127 2128 2129 2130 2131 2132 2133 2134 2135 2136 2137 2138 2139 2140 2141 2142 2143 2144 2145 2146 2147 2148 2149 2150 2151 2152 2153 2154 2155 2156 2157 2158 2159 2160 2161 2162 2163 2164 2165 2166 2167 2168 2169 2170 2171 2172 2173 2174 2175 2176 2177 2178 2179 2180 2181 2182 2183 2184 2185 2186 2187 2188 2189 2190 2191 2192 2193 2194 2195 2196 2197 2198 2199 2200 2201 2202 2203 2204 2205 2206 2207 2208 2209 2210 2211 2212 2213 2214 2215 2216 2217 2218 2219 2220 2221 2222 2223 2224 2225 2226 2227 2228 2229 2230 2231 2232 2233 2234 2235 2236 2237 2238 2239 2240 2241 2242 2243 2244 2245 2246 2247 2248 2249 2250 2251 2252 2253 2254 2255 2256 2257 2258 2259 2260 2261 2262 2263 2264 2265 2266 2267 2268 2269 2270 2271 2272 2273 2274 2275 2276 2277 2278 2279 2280 2281 2282 2283 2284 2285 2286 2287 2288 2289 2290 2291 2292 2293 2294 2295 2296 2297 2298 2299 2300 2301 2302 2303 2304 2305 2306 2307 2308 2309 2310 2311 2312 2313 2314 2315 2316 2317 2318 2319 2320 2321 2322 2323 2324 2325 2326 2327 2328 2329 2330 2331 2332 2333 2334 2335 2336 2337 2338 2339 2340 2341 2342 2343 2344 2345 2346 2347 2348 2349 2350 2351 2352 2353 2354 2355 2356 2357 2358 2359 2360 2361 2362 2363 2364 2365 2366 2367 2368 2369 2370 2371 2372 2373 2374 2375 2376 2377 2378 2379 2380 2381 2382 2383 2384 2385 2386 2387 2388 2389 2390 2391 2392 2393 2394 2395 2396 2397 2398 2399 2400 2401 2402 2403 2404 2405 2406 2407 2408 2409 2410 2411 2412 2413 2414 2415 2416 2417 2418 2419 2420 2421 2422 2423 2424 2425 2426 2427 2428 2429 2430 2431 2432 2433 2434 2435 2436 2437 2438 2439 2440 2441 2442 2443 2444 2445 2446 2447 2448 2449 2450 2451 2452 2453 2454 2455 2456 2457 2458 2459 2460 2461 2462 2463 2464 2465 2466 2467 2468 2469 2470 2471 2472 2473 2474 2475 2476 2477 2478 2479 2480 2481 2482 2483 2484 2485 2486 2487 2488 2489 2490 2491 2492 2493 2494 2495 2496 2497 2498 2499 2500 2501 2502 2503 2504 2505 2506 2507 2508 2509 2510 2511 2512 2513 2514 2515 2516 2517 2518 2519 2520 2521 2522 2523 2524 2525 2526 2527 2528 2529 2530 2531 2532 2533 2534 2535 2536 2537 2538 2539 2540 2541 2542 2543 2544 2545 2546 2547 2548 2549 2550 2551 2552 2553 2554 2555 2556 2557 2558 2559 2560 2561 2562 2563 2564 2565 2566 2567 2568 2569 2570 2571 2572 2573 2574 2575 2576 2577 2578 2579 2580 2581 2582 2583 2584 2585 2586 2587 2588 2589 2590 2591 2592 2593 2594 2595 2596 2597 2598 2599 2600 2601 2602 2603 2604 2605 2606 2607 2608 2609 2610 2611 2612 2613 2614 2615 2616 2617 2618 2619 2620 2621 2622 2623 2624 2625 2626 2627 2628 2629 2630 2631 2632 2633 2634 2635 2636 2637 2638 2639 2640 2641 2642 2643 2644 2645 2646 2647 2648 2649 2650 2651 2652 2653 2654 2655 2656 2657 2658 2659 2660 2661 2662 2663 2664 2665 2666 2667 2668 2669 2670 2671 2672 2673 2674 2675 2676 2677 2678 2679 2680 2681 2682 2683 2684 2685 2686 2687 2688 2689 2690 2691 2692 2693 2694 2695 2696 2697 2698 2699 2700 2701 2702 2703 2704 2705 2706 2707 2708 2709 2710 2711 2712 2713 2714 2715 2716 2717 2718 2719 2720 2721 2722 2723 2724 2725 2726 2727 2728 2729 2730 2731 2732 2733 2734 2735 2736 2737 2738 2739 2740 2741 2742 2743 2744 2745 2746 2747 2748 2749 2750 2751 2752 2753 2754 2755 2756 2757 2758 2759 2760 2761 2762 2763 2764 2765 2766 2767 2768 2769 2770 2771 2772 2773 2774 2775 2776 2777 2778 2779 2780 2781 2782 2783 2784 2785 2786 2787 2788 2789 2790 2791 2792 2793 2794 2795 2796 2797 2798 2799 2800 2801 2802 2803 2804 2805 2806 2807 2808 2809 2810 2811 2812 2813 2814 2815 2816 2817 2818 2819 2820 2821 2822 2823 2824 2825 2826 2827 2828 2829 2830 2831 2832 2833 2834 2835 2836 2837 2838 2839 2840 2841 2842 2843 2844 2845 2846 2847 2848 2849 2850 2851 2852 2853 2854 2855 2856 2857 2858 2859 2860 2861 2862 2863 2864 2865 2866 2867 2868 2869 2870 2871 2872 2873 2874 2875 2876 2877 2878 2879 2880 2881 2882 2883 2884 2885 2886 2887 2888 2889 2890 2891 2892 2893 2894 2895 2896 2897 2898 2899 2900 2901 2902 2903 2904 2905 2906 2907 2908 2909 2910 2911 2912 2913 2914 2915 2916 2917 2918 2919 2920 2921 2922 2923 2924 2925 2926 2927 2928 2929 2930 2931 2932 2933 2934 2935 2936 2937 2938 2939 2940 2941 2942 2943 2944 2945 2946 2947 2948 2949 2950 2951 2952 2953 2954 2955 2956 2957 2958 2959 2960 2961 2962 2963 2964 2965 2966 2967 2968 2969 2970 2971 2972 2973 2974 2975 2976 2977 2978 2979 2980 2981 2982 2983 2984 2985 2986 2987 2988 2989 2990 2991 2992 2993 2994 2995 2996 2997 2998 2999 3000 3001 3002 3003 3004 3005 3006 3007 3008 3009 3010 3011 3012 3013 3014 3015 3016 3017 3018 3019 3020 3021 3022 3023 3024 3025 3026 3027 3028 3029 3030 3031 3032 3033 3034 3035 3036 3037 3038 3039 3040 3041 3042 3043 3044 3045 3046 3047 3048 3049 3050 3051 3052 3053 3054 3055 3056 3057 3058 3059 3060 3061 3062 3063 3064 3065 3066 3067 3068 3069 3070 3071 3072 3073 3074 3075 3076 3077 3078 3079 3080 3081 3082 3083 3084 3085 3086 3087 3088 3089 3090 3091 3092 3093 3094 3095 3096 3097 3098 3099 3100 3101 3102 3103 3104 3105 3106 3107 3108 3109 3110 3111 3112 3113 3114 3115 3116 3117 3118 3119 3120 3121 3122 3123 3124 3125 3126 3127 3128 3129 3130 3131 3132 3133 3134 3135 3136 3137 3138 3139 3140 3141 3142 3143 3144 3145 3146 3147 3148 3149 3150 3151 3152 3153 3154 3155 3156 3157 3158 3159 3160 3161 3162 3163 3164 3165 3166 3167 3168 3169 3170 3171 3172 3173 3174 3175 3176 3177 3178 3179 3180 3181 3182 3183 3184 3185 3186 3187 3188 3189 3190 3191 3192 3193 3194 3195 3196 3197 3198 3199 3200 3201 3202 3203 3204 3205 3206 3207 3208 3209 3210 3211 3212 3213 3214 3215 3216 3217 3218 3219 3220 3221 3222 3223 3224 3225 3226 3227 3228 3229 3230 3231 3232 3233 3234 3235 3236 3237 3238 3239 3240 3241 3242 3243 3244 3245 3246 3247 3248 3249 3250 3251 3252 3253 3254 3255 3256 3257 3258 3259 3260 3261 3262 3263 3264 3265 3266 3267 3268 3269 3270 3271 3272 3273 3274 3275 3276 3277 3278 3279 3280 3281 3282 3283 3284 3285 3286 3287 3288 3289 3290 3291 3292 3293 3294 3295 3296 3297 3298 3299 3300 3301 3302 3303 3304 3305 3306 3307 3308 3309 3310 3311 3312 3313 3314 3315 3316 3317 3318 3319 3320 3321 3322 3323 3324 3325 3326 3327 3328 3329 3330 3331 3332 3333 3334 3335 3336 3337 3338 3339 3340 3341 3342 3343 3344 3345 3346 3347 3348 3349 3350 3351 3352 3353 3354 3355 3356 3357 3358 3359 3360 3361 3362 3363 3364 3365 3366 3367 3368 3369 3370 3371 3372 3373 3374 3375 3376 3377 3378 3379 3380 3381 3382 3383 3384 3385 3386 3387 3388 3389 3390 3391 3392 3393 3394 3395 3396 3397 3398 3399 3400 3401 3402 3403 3404 3405 3406 3407 3408 3409 3410 3411 3412 3413 3414 3415 3416 3417 3418 3419 3420 3421 3422 3423 3424 3425 3426 3427 3428 3429 3430 3431 3432 3433 3434 3435 3436 3437 3438 3439 3440 3441 3442 3443 3444 3445 3446 3447 3448 3449 3450 3451 3452 3453 3454 3455 3456 3457 3458 3459 3460 3461 3462 3463 3464 3465 3466 3467 3468 3469 3470 3471 3472 3473 3474 3475 3476 3477 3478 3479 3480 3481 3482 3483 3484 3485 3486 3487 3488 3489 3490 3491 3492 3493 3494 3495 3496 3497 3498 3499 3500 3501 3502 3503 3504 3505 3506 3507 3508 3509 3510 3511 3512 3513 3514 3515 3516 3517 3518 3519 3520 3521 3522 3523 3524 3525 3526 3527 3528 3529 3530 3531 3532 3533 3534 3535 3536 3537 3538 3539 3540 3541 3542 3543 3544 3545 3546 3547 3548 3549 3550 3551 3552 3553 3554 3555 3556 3557 3558 3559 3560 3561 3562 3563 3564 3565 3566 3567 3568 3569 3570 3571 3572 3573 3574 3575 3576 3577 3578 3579 3580 3581 3582 3583 3584 3585 3586 3587 3588 3589 3590 3591 3592 3593 3594 3595 3596 3597 3598 3599 3600 3601 3602 3603 3604 3605 3606 3607 3608 3609 3610 3611 3612 3613 3614 3615 3616 3617 3618 3619 3620 3621 3622 3623 3624 3625 3626 3627 3628 3629 3630 3631 3632 3633 3634 3635 3636 3637 3638 3639 3640 3641 3642 3643 3644 3645 3646 3647 3648 3649 3650 3651 3652 3653 3654 3655 3656 3657 3658 3659 3660 3661 3662 3663 3664 3665 3666 3667 3668 3669 3670 3671 3672 3673 3674 3675 3676 3677 3678 3679 3680 3681 3682 3683 3684 3685 3686 3687 3688 3689 3690 3691 3692 3693 3694 3695 3696 3697 3698 3699 3700 3701 3702 3703 3704 3705 3706 3707 3708 3709 3710 3711 3712 3713 3714 3715 3716 3717 3718 3719 3720 3721 3722 3723 3724 3725 3726 3727 3728 3729 3730 3731 3732 3733 3734 3735 3736 3737 3738 3739 3740 3741 3742 3743 3744 3745 3746 3747 3748 3749 3750 3751 3752 3753 3754 3755 3756 3757 3758 3759 3760 3761 3762 3763 3764 3765 3766 3767 3768 3769 3770 3771 3772 3773 3774 3775 3776 3777 3778 3779 3780 3781 3782 3783 3784 3785 3786 3787 3788 3789 3790 3791 3792 3793 3794 3795 3796 3797 3798 3799 3800 3801 3802 3803 3804 3805 3806 3807 3808 3809 3810 3811 3812 3813 3814 3815 3816 3817 3818 3819 3820 3821 3822 3823 3824 3825 3826 3827 3828 3829 3830 3831 3832 3833 3834 3835 3836 3837 3838 3839 3840 3841 3842 3843 3844 3845 3846 3847 3848 3849 3850 3851 3852 3853 3854 3855 3856 3857 3858 3859 3860 3861 3862 3863 3864 3865 3866 3867 3868 3869 3870 3871 3872 3873 3874 3875 3876 3877 3878 3879 3880 3881 3882 3883 3884 3885 3886 3887 3888 3889 3890 3891 3892 3893 3894 3895 3896 3897 3898 3899 3900 3901 3902 3903 3904 3905 3906 3907 3908 3909 3910 3911 3912 3913 3914 3915 3916 3917 3918 3919 3920 3921 3922 3923 3924 3925 3926 3927 3928 3929 3930 3931 3932 3933 3934 3935 3936 3937 3938 3939 3940 3941 3942 3943 3944 3945 3946 3947 3948 3949 3950 3951 3952 3953 3954 3955 3956 3957 3958 3959 3960 3961 3962 3963 3964 3965 3966 3967 3968 3969 3970 3971 3972 3973 3974 3975 3976 3977 3978 3979 3980 3981 3982 3983 3984 3985 3986 3987 3988 3989 3990 3991 3992 3993 3994 3995 3996 3997 3998 3999 4000 4001 4002 4003 4004 4005 4006 4007 4008 4009 4010 4011 4012 4013 4014 4015 4016 4017 4018 4019 4020 4021 4022 4023 4024 4025 4026 4027 4028 4029 4030 4031 4032 4033 4034 4035 4036 4037 4038 4039 4040 4041 4042 4043 4044 4045 4046 4047 4048 4049 4050 4051 4052 4053 4054 4055 4056 4057 4058 4059 4060 4061 4062 4063 4064 4065 4066 4067 4068 4069 4070 4071 4072 4073 4074 4075 4076 4077 4078 4079 4080 4081 4082 4083 4084 4085 4086 4087 4088 4089 4090 4091 4092 4093 4094 4095 4096 4097 4098 4099 4100 4101 4102 4103 4104 4105 4106 4107 4108 4109 4110 4111 4112 4113 4114 4115 4116 4117 4118 4119 4120 4121 4122 4123 4124 4125 4126 4127 4128 4129 4130 4131 4132 4133 4134 4135 4136 4137 4138 4139 4140 4141 4142 4143 4144 4145 4146 4147 4148 4149 4150 4151 4152 4153 4154 4155 4156 4157 4158 4159 4160 4161 4162 4163 4164 4165 4166 4167 4168 4169 4170 4171 4172 4173 4174 4175 4176 4177 4178 4179 4180 4181 4182 4183 4184 4185 4186 4187 4188 4189 4190 4191 4192 4193 4194 4195 4196 4197 4198 4199 4200 4201 4202 4203 4204 4205 4206 4207 4208 4209 4210 4211 4212 4213 4214 4215 4216 4217 4218 4219 4220 4221 4222 4223 4224 4225 4226 4227 4228 4229 4230 4231 4232 4233 4234 4235 4236 4237 4238 4239 4240 4241 4242 4243 4244 4245 4246 4247 4248 4249 4250 4251 4252 4253 4254 4255 4256 4257 4258 4259 4260 4261 4262 4263 4264 4265 4266 4267 4268 4269 4270 4271 4272 4273 4274 4275 4276 4277 4278 4279 4280 4281 4282 4283 4284 4285 4286 4287 4288 4289 4290 4291 4292 4293 4294 4295 4296 4297 4298 4299 4300 4301 4302 4303 4304 4305 4306 4307 4308 4309 4310 4311 4312 4313 4314 4315 4316 4317 4318 4319 4320 4321 4322 4323 4324 4325 4326 4327 4328 4329 4330 4331 4332 4333 4334 4335 4336 4337 4338 4339 4340 4341 4342 4343 4344 4345 4346 4347 4348 4349 4350 4351 4352 4353 4354 4355 4356 4357 4358 4359 4360 4361 4362 4363 4364 4365 4366 4367 4368 4369 4370 4371 4372 4373 4374 4375 4376 4377 4378 4379 4380 4381 4382 4383 4384 4385 4386 4387 4388 4389 4390 4391 4392 4393 4394 4395 4396 4397 4398 4399 4400 4401 4402 4403 4404 4405 4406 4407 4408 4409 4410 4411 4412 4413 4414 4415 4416 4417 4418 4419 4420 4421 4422 4423 4424 4425 4426 4427 4428 4429 4430 4431 4432 4433 4434 4435 4436 4437 4438 4439 4440 4441 4442 4443 4444 4445 4446 4447 4448 4449 4450 4451 4452 4453 4454 4455 4456 4457 4458 4459 4460 4461 4462 4463 4464 4465 4466 4467 4468 4469 4470 4471 4472 4473 4474 4475 4476 4477 4478 4479 4480 4481 4482 4483 4484 4485 4486 4487 4488 4489 4490 4491 4492 4493 4494 4495 4496 4497 4498 4499 4500 4501 4502 4503 4504 4505 4506 4507 4508 4509 4510 4511 4512 4513 4514 4515 4516 4517 4518 4519 4520 4521 4522 4523 4524 4525 4526 4527 4528 4529 4530 4531 4532 4533 4534 4535 4536 4537 4538 4539 4540 4541 4542 4543 4544 4545 4546 4547 4548 4549 4550 4551 4552 4553 4554 4555 4556 4557 4558 4559 4560 4561 4562 4563 4564 4565 4566 4567 4568 4569 4570 4571 4572 4573 4574 4575 4576 4577 4578 4579 4580 4581 4582 4583 4584 4585 4586 4587 4588 4589 4590 4591 4592 4593 4594 4595 4596 4597 4598 4599 4600 4601 4602 4603 4604 4605 4606 4607 4608 4609 4610 4611 4612 4613 4614 4615 4616 4617 4618 4619 4620 4621 4622 4623 4624 4625 4626 4627 4628 4629 4630 4631 4632 4633 4634 4635 4636 4637 4638 4639 4640 4641 4642 4643 4644 4645 4646 4647 4648 4649 4650 4651 4652 4653 4654 4655 4656 4657 4658 4659 4660 4661 4662 4663 4664 4665 4666 4667 4668 4669 4670 4671 4672 4673 4674 4675 4676 4677 4678 4679 4680 4681 4682 4683 4684 4685 4686 4687 4688 4689 4690 4691 4692 4693 4694 4695 4696 4697 4698 4699 4700 4701 4702 4703 4704 4705 4706 4707 4708 4709 4710 4711 4712 4713 4714 4715 4716 4717 4718 4719 4720 4721 4722 4723 4724 4725 4726 4727 4728 4729 4730 4731 4732 4733 4734 4735 4736 4737 4738 4739 4740 4741 4742 4743 4744 4745 4746 4747 4748 4749 4750 4751 4752 4753 4754 4755 4756 4757 4758 4759 4760 4761 4762 4763 4764 4765 4766 4767 4768 4769 4770 4771 4772 4773 4774 4775 4776 4777 4778 4779 4780 4781 4782 4783 4784 4785 4786 4787 4788 4789 4790 4791 4792 4793 4794 4795 4796 4797 4798 4799 4800 4801 4802 4803 4804 4805 4806 4807 4808 4809 4810 4811 4812 4813 4814 4815 4816 4817 4818 4819 4820 4821 4822 4823 4824 4825 4826 4827 4828 4829 4830 4831 4832 4833 4834 4835 4836 4837 4838 4839 4840 4841 4842 4843 4844 4845 4846 4847 4848 4849 4850 4851 4852 4853 4854 4855 4856 4857 4858 4859 4860 4861 4862 4863 4864 4865 4866 4867 4868 4869 4870 4871 4872 4873 4874 4875 4876 4877 4878 4879 4880 4881 4882 4883 4884 4885 4886 4887 4888 4889 4890 4891 4892 4893 4894 4895 4896 4897 4898 4899 4900 4901 4902 4903 4904 4905 4906 4907 4908 4909 4910 4911 4912 4913 4914 4915 4916 4917 4918 4919 4920 4921 4922 4923 4924 4925 4926 4927 4928 4929 4930 4931 4932 4933 4934 4935 4936 4937 4938 4939 4940 4941 4942 4943 4944 4945 4946 4947 4948 4949 4950 4951 4952 4953 4954 4955 4956 4957 4958 4959 4960 4961 4962 4963 4964 4965 4966 4967 4968 4969 4970 4971 4972 4973 4974 4975 4976 4977 4978 4979 4980 4981 4982 4983 4984 4985 4986 4987 4988 4989 4990 4991 4992 4993 4994 4995 4996 4997 4998 4999 5000 5001 5002 5003 5004 5005 5006 5007 5008 5009 5010 5011 5012 5013 5014 5015 5016 5017 5018 5019 5020 5021 5022 5023 5024 5025 5026 5027 5028 5029 5030 5031 5032 5033 5034 5035 5036 5037 5038 5039 5040 5041 5042 5043 5044 5045 5046 5047 5048 5049 5050 5051 5052 5053 5054 5055 5056 5057 5058 5059 5060 5061 5062 5063 5064 5065 5066 5067 5068 5069 5070 5071 5072 5073 5074 5075 5076 5077 5078 5079 5080 5081 5082 5083 5084 5085 5086 5087 5088 5089 5090 5091 5092 5093 5094 5095 5096 5097 5098 5099 5100 5101 5102 5103 5104 5105 5106 5107 5108 5109 5110 5111 5112 5113 5114 5115 5116 5117 5118 5119 5120 5121 5122 5123 5124 5125 5126 5127 5128 5129 5130 5131 5132 5133 5134 5135 5136 5137 5138 5139 5140 5141 5142 5143 5144 5145 5146 5147 5148 5149 5150 5151 5152 5153 5154 5155 5156 5157 5158 5159 5160 5161 5162 5163 5164 5165 5166 5167 5168 5169 5170 5171 5172 5173 5174 5175 5176 5177 5178 5179 5180 5181 5182 5183 5184 5185 5186 5187 5188 5189 5190 5191 5192 5193 5194 5195 5196 5197 5198 5199 5200 5201 5202 5203 5204 5205 5206 5207 5208 5209 5210 5211 5212 5213 5214 5215 5216 5217 5218 5219 5220 5221 5222 5223 5224 5225 5226 5227 5228 5229 5230 5231 5232 5233 5234 5235 5236 5237 5238 5239 5240 5241 5242 5243 5244 5245 5246 5247 5248 5249 5250 5251 5252 5253 5254 5255 5256 5257 5258 5259 5260 5261 5262 5263 5264 5265 5266 5267 5268 5269 5270 5271 5272 5273 5274 5275 5276 5277 5278 5279 5280 5281 5282 5283 5284 5285 5286 5287 5288 5289 5290 5291 5292 5293 5294 5295 5296 5297 5298 5299 5300 5301 5302 5303 5304 5305 5306 5307 5308 5309 5310 5311 5312 5313 5314 5315 5316 5317 5318 5319 5320 5321 5322 5323 5324 5325 5326 5327 5328 5329 5330 5331 5332 5333 5334 5335 5336 5337 5338 5339 5340 5341 5342 5343 5344 5345 5346 5347 5348 5349 5350 5351 5352 5353 5354 5355 5356 5357 5358 5359 5360 5361 5362 5363 5364 5365 5366 5367 5368 5369 5370 5371 5372 5373 5374 5375 5376 5377 5378 5379 5380 5381 5382 5383 5384 5385 5386 5387 5388 5389 5390 5391 5392 5393 5394 5395 5396 5397 5398 5399 5400 5401 5402 5403 5404 5405 5406 5407 5408 5409 5410 5411 5412 5413 5414 5415 5416 5417 5418 5419 5420 5421 5422 5423 5424 5425 5426 5427 5428 5429 5430 5431 5432 5433 5434 5435 5436 5437 5438 5439 5440 5441 5442 5443 5444 5445 5446 5447 5448 5449 5450 5451 5452 5453 5454 5455 5456 5457 5458 5459 5460 5461 5462 5463 5464 5465 5466 5467 5468 5469 5470 5471 5472 5473 5474 5475 5476 5477 5478 5479 5480 5481 5482 5483 5484 5485 5486 5487 5488 5489 5490 5491 5492 5493 5494 5495 5496 5497 5498 5499 5500 5501 5502 5503 5504 5505 5506 5507 5508 5509 5510 5511 5512 5513 5514 5515 5516 5517 5518 5519 5520 5521 5522 5523 5524 5525 5526 5527 5528 5529 5530 5531 5532 5533 5534 5535 5536 5537 5538 5539 5540 5541 5542 5543 5544 5545 5546 5547 5548 5549 5550 5551 5552 5553 5554 5555 5556 5557 5558 5559 5560 5561 5562 5563 5564 5565 5566 5567 5568 5569 5570 5571 5572 5573 5574 5575 5576 5577 5578 5579 5580 5581 5582 5583 5584 5585 5586 5587 5588 5589 5590 5591 5592 5593 5594 5595 5596 5597 5598 5599 5600 5601 5602 5603 5604 5605 5606 5607 5608 5609 5610 5611 5612 5613 5614 5615 5616 5617 5618 5619 5620 5621 5622 5623 5624 5625 5626 5627 5628 5629 5630 5631 5632 5633 5634 5635 5636 5637 5638 5639 5640 5641 5642 5643 5644 5645 5646 5647 5648 5649 5650 5651 5652 5653 5654 5655 5656 5657 5658 5659 5660 5661 5662 5663 5664 5665 5666 5667 5668 5669 5670 5671 5672 5673 5674 5675 5676 5677 5678 5679 5680 5681 5682 5683 5684 5685 5686 5687 5688 5689 5690 5691 5692 5693 5694 5695 5696 5697 5698 5699 5700 5701 5702 5703 5704 5705 5706 5707 5708 5709 5710 5711 5712 5713 5714 5715 5716 5717 5718 5719 5720 5721 5722 5723 5724 5725 5726 5727 5728 5729 5730 5731 5732 5733 5734 5735 5736 5737 5738 5739 5740 5741 5742 5743 5744 5745 5746 5747 5748 5749 5750 5751 5752 5753 5754 5755 5756 5757 5758 5759 5760 5761 5762 5763 5764 5765 5766 5767 5768 5769 5770 5771 5772 5773 5774 5775 5776 5777 5778 5779 5780 5781 5782 5783 5784 5785 5786 5787 5788 5789 5790 5791 5792 5793 5794 5795 5796 5797 5798 5799 5800 5801 5802 5803 5804 5805 5806 5807 5808 5809 5810 5811 5812 5813 5814 5815 5816 5817 5818 5819 5820 5821 5822 5823 5824 5825 5826 5827 5828 5829 5830 5831 5832 5833 5834 5835 5836 5837 5838 5839 5840 5841 5842 5843 5844 5845 5846 5847 5848 5849 5850 5851 5852 5853 5854 5855 5856 5857 5858 5859 5860 5861 5862 5863 5864 5865 5866 5867 5868 5869 5870 5871 5872 5873 5874 5875 5876 5877 5878 5879 5880 5881 5882 5883 5884 5885 5886 5887 5888 5889 5890 5891 5892 5893 5894 5895 5896 5897 5898 5899 5900 5901 5902 5903 5904 5905 5906 5907 5908 5909 5910 5911 5912 5913 5914 5915 5916 5917 5918 5919 5920 5921 5922 5923 5924 5925 5926 5927 5928 5929 5930 5931 5932 5933 5934 5935 5936 5937 5938 5939 5940 5941 5942 5943 5944 5945 5946 5947 5948 5949 5950 5951 5952 5953 5954 5955 5956 5957 5958 5959 5960 5961 5962 5963 5964 5965 5966 5967 5968 5969 5970 5971 5972 5973 5974 5975 5976 5977 5978 5979 5980 5981 5982 5983 5984 5985 5986 5987 5988 5989 5990 5991 5992 5993 5994 5995 5996 5997 5998 5999 6000 6001 6002 6003 6004 6005 6006 6007 6008 6009 6010 6011 6012 6013 6014 6015 6016 6017 6018 6019 6020 6021 6022 6023 6024 6025 6026 6027 6028 6029 6030 6031 6032 6033 6034 6035 6036 6037 6038 6039 6040 6041 6042 6043 6044 6045 6046 6047 6048 6049 6050 6051 6052 6053 6054 6055 6056 6057 6058 6059 6060 6061 6062 6063 6064 6065 6066 6067 6068 6069 6070 6071 6072 6073 6074 6075 6076 6077 6078 6079 6080 6081 6082 6083 6084 6085 6086 6087 6088 6089 6090 6091 6092 6093 6094 6095 6096 6097 6098 6099 6100 6101 6102 6103 6104 6105 6106 6107 6108 6109 6110 6111 6112 6113 6114 6115 6116 6117 6118 6119 6120 6121 6122 6123 6124 6125 6126 6127 6128 6129 6130 6131 6132 6133 6134 6135 6136 6137 6138 6139 6140 6141 6142 6143 6144 6145 6146 6147 6148 6149 6150 6151 6152 6153 6154 6155 6156 6157 6158 6159 6160 6161 6162 6163 6164 6165 6166 6167 6168 6169 6170 6171 6172 6173 6174 6175 6176 6177 6178 6179 6180 6181 6182 6183 6184 6185 6186 6187 6188 6189 6190 6191 6192 6193 6194 6195 6196 6197 6198 6199 6200 6201 6202 6203 6204 6205 6206 6207 6208 6209 6210 6211 6212 6213 6214 6215 6216 6217 6218 6219 6220 6221 6222 6223 6224 6225 6226 6227 6228 6229 6230 6231 6232 6233 6234 6235 6236 6237 6238 6239 6240 6241 6242 6243 6244 6245 6246 6247 6248 6249 6250 6251 6252 6253 6254 6255 6256 6257 6258 6259 6260 6261 6262 6263 6264 6265 6266 6267 6268 6269 6270 6271 6272 6273 6274 6275 6276 6277 6278 6279 6280 6281 6282 6283 6284 6285 6286 6287 6288 6289 6290 6291 6292 6293 6294 6295 6296 6297 6298 6299 6300 6301 6302 6303 6304 6305 6306 6307 6308 6309 6310 6311 6312 6313 6314 6315 6316 6317 6318 6319 6320 6321 6322 6323 6324 6325 6326 6327 6328 6329 6330 6331 6332 6333 6334 6335 6336 6337 6338 6339 6340 6341 6342 6343 6344 6345 6346 6347 6348 6349 6350 6351 6352 6353 6354 6355 6356 6357 6358 6359 6360 6361 6362 6363 6364 6365 6366 6367 6368 6369 6370 6371 6372 6373 6374 6375 6376 6377 6378 6379 6380 6381 6382 6383 6384 6385 6386 6387 6388 6389 6390 6391 6392 6393 6394 6395 6396 6397 6398 6399 6400 6401 6402 6403 6404 6405 6406 6407 6408 6409 6410 6411 6412 6413 6414 6415 6416 6417 6418 6419 6420 6421 6422 6423 6424 6425 6426 6427 6428 6429 6430 6431 6432 6433 6434 6435 6436 6437 6438 6439 6440 6441 6442 6443 6444 6445 6446 6447 6448 6449 6450 6451 6452 6453 6454 6455 6456 6457 6458 6459 6460 6461 6462 6463 6464 6465 6466 6467 6468 6469 6470 6471 6472 6473 6474 6475 6476 6477 6478 6479 6480 6481 6482 6483 6484 6485 6486 6487 6488 6489 6490 6491 6492 6493 6494 6495 6496 6497 6498 6499 6500 6501 6502 6503 6504 6505 6506 6507 6508 6509 6510 6511 6512 6513 6514 6515 6516 6517 6518 6519 6520 6521 6522 6523 6524 6525 6526 6527 6528 6529 6530 6531 6532 6533 6534 6535 6536 6537 6538 6539 6540 6541 6542 6543 6544 6545 6546 6547 6548 6549 6550 6551 6552 6553 6554 6555 6556 6557 6558 6559 6560 6561 6562 6563 6564 6565 6566 6567 6568 6569 6570 6571 6572 6573 6574 6575 6576 6577 6578 6579 6580 6581 6582 6583 6584 6585 6586 6587 6588 6589 6590 6591 6592 6593 6594 6595 6596 6597 6598 6599 6600 6601 6602 6603 6604 6605 6606 6607 6608 6609 6610 6611 6612 6613 6614 6615 6616 6617 6618 6619 6620 6621 6622 6623 6624 6625 6626 6627 6628 6629 6630 6631 6632 6633 6634 6635 6636 6637 6638 6639 6640 6641 6642 6643 6644 6645 6646 6647 6648 6649 6650 6651 6652 6653 6654 6655 6656 6657 6658 6659 6660 6661 6662 6663 6664 6665 6666 6667 6668 6669 6670 6671 6672 6673 6674 6675 6676 6677 6678 6679 6680 6681 6682 6683 6684 6685 6686 6687 6688 6689 6690 6691 6692 6693 6694 6695 6696 6697 6698 6699 6700 6701 6702 6703 6704 6705 6706 6707 6708 6709 6710 6711 6712 6713 6714 6715 6716 6717 6718 6719 6720 6721 6722 6723 6724 6725 6726 6727 6728 6729 6730 6731 6732 6733 6734 6735 6736 6737 6738 6739 6740 6741 6742 6743 6744 6745 6746 6747 6748 6749 6750 6751 6752 6753 6754 6755 6756 6757 6758 6759 6760 6761 6762 6763 6764 6765 6766 6767 6768 6769 6770 6771 6772 6773 6774 6775 6776 6777 6778 6779 6780 6781 6782 6783 6784 6785 6786 6787 6788 6789 6790 6791 6792 6793 6794 6795 6796 6797 6798 6799 6800 6801 6802 6803 6804 6805 6806 6807 6808 6809 6810 6811 6812 6813 6814 6815 6816 6817 6818 6819 6820 6821 6822 6823 6824 6825 6826 6827 6828 6829 6830 6831 6832 6833 6834 6835 6836 6837 6838 6839 6840 6841 6842 6843 6844 6845 6846 6847 6848 6849 6850 6851 6852 6853 6854 6855 6856 6857 6858 6859 6860 6861 6862 6863 6864 6865 6866 6867 6868 6869 6870 6871 6872 6873 6874 6875 6876 6877 6878 6879 6880 6881 6882 6883 6884 6885 6886 6887 6888 6889 6890 6891 6892 6893 6894 6895 6896 6897 6898 6899 6900 6901 6902 6903 6904 6905 6906 6907 6908 6909 6910 6911 6912 6913 6914 6915 6916 6917 6918 6919 6920 6921 6922 6923 6924 6925 6926 6927 6928 6929 6930 6931 6932 6933 6934 6935 6936 6937 6938 6939 6940 6941 6942 6943 6944 6945 6946 6947 6948 6949 6950 6951 6952 6953 6954 6955 6956 6957 6958 6959 6960 6961 6962 6963 6964 6965 6966 6967 6968 6969 6970 6971 6972 6973 6974 6975 6976 6977 6978 6979 6980 6981 6982 6983 6984 6985 6986 6987 6988 6989 6990 6991 6992 6993 6994 6995 6996 6997 6998 6999 7000 7001 7002 7003 7004 7005 7006 7007 7008 7009 7010 7011 7012 7013 7014 7015 7016 7017 7018 7019 7020 7021 7022 7023 7024 7025 7026 7027 7028 7029 7030 7031 7032 7033 7034 7035 7036 7037 7038 7039 7040 7041 7042 7043 7044 7045 7046 7047 7048 7049 7050 7051 7052 7053 7054 7055 7056 7057 7058 7059 7060 7061 7062 7063 7064 7065 7066 7067 7068 7069 7070 7071 7072 7073 7074 7075 7076 7077 7078 7079 7080 7081 7082 7083 7084 7085 7086 7087 7088 7089 7090 7091 7092 7093 7094 7095 7096 7097 7098 7099 7100 7101 7102 7103 7104 7105 7106 7107 7108 7109 7110 7111 7112 7113 7114 7115 7116 7117 7118 7119 7120 7121 7122 7123 7124 7125 7126 7127 7128 7129 7130 7131 7132 7133 7134 7135 7136 7137 7138 7139 7140 7141 7142 7143 7144 7145 7146 7147 7148 7149 7150 7151 7152 7153 7154 7155 7156 7157 7158 7159 7160 7161 7162 7163 7164 7165 7166 7167 7168 7169 7170 7171 7172 7173 7174 7175 7176 7177 7178 7179 7180 7181 7182 7183 7184 7185 7186 7187 7188 7189 7190 7191 7192 7193 7194 7195 7196 7197 7198 7199 7200 7201 7202 7203 7204 7205 7206 7207 7208 7209 7210 7211 7212 7213 7214 7215 7216 7217 7218 7219 7220 7221 7222 7223 7224 7225 7226 7227 7228 7229 7230 7231 7232 7233 7234 7235 7236 7237 7238 7239 7240 7241 7242 7243 7244 7245 7246 7247 7248 7249 7250 7251 7252 7253 7254 7255 7256 7257 7258 7259 7260 7261 7262 7263 7264 7265 7266 7267 7268 7269 7270 7271 7272 7273 7274 7275 7276 7277 7278 7279 7280 7281 7282 7283 7284 7285 7286 7287 7288 7289 7290 7291 7292 7293 7294 7295 7296 7297 7298 7299 7300 7301 7302 7303 7304 7305 7306 7307 7308 7309 7310 7311 7312 7313 7314 7315 7316 7317 7318 7319 7320 7321 7322 7323 7324 7325 7326 7327 7328 7329 7330 7331 7332 7333 7334 7335 7336 7337 7338 7339 7340 7341 7342 7343 7344 7345 7346 7347 7348 7349 7350 7351 7352 7353 7354 7355 7356 7357 7358 7359 7360 7361 7362 7363 7364 7365 7366 7367 7368 7369 7370 7371 7372 7373 7374 7375 7376 7377 7378 7379 7380 7381 7382 7383 7384 7385 7386 7387 7388 7389 7390 7391 7392 7393 7394 7395 7396 7397 7398 7399 7400 7401 7402 7403 7404 7405 7406 7407 7408 7409 7410 7411 7412 7413 7414 7415 7416 7417 7418 7419 7420 7421 7422 7423 7424 7425 7426 7427 7428 7429 7430 7431 7432 7433 7434 7435 7436 7437 7438 7439 7440 7441 7442 7443 7444 7445 7446 7447 7448 7449 7450 7451 7452 7453 7454 7455 7456 7457 7458 7459 7460 7461 7462 7463 7464 7465 7466 7467 7468 7469 7470 7471 7472 7473 7474 7475 7476 7477 7478 7479 7480 7481 7482 7483 7484 7485 7486 7487 7488 7489 7490 7491 7492 7493 7494 7495 7496 7497 7498 7499 7500 7501 7502 7503 7504 7505 7506 7507 7508 7509 7510 7511 7512 7513 7514 7515 7516 7517 7518 7519 7520 7521 7522 7523 7524 7525 7526 7527 7528 7529 7530 7531 7532 7533 7534 7535 7536 7537 7538 7539 7540 7541 7542 7543 7544 7545 7546 7547 7548 7549 7550 7551 7552 7553 7554 7555 7556 7557 7558 7559 7560 7561 7562 7563 7564 7565 7566 7567 7568 7569 7570 7571 7572 7573 7574 7575 7576 7577 7578 7579 7580 7581 7582 7583 7584 7585 7586 7587 7588 7589 7590 7591 7592 7593 7594 7595 7596 7597 7598 7599 7600 7601 7602 7603 7604 7605 7606 7607 7608 7609 7610 7611 7612 7613 7614 7615 7616 7617 7618 7619 7620 7621 7622 7623 7624 7625 7626 7627 7628 7629 7630 7631 7632 7633 7634 7635 7636 7637 7638 7639 7640 7641 7642 7643 7644 7645 7646 7647 7648 7649 7650 7651 7652 7653 7654 7655 7656 7657 7658 7659 7660 7661 7662 7663 7664 7665 7666 7667 7668 7669 7670 7671 7672 7673 7674 7675 7676 7677 7678 7679 7680 7681 7682 7683 7684 7685 7686 7687 7688 7689 7690 7691 7692 7693 7694 7695 7696 7697 7698 7699 7700 7701 7702 7703 7704 7705 7706 7707 7708 7709 7710 7711 7712 7713 7714 7715 7716 7717 7718 7719 7720 7721 7722 7723 7724 7725 7726 7727 7728 7729 7730 7731 7732 7733 7734 7735 7736 7737 7738 7739 7740 7741 7742 7743 7744 7745 7746 7747 7748 7749 7750 7751 7752 7753 7754 7755 7756 7757 7758 7759 7760 7761 7762 7763 7764 7765 7766 7767 7768 7769 7770 7771 7772 7773 7774 7775 7776 7777 7778 7779 7780 7781 7782 7783 7784 7785 7786 7787 7788 7789 7790 7791 7792 7793 7794 7795 7796 7797 7798 7799 7800 7801 7802 7803 7804 7805 7806 7807 7808 7809 7810 7811 7812 7813 7814 7815 7816 7817 7818 7819 7820 7821 7822 7823 7824 7825 7826 7827 7828 7829 7830 7831 7832 7833 7834 7835 7836 7837 7838 7839 7840 7841 7842 7843 7844 7845 7846 7847 7848 7849 7850 7851 7852 7853 7854 7855 7856 7857 7858 7859 7860 7861 7862 7863 7864 7865 7866 7867 7868 7869 7870 7871 7872 7873 7874 7875 7876 7877 7878 7879 7880 7881 7882 7883 7884 7885 7886 7887 7888 7889 7890 7891 7892 7893 7894 7895 7896 7897 7898 7899 7900 7901 7902 7903 7904 7905 7906 7907 7908 7909 7910 7911 7912 7913 7914 7915 7916 7917 7918 7919 7920 7921 7922 7923 7924 7925 7926 7927 7928 7929 7930 7931 7932 7933 7934 7935 7936 7937 7938 7939 7940 7941 7942 7943 7944 7945 7946 7947 7948 7949 7950 7951 7952 7953 7954 7955 7956 7957 7958 7959 7960 7961 7962 7963 7964 7965 7966 7967 7968 7969 7970 7971 7972 7973 7974 7975 7976 7977 7978 7979 7980 7981 7982 7983 7984 7985 7986 7987 7988 7989 7990 7991 7992 7993 7994 7995 7996 7997 7998 7999 8000 8001 8002 8003 8004 8005 8006 8007 8008 8009 8010 8011 8012 8013 8014 8015 8016 8017 8018 8019 8020 8021 8022 8023 8024 8025 8026 8027 8028 8029 8030 8031 8032 8033 8034 8035 8036 8037 8038 8039 8040 8041 8042 8043 8044 8045 8046 8047 8048 8049 8050 8051 8052 8053 8054 8055 8056 8057 8058 8059 8060 8061 8062 8063 8064 8065 8066 8067 8068 8069 8070 8071 8072 8073 8074 8075 8076 8077 8078 8079 8080 8081 8082 8083 8084 8085 8086 8087 8088 8089 8090 8091 8092 8093 8094 8095 8096 8097 8098 8099 8100 8101 8102 8103 8104 8105 8106 8107 8108 8109 8110 8111 8112 8113 8114 8115 8116 8117 8118 8119 8120 8121 8122 8123 8124 8125 8126 8127 8128 8129 8130 8131 8132 8133 8134 8135 8136 8137 8138 8139 8140 8141 8142 8143 8144 8145 8146 8147 8148 8149 8150 8151 8152 8153 8154 8155 8156 8157 8158 8159 8160 8161 8162 8163 8164 8165 8166 8167 8168 8169 8170 8171 8172 8173 8174 8175 8176 8177 8178 8179 8180 8181 8182 8183 8184 8185 8186 8187 8188 8189 8190 8191 8192 8193 8194 8195 8196 8197 8198 8199 8200 8201 8202 8203 8204 8205 8206 8207 8208 8209 8210 8211 8212 8213 8214 8215 8216 8217 8218 8219 8220 8221 8222 8223 8224 8225 8226 8227 8228 8229 8230 8231 8232 8233 8234 8235 8236 8237 8238 8239 8240 8241 8242 8243 8244 8245 8246 8247 8248 8249 8250 8251 8252 8253 8254 8255 8256 8257 8258 8259 8260 8261 8262 8263 8264 8265 8266 8267 8268 8269 8270 8271 8272 8273 8274 8275 8276 8277 8278 8279 8280 8281 8282 8283 8284 8285 8286 8287 8288 8289 8290 8291 8292 8293 8294 8295 8296 8297 8298 8299 8300 8301 8302 8303 8304 8305 8306 8307 8308 8309 8310 8311 8312 8313 8314 8315 8316 8317 8318 8319 8320 8321 8322 8323 8324 8325 8326 8327 8328 8329 8330 8331 8332 8333 8334 8335 8336 8337 8338 8339 8340 8341 8342 8343 8344 8345 8346 8347 8348 8349 8350 8351 8352 8353 8354 8355 8356 8357 8358 8359 8360 8361 8362 8363 8364 8365 8366 8367 8368 8369 8370 8371 8372 8373 8374 8375 8376 8377 8378 8379 8380 8381 8382 8383 8384 8385 8386 8387 8388 8389 8390 8391 8392 8393 8394 8395 8396 8397 8398 8399 8400 8401 8402 8403 8404 8405 8406 8407 8408 8409 8410 8411 8412 8413 8414 8415 8416 8417 8418 8419 8420 8421 8422 8423 8424 8425 8426 8427 8428 8429 8430 8431 8432 8433 8434 8435 8436 8437 8438 8439 8440 8441 8442 8443 8444 8445 8446 8447 8448 8449 8450 8451 8452 8453 8454 8455 8456 8457 8458 8459 8460 8461 8462 8463 8464 8465 8466 8467 8468 8469 8470 8471 8472 8473 8474 8475 8476 8477 8478 8479 8480 8481 8482 8483 8484 8485 8486 8487 8488 8489 8490 8491 8492 8493 8494 8495 8496 8497 8498 8499 8500 8501 8502 8503 8504 8505 8506 8507 8508 8509 8510 8511 8512 8513 8514 8515 8516 8517 8518 8519 8520 8521 8522 8523 8524 8525 8526 8527 8528 8529 8530 8531 8532 8533 8534 8535 8536 8537 8538 8539 8540 8541 8542 8543 8544 8545 8546 8547 8548 8549 8550 8551 8552 8553 8554 8555 8556 8557 8558 8559 8560 8561 8562 8563 8564 8565 8566 8567 8568 8569 8570 8571 8572 8573 8574 8575 8576 8577 8578 8579 8580 8581 8582 8583 8584 8585 8586 8587 8588 8589 8590 8591 8592 8593 8594 8595 8596 8597 8598 8599 8600 8601 8602 8603 8604 8605 8606 8607 8608 8609 8610 8611 8612 8613 8614 8615 8616 8617 8618 8619 8620 8621 8622 8623 8624 8625 8626 8627 8628 8629 8630 8631 8632 8633 8634 8635 8636 8637 8638 8639 8640 8641 8642 8643 8644 8645 8646 8647 8648 8649 8650 8651 8652 8653 8654 8655 8656 8657 8658 8659 8660 8661 8662 8663 8664 8665 8666 8667 8668 8669 8670 8671 8672 8673 8674 8675 8676 8677 8678 8679 8680 8681 8682 8683 8684 8685 8686 8687 8688 8689 8690 8691 8692 8693 8694 8695 8696 8697 8698 8699 8700 8701 8702 8703 8704 8705 8706 8707 8708 8709 8710 8711 8712 8713 8714 8715 8716 8717 8718 8719 8720 8721 8722 8723 8724 8725 8726 8727 8728 8729 8730 8731 8732 8733 8734 8735 8736 8737 8738 8739 8740 8741 8742 8743 8744 8745 8746 8747 8748 8749 8750 8751 8752 8753 8754 8755 8756 8757 8758 8759 8760 8761 8762 8763 8764 8765 8766 8767 8768 8769 8770 8771 8772 8773 8774 8775 8776 8777 8778 8779 8780 8781 8782 8783 8784 8785 8786 8787 8788 8789 8790 8791 8792 8793 8794 8795 8796 8797 8798 8799 8800 8801 8802 8803 8804 8805 8806 8807 8808 8809 8810 8811 8812 8813 8814 8815 8816 8817 8818 8819 8820 8821 8822 8823 8824 8825 8826 8827 8828 8829 8830 8831 8832 8833 8834 8835 8836 8837 8838 8839 8840 8841 8842 8843 8844 8845 8846 8847 8848 8849 8850 8851 8852 8853 8854 8855 8856 8857 8858 8859 8860 8861 8862 8863 8864 8865 8866 8867 8868 8869 8870 8871 8872 8873 8874 8875 8876 8877 8878 8879 8880 8881 8882 8883 8884 8885 8886 8887 8888 8889 8890 8891 8892 8893 8894 8895 8896 8897 8898 8899 8900 8901 8902 8903 8904 8905 8906 8907 8908 8909 8910 8911 8912 8913 8914 8915 8916 8917 8918 8919 8920 8921 8922 8923 8924 8925 8926 8927 8928 8929 8930 8931 8932 8933 8934 8935 8936 8937 8938 8939 8940 8941 8942 8943 8944 8945 8946 8947 8948 8949 8950 8951 8952 8953 8954 8955 8956 8957 8958 8959 8960 8961 8962 8963 8964 8965 8966 8967 8968 8969 8970 8971 8972 8973 8974 8975 8976 8977 8978 8979 8980 8981 8982 8983 8984 8985 8986 8987 8988 8989 8990 8991 8992 8993 8994 8995 8996 8997 8998 8999 9000 9001 9002 9003 9004 9005 9006 9007 9008 9009 9010 9011 9012 9013 9014 9015 9016 9017 9018 9019 9020 9021 9022 9023 9024 9025 9026 9027 9028 9029 9030 9031 9032 9033 9034 9035 9036 9037 9038 9039 9040 9041 9042 9043 9044 9045 9046 9047 9048 9049 9050 9051 9052 9053 9054 9055 9056 9057 9058 9059 9060 9061 9062 9063 9064 9065 9066 9067 9068 9069 9070 9071 9072 9073 9074 9075 9076 9077 9078 9079 9080 9081 9082 9083 9084 9085 9086 9087 9088 9089 9090 9091 9092 9093 9094 9095 9096 9097 9098 9099 9100 9101 9102 9103 9104 9105 9106 9107 9108 9109 9110 9111 9112 9113 9114 9115 9116 9117 9118 9119 9120 9121 9122 9123 9124 9125 9126 9127 9128 9129 9130 9131 9132 9133 9134 9135 9136 9137 9138 9139 9140 9141 9142 9143 9144 9145 9146 9147 9148 9149 9150 9151 9152 9153 9154 9155 9156 9157 9158 9159 9160 9161 9162 9163 9164 9165 9166 9167 9168 9169 9170 9171 9172 9173 9174 9175 9176 9177 9178 9179 9180 9181 9182 9183 9184 9185 9186 9187 9188 9189 9190 9191 9192 9193 9194 9195 9196 9197 9198 9199 9200 9201 9202 9203 9204 9205 9206 9207 9208 9209 9210 9211 9212 9213 9214 9215 9216 9217 9218 9219 9220 9221 9222 9223 9224 9225 9226 9227 9228 9229 9230 9231 9232 9233 9234 9235 9236 9237 9238 9239 9240 9241 9242 9243 9244 9245 9246 9247 9248 9249 9250 9251 9252 9253 9254 9255 9256 9257 9258 9259 9260 9261 9262 9263 9264 9265 9266 9267 9268 9269 9270 9271 9272 9273 9274 9275 9276 9277 9278 9279 9280 9281 9282 9283 9284 9285 9286 9287 9288 9289 9290 9291 9292 9293 9294 9295 9296 9297 9298 9299 9300 9301 9302 9303 9304 9305 9306 9307 9308 9309 9310 9311 9312 9313 9314 9315 9316 9317 9318 9319 9320 9321 9322 9323 9324 9325 9326 9327 9328 9329 9330 9331 9332 9333 9334 9335 9336 9337 9338 9339 9340 9341 9342 9343 9344 9345 9346 9347 9348 9349 9350 9351 9352 9353 9354 9355 9356 9357 9358 9359 9360 9361 9362 9363 9364 9365 9366 9367 9368 9369 9370 9371 9372 9373 9374 9375 9376 9377 9378 9379 9380 9381 9382 9383 9384 9385 9386 9387 9388 9389 9390 9391 9392 9393 9394 9395 9396 9397 9398 9399 9400 9401 9402 9403 9404 9405 9406 9407 9408 9409 9410 9411 9412 9413 9414 9415 9416 9417 9418 9419 9420 9421 9422 9423 9424 9425 9426 9427 9428 9429 9430 9431 9432 9433 9434 9435 9436 9437 9438 9439 9440 9441 9442 9443 9444 9445 9446 9447 9448 9449 9450 9451 9452 9453 9454 9455 9456 9457 9458 9459 9460 9461 9462 9463 9464 9465 9466 9467 9468 9469 9470 9471 9472 9473 9474 9475 9476 9477 9478 9479 9480 9481 9482 9483 9484 9485 9486 9487 9488 9489 9490 9491 9492 9493 9494 9495 9496 9497 9498 9499 9500 9501 9502 9503 9504 9505 9506 9507 9508 9509 9510 9511 9512 9513 9514 9515 9516 9517 9518 9519 9520 9521 9522 9523 9524 9525 9526 9527 9528 9529 9530 9531 9532 9533 9534 9535 9536 9537 9538 9539 9540 9541 9542 9543 9544 9545 9546 9547 9548 9549 9550 9551 9552 9553 9554 9555 9556 9557 9558 9559 9560 9561 9562 9563 9564 9565 9566 9567 9568 9569 9570 9571 9572 9573 9574 9575 9576 9577 9578 9579 9580 9581 9582 9583 9584 9585 9586 9587 9588 9589 9590 9591 9592 9593 9594 9595 9596 9597 9598 9599 9600 9601 9602 9603 9604 9605 9606 9607 9608 9609 9610 9611 9612 9613 9614 9615 9616 9617 9618 9619 9620 9621 9622 9623 9624 9625 9626 9627 9628 9629 9630 9631 9632 9633 9634 9635 9636 9637 9638 9639 9640 9641 9642 9643 9644 9645 9646 9647 9648 9649 9650 9651 9652 9653 9654 9655 9656 9657 9658 9659 9660 9661 9662 9663 9664 9665 9666 9667 9668 9669 9670 9671 9672 9673 9674 9675 9676 9677 9678 9679 9680 9681 9682 9683 9684 9685 9686 9687 9688 9689 9690 9691 9692 9693 9694 9695 9696 9697 9698 9699 9700 9701 9702 9703 9704 9705 9706 9707 9708 9709 9710 9711 9712 9713 9714 9715 9716 9717 9718 9719 9720 9721 9722 9723 9724 9725 9726 9727 9728 9729 9730 9731 9732 9733 9734 9735 9736 9737 9738 9739 9740 9741 9742 9743 9744 9745 9746 9747 9748 9749 9750 9751 9752 9753 9754 9755 9756 9757 9758 9759 9760 9761 9762 9763 9764 9765 9766 9767 9768 9769 9770 9771 9772 9773 9774 9775 9776 9777 9778 9779 9780 9781 9782 9783 9784 9785 9786 9787 9788 9789 9790 9791 9792 9793 9794 9795 9796 9797 9798 9799 9800 9801 9802 9803 9804 9805 9806 9807 9808 9809 9810 9811 9812 9813 9814 9815 9816 9817 9818 9819 9820 9821 9822 9823 9824 9825 9826 9827 9828 9829 9830 9831 9832 9833 9834 9835 9836 9837 9838 9839 9840 9841 9842 9843 9844 9845 9846 9847 9848 9849 9850 9851 9852 9853 9854 9855 9856 9857 9858 9859 9860 9861 9862 9863 9864 9865 9866 9867 9868 9869 9870 9871 9872 9873 9874 9875 9876 9877 9878 9879 9880 9881 9882 9883 9884 9885 9886 9887 9888 9889 9890 9891 9892 9893 9894 9895 9896 9897 9898 9899 9900 9901 9902 9903 9904 9905 9906 9907 9908 9909 9910 9911 9912 9913 9914 9915 9916 9917 9918 9919 9920 9921 9922 9923 9924 9925 9926 9927 9928 9929 9930 9931 9932 9933 9934 9935 9936 9937 9938 9939 9940 9941 9942 9943 9944 9945 9946 9947 9948 9949 9950 9951 9952 9953 9954 9955 9956 9957 9958 9959 9960 9961 9962 9963 9964 9965 9966 9967 9968 9969 9970 9971 9972 9973 9974 9975 9976 9977 9978 9979 9980 9981 9982 9983 9984 9985 9986 9987 9988 9989 9990 9991 9992 9993 9994 9995 9996 9997 9998 9999 10000 10001 10002 10003 10004 10005 10006 10007 10008 10009 10010 10011 10012 10013 10014 10015 10016 10017 10018 10019 10020 10021 10022 10023 10024 10025 10026 10027 10028 10029 10030 10031 10032 10033 10034 10035 10036 10037 10038 10039 10040 10041 10042 10043 10044 10045 10046 10047 10048 10049 10050 10051 10052 10053 10054 10055 10056 10057 10058 10059 10060 10061 10062 10063 10064 10065 10066 10067 10068 10069 10070 10071 10072 10073 10074 10075 10076 10077 10078 10079 10080 10081 10082 10083 10084 10085 10086 10087 10088 10089 10090 10091 10092 10093 10094 10095 10096 10097 10098 10099 10100 10101 10102 10103 10104 10105 10106 10107 10108 10109 10110 10111 10112 10113 10114 10115 10116 10117 10118 10119 10120 10121 10122 10123 10124 10125 10126 10127 10128 10129 10130 10131 10132 10133 10134 10135 10136 10137 10138 10139 10140 10141 10142 10143 10144 10145 10146 10147 10148 10149 10150 10151 10152 10153 10154 10155 10156 10157 10158 10159 10160 10161 10162 10163 10164 10165 10166 10167 10168 10169 10170 10171 10172 10173 10174 10175 10176 10177 10178 10179 10180 10181 10182 10183 10184 10185 10186 10187 10188 10189 10190 10191 10192 10193 10194 10195 10196 10197 10198 10199 10200 10201 10202 10203 10204 10205 10206 10207 10208 10209 10210 10211 10212 10213 10214 10215 10216 10217 10218 10219 10220 10221 10222 10223 10224 10225 10226 10227 10228 10229 10230 10231 10232 10233 10234 10235 10236 10237 10238 10239 10240 10241 10242 10243 10244 10245 10246 10247 10248 10249 10250 10251 10252 10253 10254 10255 10256 10257 10258 10259 10260 10261 10262 10263 10264 10265 10266 10267 10268 10269 10270 10271 10272 10273 10274 10275 10276 10277 10278 10279 10280 10281 10282 10283 10284 10285 10286 10287 10288 10289 10290 10291 10292 10293 10294 10295 10296 10297 10298 10299 10300 10301 10302 10303 10304 10305 10306 10307 10308 10309 10310 10311 10312 10313 10314 10315 10316 10317 10318 10319 10320 10321 10322 10323 10324 10325 10326 10327 10328 10329 10330 10331 10332 10333 10334 10335 10336 10337 10338 10339 10340 10341 10342 10343 10344 10345 10346 10347 10348 10349 10350 10351 10352 10353 10354 10355 10356 10357 10358 10359 10360 10361 10362 10363 10364 10365 10366 10367 10368 10369 10370 10371 10372 10373 10374 10375 10376 10377 10378 10379 10380 10381 10382 10383 10384 10385 10386 10387 10388 10389 10390 10391 10392 10393 10394 10395 10396 10397 10398 10399 10400 10401 10402 10403 10404 10405 10406 10407 10408 10409 10410 10411 10412 10413 10414 10415 10416 10417 10418 10419 10420 10421 10422 10423 10424 10425 10426 10427 10428 10429 10430 10431 10432 10433 10434 10435 10436 10437 10438 10439 10440 10441 10442 10443 10444 10445 10446 10447 10448 10449 10450 10451 10452 10453 10454 10455 10456 10457 10458 10459 10460 10461 10462 10463 10464 10465 10466 10467 10468 10469 10470 10471 10472 10473 10474 10475 10476 10477 10478 10479 10480 10481 10482 10483 10484 10485 10486 10487 10488 10489 10490 10491 10492 10493 10494 10495 10496 10497 10498 10499 10500 10501 10502 10503 10504 10505 10506 10507 10508 10509 10510 10511 10512 10513 10514 10515 10516 10517 10518 10519 10520 10521 10522 10523 10524 10525 10526 10527 10528 10529 10530 10531 10532 10533 10534 10535 10536 10537 10538 10539 10540 10541 10542 10543 10544 10545 10546 10547 10548 10549 10550 10551 10552 10553 10554 10555 10556 10557 10558 10559 10560 10561 10562 10563 10564 10565 10566 10567 10568 10569 10570 10571 10572 10573 10574 10575 10576 10577 10578 10579 10580 10581 10582 10583 10584 10585 10586 10587 10588 10589 10590 10591 10592 10593 10594 10595 10596 10597 10598 10599 10600 10601 10602 10603 10604 10605 10606 10607 10608 10609 10610 10611 10612 10613 10614 10615 10616 10617 10618 10619 10620 10621 10622 10623 10624 10625 10626 10627 10628 10629 10630 10631 10632 10633 10634 10635 10636 10637 10638 10639 10640 10641 10642 10643 10644 10645 10646 10647 10648 10649 10650 10651 10652 10653 10654 10655 10656 10657 10658 10659 10660 10661 10662 10663 10664 10665 10666 10667 10668 10669 10670 10671 10672 10673 10674 10675 10676 10677 10678 10679 10680 10681 10682 10683 10684 10685 10686 10687 10688 10689 10690 10691 10692 10693 10694 10695 10696 10697 10698 10699 10700 10701 10702 10703 10704 10705 10706 10707 10708 10709 10710 10711 10712 10713 10714 10715 10716 10717 10718 10719 10720 10721 10722 10723 10724 10725 10726 10727 10728 10729 10730 10731 10732 10733 10734 10735 10736 10737 10738 10739 10740 10741 10742 10743 10744 10745 10746 10747 10748 10749 10750 10751 10752 10753 10754 10755 10756 10757 10758 10759 10760 10761 10762 10763 10764 10765 10766 10767 10768 10769 10770 10771 10772 10773 10774 10775 10776 10777 10778 10779 10780 10781 10782 10783 10784 10785 10786 10787 10788 10789 10790 10791 10792 10793 10794 10795 10796 10797 10798 10799 10800 10801 10802 10803 10804 10805 10806 10807 10808 10809 10810 10811 10812 10813 10814 10815 10816 10817 10818 10819 10820 10821 10822 10823 10824 10825 10826 10827 10828 10829 10830 10831 10832 10833 10834 10835 10836 10837 10838 10839 10840 10841 10842 10843 10844 10845 10846 10847 10848 10849 10850 10851 10852 10853 10854 10855 10856 10857 10858 10859 10860 10861 10862 10863 10864 10865 10866 10867 10868 10869 10870 10871 10872 10873 10874 10875 10876 10877 10878 10879 10880 10881 10882 10883 10884 10885 10886 10887 10888 10889 10890 10891 10892 10893 10894 10895 10896 10897 10898 10899 10900 10901 10902 10903 10904 10905 10906 10907 10908 10909 10910 10911 10912 10913 10914 10915 10916 10917 10918 10919 10920 10921 10922 10923 10924 10925 10926 10927 10928 10929 10930 10931 10932 10933 10934 10935 10936 10937 10938 10939 10940 10941 10942 10943 10944 10945 10946 10947 10948 10949 10950 10951 10952 10953 10954 10955 10956 10957 10958 10959 10960 10961 10962 10963 10964 10965 10966 10967 10968 10969 10970 10971 10972 10973 10974 10975 10976 10977 10978 10979 10980 10981 10982 10983 10984 10985 10986 10987 10988 10989 10990 10991 10992 10993 10994 10995 10996 10997 10998 10999 11000 11001 11002 11003 11004 11005 11006 11007 11008 11009 11010 11011 11012 11013 11014 11015 11016 11017 11018 11019 11020 11021 11022 11023 11024 11025 11026 11027 11028 11029 11030 11031 11032 11033 11034 11035 11036 11037 11038 11039 11040 11041 11042 11043 11044 11045 11046 11047 11048 11049 11050 11051 11052 11053 11054 11055 11056 11057 11058 11059 11060 11061 11062 11063 11064 11065 11066 11067 11068 11069 11070 11071 11072 11073 11074 11075 11076 11077 11078 11079 11080 11081 11082 11083 11084 11085 11086 11087 11088 11089 11090 11091 11092 11093 11094 11095 11096 11097 11098 11099 11100 11101 11102 11103 11104 11105 11106 11107 11108 11109 11110 11111 11112 11113 11114 11115 11116 11117 11118 11119 11120 11121 11122 11123 11124 11125 11126 11127 11128 11129 11130 11131 11132 11133 11134 11135 11136 11137 11138 11139 11140 11141 11142 11143 11144 11145 11146 11147 11148 11149 11150 11151 11152 11153 11154 11155 11156 11157 11158 11159 11160 11161 11162 11163 11164 11165 11166 11167 11168 11169 11170 11171 11172 11173 11174 11175 11176 11177 11178 11179 11180 11181 11182 11183 11184 11185 11186 11187 11188 11189 11190 11191 11192 11193 11194 11195 11196 11197 11198 11199 11200 11201 11202 11203 11204 11205 11206 11207 11208 11209 11210 11211 11212 11213 11214 11215 11216 11217 11218 11219 11220 11221 11222 11223 11224 11225 11226 11227 11228 11229 11230 11231 11232 11233 11234 11235 11236 11237 11238 11239 11240 11241 11242 11243 11244 11245 11246 11247 11248 11249 11250 11251 11252 11253 11254 11255 11256 11257 11258 11259 11260 11261 11262 11263 11264 11265 11266 11267 11268 11269 11270 11271 11272 11273 11274 11275 11276 11277 11278 11279 11280 11281 11282 11283 11284 11285 11286 11287 11288 11289 11290 11291 11292 11293 11294 11295 11296 11297 11298 11299 11300 11301 11302 11303 11304 11305 11306 11307 11308 11309 11310 11311 11312 11313 11314 11315 11316 11317 11318 11319 11320 11321 11322 11323 11324 11325 11326 11327 11328 11329 11330 11331 11332 11333 11334 11335 11336 11337 11338 11339 11340 11341 11342 11343 11344 11345 11346 11347 11348 11349 11350 11351 11352 11353 11354 11355 11356 11357 11358 11359 11360 11361 11362 11363 11364 11365 11366 11367 11368 11369 11370 11371 11372 11373 11374 11375 11376 11377 11378 11379 11380 11381 11382 11383 11384 11385 11386 11387 11388 11389 11390 11391 11392 11393 11394 11395 11396 11397 11398 11399 11400 11401 11402 11403 11404 11405 11406 11407 11408 11409 11410 11411 11412 11413 11414 11415 11416 11417 11418 11419 11420 11421 11422 11423 11424 11425 11426 11427 11428 11429 11430 11431 11432 11433 11434 11435 11436 11437 11438 11439 11440 11441 11442 11443 11444 11445 11446 11447 11448 11449 11450 11451 11452 11453 11454 11455 11456 11457 11458 11459 11460 11461 11462 11463 11464 11465 11466 11467 11468 11469 11470 11471 11472 11473 11474 11475 11476 11477 11478 11479 11480 11481 11482 11483 11484 11485 11486 11487 11488 11489 11490 11491 11492 11493 11494 11495 11496 11497 11498 11499 11500 11501 11502 11503 11504 11505 11506 11507 11508 11509 11510 11511 11512 11513 11514 11515 11516 11517 11518 11519 11520 11521 11522 11523 11524 11525 11526 11527 11528 11529 11530 11531 11532 11533 11534 11535 11536 11537 11538 11539 11540 11541 11542 11543 11544 11545 11546 11547 11548 11549 11550 11551 11552 11553 11554 11555 11556 11557 11558 11559 11560 11561 11562 11563 11564 11565 11566 11567 11568 11569 11570 11571 11572 11573 11574 11575 11576 11577 11578 11579 11580 11581 11582 11583 11584 11585 11586 11587 11588 11589 11590 11591 11592 11593 11594 11595 11596 11597 11598 11599 11600 11601 11602 11603 11604 11605 11606 11607 11608 11609 11610 11611 11612 11613 11614 11615 11616 11617 11618 11619 11620 11621 11622 11623 11624 11625 11626 11627 11628 11629 11630 11631 11632 11633 11634 11635 11636 11637 11638 11639 11640 11641 11642 11643 11644 11645 11646 11647 11648 11649 11650 11651 11652 11653 11654 11655 11656 11657 11658 11659 11660 11661 11662 11663 11664 11665 11666 11667 11668 11669 11670 11671 11672 11673 11674 11675 11676 11677 11678 11679 11680 11681 11682 11683 11684 11685 11686 11687 11688 11689 11690 11691 11692 11693 11694 11695 11696 11697 11698 11699 11700 11701 11702 11703 11704 11705 11706 11707 11708 11709 11710 11711 11712 11713 11714 11715 11716 11717 11718 11719 11720 11721 11722 11723 11724 11725 11726 11727 11728 11729 11730 11731 11732 11733 11734 11735 11736 11737 11738 11739 11740 11741 11742 11743 11744 11745 11746 11747 11748 11749 11750 11751 11752 11753 11754 11755 11756 11757 11758 11759 11760 11761 11762 11763 11764 11765 11766 11767 11768 11769 11770 11771 11772 11773 11774 11775 11776 11777 11778 11779 11780 11781 11782 11783 11784 11785 11786 11787 11788 11789 11790 11791 11792 11793 11794 11795 11796 11797 11798 11799 11800 11801 11802 11803 11804 11805 11806 11807 11808 11809 11810 11811 11812 11813 11814 11815 11816 11817 11818 11819 11820 11821 11822 11823 11824 11825 11826 11827 11828 11829 11830 11831 11832 11833 11834 11835 11836 11837 11838 11839 11840 11841 11842 11843 11844 11845 11846 11847 11848 11849 11850 11851 11852 11853 11854 11855 11856 11857 11858 11859 11860 11861 11862 11863 11864 11865 11866 11867 11868 11869 11870 11871 11872 11873 11874 11875 11876 11877 11878 11879 11880 11881 11882 11883 11884 11885 11886 11887 11888 11889 11890 11891 11892 11893 11894 11895 11896 11897 11898 11899 11900 11901 11902 11903 11904 11905 11906 11907 11908 11909 11910 11911 11912 11913 11914 11915 11916 11917 11918 11919 11920 11921 11922 11923 11924 11925 11926 11927 11928 11929 11930 11931 11932 11933 11934 11935 11936 11937 11938 11939 11940 11941 11942 11943 11944 11945 11946 11947 11948 11949 11950 11951 11952 11953 11954 11955 11956 11957 11958 11959 11960 11961 11962 11963 11964 11965 11966 11967 11968 11969 11970 11971 11972 11973 11974 11975 11976 11977 11978 11979 11980 11981 11982 11983 11984 11985 11986 11987 11988 11989 11990 11991 11992 11993 11994 11995 11996 11997 11998 11999 12000 12001 12002 12003 12004 12005 12006 12007 12008 12009 12010 12011 12012 12013 12014 12015 12016 12017 12018 12019 12020 12021 12022 12023 12024 12025 12026 12027 12028 12029 12030 12031 12032 12033 12034 12035 12036 12037 12038 12039 12040 12041 12042 12043 12044 12045 12046 12047 12048 12049 12050 12051 12052 12053 12054 12055 12056 12057 12058 12059 12060 12061 12062 12063 12064 12065 12066 12067 12068 12069 12070 12071 12072 12073 12074 12075 12076 12077 12078 12079 12080 12081 12082 12083 12084 12085 12086 12087 12088 12089 12090 12091 12092 12093 12094 12095 12096 12097 12098 12099 12100 12101 12102 12103 12104 12105 12106 12107 12108 12109 12110 12111 12112 12113 12114 12115 12116 12117 12118 12119 12120 12121 12122 12123 12124 12125 12126 12127 12128 12129 12130 12131 12132 12133 12134 12135 12136 12137 12138 12139 12140 12141 12142 12143 12144 12145 12146 12147 12148 12149 12150 12151 12152 12153 12154 12155 12156 12157 12158 12159 12160 12161 12162 12163 12164 12165 12166 12167 12168 12169 12170 12171 12172 12173 12174 12175 12176 12177 12178 12179 12180 12181 12182 12183 12184 12185 12186 12187 12188 12189 12190 12191 12192 12193 12194 12195 12196 12197 12198 12199 12200 12201 12202 12203 12204 12205 12206 12207 12208 12209 12210 12211 12212 12213 12214 12215 12216 12217 12218 12219 12220 12221 12222 12223 12224 12225 12226 12227 12228 12229 12230 12231 12232 12233 12234 12235 12236 12237 12238 12239 12240 12241 12242 12243 12244 12245 12246 12247 12248 12249 12250 12251 12252 12253 12254 12255 12256 12257 12258 12259 12260 12261 12262 12263 12264 12265 12266 12267 12268 12269 12270 12271 12272 12273 12274 12275 12276 12277 12278 12279 12280 12281 12282 12283 12284 12285 12286 12287 12288 12289 12290 12291 12292 12293 12294 12295 12296 12297 12298 12299 12300 12301 12302 12303 12304 12305 12306 12307 12308 12309 12310 12311 12312 12313 12314 12315 12316 12317 12318 12319 12320 12321 12322 12323 12324 12325 12326 12327 12328 12329 12330 12331 12332 12333 12334 12335 12336 12337 12338 12339 12340 12341 12342 12343 12344 12345 12346 12347 12348 12349 12350 12351 12352 12353 12354 12355 12356 12357 12358 12359 12360 12361 12362 12363 12364 12365 12366 12367 12368 12369 12370 12371 12372 12373 12374 12375 12376 12377 12378 12379 12380 12381 12382 12383 12384 12385 12386 12387 12388 12389 12390 12391 12392 12393 12394 12395 12396 12397 12398 12399 12400 12401 12402 12403 12404 12405 12406 12407 12408 12409 12410 12411 12412 12413 12414 12415 12416 12417 12418 12419 12420 12421 12422 12423 12424 12425 12426 12427 12428 12429 12430 12431 12432 12433 12434 12435 12436 12437 12438 12439 12440 12441 12442 12443 12444 12445 12446 12447 12448 12449 12450 12451 12452 12453 12454 12455 12456 12457 12458 12459 12460 12461 12462 12463 12464 12465 12466 12467 12468 12469 12470 12471 12472 12473 12474 12475 12476 12477 12478 12479 12480 12481 12482 12483 12484 12485 12486 12487 12488 12489 12490 12491 12492 12493 12494 12495 12496 12497 12498 12499 12500 12501 12502 12503 12504 12505 12506 12507 12508 12509 12510 12511 12512 12513 12514 12515 12516 12517 12518 12519 12520 12521 12522 12523 12524 12525 12526 12527 12528 12529 12530 12531 12532 12533 12534 12535 12536 12537 12538 12539 12540 12541 12542 12543 12544 12545 12546 12547 12548 12549 12550 12551 12552 12553 12554 12555 12556 12557 12558 12559 12560 12561 12562 12563 12564 12565 12566 12567 12568 12569 12570 12571 12572 12573 12574 12575 12576 12577 12578 12579 12580 12581 12582 12583 12584 12585 12586 12587 12588 12589 12590 12591 12592 12593 12594 12595 12596 12597 12598 12599 12600 12601 12602 12603 12604 12605 12606 12607 12608 12609 12610 12611 12612 12613 12614 12615 12616 12617 12618 12619 12620 12621 12622 12623 12624 12625 12626 12627 12628 12629 12630 12631 12632 12633 12634 12635 12636 12637 12638 12639 12640 12641 12642 12643 12644 12645 12646 12647 12648 12649 12650 12651 12652 12653 12654 12655 12656 12657 12658 12659 12660 12661 12662 12663 12664 12665 12666 12667 12668 12669 12670 12671 12672 12673 12674 12675 12676 12677 12678 12679 12680 12681 12682 12683 12684 12685 12686 12687 12688 12689 12690 12691 12692 12693 12694 12695 12696 12697 12698 12699 12700 12701 12702 12703 12704 12705 12706 12707 12708 12709 12710 12711 12712 12713 12714 12715 12716 12717 12718 12719 12720 12721 12722 12723 12724 12725 12726 12727 12728 12729 12730 12731 12732 12733 12734 12735 12736 12737 12738 12739 12740 12741 12742 12743 12744 12745 12746 12747 12748 12749 12750 12751 12752 12753 12754 12755 12756 12757 12758 12759 12760 12761 12762 12763 12764 12765 12766 12767 12768 12769 12770 12771 12772 12773 12774 12775 12776 12777 12778 12779 12780 12781 12782 12783 12784 12785 12786 12787 12788 12789 12790 12791 12792 12793 12794 12795 12796 12797 12798 12799 12800 12801 12802 12803 12804 12805 12806 12807 12808 12809 12810 12811 12812 12813 12814 12815 12816 12817 12818 12819 12820 12821 12822 12823 12824 12825 12826 12827 12828 12829 12830 12831 12832 12833 12834 12835 12836 12837 12838 12839 12840 12841 12842 12843 12844 12845 12846 12847 12848 12849 12850 12851 12852 12853 12854 12855 12856 12857 12858 12859 12860 12861 12862 12863 12864 12865 12866 12867 12868 12869 12870 12871 12872 12873 12874 12875 12876 12877 12878 12879 12880 12881 12882 12883 12884 12885 12886 12887 12888 12889 12890 12891 12892 12893 12894 12895 12896 12897 12898 12899 12900 12901 12902 12903 12904 12905 12906 12907 12908 12909 12910 12911 12912 12913 12914 12915 12916 12917 12918 12919 12920 12921 12922 12923 12924 12925 12926 12927 12928 12929 12930 12931 12932 12933 12934 12935 12936 12937 12938 12939 12940 12941 12942 12943 12944 12945 12946 12947 12948 12949 12950 12951 12952 12953 12954 12955 12956 12957 12958 12959 12960 12961 12962 12963 12964 12965 12966 12967 12968 12969 12970 12971 12972 12973 12974 12975 12976 12977 12978 12979 12980 12981 12982 12983 12984 12985 12986 12987 12988 12989 12990 12991 12992 12993 12994 12995 12996 12997 12998 12999 13000 13001 13002 13003 13004 13005 13006 13007 13008 13009 13010 13011 13012 13013 13014 13015 13016 13017 13018 13019 13020 13021 13022 13023 13024 13025 13026 13027 13028 13029 13030 13031 13032 13033 13034 13035 13036 13037 13038 13039 13040 13041 13042 13043 13044 13045 13046 13047 13048 13049 13050 13051 13052 13053 13054 13055 13056 13057 13058 13059 13060 13061 13062 13063 13064 13065 13066 13067 13068 13069 13070 13071 13072 13073 13074 13075 13076 13077 13078 13079 13080 13081 13082 13083 13084 13085 13086 13087 13088 13089 13090 13091 13092 13093 13094 13095 13096 13097 13098 13099 13100 13101 13102 13103 13104 13105 13106 13107 13108 13109 13110 13111 13112 13113 13114 13115 13116 13117 13118 13119 13120 13121 13122 13123 13124 13125 13126 13127 13128 13129 13130 13131 13132 13133 13134 13135 13136 13137 13138 13139 13140 13141 13142 13143 13144 13145 13146 13147 13148 13149 13150 13151 13152 13153 13154 13155 13156 13157 13158 13159 13160 13161 13162 13163 13164 13165 13166 13167 13168 13169 13170 13171 13172 13173 13174 13175 13176 13177 13178 13179 13180 13181 13182 13183 13184 13185 13186 13187 13188 13189 13190 13191 13192 13193 13194 13195 13196 13197 13198 13199 13200 13201 13202 13203 13204 13205 13206 13207 13208 13209 13210 13211 13212 13213 13214 13215 13216 13217 13218 13219 13220 13221 13222 13223 13224 13225 13226 13227 13228 13229 13230 13231 13232 13233 13234 13235 13236 13237 13238 13239 13240 13241 13242 13243 13244 13245 13246 13247 13248 13249 13250 13251 13252 13253 13254 13255 13256 13257 13258 13259 13260 13261 13262 13263 13264 13265 13266 13267 13268 13269 13270 13271 13272 13273 13274 13275 13276 13277 13278 13279 13280 13281 13282 13283 13284 13285 13286 13287 13288 13289 13290 13291 13292 13293 13294 13295 13296 13297 13298 13299 13300 13301 13302 13303 13304 13305 13306 13307 13308 13309 13310 13311 13312 13313 13314 13315 13316 13317 13318 13319 13320 13321 13322 13323 13324 13325 13326 13327 13328 13329 13330 13331 13332 13333 13334 13335 13336 13337 13338 13339 13340 13341 13342 13343 13344 13345 13346 13347 13348 13349 13350 13351 13352 13353 13354 13355 13356 13357 13358 13359 13360 13361 13362 13363 13364 13365 13366 13367 13368 13369 13370 13371 13372 13373 13374 13375 13376 13377 13378 13379 13380 13381 13382 13383 13384 13385 13386 13387 13388 13389 13390 13391 13392 13393 13394 13395 13396 13397 13398 13399 13400 13401 13402 13403 13404 13405 13406 13407 13408 13409 13410 13411 13412 13413 13414 13415 13416 13417 13418 13419 13420 13421 13422 13423 13424 13425 13426 13427 13428 13429 13430 13431 13432 13433 13434 13435 13436 13437 13438 13439 13440 13441 13442 13443 13444 13445 13446 13447 13448 13449 13450 13451 13452 13453 13454 13455 13456 13457 13458 13459 13460 13461 13462 13463 13464 13465 13466 13467 13468 13469 13470 13471 13472 13473 13474 13475 13476 13477 13478 13479 13480 13481 13482 13483 13484 13485 13486 13487 13488 13489 13490 13491 13492 13493 13494 13495 13496 13497 13498 13499 13500 13501 13502 13503 13504 13505 13506 13507 13508 13509 13510 13511 13512 13513 13514 13515 13516 13517 13518 13519 13520 13521 13522 13523 13524 13525 13526 13527 13528 13529 13530 13531 13532 13533 13534 13535 13536 13537 13538 13539 13540 13541 13542 13543 13544 13545 13546 13547 13548 13549 13550 13551 13552 13553 13554 13555 13556 13557 13558 13559 13560 13561 13562 13563 13564 13565 13566 13567 13568 13569 13570 13571 13572 13573 13574 13575 13576 13577 13578 13579 13580 13581 13582 13583 13584 13585 13586 13587 13588 13589 13590 13591 13592 13593 13594 13595 13596 13597 13598 13599 13600 13601 13602 13603 13604 13605 13606 13607 13608 13609 13610 13611 13612 13613 13614 13615 13616 13617 13618 13619 13620 13621 13622 13623 13624 13625 13626 13627 13628 13629 13630 13631 13632 13633 13634 13635 13636 13637 13638 13639 13640 13641 13642 13643 13644 13645 13646 13647 13648 13649 13650 13651 13652 13653 13654 13655 13656 13657 13658 13659 13660 13661 13662 13663 13664 13665 13666 13667 13668 13669 13670 13671 13672 13673 13674 13675 13676 13677 13678 13679 13680 13681 13682 13683 13684 13685 13686 13687 13688 13689 13690 13691 13692 13693 13694 13695 13696 13697 13698 13699 13700 13701 13702 13703 13704 13705 13706 13707 13708 13709 13710 13711 13712 13713 13714 13715 13716 13717 13718 13719 13720 13721 13722 13723 13724 13725 13726 13727 13728 13729 13730 13731 13732 13733 13734 13735 13736 13737 13738 13739 13740 13741 13742 13743 13744 13745 13746 13747 13748 13749 13750 13751 13752 13753 13754 13755 13756 13757 13758 13759 13760 13761 13762 13763 13764 13765 13766 13767 13768 13769 13770 13771 13772 13773 13774 13775 13776 13777 13778 13779 13780 13781 13782 13783 13784 13785 13786 13787 13788 13789 13790 13791 13792 13793 13794 13795 13796 13797 13798 13799 13800 13801 13802 13803 13804 13805 13806 13807 13808 13809 13810 13811 13812 13813 13814 13815 13816 13817 13818 13819 13820 13821 13822 13823 13824 13825 13826 13827 13828 13829 13830 13831 13832 13833 13834 13835 13836 13837 13838 13839 13840 13841 13842 13843 13844 13845 13846 13847 13848 13849 13850 13851 13852 13853 13854 13855 13856 13857 13858 13859 13860 13861 13862 13863 13864 13865 13866 13867 13868 13869 13870 13871 13872 13873 13874 13875 13876 13877 13878 13879 13880 13881 13882 13883 13884 13885 13886 13887 13888 13889 13890 13891 13892 13893 13894 13895 13896 13897 13898 13899 13900 13901 13902 13903 13904 13905 13906 13907 13908 13909 13910 13911 13912 13913 13914 13915 13916 13917 13918 13919 13920 13921 13922 13923 13924 13925 13926 13927 13928 13929 13930 13931 13932 13933 13934 13935 13936 13937 13938 13939 13940 13941 13942 13943 13944 13945 13946 13947 13948 13949 13950 13951 13952 13953 13954 13955 13956 13957 13958 13959 13960 13961 13962 13963 13964 13965 13966 13967 13968 13969 13970 13971 13972 13973 13974 13975 13976 13977 13978 13979 13980 13981 13982 13983 13984 13985 13986 13987 13988 13989 13990 13991 13992 13993 13994 13995 13996 13997 13998 13999 14000 14001 14002 14003 14004 14005 14006 14007 14008 14009 14010 14011 14012 14013 14014 14015 14016 14017 14018 14019 14020 14021 14022 14023 14024 14025 14026 14027 14028 14029 14030 14031 14032 14033 14034 14035 14036 14037 14038 14039 14040 14041 14042 14043 14044 14045 14046 14047 14048 14049 14050 14051 14052 14053 14054 14055 14056 14057 14058 14059 14060 14061 14062 14063 14064 14065 14066 14067 14068 14069 14070 14071 14072 14073 14074 14075 14076 14077 14078 14079 14080 14081 14082 14083 14084 14085 14086 14087 14088 14089 14090 14091 14092 14093 14094 14095 14096 14097 14098 14099 14100 14101 14102 14103 14104 14105 14106 14107 14108 14109 14110 14111 14112 14113 14114 14115 14116 14117 14118 14119 14120 14121 14122 14123 14124 14125 14126 14127 14128 14129 14130 14131 14132 14133 14134 14135 14136 14137 14138 14139 14140 14141 14142 14143 14144 14145 14146 14147 14148 14149 14150 14151 14152 14153 14154 14155 14156 14157 14158 14159 14160 14161 14162 14163 14164 14165 14166 14167 14168 14169 14170 14171 14172 14173 14174 14175 14176 14177 14178 14179 14180 14181 14182 14183 14184 14185 14186 14187 14188 14189 14190 14191 14192 14193 14194 14195 14196 14197 14198 14199 14200 14201 14202 14203 14204 14205 14206 14207 14208 14209 14210 14211 14212 14213 14214 14215 14216 14217 14218 14219 14220 14221 14222 14223 14224 14225 14226 14227 14228 14229 14230 14231 14232 14233 14234 14235 14236 14237 14238 14239 14240 14241 14242 14243 14244 14245 14246 14247 14248 14249 14250 14251 14252 14253 14254 14255 14256 14257 14258 14259 14260 14261 14262 14263 14264 14265 14266 14267 14268 14269 14270 14271 14272 14273 14274 14275 14276 14277 14278 14279 14280 14281 14282 14283 14284 14285 14286 14287 14288 14289 14290 14291 14292 14293 14294 14295 14296 14297 14298 14299 14300 14301 14302 14303 14304 14305 14306 14307 14308 14309 14310 14311 14312 14313 14314 14315 14316 14317 14318 14319 14320 14321 14322 14323 14324 14325 14326 14327 14328 14329 14330 14331 14332 14333 14334 14335 14336 14337 14338 14339 14340 14341 14342 14343 14344 14345 14346 14347 14348 14349 14350 14351 14352 14353 14354 14355 14356 14357 14358 14359 14360 14361 14362 14363 14364 14365 14366 14367 14368 14369 14370 14371 14372 14373 14374 14375 14376 14377 14378 14379 14380 14381 14382 14383 14384 14385 14386 14387 14388 14389 14390 14391 14392 14393 14394 14395 14396 14397 14398 14399 14400 14401 14402 14403 14404 14405 14406 14407 14408 14409 14410 14411 14412 14413 14414 14415 14416 14417 14418 14419 14420 14421 14422 14423 14424 14425 14426 14427 14428 14429 14430 14431 14432 14433 14434 14435 14436 14437 14438 14439 14440 14441 14442 14443 14444 14445 14446 14447 14448 14449 14450 14451 14452 14453 14454 14455 14456 14457 14458 14459 14460 14461 14462 14463 14464 14465 14466 14467 14468 14469 14470 14471 14472 14473 14474 14475 14476 14477 14478 14479 14480 14481 14482 14483 14484 14485 14486 14487 14488 14489 14490 14491 14492 14493 14494 14495 14496 14497 14498 14499 14500 14501 14502 14503 14504 14505 14506 14507 14508 14509 14510 14511 14512 14513 14514 14515 14516 14517 14518 14519 14520 14521 14522 14523 14524 14525 14526 14527 14528 14529 14530 14531 14532 14533 14534 14535 14536 14537 14538 14539 14540 14541 14542 14543 14544 14545 14546 14547 14548 14549 14550 14551 14552 14553 14554 14555 14556 14557 14558 14559 14560 14561 14562 14563 14564 14565 14566 14567 14568 14569 14570 14571 14572 14573 14574 14575 14576 14577 14578 14579 14580 14581 14582 14583 14584 14585 14586 14587 14588 14589 14590 14591 14592 14593 14594 14595 14596 14597 14598 14599 14600 14601 14602 14603 14604 14605 14606 14607 14608 14609 14610 14611 14612 14613 14614 14615 14616 14617 14618 14619 14620 14621 14622 14623 14624 14625 14626 14627 14628 14629 14630 14631 14632 14633 14634 14635 14636 14637 14638 14639 14640 14641 14642 14643 14644 14645 14646 14647 14648 14649 14650 14651 14652 14653 14654 14655 14656 14657 14658 14659 14660 14661 14662 14663 14664 14665 14666 14667 14668 14669 14670 14671 14672 14673 14674 14675 14676 14677 14678 14679 14680 14681 14682 14683 14684 14685 14686 14687 14688 14689 14690 14691 14692 14693 14694 14695 14696 14697 14698 14699 14700 14701 14702 14703 14704 14705 14706 14707 14708 14709 14710 14711 14712 14713 14714 14715 14716 14717 14718 14719 14720 14721 14722 14723 14724 14725 14726 14727 14728 14729 14730 14731 14732 14733 14734 14735 14736 14737 14738 14739 14740 14741 14742 14743 14744 14745 14746 14747 14748 14749 14750 14751 14752 14753 14754 14755 14756 14757 14758 14759 14760 14761 14762 14763 14764 14765 14766 14767 14768 14769 14770 14771 14772 14773 14774 14775 14776 14777 14778 14779 14780 14781 14782 14783 14784 14785 14786 14787 14788 14789 14790 14791 14792 14793 14794 14795 14796 14797 14798 14799 14800 14801 14802 14803 14804 14805 14806 14807 14808 14809 14810 14811 14812 14813 14814 14815 14816 14817 14818 14819 14820 14821 14822 14823 14824 14825 14826 14827 14828 14829 14830 14831 14832 14833 14834 14835 14836 14837 14838 14839 14840 14841 14842 14843 14844 14845 14846 14847 14848 14849 14850 14851 14852 14853 14854 14855 14856 14857 14858 14859 14860 14861 14862 14863 14864 14865 14866 14867 14868 14869 14870 14871 14872 14873 14874 14875 14876 14877 14878 14879 14880 14881 14882 14883 14884 14885 14886 14887 14888 14889 14890 14891 14892 14893 14894 14895 14896 14897 14898 14899 14900 14901 14902 14903 14904 14905 14906 14907 14908 14909 14910 14911 14912 14913 14914 14915 14916 14917 14918 14919 14920 14921 14922 14923 14924 14925 14926 14927 14928 14929 14930 14931 14932 14933 14934 14935 14936 14937 14938 14939 14940 14941 14942 14943 14944 14945 14946 14947 14948 14949 14950 14951 14952 14953 14954 14955 14956 14957 14958 14959 14960 14961 14962 14963 14964 14965 14966 14967 14968 14969 14970 14971 14972 14973 14974 14975 14976 14977 14978 14979 14980 14981 14982 14983 14984 14985 14986 14987 14988 14989 14990 14991 14992 14993 14994 14995 14996 14997 14998 14999 15000 15001 15002 15003 15004 15005 15006 15007 15008 15009 15010 15011 15012 15013 15014 15015 15016 15017 15018 15019 15020 15021 15022 15023 15024 15025 15026 15027 15028 15029 15030 15031 15032 15033 15034 15035 15036 15037 15038 15039 15040 15041 15042 15043 15044 15045 15046 15047 15048 15049 15050 15051 15052 15053 15054 15055 15056 15057 15058 15059 15060 15061 15062 15063 15064 15065 15066 15067 15068 15069 15070 15071 15072 15073 15074 15075 15076 15077 15078 15079 15080 15081 15082 15083 15084 15085 15086 15087 15088 15089 15090 15091 15092 15093 15094 15095 15096 15097 15098 15099 15100 15101 15102 15103 15104 15105 15106 15107 15108 15109 15110 15111 15112 15113 15114 15115 15116 15117 15118 15119 15120 15121 15122 15123 15124 15125 15126 15127 15128 15129 15130 15131 15132 15133 15134 15135 15136 15137 15138 15139 15140 15141 15142 15143 15144 15145 15146 15147 15148 15149 15150 15151 15152 15153 15154 15155 15156 15157 15158 15159 15160 15161 15162 15163 15164 15165 15166 15167 15168 15169 15170 15171 15172 15173 15174 15175 15176 15177 15178 15179 15180 15181 15182 15183 15184 15185 15186 15187 15188 15189 15190 15191 15192 15193 15194 15195 15196 15197 15198 15199 15200 15201 15202 15203 15204 15205 15206 15207 15208 15209 15210 15211 15212 15213 15214 15215 15216 15217 15218 15219 15220 15221 15222 15223 15224 15225 15226 15227 15228 15229 15230 15231 15232 15233 15234 15235 15236 15237 15238 15239 15240 15241 15242 15243 15244 15245 15246 15247 15248 15249 15250 15251 15252 15253 15254 15255 15256 15257 15258 15259 15260 15261 15262 15263 15264 15265 15266 15267 15268 15269 15270 15271 15272 15273 15274 15275 15276 15277 15278 15279 15280 15281 15282 15283 15284 15285 15286 15287 15288 15289 15290 15291 15292 15293 15294 15295 15296 15297 15298 15299 15300 15301 15302 15303 15304 15305 15306 15307 15308 15309 15310 15311 15312 15313 15314 15315 15316 15317 15318 15319 15320 15321 15322 15323 15324 15325 15326 15327 15328 15329 15330 15331 15332 15333 15334 15335 15336 15337 15338 15339 15340 15341 15342 15343 15344 15345 15346 15347 15348 15349 15350 15351 15352 15353 15354 15355 15356 15357 15358 15359 15360 15361 15362 15363 15364 15365 15366 15367 15368 15369 15370 15371 15372 15373 15374 15375 15376 15377 15378 15379 15380 15381 15382 15383 15384 15385 15386 15387 15388 15389 15390 15391 15392 15393 15394 15395 15396 15397 15398 15399 15400 15401 15402 15403 15404 15405 15406 15407 15408 15409 15410 15411 15412 15413 15414 15415 15416 15417 15418 15419 15420 15421 15422 15423 15424 15425 15426 15427 15428 15429 15430 15431 15432 15433 15434 15435 15436 15437 15438 15439 15440 15441 15442 15443 15444 15445 15446 15447 15448 15449 15450 15451 15452 15453 15454 15455 15456 15457 15458 15459 15460 15461 15462 15463 15464 15465 15466 15467 15468 15469 15470 15471 15472 15473 15474 15475 15476 15477 15478 15479 15480 15481 15482 15483 15484 15485 15486 15487 15488 15489 15490 15491 15492 15493 15494 15495 15496 15497 15498 15499 15500 15501 15502 15503 15504 15505 15506 15507 15508 15509 15510 15511 15512 15513 15514 15515 15516 15517 15518 15519 15520 15521 15522 15523 15524 15525 15526 15527 15528 15529 15530 15531 15532 15533 15534 15535 15536 15537 15538 15539 15540 15541 15542 15543 15544 15545 15546 15547 15548 15549 15550 15551 15552 15553 15554 15555 15556 15557 15558 15559 15560 15561 15562 15563 15564 15565 15566 15567 15568 15569 15570 15571 15572 15573 15574 15575 15576 15577 15578 15579 15580 15581 15582 15583 15584 15585 15586 15587 15588 15589 15590 15591 15592 15593 15594 15595 15596 15597 15598 15599 15600 15601 15602 15603 15604 15605 15606 15607 15608 15609 15610 15611 15612 15613 15614 15615 15616 15617 15618 15619 15620 15621 15622 15623 15624 15625 15626 15627 15628 15629 15630 15631 15632 15633 15634 15635 15636 15637 15638 15639 15640 15641 15642 15643 15644 15645 15646 15647 15648 15649 15650 15651 15652 15653 15654 15655 15656 15657 15658 15659 15660 15661 15662 15663 15664 15665 15666 15667 15668 15669 15670 15671 15672 15673 15674 15675 15676 15677 15678 15679 15680 15681 15682 15683 15684 15685 15686 15687 15688 15689 15690 15691 15692 15693 15694 15695 15696 15697 15698 15699 15700 15701 15702 15703 15704 15705 15706 15707 15708 15709 15710 15711 15712 15713 15714 15715 15716 15717 15718 15719 15720 15721 15722 15723 15724 15725 15726 15727 15728 15729 15730 15731 15732 15733 15734 15735 15736 15737 15738 15739 15740 15741 15742 15743 15744 15745 15746 15747 15748 15749 15750 15751 15752 15753 15754 15755 15756 15757 15758 15759 15760 15761 15762 15763 15764 15765 15766 15767 15768 15769 15770 15771 15772 15773 15774 15775 15776 15777 15778 15779 15780 15781 15782 15783 15784 15785 15786 15787 15788 15789 15790 15791 15792 15793 15794 15795 15796 15797 15798 15799 15800 15801 15802 15803 15804 15805 15806 15807 15808 15809 15810 15811 15812 15813 15814 15815 15816 15817 15818 15819 15820 15821 15822 15823 15824 15825 15826 15827 15828 15829 15830 15831 15832 15833 15834 15835 15836 15837 15838 15839 15840 15841 15842 15843 15844 15845 15846 15847 15848 15849 15850 15851 15852 15853 15854 15855 15856 15857 15858 15859 15860 15861 15862 15863 15864 15865 15866 15867 15868 15869 15870 15871 15872 15873 15874 15875 15876 15877 15878 15879 15880 15881 15882 15883 15884 15885 15886 15887 15888 15889 15890 15891 15892 15893 15894 15895 15896 15897 15898 15899 15900 15901 15902 15903 15904 15905 15906 15907 15908 15909 15910 15911 15912 15913 15914 15915 15916 15917 15918 15919 15920 15921 15922 15923 15924 15925 15926 15927 15928 15929 15930 15931 15932 15933 15934 15935 15936 15937 15938 15939 15940 15941 15942 15943 15944 15945 15946 15947 15948 15949 15950 15951 15952 15953 15954 15955 15956 15957 15958 15959 15960 15961 15962 15963 15964 15965 15966 15967 15968 15969 15970 15971 15972 15973 15974 15975 15976 15977 15978 15979 15980 15981 15982 15983 15984 15985 15986 15987 15988 15989 15990 15991 15992 15993 15994 15995 15996 15997 15998 15999 16000 16001 16002 16003 16004 16005 16006 16007 16008 16009 16010 16011 16012 16013 16014 16015 16016 16017 16018 16019 16020 16021 16022 16023 16024 16025 16026 16027 16028 16029 16030 16031 16032 16033 16034 16035 16036 16037 16038 16039 16040 16041 16042 16043 16044 16045 16046 16047 16048 16049 16050 16051 16052 16053 16054 16055 16056 16057 16058 16059 16060 16061 16062 16063 16064 16065 16066 16067 16068 16069 16070 16071 16072 16073 16074 16075 16076 16077 16078 16079 16080 16081 16082 16083 16084 16085 16086 16087 16088 16089 16090 16091 16092 16093 16094 16095 16096 16097 16098 16099 16100 16101 16102 16103 16104 16105 16106 16107 16108 16109 16110 16111 16112 16113 16114 16115 16116 16117 16118 16119 16120 16121 16122 16123 16124 16125 16126 16127 16128 16129 16130 16131 16132 16133 16134 16135 16136 16137 16138 16139 16140 16141 16142 16143 16144 16145 16146 16147 16148 16149 16150 16151 16152 16153 16154 16155 16156 16157 16158 16159 16160 16161 16162 16163 16164 16165 16166 16167 16168 16169 16170 16171 16172 16173 16174 16175 16176 16177 16178 16179 16180 16181 16182 16183 16184 16185 16186 16187 16188 16189 16190 16191 16192 16193 16194 16195 16196 16197 16198 16199 16200 16201 16202 16203 16204 16205 16206 16207 16208 16209 16210 16211 16212 16213 16214 16215 16216 16217 16218 16219 16220 16221 16222 16223 16224 16225 16226 16227 16228 16229 16230 16231 16232 16233 16234 16235 16236 16237 16238 16239 16240 16241 16242 16243 16244 16245 16246 16247 16248 16249 16250 16251 16252 16253 16254 16255 16256 16257 16258 16259 16260 16261 16262 16263 16264 16265 16266 16267 16268 16269 16270 16271 16272 16273 16274 16275 16276 16277 16278 16279 16280 16281 16282 16283 16284 16285 16286 16287 16288 16289 16290 16291 16292 16293 16294 16295 16296 16297 16298 16299 16300 16301 16302 16303 16304 16305 16306 16307 16308 16309 16310 16311 16312 16313 16314 16315 16316 16317 16318 16319 16320 16321 16322 16323 16324 16325 16326 16327 16328 16329 16330 16331 16332 16333 16334 16335 16336 16337 16338 16339 16340 16341 16342 16343 16344 16345 16346 16347 16348 16349 16350 16351 16352 16353 16354 16355 16356 16357 16358 16359 16360 16361 16362 16363 16364 16365 16366 16367 16368 16369 16370 16371 16372 16373 16374 16375 16376 16377 16378 16379 16380 16381 16382 16383 16384 16385 16386 16387 16388 16389 16390 16391 16392 16393 16394 16395 16396 16397 16398 16399 16400 16401 16402 16403 16404 16405 16406 16407 16408 16409 16410 16411 16412 16413 16414 16415 16416 16417 16418 16419 16420 16421 16422 16423 16424 16425 16426 16427 16428 16429 16430 16431 16432 16433 16434 16435 16436 16437 16438 16439 16440 16441 16442 16443 16444 16445 16446 16447 16448 16449 16450 16451 16452 16453 16454 16455 16456 16457 16458 16459 16460 16461 16462 16463 16464 16465 16466 16467 16468 16469 16470 16471 16472 16473 16474 16475 16476 16477 16478 16479 16480 16481 16482 16483 16484 16485 16486 16487 16488 16489 16490 16491 16492 16493 16494 16495 16496 16497 16498 16499 16500 16501 16502 16503 16504 16505 16506 16507 16508 16509 16510 16511 16512 16513 16514 16515 16516 16517 16518 16519 16520 16521 16522 16523 16524 16525 16526 16527 16528 16529 16530 16531 16532 16533 16534 16535 16536 16537 16538 16539 16540 16541 16542 16543 16544 16545 16546 16547 16548 16549 16550 16551 16552 16553 16554 16555 16556 16557 16558 16559 16560 16561 16562 16563 16564 16565 16566 16567 16568 16569 16570 16571 16572 16573 16574 16575 16576 16577 16578 16579 16580 16581 16582 16583 16584 16585 16586 16587 16588 16589 16590 16591 16592 16593 16594 16595 16596 16597 16598 16599 16600 16601 16602 16603 16604 16605 16606 16607 16608 16609 16610 16611 16612 16613 16614 16615 16616 16617 16618 16619 16620 16621 16622 16623 16624 16625 16626 16627 16628 16629 16630 16631 16632 16633 16634 16635 16636 16637 16638 16639 16640 16641 16642 16643 16644 16645 16646 16647 16648 16649 16650 16651 16652 16653 16654 16655 16656 16657 16658 16659 16660 16661 16662 16663 16664 16665 16666 16667 16668 16669 16670 16671 16672 16673 16674 16675 16676 16677 16678 16679 16680 16681 16682 16683 16684 16685 16686 16687 16688 16689 16690 16691 16692 16693 16694 16695 16696 16697 16698 16699 16700 16701 16702 16703 16704 16705 16706 16707 16708 16709 16710 16711 16712 16713 16714 16715 16716 16717 16718 16719 16720 16721 16722 16723 16724 16725 16726 16727 16728 16729 16730 16731 16732 16733 16734 16735 16736 16737 16738 16739 16740 16741 16742 16743 16744 16745 16746 16747 16748 16749 16750 16751 16752 16753 16754 16755 16756 16757 16758 16759 16760 16761 16762 16763 16764 16765 16766 16767 16768 16769 16770 16771 16772 16773 16774 16775 16776 16777 16778 16779 16780 16781 16782 16783 16784 16785 16786 16787 16788 16789 16790 16791 16792 16793 16794 16795 16796 16797 16798 16799 16800 16801 16802 16803 16804 16805 16806 16807 16808 16809 16810 16811 16812 16813 16814 16815 16816 16817 16818 16819 16820 16821 16822 16823 16824 16825 16826 16827 16828 16829 16830 16831 16832 16833 16834 16835 16836 16837 16838 16839 16840 16841 16842 16843 16844 16845 16846 16847 16848 16849 16850 16851 16852 16853 16854 16855 16856 16857 16858 16859 16860 16861 16862 16863 16864 16865 16866 16867 16868 16869 16870 16871 16872 16873 16874 16875 16876 16877 16878 16879 16880 16881 16882 16883 16884 16885 16886 16887 16888 16889 16890 16891 16892 16893 16894 16895 16896 16897 16898 16899 16900 16901 16902 16903 16904 16905 16906 16907 16908 16909 16910 16911 16912 16913 16914 16915 16916 16917 16918 16919 16920 16921 16922 16923 16924 16925 16926 16927 16928 16929 16930 16931 16932 16933 16934 16935 16936 16937 16938 16939 16940 16941 16942 16943 16944 16945 16946 16947 16948 16949 16950 16951 16952 16953 16954 16955 16956 16957 16958 16959 16960 16961 16962 16963 16964 16965 16966 16967 16968 16969 16970 16971 16972 16973 16974 16975 16976 16977 16978 16979 16980 16981 16982 16983 16984 16985 16986 16987 16988 16989 16990 16991 16992 16993 16994 16995 16996 16997 16998 16999 17000 17001 17002 17003 17004 17005 17006 17007 17008 17009 17010 17011 17012 17013 17014 17015 17016 17017 17018 17019 17020 17021 17022 17023 17024 17025 17026 17027 17028 17029 17030 17031 17032 17033 17034 17035 17036 17037 17038 17039 17040 17041 17042 17043 17044 17045 17046 17047 17048 17049 17050 17051 17052 17053 17054 17055 17056 17057 17058 17059 17060 17061 17062 17063 17064 17065 17066 17067 17068 17069 17070 17071 17072 17073 17074 17075 17076 17077 17078 17079 17080 17081 17082 17083 17084 17085 17086 17087 17088 17089 17090 17091 17092 17093 17094 17095 17096 17097 17098 17099 17100 17101 17102 17103 17104 17105 17106 17107 17108 17109 17110 17111 17112 17113 17114 17115 17116 17117 17118 17119 17120 17121 17122 17123 17124 17125 17126 17127 17128 17129 17130 17131 17132 17133 17134 17135 17136 17137 17138 17139 17140 17141 17142 17143 17144 17145 17146 17147 17148 17149 17150 17151 17152 17153 17154 17155 17156 17157 17158 17159 17160 17161 17162 17163 17164 17165 17166 17167 17168 17169 17170 17171 17172 17173 17174 17175 17176 17177 17178 17179 17180 17181 17182 17183 17184 17185 17186 17187 17188 17189 17190 17191 17192 17193 17194 17195 17196 17197 17198 17199 17200 17201 17202 17203 17204 17205 17206 17207 17208 17209 17210 17211 17212 17213 17214 17215 17216 17217 17218 17219 17220 17221 17222 17223 17224 17225 17226 17227 17228 17229 17230 17231 17232 17233 17234 17235 17236 17237 17238 17239 17240 17241 17242 17243 17244 17245 17246 17247 17248 17249 17250 17251 17252 17253 17254 17255 17256 17257 17258 17259 17260 17261 17262 17263 17264 17265 17266 17267 17268 17269 17270 17271 17272 17273 17274 17275 17276 17277 17278 17279 17280 17281 17282 17283 17284 17285 17286 17287 17288 17289 17290 17291 17292 17293 17294 17295 17296 17297 17298 17299 17300 17301 17302 17303 17304 17305 17306 17307 17308 17309 17310 17311 17312 17313 17314 17315 17316 17317 17318 17319 17320 17321 17322 17323 17324 17325 17326 17327 17328 17329 17330 17331 17332 17333 17334 17335 17336 17337 17338 17339 17340 17341 17342 17343 17344 17345 17346 17347 17348 17349 17350 17351 17352 17353 17354 17355 17356 17357 17358 17359 17360 17361 17362 17363 17364 17365 17366 17367 17368 17369 17370 17371 17372 17373 17374 17375 17376 17377 17378 17379 17380 17381 17382 17383 17384 17385 17386 17387 17388 17389 17390 17391 17392 17393 17394 17395 17396 17397 17398 17399 17400 17401 17402 17403 17404 17405 17406 17407 17408 17409 17410 17411 17412 17413 17414 17415 17416 17417 17418 17419 17420 17421 17422 17423 17424 17425 17426 17427 17428 17429 17430 17431 17432 17433 17434 17435 17436 17437 17438 17439 17440 17441 17442 17443 17444 17445 17446 17447 17448 17449 17450 17451 17452 17453 17454 17455 17456 17457 17458 17459 17460 17461 17462 17463 17464 17465 17466 17467 17468 17469 17470 17471 17472 17473 17474 17475 17476 17477 17478 17479 17480 17481 17482 17483 17484 17485 17486 17487 17488 17489 17490 17491 17492 17493 17494 17495 17496 17497 17498 17499 17500 17501 17502 17503 17504 17505 17506 17507 17508 17509 17510 17511 17512 17513 17514 17515 17516 17517 17518 17519 17520 17521 17522 17523 17524 17525 17526 17527 17528 17529 17530 17531 17532 17533 17534 17535 17536 17537 17538 17539 17540 17541 17542 17543 17544 17545 17546 17547 17548 17549 17550 17551 17552 17553 17554 17555 17556 17557 17558 17559 17560 17561 17562 17563 17564 17565 17566 17567 17568 17569 17570 17571 17572 17573 17574 17575 17576 17577 17578 17579 17580 17581 17582 17583 17584 17585 17586 17587 17588 17589 17590 17591 17592 17593 17594 17595 17596 17597 17598 17599 17600 17601 17602 17603 17604 17605 17606 17607 17608 17609 17610 17611 17612 17613 17614 17615 17616 17617 17618 17619 17620 17621 17622 17623 17624 17625 17626 17627 17628 17629 17630 17631 17632 17633 17634 17635 17636 17637 17638 17639 17640 17641 17642 17643 17644 17645 17646 17647 17648 17649 17650 17651 17652 17653 17654 17655 17656 17657 17658 17659 17660 17661 17662 17663 17664 17665 17666 17667 17668 17669 17670 17671 17672 17673 17674 17675 17676 17677 17678 17679 17680 17681 17682 17683 17684 17685 17686 17687 17688 17689 17690 17691 17692 17693 17694 17695 17696 17697 17698 17699 17700 17701 17702 17703 17704 17705 17706 17707 17708 17709 17710 17711 17712 17713 17714 17715 17716 17717 17718 17719 17720 17721 17722 17723 17724 17725 17726 17727 17728 17729 17730 17731 17732 17733 17734 17735 17736 17737 17738 17739 17740 17741 17742 17743 17744 17745 17746 17747 17748 17749 17750 17751 17752 17753 17754 17755 17756 17757 17758 17759 17760 17761 17762 17763 17764 17765 17766 17767 17768 17769 17770 17771 17772 17773 17774 17775 17776 17777 17778 17779 17780 17781 17782 17783 17784 17785 17786 17787 17788 17789 17790 17791 17792 17793 17794 17795 17796 17797 17798 17799 17800 17801 17802 17803 17804 17805 17806 17807 17808 17809 17810 17811 17812 17813 17814 17815 17816 17817 17818 17819 17820 17821 17822 17823 17824 17825 17826 17827 17828 17829 17830 17831 17832 17833 17834 17835 17836 17837 17838 17839 17840 17841 17842 17843 17844 17845 17846 17847 17848 17849 17850 17851 17852 17853 17854 17855 17856 17857 17858 17859 17860 17861 17862 17863 17864 17865 17866 17867 17868 17869 17870 17871 17872 17873 17874 17875 17876 17877 17878 17879 17880 17881 17882 17883 17884 17885 17886 17887 17888 17889 17890 17891 17892 17893 17894 17895 17896 17897 17898 17899 17900 17901 17902 17903 17904 17905 17906 17907 17908 17909 17910 17911 17912 17913 17914 17915 17916 17917 17918 17919 17920 17921 17922 17923 17924 17925 17926 17927 17928 17929 17930 17931 17932 17933 17934 17935 17936 17937 17938 17939 17940 17941 17942 17943 17944 17945 17946 17947 17948 17949 17950 17951 17952 17953 17954 17955 17956 17957 17958 17959 17960 17961 17962 17963 17964 17965 17966 17967 17968 17969 17970 17971 17972 17973 17974 17975 17976 17977 17978 17979 17980 17981 17982 17983 17984 17985 17986 17987 17988 17989 17990 17991 17992 17993 17994 17995 17996 17997 17998 17999 18000 18001 18002 18003 18004 18005 18006 18007 18008 18009 18010 18011 18012 18013 18014 18015 18016 18017 18018 18019 18020 18021 18022 18023 18024 18025 18026 18027 18028 18029 18030 18031 18032 18033 18034 18035 18036 18037 18038 18039 18040 18041 18042 18043 18044 18045 18046 18047 18048 18049 18050 18051 18052 18053 18054 18055 18056 18057 18058 18059 18060 18061 18062 18063 18064 18065 18066 18067 18068 18069 18070 18071 18072 18073 18074 18075 18076 18077 18078 18079 18080 18081 18082 18083 18084 18085 18086 18087 18088 18089 18090 18091 18092 18093 18094 18095 18096 18097 18098 18099 18100 18101 18102 18103 18104 18105 18106 18107 18108 18109 18110 18111 18112 18113 18114 18115 18116 18117 18118 18119 18120 18121 18122 18123 18124 18125 18126 18127 18128 18129 18130 18131 18132 18133 18134 18135 18136 18137 18138 18139 18140 18141 18142 18143 18144 18145 18146 18147 18148 18149 18150 18151 18152 18153 18154 18155 18156 18157 18158 18159 18160 18161 18162 18163 18164 18165 18166 18167 18168 18169 18170 18171 18172 18173 18174 18175 18176 18177 18178 18179 18180 18181 18182 18183 18184 18185 18186 18187 18188 18189 18190 18191 18192 18193 18194 18195 18196 18197 18198 18199 18200 18201 18202 18203 18204 18205 18206 18207 18208 18209 18210 18211 18212 18213 18214 18215 18216 18217 18218 18219 18220 18221 18222 18223 18224 18225 18226 18227 18228 18229 18230 18231 18232 18233 18234 18235 18236 18237 18238 18239 18240 18241 18242 18243 18244 18245 18246 18247 18248 18249 18250 18251 18252 18253 18254 18255 18256 18257 18258 18259 18260 18261 18262 18263 18264 18265 18266 18267 18268 18269 18270 18271 18272 18273 18274 18275 18276 18277 18278 18279 18280 18281 18282 18283 18284 18285 18286 18287 18288 18289 18290 18291 18292 18293 18294 18295 18296 18297 18298 18299 18300 18301 18302 18303 18304 18305 18306 18307 18308 18309 18310 18311 18312 18313 18314 18315 18316 18317 18318 18319 18320 18321 18322 18323 18324 18325 18326 18327 18328 18329 18330 18331 18332 18333 18334 18335 18336 18337 18338 18339 18340 18341 18342 18343 18344 18345 18346 18347 18348 18349 18350 18351 18352 18353 18354 18355 18356 18357 18358 18359 18360 18361 18362 18363 18364 18365 18366 18367 18368 18369 18370 18371 18372 18373 18374 18375 18376 18377 18378 18379 18380 18381 18382 18383 18384 18385 18386 18387 18388 18389 18390 18391 18392 18393 18394 18395 18396 18397 18398 18399 18400 18401 18402 18403 18404 18405 18406 18407 18408 18409 18410 18411 18412 18413 18414 18415 18416 18417 18418 18419 18420 18421 18422 18423 18424 18425 18426 18427 18428 18429 18430 18431 18432 18433 18434 18435 18436 18437 18438 18439 18440 18441 18442 18443 18444 18445 18446 18447 18448 18449 18450 18451 18452 18453 18454 18455 18456 18457 18458 18459 18460 18461 18462 18463 18464 18465 18466 18467 18468 18469 18470 18471 18472 18473 18474 18475 18476 18477 18478 18479 18480 18481 18482 18483 18484 18485 18486 18487 18488 18489 18490 18491 18492 18493 18494 18495 18496 18497 18498 18499 18500 18501 18502 18503 18504 18505 18506 18507 18508 18509 18510 18511 18512 18513 18514 18515 18516 18517 18518 18519 18520 18521 18522 18523 18524 18525 18526 18527 18528 18529 18530 18531 18532 18533 18534 18535 18536 18537 18538 18539 18540 18541 18542 18543 18544 18545 18546 18547 18548 18549 18550 18551 18552 18553 18554 18555 18556 18557 18558 18559 18560 18561 18562 18563 18564 18565 18566 18567 18568 18569 18570 18571 18572 18573 18574 18575 18576 18577 18578 18579 18580 18581 18582 18583 18584 18585 18586 18587 18588 18589 18590 18591 18592 18593 18594 18595 18596 18597 18598 18599 18600 18601 18602 18603 18604 18605 18606 18607 18608 18609 18610 18611 18612 18613 18614 18615 18616 18617 18618 18619 18620 18621 18622 18623 18624 18625 18626 18627 18628 18629 18630 18631 18632 18633 18634 18635 18636 18637 18638 18639 18640 18641 18642 18643 18644 18645 18646 18647 18648 18649 18650 18651 18652 18653 18654 18655 18656 18657 18658 18659 18660 18661 18662 18663 18664 18665 18666 18667 18668 18669 18670 18671 18672 18673 18674 18675 18676 18677 18678 18679 18680 18681 18682 18683 18684 18685 18686 18687 18688 18689 18690 18691 18692 18693 18694 18695 18696 18697 18698 18699 18700 18701 18702 18703 18704 18705 18706 18707 18708 18709 18710 18711 18712 18713 18714 18715 18716 18717 18718 18719 18720 18721 18722 18723 18724 18725 18726 18727 18728 18729 18730 18731 18732 18733 18734 18735 18736 18737 18738 18739 18740 18741 18742 18743 18744 18745 18746 18747 18748 18749 18750 18751 18752 18753 18754 18755 18756 18757 18758 18759 18760 18761 18762 18763 18764 18765 18766 18767 18768 18769 18770 18771 18772 18773 18774 18775 18776 18777 18778 18779 18780 18781 18782 18783 18784 18785 18786 18787 18788 18789 18790 18791 18792 18793 18794 18795 18796 18797 18798 18799 18800 18801 18802 18803 18804 18805 18806 18807 18808 18809 18810 18811 18812 18813 18814 18815 18816 18817 18818 18819 18820 18821 18822 18823 18824 18825 18826 18827 18828 18829 18830 18831 18832 18833 18834 18835 18836 18837 18838 18839 18840 18841 18842 18843 18844 18845 18846 18847 18848 18849 18850 18851 18852 18853 18854 18855 18856 18857 18858 18859 18860 18861 18862 18863 18864 18865 18866 18867 18868 18869 18870 18871 18872 18873 18874 18875 18876 18877 18878 18879 18880 18881 18882 18883 18884 18885 18886 18887 18888 18889 18890 18891 18892 18893 18894 18895 18896 18897 18898 18899 18900 18901 18902 18903 18904 18905 18906 18907 18908 18909 18910 18911 18912 18913 18914 18915 18916 18917 18918 18919 18920 18921 18922 18923 18924 18925 18926 18927 18928 18929 18930 18931 18932 18933 18934 18935 18936 18937 18938 18939 18940 18941 18942 18943 18944 18945 18946 18947 18948 18949 18950 18951 18952 18953 18954 18955 18956 18957 18958 18959 18960 18961 18962 18963 18964 18965 18966 18967 18968 18969 18970 18971 18972 18973 18974 18975 18976 18977 18978 18979 18980 18981 18982 18983 18984 18985 18986 18987 18988 18989 18990 18991 18992 18993 18994 18995 18996 18997 18998 18999 19000 19001 19002 19003 19004 19005 19006 19007 19008 19009 19010 19011 19012 19013 19014 19015 19016 19017 19018 19019 19020 19021 19022 19023 19024 19025 19026 19027 19028 19029 19030 19031 19032 19033 19034 19035 19036 19037 19038 19039 19040 19041 19042 19043 19044 19045 19046 19047 19048 19049 19050 19051 19052 19053 19054 19055 19056 19057 19058 19059 19060 19061 19062 19063 19064 19065 19066 19067 19068 19069 19070 19071 19072 19073 19074 19075 19076 19077 19078 19079 19080 19081 19082 19083 19084 19085 19086 19087 19088 19089 19090 19091 19092 19093 19094 19095 19096 19097 19098 19099 19100 19101 19102 19103 19104 19105 19106 19107 19108 19109 19110 19111 19112 19113 19114 19115 19116 19117 19118 19119 19120 19121 19122 19123 19124 19125 19126 19127 19128 19129 19130 19131 19132 19133 19134 19135 19136 19137 19138 19139 19140 19141 19142 19143 19144 19145 19146 19147 19148 19149 19150 19151 19152 19153 19154 19155 19156 19157 19158 19159 19160 19161 19162 19163 19164 19165 19166 19167 19168 19169 19170 19171 19172 19173 19174 19175 19176 19177 19178 19179 19180 19181 19182 19183 19184 19185 19186 19187 19188 19189 19190 19191 19192 19193 19194 19195 19196 19197 19198 19199 19200 19201 19202 19203 19204 19205 19206 19207 19208 19209 19210 19211 19212 19213 19214 19215 19216 19217 19218 19219 19220 19221 19222 19223 19224 19225 19226 19227 19228 19229 19230 19231 19232 19233 19234 19235 19236 19237 19238 19239 19240 19241 19242 19243 19244 19245 19246 19247 19248 19249 19250 19251 19252 19253 19254 19255 19256 19257 19258 19259 19260 19261 19262 19263 19264 19265 19266 19267 19268 19269 19270 19271 19272 19273 19274 19275 19276 19277 19278 19279 19280 19281 19282 19283 19284 19285 19286 19287 19288 19289 19290 19291 19292 19293 19294 19295 19296 19297 19298 19299 19300 19301 19302 19303 19304 19305 19306 19307 19308 19309 19310 19311 19312 19313 19314 19315 19316 19317 19318 19319 19320 19321 19322 19323 19324 19325 19326 19327 19328 19329 19330 19331 19332 19333 19334 19335 19336 19337 19338 19339 19340 19341 19342 19343 19344 19345 19346 19347 19348 19349 19350 19351 19352 19353 19354 19355 19356 19357 19358 19359 19360 19361 19362 19363 19364 19365 19366 19367 19368 19369 19370 19371 19372 19373 19374 19375 19376 19377 19378 19379 19380 19381 19382 19383 19384 19385 19386 19387 19388 19389 19390 19391 19392 19393 19394 19395 19396 19397 19398 19399 19400 19401 19402 19403 19404 19405 19406 19407 19408 19409 19410 19411 19412 19413 19414 19415 19416 19417 19418 19419 19420 19421 19422 19423 19424 19425 19426 19427 19428 19429 19430 19431 19432 19433 19434 19435 19436 19437 19438 19439 19440 19441 19442 19443 19444 19445 19446 19447 19448 19449 19450 19451 19452 19453 19454 19455 19456 19457 19458 19459 19460 19461 19462 19463 19464 19465 19466 19467 19468 19469 19470 19471 19472 19473 19474 19475 19476 19477 19478 19479 19480 19481 19482 19483 19484 19485 19486 19487 19488 19489 19490 19491 19492 19493 19494 19495 19496 19497 19498 19499 19500 19501 19502 19503 19504 19505 19506 19507 19508 19509 19510 19511 19512 19513 19514 19515 19516 19517 19518 19519 19520 19521 19522 19523 19524 19525 19526 19527 19528 19529 19530 19531 19532 19533 19534 19535 19536 19537 19538 19539 19540 19541 19542 19543 19544 19545 19546 19547 19548 19549 19550 19551 19552 19553 19554 19555 19556 19557 19558 19559 19560 19561 19562 19563 19564 19565 19566 19567 19568 19569 19570 19571 19572 19573 19574 19575 19576 19577 19578 19579 19580 19581 19582 19583 19584 19585 19586 19587 19588 19589 19590 19591 19592 19593 19594 19595 19596 19597 19598 19599 19600 19601 19602 19603 19604 19605 19606 19607 19608 19609 19610 19611 19612 19613 19614 19615 19616 19617 19618 19619 19620 19621 19622 19623 19624 19625 19626 19627 19628 19629 19630 19631 19632 19633 19634 19635 19636 19637 19638 19639 19640 19641 19642 19643 19644 19645 19646 19647 19648 19649 19650 19651 19652 19653 19654 19655 19656 19657 19658 19659 19660 19661 19662 19663 19664 19665 19666 19667 19668 19669 19670 19671 19672 19673 19674 19675 19676 19677 19678 19679 19680 19681 19682 19683 19684 19685 19686 19687 19688 19689 19690 19691 19692 19693 19694 19695 19696 19697 19698 19699 19700 19701 19702 19703 19704 19705 19706 19707 19708 19709 19710 19711 19712 19713 19714 19715 19716 19717 19718 19719 19720 19721 19722 19723 19724 19725 19726 19727 19728 19729 19730 19731 19732 19733 19734 19735 19736 19737 19738 19739 19740 19741 19742 19743 19744 19745 19746 19747 19748 19749 19750 19751 19752 19753 19754 19755 19756 19757 19758 19759 19760 19761 19762 19763 19764 19765 19766 19767 19768 19769 19770 19771 19772 19773 19774 19775 19776 19777 19778 19779 19780 19781 19782 19783 19784 19785 19786 19787 19788 19789 19790 19791 19792 19793 19794 19795 19796 19797 19798 19799 19800 19801 19802 19803 19804 19805 19806 19807 19808 19809 19810 19811 19812 19813 19814 19815 19816 19817 19818 19819 19820 19821 19822 19823 19824 19825 19826 19827 19828 19829 19830 19831 19832 19833 19834 19835 19836 19837 19838 19839 19840 19841 19842 19843 19844 19845 19846 19847 19848 19849 19850 19851 19852 19853 19854 19855 19856 19857 19858 19859 19860 19861 19862 19863 19864 19865 19866 19867 19868 19869 19870 19871 19872 19873 19874 19875 19876 19877 19878 19879 19880 19881 19882 19883 19884 19885 19886 19887 19888 19889 19890 19891 19892 19893 19894 19895 19896 19897 19898 19899 19900 19901 19902 19903 19904 19905 19906 19907 19908 19909 19910 19911 19912 19913 19914 19915 19916 19917 19918 19919 19920 19921 19922 19923 19924 19925 19926 19927 19928 19929 19930 19931 19932 19933 19934 19935 19936 19937 19938 19939 19940 19941 19942 19943 19944 19945 19946 19947 19948 19949 19950 19951 19952 19953 19954 19955 19956 19957 19958 19959 19960 19961 19962 19963 19964 19965 19966 19967 19968 19969 19970 19971 19972 19973 19974 19975 19976 19977 19978 19979 19980 19981 19982 19983 19984 19985 19986 19987 19988 19989 19990 19991 19992 19993 19994 19995 19996 19997 19998 19999 20000 20001 20002 20003 20004 20005 20006 20007 20008 20009 20010 20011 20012 20013 20014 20015 20016 20017 20018 20019 20020 20021 20022 20023 20024 20025 20026 20027 20028 20029 20030 20031 20032 20033 20034 20035 20036 20037 20038 20039 20040 20041 20042 20043 20044 20045 20046 20047 20048 20049 20050 20051 20052 20053 20054 20055 20056 20057 20058 20059 20060 20061 20062 20063 20064 20065 20066 20067 20068 20069 20070 20071 20072 20073 20074 20075 20076 20077 20078 20079 20080 20081 20082 20083 20084 20085 20086 20087 20088 20089 20090 20091 20092 20093 20094 20095 20096 20097 20098 20099 20100 20101 20102 20103 20104 20105 20106 20107 20108 20109 20110 20111 20112 20113 20114 20115 20116 20117 20118 20119 20120 20121 20122 20123 20124 20125 20126 20127 20128 20129 20130 20131 20132 20133 20134 20135 20136 20137 20138 20139 20140 20141 20142 20143 20144 20145 20146 20147 20148 20149 20150 20151 20152 20153 20154 20155 20156 20157 20158 20159 20160 20161 20162 20163 20164 20165 20166 20167 20168 20169 20170 20171 20172 20173 20174 20175 20176 20177 20178 20179 20180 20181 20182 20183 20184 20185 20186 20187 20188 20189 20190 20191 20192 20193 20194 20195 20196 20197 20198 20199 20200 20201 20202 20203 20204 20205 20206 20207 20208 20209 20210 20211 20212 20213 20214 20215 20216 20217 20218 20219 20220 20221 20222 20223 20224 20225 20226 20227 20228 20229 20230 20231 20232 20233 20234 20235 20236 20237 20238 20239 20240 20241 20242 20243 20244 20245 20246 20247 20248 20249 20250 20251 20252 20253 20254 20255 20256 20257 20258 20259 20260 20261 20262 20263 20264 20265 20266 20267 20268 20269 20270 20271 20272 20273 20274 20275 20276 20277 20278 20279 20280 20281 20282 20283 20284 20285 20286 20287 20288 20289 20290 20291 20292 20293 20294 20295 20296 20297 20298 20299 20300 20301 20302 20303 20304 20305 20306 20307 20308 20309 20310 20311 20312 20313 20314 20315 20316 20317 20318 20319 20320 20321 20322 20323 20324 20325 20326 20327 20328 20329 20330 20331 20332 20333 20334 20335 20336 20337 20338 20339 20340 20341 20342 20343 20344 20345 20346 20347 20348 20349 20350 20351 20352 20353 20354 20355 20356 20357 20358 20359 20360 20361 20362 20363 20364 20365 20366 20367 20368 20369 20370 20371 20372 20373 20374 20375 20376 20377 20378 20379 20380 20381 20382 20383 20384 20385 20386 20387 20388 20389 20390 20391 20392 20393 20394 20395 20396 20397 20398 20399 20400 20401 20402 20403 20404 20405 20406 20407 20408 20409 20410 20411 20412 20413 20414 20415 20416 20417 20418 20419 20420 20421 20422 20423 20424 20425 20426 20427 20428 20429 20430 20431 20432 20433 20434 20435 20436 20437 20438 20439 20440 20441 20442 20443 20444 20445 20446 20447 20448 20449 20450 20451 20452 20453 20454 20455 20456 20457 20458 20459 20460 20461 20462 20463 20464 20465 20466 20467 20468 20469 20470 20471 20472 20473 20474 20475 20476 20477 20478 20479 20480 20481 20482 20483 20484 20485 20486 20487 20488 20489 20490 20491 20492 20493 20494 20495 20496 20497 20498 20499 20500 20501 20502 20503 20504 20505 20506 20507 20508 20509 20510 20511 20512 20513 20514 20515 20516 20517 20518 20519 20520 20521 20522 20523 20524 20525 20526 20527 20528 20529 20530 20531 20532 20533 20534 20535 20536 20537 20538 20539 20540 20541 20542 20543 20544 20545 20546 20547 20548 20549 20550 20551 20552 20553 20554 20555 20556 20557 20558 20559 20560 20561 20562 20563 20564 20565 20566 20567 20568 20569 20570 20571 20572 20573 20574 20575 20576 20577 20578 20579 20580 20581 20582 20583 20584 20585 20586 20587 20588 20589 20590 20591 20592 20593 20594 20595 20596 20597 20598 20599 20600 20601 20602 20603 20604 20605 20606 20607 20608 20609 20610 20611 20612 20613 20614 20615 20616 20617 20618 20619 20620 20621 20622 20623 20624 20625 20626 20627 20628 20629 20630 20631 20632 20633 20634 20635 20636 20637 20638 20639 20640 20641 20642 20643 20644 20645 20646 20647 20648 20649 20650 20651 20652 20653 20654 20655 20656 20657 20658 20659 20660 20661 20662 20663 20664 20665 20666 20667 20668 20669 20670 20671 20672 20673 20674 20675 20676 20677 20678 20679 20680 20681 20682 20683 20684 20685 20686 20687 20688 20689 20690 20691 20692 20693 20694 20695 20696 20697 20698 20699 20700 20701 20702 20703 20704 20705 20706 20707 20708 20709 20710 20711 20712 20713 20714 20715 20716 20717 20718 20719 20720 20721 20722 20723 20724 20725 20726 20727 20728 20729 20730 20731 20732 20733 20734 20735 20736 20737 20738 20739 20740 20741 20742 20743 20744 20745 20746 20747 20748 20749 20750 20751 20752 20753 20754 20755 20756 20757 20758 20759 20760 20761 20762 20763 20764 20765 20766 20767 20768 20769 20770 20771 20772 20773 20774 20775 20776 20777 20778 20779 20780 20781 20782 20783 20784 20785 20786 20787 20788 20789 20790 20791 20792 20793 20794 20795 20796 20797 20798 20799 20800 20801 20802 20803 20804 20805 20806 20807 20808 20809 20810 20811 20812 20813 20814 20815 20816 20817 20818 20819 20820 20821 20822 20823 20824 20825 20826 20827 20828 20829 20830 20831 20832 20833 20834 20835 20836 20837 20838 20839 20840 20841 20842 20843 20844 20845 20846 20847 20848 20849 20850 20851 20852 20853 20854 20855 20856 20857 20858 20859 20860 20861 20862 20863 20864 20865 20866 20867 20868 20869 20870 20871 20872 20873 20874 20875 20876 20877 20878 20879 20880 20881 20882 20883 20884 20885 20886 20887 20888 20889 20890 20891 20892 20893 20894 20895 20896 20897 20898 20899 20900 20901 20902 20903 20904 20905 20906 20907 20908 20909 20910 20911 20912 20913 20914 20915 20916 20917 20918 20919 20920 20921 20922 20923 20924 20925 20926 20927 20928 20929 20930 20931 20932 20933 20934 20935 20936 20937 20938 20939 20940 20941 20942 20943 20944 20945 20946 20947 20948 20949 20950 20951 20952 20953 20954 20955 20956 20957 20958 20959 20960 20961 20962 20963 20964 20965 20966 20967 20968 20969 20970 20971 20972 20973 20974 20975 20976 20977 20978 20979 20980 20981 20982 20983 20984 20985 20986 20987 20988 20989 20990 20991 20992 20993 20994 20995 20996 20997 20998 20999 21000 21001 21002 21003 21004 21005 21006 21007 21008 21009 21010 21011 21012 21013 21014 21015 21016 21017 21018 21019 21020 21021 21022 21023 21024 21025 21026 21027 21028 21029 21030 21031 21032 21033 21034 21035 21036 21037 21038 21039 21040 21041 21042 21043 21044 21045 21046 21047 21048 21049 21050 21051 21052 21053 21054 21055 21056 21057 21058 21059 21060 21061 21062 21063 21064 21065 21066 21067 21068 21069 21070 21071 21072 21073 21074 21075 21076 21077 21078 21079 21080 21081 21082 21083 21084 21085 21086 21087 21088 21089 21090 21091 21092 21093 21094 21095 21096 21097 21098 21099 21100 21101 21102 21103 21104 21105 21106 21107 21108 21109 21110 21111 21112 21113 21114 21115 21116 21117 21118 21119 21120 21121 21122 21123 21124 21125 21126 21127 21128 21129 21130 21131 21132 21133 21134 21135 21136 21137 21138 21139 21140 21141 21142 21143 21144 21145 21146 21147 21148 21149 21150 21151 21152 21153 21154 21155 21156 21157 21158 21159 21160 21161 21162 21163 21164 21165 21166 21167 21168 21169 21170 21171 21172 21173 21174 21175 21176 21177 21178 21179 21180 21181 21182 21183 21184 21185 21186 21187 21188 21189 21190 21191 21192 21193 21194 21195 21196 21197 21198 21199 21200 21201 21202 21203 21204 21205 21206 21207 21208 21209 21210 21211 21212 21213 21214 21215 21216 21217 21218 21219 21220 21221 21222 21223 21224 21225 21226 21227 21228 21229 21230 21231 21232 21233 21234 21235 21236 21237 21238 21239 21240 21241 21242 21243 21244 21245 21246 21247 21248 21249 21250 21251 21252 21253 21254 21255 21256 21257 21258 21259 21260 21261 21262 21263 21264 21265 21266 21267 21268 21269 21270 21271 21272 21273 21274 21275 21276 21277 21278 21279 21280 21281 21282 21283 21284 21285 21286 21287 21288 21289 21290 21291 21292 21293 21294 21295 21296 21297 21298 21299 21300 21301 21302 21303 21304 21305 21306 21307 21308 21309 21310 21311 21312 21313 21314 21315 21316 21317 21318 21319 21320 21321 21322 21323 21324 21325 21326 21327 21328 21329 21330 21331 21332 21333 21334 21335 21336 21337 21338 21339 21340 21341 21342 21343 21344 21345 21346 21347 21348 21349 21350 21351 21352 21353 21354 21355 21356 21357 21358 21359 21360 21361 21362 21363 21364 21365 21366 21367 21368 21369 21370 21371 21372 21373 21374 21375 21376 21377 21378 21379 21380 21381 21382 21383 21384 21385 21386 21387 21388 21389 21390 21391 21392 21393 21394 21395 21396 21397 21398 21399 21400 21401 21402 21403 21404 21405 21406 21407 21408 21409 21410 21411 21412 21413 21414 21415 21416 21417 21418 21419 21420 21421 21422 21423 21424 21425 21426 21427 21428 21429 21430 21431 21432 21433 21434 21435 21436 21437 21438 21439 21440 21441 21442 21443 21444 21445 21446 21447 21448 21449 21450 21451 21452 21453 21454 21455 21456 21457 21458 21459 21460 21461 21462 21463 21464 21465 21466 21467 21468 21469 21470 21471 21472 21473 21474 21475 21476 21477 21478 21479 21480 21481 21482 21483 21484 21485 21486 21487 21488 21489 21490 21491 21492 21493 21494 21495 21496 21497 21498 21499 21500 21501 21502 21503 21504 21505 21506 21507 21508 21509 21510 21511 21512 21513 21514 21515 21516 21517 21518 21519 21520 21521 21522 21523 21524 21525 21526 21527 21528 21529 21530 21531 21532 21533 21534 21535 21536 21537 21538 21539 21540 21541 21542 21543 21544 21545 21546 21547 21548 21549 21550 21551 21552 21553 21554 21555 21556 21557 21558 21559 21560 21561 21562 21563 21564 21565 21566 21567 21568 21569 21570 21571 21572 21573 21574 21575 21576 21577 21578 21579 21580 21581 21582 21583 21584 21585 21586 21587 21588 21589 21590 21591 21592 21593 21594 21595 21596 21597 21598 21599 21600 21601 21602 21603 21604 21605 21606 21607 21608 21609 21610 21611 21612 21613 21614 21615 21616 21617 21618 21619 21620 21621 21622 21623 21624 21625 21626 21627 21628 21629 21630 21631 21632 21633 21634 21635 21636 21637 21638 21639 21640 21641 21642 21643 21644 21645 21646 21647 21648 21649 21650 21651 21652 21653 21654 21655 21656 21657 21658 21659 21660 21661 21662 21663 21664 21665 21666 21667 21668 21669 21670 21671 21672 21673 21674 21675 21676 21677 21678 21679 21680 21681 21682 21683 21684 21685 21686 21687 21688 21689 21690 21691 21692 21693 21694 21695 21696 21697 21698 21699 21700 21701 21702 21703 21704 21705 21706 21707 21708 21709 21710 21711 21712 21713 21714 21715 21716 21717 21718 21719 21720 21721 21722 21723 21724 21725 21726 21727 21728 21729 21730 21731 21732 21733 21734 21735 21736 21737 21738 21739 21740 21741 21742 21743 21744 21745 21746 21747 21748 21749 21750 21751 21752 21753 21754 21755 21756 21757 21758 21759 21760 21761 21762 21763 21764 21765 21766 21767 21768 21769 21770 21771 21772 21773 21774 21775 21776 21777 21778 21779 21780 21781 21782 21783 21784 21785 21786 21787 21788 21789 21790 21791 21792 21793 21794 21795 21796 21797 21798 21799 21800 21801 21802 21803 21804 21805 21806 21807 21808 21809 21810 21811 21812 21813 21814 21815 21816 21817 21818 21819 21820 21821 21822 21823 21824 21825 21826 21827 21828 21829 21830 21831 21832 21833 21834 21835 21836 21837 21838 21839 21840 21841 21842 21843 21844 21845 21846 21847 21848 21849 21850 21851 21852 21853 21854 21855 21856 21857 21858 21859 21860 21861 21862 21863 21864 21865 21866 21867 21868 21869 21870 21871 21872 21873 21874 21875 21876 21877 21878 21879 21880 21881 21882 21883 21884 21885 21886 21887 21888 21889 21890 21891 21892 21893 21894 21895 21896 21897 21898 21899 21900 21901 21902 21903 21904 21905 21906 21907 21908 21909 21910 21911 21912 21913 21914 21915 21916 21917 21918 21919 21920 21921 21922 21923 21924 21925 21926 21927 21928 21929 21930 21931 21932 21933 21934 21935 21936 21937 21938 21939 21940 21941 21942 21943 21944 21945 21946 21947 21948 21949 21950 21951 21952 21953 21954 21955 21956 21957 21958 21959 21960 21961 21962 21963 21964 21965 21966 21967 21968 21969 21970 21971 21972 21973 21974 21975 21976 21977 21978 21979 21980 21981 21982 21983 21984 21985 21986 21987 21988 21989 21990 21991 21992 21993 21994 21995 21996 21997 21998 21999 22000 22001 22002 22003 22004 22005 22006 22007 22008 22009 22010 22011 22012 22013 22014 22015 22016 22017 22018 22019 22020 22021 22022 22023 22024 22025 22026 22027 22028 22029 22030 22031 22032 22033 22034 22035 22036 22037 22038 22039 22040 22041 22042 22043 22044 22045 22046 22047 22048 22049 22050 22051 22052 22053 22054 22055 22056 22057 22058 22059 22060 22061 22062 22063 22064 22065 22066 22067 22068 22069 22070 22071 22072 22073 22074 22075 22076 22077 22078 22079 22080 22081 22082 22083 22084 22085 22086 22087 22088 22089 22090 22091 22092 22093 22094 22095 22096 22097 22098 22099 22100 22101 22102 22103 22104 22105 22106 22107 22108 22109 22110 22111 22112 22113 22114 22115 22116 22117 22118 22119 22120 22121 22122 22123 22124 22125 22126 22127 22128 22129 22130 22131 22132 22133 22134 22135 22136 22137 22138 22139 22140 22141 22142 22143 22144 22145 22146 22147 22148 22149 22150 22151 22152 22153 22154 22155 22156 22157 22158 22159 22160 22161 22162 22163 22164 22165 22166 22167 22168 22169 22170 22171 22172 22173 22174 22175 22176 22177 22178 22179 22180 22181 22182 22183 22184 22185 22186 22187 22188 22189 22190 22191 22192 22193 22194 22195 22196 22197 22198 22199 22200 22201 22202 22203 22204 22205 22206 22207 22208 22209 22210 22211 22212 22213 22214 22215 22216 22217 22218 22219 22220 22221 22222 22223 22224 22225 22226 22227 22228 22229 22230 22231 22232 22233 22234 22235 22236 22237 22238 22239 22240 22241 22242 22243 22244 22245 22246 22247 22248 22249 22250 22251 22252 22253 22254 22255 22256 22257 22258 22259 22260 22261 22262 22263 22264 22265 22266 22267 22268 22269 22270 22271 22272 22273 22274 22275 22276 22277 22278 22279 22280 22281 22282 22283 22284 22285 22286 22287 22288 22289 22290 22291 22292 22293 22294 22295 22296 22297 22298 22299 22300 22301 22302 22303 22304 22305 22306 22307 22308 22309 22310 22311 22312 22313 22314 22315 22316 22317 22318 22319 22320 22321 22322 22323 22324 22325 22326 22327 22328 22329 22330 22331 22332 22333 22334 22335 22336 22337 22338 22339 22340 22341 22342 22343 22344 22345 22346 22347 22348 22349 22350 22351 22352 22353 22354 22355 22356 22357 22358 22359 22360 22361 22362 22363 22364 22365 22366 22367 22368 22369 22370 22371 22372 22373 22374 22375 22376 22377 22378 22379 22380 22381 22382 22383 22384 22385 22386 22387 22388 22389 22390 22391 22392 22393 22394 22395 22396 22397 22398 22399 22400 22401 22402 22403 22404 22405 22406 22407 22408 22409 22410 22411 22412 22413 22414 22415 22416 22417 22418 22419 22420 22421 22422 22423 22424 22425 22426 22427 22428 22429 22430 22431 22432 22433 22434 22435 22436 22437 22438 22439 22440 22441 22442 22443 22444 22445 22446 22447 22448 22449 22450 22451 22452 22453 22454 22455 22456 22457 22458 22459 22460 22461 22462 22463 22464 22465 22466 22467 22468 22469 22470 22471 22472 22473 22474 22475 22476 22477 22478 22479 22480 22481 22482 22483 22484 22485 22486 22487 22488 22489 22490 22491 22492 22493 22494 22495 22496 22497 22498 22499 22500 22501 22502 22503 22504 22505 22506 22507 22508 22509 22510 22511 22512 22513 22514 22515 22516 22517 22518 22519 22520 22521 22522 22523 22524 22525 22526 22527 22528 22529 22530 22531 22532 22533 22534 22535 22536 22537 22538 22539 22540 22541 22542 22543 22544 22545 22546 22547 22548 22549 22550 22551 22552 22553 22554 22555 22556 22557 22558 22559 22560 22561 22562 22563 22564 22565 22566 22567 22568 22569 22570 22571 22572 22573 22574 22575 22576 22577 22578 22579 22580 22581 22582 22583 22584 22585 22586 22587 22588 22589 22590 22591 22592 22593 22594 22595 22596 22597 22598 22599 22600 22601 22602 22603 22604 22605 22606 22607 22608 22609 22610 22611 22612 22613 22614 22615 22616 22617 22618 22619 22620 22621 22622 22623 22624 22625 22626 22627 22628 22629 22630 22631 22632 22633 22634 22635 22636 22637 22638 22639 22640 22641 22642 22643 22644 22645 22646 22647 22648 22649 22650 22651 22652 22653 22654 22655 22656 22657 22658 22659 22660 22661 22662 22663 22664 22665 22666 22667 22668 22669 22670 22671 22672 22673 22674 22675 22676 22677 22678 22679 22680 22681 22682 22683 22684 22685 22686 22687 22688 22689 22690 22691 22692 22693 22694 22695 22696 22697 22698 22699 22700 22701 22702 22703 22704 22705 22706 22707 22708 22709 22710 22711 22712 22713 22714 22715 22716 22717 22718 22719 22720 22721 22722 22723 22724 22725 22726 22727 22728 22729 22730 22731 22732 22733 22734 22735 22736 22737 22738 22739 22740 22741 22742 22743 22744 22745 22746 22747 22748 22749 22750 22751 22752 22753 22754 22755 22756 22757 22758 22759 22760 22761 22762 22763 22764 22765 22766 22767 22768 22769 22770 22771 22772 22773 22774 22775 22776 22777 22778 22779 22780 22781 22782 22783 22784 22785 22786 22787 22788 22789 22790 22791 22792 22793 22794 22795 22796 22797 22798 22799 22800 22801 22802 22803 22804 22805 22806 22807 22808 22809 22810 22811 22812 22813 22814 22815 22816 22817 22818 22819 22820 22821 22822 22823 22824 22825 22826 22827 22828 22829 22830 22831 22832 22833 22834 22835 22836 22837 22838 22839 22840 22841 22842 22843 22844 22845 22846 22847 22848 22849 22850 22851 22852 22853 22854 22855 22856 22857 22858 22859 22860 22861 22862 22863 22864 22865 22866 22867 22868 22869 22870 22871 22872 22873 22874 22875 22876 22877 22878 22879 22880 22881 22882 22883 22884 22885 22886 22887 22888 22889 22890 22891 22892 22893 22894 22895 22896 22897 22898 22899 22900 22901 22902 22903 22904 22905 22906 22907 22908 22909 22910 22911 22912 22913 22914 22915 22916 22917 22918 22919 22920 22921 22922 22923 22924 22925 22926 22927 22928 22929 22930 22931 22932 22933 22934 22935 22936 22937 22938 22939 22940 22941 22942 22943 22944 22945 22946 22947 22948 22949 22950 22951 22952 22953 22954 22955 22956 22957 22958 22959 22960 22961 22962 22963 22964 22965 22966 22967 22968 22969 22970 22971 22972 22973 22974 22975 22976 22977 22978 22979 22980 22981 22982 22983 22984 22985 22986 22987 22988 22989 22990 22991 22992 22993 22994 22995 22996 22997 22998 22999 23000 23001 23002 23003 23004 23005 23006 23007 23008 23009 23010 23011 23012 23013 23014 23015 23016 23017 23018 23019 23020 23021 23022 23023 23024 23025 23026 23027 23028 23029 23030 23031 23032 23033 23034 23035 23036 23037 23038 23039 23040 23041 23042 23043 23044 23045 23046 23047 23048 23049 23050 23051 23052 23053 23054 23055 23056 23057 23058 23059 23060 23061 23062 23063 23064 23065 23066 23067 23068 23069 23070 23071 23072 23073 23074 23075 23076 23077 23078 23079 23080 23081 23082 23083 23084 23085 23086 23087 23088 23089 23090 23091 23092 23093 23094 23095 23096 23097 23098 23099 23100 23101 23102 23103 23104 23105 23106 23107 23108 23109 23110 23111 23112 23113 23114 23115 23116 23117 23118 23119 23120 23121 23122 23123 23124 23125 23126 23127 23128 23129 23130 23131 23132 23133 23134 23135 23136 23137 23138 23139 23140 23141 23142 23143 23144 23145 23146 23147 23148 23149 23150 23151 23152 23153 23154 23155 23156 23157 23158 23159 23160 23161 23162 23163 23164 23165 23166 23167 23168 23169 23170 23171 23172 23173 23174 23175 23176 23177 23178 23179 23180 23181 23182 23183 23184 23185 23186 23187 23188 23189 23190 23191 23192 23193 23194 23195 23196 23197 23198 23199 23200 23201 23202 23203 23204 23205 23206 23207 23208 23209 23210 23211 23212 23213 23214 23215 23216 23217 23218 23219 23220 23221 23222 23223 23224 23225 23226 23227 23228 23229 23230 23231 23232 23233 23234 23235 23236 23237 23238 23239 23240 23241 23242 23243 23244 23245 23246 23247 23248 23249 23250 23251 23252 23253 23254 23255 23256 23257 23258 23259 23260 23261 23262 23263 23264 23265 23266 23267 23268 23269 23270 23271 23272 23273 23274 23275 23276 23277 23278 23279 23280 23281 23282 23283 23284 23285 23286 23287 23288 23289 23290 23291 23292 23293 23294 23295 23296 23297 23298 23299 23300 23301 23302 23303 23304 23305 23306 23307 23308 23309 23310 23311 23312 23313 23314 23315 23316 23317 23318 23319 23320 23321 23322 23323 23324 23325 23326 23327 23328 23329 23330 23331 23332 23333 23334 23335 23336 23337 23338 23339 23340 23341 23342 23343 23344 23345 23346 23347 23348 23349 23350 23351 23352 23353 23354 23355 23356 23357 23358 23359 23360 23361 23362 23363 23364 23365 23366 23367 23368 23369 23370 23371 23372 23373 23374 23375 23376 23377 23378 23379 23380 23381 23382 23383 23384 23385 23386 23387 23388 23389 23390 23391 23392 23393 23394 23395 23396 23397 23398 23399 23400 23401 23402 23403 23404 23405 23406 23407 23408 23409 23410 23411 23412 23413 23414 23415 23416 23417 23418 23419 23420 23421 23422 23423 23424 23425 23426 23427 23428 23429 23430 23431 23432 23433 23434 23435 23436 23437 23438 23439 23440 23441 23442 23443 23444 23445 23446 23447 23448 23449 23450 23451 23452 23453 23454 23455 23456 23457 23458 23459 23460 23461 23462 23463 23464 23465 23466 23467 23468 23469 23470 23471 23472 23473 23474 23475 23476 23477 23478 23479 23480 23481 23482 23483 23484 23485 23486 23487 23488 23489 23490 23491 23492 23493 23494 23495 23496 23497 23498 23499 23500 23501 23502 23503 23504 23505 23506 23507 23508 23509 23510 23511 23512 23513 23514 23515 23516 23517 23518 23519 23520 23521 23522 23523 23524 23525 23526 23527 23528 23529 23530 23531 23532 23533 23534 23535 23536 23537 23538 23539 23540 23541 23542 23543 23544 23545 23546 23547 23548 23549 23550 23551 23552 23553 23554 23555 23556 23557 23558 23559 23560 23561 23562 23563 23564 23565 23566 23567 23568 23569 23570 23571 23572 23573 23574 23575 23576 23577 23578 23579 23580 23581 23582 23583 23584 23585 23586 23587 23588 23589 23590 23591 23592 23593 23594 23595 23596 23597 23598 23599 23600 23601 23602 23603 23604 23605 23606 23607 23608 23609 23610 23611 23612 23613 23614 23615 23616 23617 23618 23619 23620 23621 23622 23623 23624 23625 23626 23627 23628 23629 23630 23631 23632 23633 23634 23635 23636 23637 23638 23639 23640 23641 23642 23643 23644 23645 23646 23647 23648 23649 23650 23651 23652 23653 23654 23655 23656 23657 23658 23659 23660 23661 23662 23663 23664 23665 23666 23667 23668 23669 23670 23671 23672 23673 23674 23675 23676 23677 23678 23679 23680 23681 23682 23683 23684 23685 23686 23687 23688 23689 23690 23691 23692 23693 23694 23695 23696 23697 23698 23699 23700 23701 23702 23703 23704 23705 23706 23707 23708 23709 23710 23711 23712 23713 23714 23715 23716 23717 23718 23719 23720 23721 23722 23723 23724 23725 23726 23727 23728 23729 23730 23731 23732 23733 23734 23735 23736 23737 23738 23739 23740 23741 23742 23743 23744 23745 23746 23747 23748 23749 23750 23751 23752 23753 23754 23755 23756 23757 23758 23759 23760 23761 23762 23763 23764 23765 23766 23767 23768 23769 23770 23771 23772 23773 23774 23775 23776 23777 23778 23779 23780 23781 23782 23783 23784 23785 23786 23787 23788 23789 23790 23791 23792 23793 23794 23795 23796 23797 23798 23799 23800 23801 23802 23803 23804 23805 23806 23807 23808 23809 23810 23811 23812 23813 23814 23815 23816 23817 23818 23819 23820 23821 23822 23823 23824 23825 23826 23827 23828 23829 23830 23831 23832 23833 23834 23835 23836 23837 23838 23839 23840 23841 23842 23843 23844 23845 23846 23847 23848 23849 23850 23851 23852 23853 23854 23855 23856 23857 23858 23859 23860 23861 23862 23863 23864 23865 23866 23867 23868 23869 23870 23871 23872 23873 23874 23875 23876 23877 23878 23879 23880 23881 23882 23883 23884 23885 23886 23887 23888 23889 23890 23891 23892 23893 23894 23895 23896 23897 23898 23899 23900 23901 23902 23903 23904 23905 23906 23907 23908 23909 23910 23911 23912 23913 23914 23915 23916 23917 23918 23919 23920 23921 23922 23923 23924 23925 23926 23927 23928 23929 23930 23931 23932 23933 23934 23935 23936 23937 23938 23939 23940 23941 23942 23943 23944 23945 23946 23947 23948 23949 23950 23951 23952 23953 23954 23955 23956 23957 23958 23959 23960 23961 23962 23963 23964 23965 23966 23967 23968 23969 23970 23971 23972 23973 23974 23975 23976 23977 23978 23979 23980 23981 23982 23983 23984 23985 23986 23987 23988 23989 23990 23991 23992 23993 23994 23995 23996 23997 23998 23999 24000 24001 24002 24003 24004 24005 24006 24007 24008 24009 24010 24011 24012 24013 24014 24015 24016 24017 24018 24019 24020 24021 24022 24023 24024 24025 24026 24027 24028 24029 24030 24031 24032 24033 24034 24035 24036 24037 24038 24039 24040 24041 24042 24043 24044 24045 24046 24047 24048 24049 24050 24051 24052 24053 24054 24055 24056 24057 24058 24059 24060 24061 24062 24063 24064 24065 24066 24067 24068 24069 24070 24071 24072 24073 24074 24075 24076 24077 24078 24079 24080 24081 24082 24083 24084 24085 24086 24087 24088 24089 24090 24091 24092 24093 24094 24095 24096 24097 24098 24099 24100 24101 24102 24103 24104 24105 24106 24107 24108 24109 24110 24111 24112 24113 24114 24115 24116 24117 24118 24119 24120 24121 24122 24123 24124 24125 24126 24127 24128 24129 24130 24131 24132 24133 24134 24135 24136 24137 24138 24139 24140 24141 24142 24143 24144 24145 24146 24147 24148 24149 24150 24151 24152 24153 24154 24155 24156 24157 24158 24159 24160 24161 24162 24163 24164 24165 24166 24167 24168 24169 24170 24171 24172 24173 24174 24175 24176 24177 24178 24179 24180 24181 24182 24183 24184 24185 24186 24187 24188 24189 24190 24191 24192 24193 24194 24195 24196 24197 24198 24199 24200 24201 24202 24203 24204 24205 24206 24207 24208 24209 24210 24211 24212 24213 24214 24215 24216 24217 24218 24219 24220 24221 24222 24223 24224 24225 24226 24227 24228 24229 24230 24231 24232 24233 24234 24235 24236 24237 24238 24239 24240 24241 24242 24243 24244 24245 24246 24247 24248 24249 24250 24251 24252 24253 24254 24255 24256 24257 24258 24259 24260 24261 24262 24263 24264 24265 24266 24267 24268 24269 24270 24271 24272 24273 24274 24275 24276 24277 24278 24279 24280 24281 24282 24283 24284 24285 24286 24287 24288 24289 24290 24291 24292 24293 24294 24295 24296 24297 24298 24299 24300 24301 24302 24303 24304 24305 24306 24307 24308 24309 24310 24311 24312 24313 24314 24315 24316 24317 24318 24319 24320 24321 24322 24323 24324 24325 24326 24327 24328 24329 24330 24331 24332 24333 24334 24335 24336 24337 24338 24339 24340 24341 24342 24343 24344 24345 24346 24347 24348 24349 24350 24351 24352 24353 24354 24355 24356 24357 24358 24359 24360 24361 24362 24363 24364 24365 24366 24367 24368 24369 24370 24371 24372 24373 24374 24375 24376 24377 24378 24379 24380 24381 24382 24383 24384 24385 24386 24387 24388 24389 24390 24391 24392 24393 24394 24395 24396 24397 24398 24399 24400 24401 24402 24403 24404 24405 24406 24407 24408 24409 24410 24411 24412 24413 24414 24415 24416 24417 24418 24419 24420 24421 24422 24423 24424 24425 24426 24427 24428 24429 24430 24431 24432 24433 24434 24435 24436 24437 24438 24439 24440 24441 24442 24443 24444 24445 24446 24447 24448 24449 24450 24451 24452 24453 24454 24455 24456 24457 24458 24459 24460 24461 24462 24463 24464 24465 24466 24467 24468 24469 24470 24471 24472 24473 24474 24475 24476 24477 24478 24479 24480 24481 24482 24483 24484 24485 24486 24487 24488 24489 24490 24491 24492 24493 24494 24495 24496 24497 24498 24499 24500 24501 24502 24503 24504 24505 24506 24507 24508 24509 24510 24511 24512 24513 24514 24515 24516 24517 24518 24519 24520 24521 24522 24523 24524 24525 24526 24527 24528 24529 24530 24531 24532 24533 24534 24535 24536 24537 24538 24539 24540 24541 24542 24543 24544 24545 24546 24547 24548 24549 24550 24551 24552 24553 24554 24555 24556 24557 24558 24559 24560 24561 24562 24563 24564 24565 24566 24567 24568 24569 24570 24571 24572 24573 24574 24575 24576 24577 24578 24579 24580 24581 24582 24583 24584 24585 24586 24587 24588 24589 24590 24591 24592 24593 24594 24595 24596 24597 24598 24599 24600 24601 24602 24603 24604 24605 24606 24607 24608 24609 24610 24611 24612 24613 24614 24615 24616 24617 24618 24619 24620 24621 24622 24623 24624 24625 24626 24627 24628 24629 24630 24631 24632 24633 24634 24635 24636 24637 24638 24639 24640 24641 24642 24643 24644 24645 24646 24647 24648 24649 24650 24651 24652 24653 24654 24655 24656 24657 24658 24659 24660 24661 24662 24663 24664 24665 24666 24667 24668 24669 24670 24671 24672 24673 24674 24675 24676 24677 24678 24679 24680 24681 24682 24683 24684 24685 24686 24687 24688 24689 24690 24691 24692 24693 24694 24695 24696 24697 24698 24699 24700 24701 24702 24703 24704 24705 24706 24707 24708 24709 24710 24711 24712 24713 24714 24715 24716 24717 24718 24719 24720 24721 24722 24723 24724 24725 24726 24727 24728 24729 24730 24731 24732 24733 24734 24735 24736 24737 24738 24739 24740 24741 24742 24743 24744 24745 24746 24747 24748 24749 24750 24751 24752 24753 24754 24755 24756 24757 24758 24759 24760 24761 24762 24763 24764 24765 24766 24767 24768 24769 24770 24771 24772 24773 24774 24775 24776 24777 24778 24779 24780 24781 24782 24783 24784 24785 24786 24787 24788 24789 24790 24791 24792 24793 24794 24795 24796 24797 24798 24799 24800 24801 24802 24803 24804 24805 24806 24807 24808 24809 24810 24811 24812 24813 24814 24815 24816 24817 24818 24819 24820 24821 24822 24823 24824 24825 24826 24827 24828 24829 24830 24831 24832 24833 24834 24835 24836 24837 24838 24839 24840 24841 24842 24843 24844 24845 24846 24847 24848 24849 24850 24851 24852 24853 24854 24855 24856 24857 24858 24859 24860 24861 24862 24863 24864 24865 24866 24867 24868 24869 24870 24871 24872 24873 24874 24875 24876 24877 24878 24879 24880 24881 24882 24883 24884 24885 24886 24887 24888 24889 24890 24891 24892 24893 24894 24895 24896 24897 24898 24899 24900 24901 24902 24903 24904 24905 24906 24907 24908 24909 24910 24911 24912 24913 24914 24915 24916 24917 24918 24919 24920 24921 24922 24923 24924 24925 24926 24927 24928 24929 24930 24931 24932 24933 24934 24935 24936 24937 24938 24939 24940 24941 24942 24943 24944 24945 24946 24947 24948 24949 24950 24951 24952 24953 24954 24955 24956 24957 24958 24959 24960 24961 24962 24963 24964 24965 24966 24967 24968 24969 24970 24971 24972 24973 24974 24975 24976 24977 24978 24979 24980 24981 24982 24983 24984 24985 24986 24987 24988 24989 24990 24991 24992 24993 24994 24995 24996 24997 24998 24999 25000 25001 25002 25003 25004 25005 25006 25007 25008 25009 25010 25011 25012 25013 25014 25015 25016 25017 25018 25019 25020 25021 25022 25023 25024 25025 25026 25027 25028 25029 25030 25031 25032 25033 25034 25035 25036 25037 25038 25039 25040 25041 25042 25043 25044 25045 25046 25047 25048 25049 25050 25051 25052 25053 25054 25055 25056 25057 25058 25059 25060 25061 25062 25063 25064 25065 25066 25067 25068 25069 25070 25071 25072 25073 25074 25075 25076 25077 25078 25079 25080 25081 25082 25083 25084 25085 25086 25087 25088 25089 25090 25091 25092 25093 25094 25095 25096 25097 25098 25099 25100 25101 25102 25103 25104 25105 25106 25107 25108 25109 25110 25111 25112 25113 25114 25115 25116 25117 25118 25119 25120 25121 25122 25123 25124 25125 25126 25127 25128 25129 25130 25131 25132 25133 25134 25135 25136 25137 25138 25139 25140 25141 25142 25143 25144 25145 25146 25147 25148 25149 25150 25151 25152 25153 25154 25155 25156 25157 25158 25159 25160 25161 25162 25163 25164 25165 25166 25167 25168 25169 25170 25171 25172 25173 25174 25175 25176 25177 25178 25179 25180 25181 25182 25183 25184 25185 25186 25187 25188 25189 25190 25191 25192 25193 25194 25195 25196 25197 25198 25199 25200 25201 25202 25203 25204 25205 25206 25207 25208 25209 25210 25211 25212 25213 25214 25215 25216 25217 25218 25219 25220 25221 25222 25223 25224 25225 25226 25227 25228 25229 25230 25231 25232 25233 25234 25235 25236 25237 25238 25239 25240 25241 25242 25243 25244 25245 25246 25247 25248 25249 25250 25251 25252 25253 25254 25255 25256 25257 25258 25259 25260 25261 25262 25263 25264 25265 25266 25267 25268 25269 25270 25271 25272 25273 25274 25275 25276 25277 25278 25279 25280 25281 25282 25283 25284 25285 25286 25287 25288 25289 25290 25291 25292 25293 25294 25295 25296 25297 25298 25299 25300 25301 25302 25303 25304 25305 25306 25307 25308 25309 25310 25311 25312 25313 25314 25315 25316 25317 25318 25319 25320 25321 25322 25323 25324 25325 25326 25327 25328 25329 25330 25331 25332 25333 25334 25335 25336 25337 25338 25339 25340 25341 25342 25343 25344 25345 25346 25347 25348 25349 25350 25351 25352 25353 25354 25355 25356 25357 25358 25359 25360 25361 25362 25363 25364 25365 25366 25367 25368 25369 25370 25371 25372 25373 25374 25375 25376 25377 25378 25379 25380 25381 25382 25383 25384 25385 25386 25387 25388 25389 25390 25391 25392 25393 25394 25395 25396 25397 25398 25399 25400 25401 25402 25403 25404 25405 25406 25407 25408 25409 25410 25411 25412 25413 25414 25415 25416 25417 25418 25419 25420 25421 25422 25423 25424 25425 25426 25427 25428 25429 25430 25431 25432 25433 25434 25435 25436 25437 25438 25439 25440 25441 25442 25443 25444 25445 25446 25447 25448 25449 25450 25451 25452 25453 25454 25455 25456 25457 25458 25459 25460 25461 25462 25463 25464 25465 25466 25467 25468 25469 25470 25471 25472 25473 25474 25475 25476 25477 25478 25479 25480 25481 25482 25483 25484 25485 25486 25487 25488 25489 25490 25491 25492 25493 25494 25495 25496 25497 25498 25499 25500 25501 25502 25503 25504 25505 25506 25507 25508 25509 25510 25511 25512 25513 25514 25515 25516 25517 25518 25519 25520 25521 25522 25523 25524 25525 25526 25527 25528 25529 25530 25531 25532 25533 25534 25535 25536 25537 25538 25539 25540 25541 25542 25543 25544 25545 25546 25547 25548 25549 25550 25551 25552 25553 25554 25555 25556 25557 25558 25559 25560 25561 25562 25563 25564 25565 25566 25567 25568 25569 25570 25571 25572 25573 25574 25575 25576 25577 25578 25579 25580 25581 25582 25583 25584 25585 25586 25587 25588 25589 25590 25591 25592 25593 25594 25595 25596 25597 25598 25599 25600 25601 25602 25603 25604 25605 25606 25607 25608 25609 25610 25611 25612 25613 25614 25615 25616 25617 25618 25619 25620 25621 25622 25623 25624 25625 25626 25627 25628 25629 25630 25631 25632 25633 25634 25635 25636 25637 25638 25639 25640 25641 25642 25643 25644 25645 25646 25647 25648 25649 25650 25651 25652 25653 25654 25655 25656 25657 25658 25659 25660 25661 25662 25663 25664 25665 25666 25667 25668 25669 25670 25671 25672 25673 25674 25675 25676 25677 25678 25679 25680 25681 25682 25683 25684 25685 25686 25687 25688 25689 25690 25691 25692 25693 25694 25695 25696 25697 25698 25699 25700 25701 25702 25703 25704 25705 25706 25707 25708 25709 25710 25711 25712 25713 25714 25715 25716 25717 25718 25719 25720 25721 25722 25723 25724 25725 25726 25727 25728 25729 25730 25731 25732 25733 25734 25735 25736 25737 25738 25739 25740 25741 25742 25743 25744 25745 25746 25747 25748 25749 25750 25751 25752 25753 25754 25755 25756 25757 25758 25759 25760 25761 25762 25763 25764 25765 25766 25767 25768 25769 25770 25771 25772 25773 25774 25775 25776 25777 25778 25779 25780 25781 25782 25783 25784 25785 25786 25787 25788 25789 25790 25791 25792 25793 25794 25795 25796 25797 25798 25799 25800 25801 25802 25803 25804 25805 25806 25807 25808 25809 25810 25811 25812 25813 25814 25815 25816 25817 25818 25819 25820 25821 25822 25823 25824 25825 25826 25827 25828 25829 25830 25831 25832 25833 25834 25835 25836 25837 25838 25839 25840 25841 25842 25843 25844 25845 25846 25847 25848 25849 25850 25851 25852 25853 25854 25855 25856 25857 25858 25859 25860 25861 25862 25863 25864 25865 25866 25867 25868 25869 25870 25871 25872 25873 25874 25875 25876 25877 25878 25879 25880 25881 25882 25883 25884 25885 25886 25887 25888 25889 25890 25891 25892 25893 25894 25895 25896 25897 25898 25899 25900 25901 25902 25903 25904 25905 25906 25907 25908 25909 25910 25911 25912 25913 25914 25915 25916 25917 25918 25919 25920 25921 25922 25923 25924 25925 25926 25927 25928 25929 25930 25931 25932 25933 25934 25935 25936 25937 25938 25939 25940 25941 25942 25943 25944 25945 25946 25947 25948 25949 25950 25951 25952 25953 25954 25955 25956 25957 25958 25959 25960 25961 25962 25963 25964 25965 25966 25967 25968 25969 25970 25971 25972 25973 25974 25975 25976 25977 25978 25979 25980 25981 25982 25983 25984 25985 25986 25987 25988 25989 25990 25991 25992 25993 25994 25995 25996 25997 25998 25999 26000 26001 26002 26003 26004 26005 26006 26007 26008 26009 26010 26011 26012 26013 26014 26015 26016 26017 26018 26019 26020 26021 26022 26023 26024 26025 26026 26027 26028 26029 26030 26031 26032 26033 26034 26035 26036 26037 26038 26039 26040 26041 26042 26043 26044 26045 26046 26047 26048 26049 26050 26051 26052 26053 26054 26055 26056 26057 26058 26059 26060 26061 26062 26063 26064 26065 26066 26067 26068 26069 26070 26071 26072 26073 26074 26075 26076 26077 26078 26079 26080 26081 26082 26083 26084 26085 26086 26087 26088 26089 26090 26091 26092 26093 26094 26095 26096 26097 26098 26099 26100 26101 26102 26103 26104 26105 26106 26107 26108 26109 26110 26111 26112 26113 26114 26115 26116 26117 26118 26119 26120 26121 26122 26123 26124 26125 26126 26127 26128 26129 26130 26131 26132 26133 26134 26135 26136 26137 26138 26139 26140 26141 26142 26143 26144 26145 26146 26147 26148 26149 26150 26151 26152 26153 26154 26155 26156 26157 26158 26159 26160 26161 26162 26163 26164 26165 26166 26167 26168 26169 26170 26171 26172 26173 26174 26175 26176 26177 26178 26179 26180 26181 26182 26183 26184 26185 26186 26187 26188 26189 26190 26191 26192 26193 26194 26195 26196 26197 26198 26199 26200 26201 26202 26203 26204 26205 26206 26207 26208 26209 26210 26211 26212 26213 26214 26215 26216 26217 26218 26219 26220 26221 26222 26223 26224 26225 26226 26227 26228 26229 26230 26231 26232 26233 26234 26235 26236 26237 26238 26239 26240 26241 26242 26243 26244 26245 26246 26247 26248 26249 26250 26251 26252 26253 26254 26255 26256 26257 26258 26259 26260 26261 26262 26263 26264 26265 26266 26267 26268 26269 26270 26271 26272 26273 26274 26275 26276 26277 26278 26279 26280 26281 26282 26283 26284 26285 26286 26287 26288 26289 26290 26291 26292 26293 26294 26295 26296 26297 26298 26299 26300 26301 26302 26303 26304 26305 26306 26307 26308 26309 26310 26311 26312 26313 26314 26315 26316 26317 26318 26319 26320 26321 26322 26323 26324 26325 26326 26327 26328 26329 26330 26331 26332 26333 26334 26335 26336 26337 26338 26339 26340 26341 26342 26343 26344 26345 26346 26347 26348 26349 26350 26351 26352 26353 26354 26355 26356 26357 26358 26359 26360 26361 26362 26363 26364 26365 26366 26367 26368 26369 26370 26371 26372 26373 26374 26375 26376 26377 26378 26379 26380 26381 26382 26383 26384 26385 26386 26387 26388 26389 26390 26391 26392 26393 26394 26395 26396 26397 26398 26399 26400 26401 26402 26403 26404 26405 26406 26407 26408 26409 26410 26411 26412 26413 26414 26415 26416 26417 26418 26419 26420 26421 26422 26423 26424 26425 26426 26427 26428 26429 26430 26431 26432 26433 26434 26435 26436 26437 26438 26439 26440 26441 26442 26443 26444 26445 26446 26447 26448 26449 26450 26451 26452 26453 26454 26455 26456 26457 26458 26459 26460 26461 26462 26463 26464 26465 26466 26467 26468 26469 26470 26471 26472 26473 26474 26475 26476 26477 26478 26479 26480 26481 26482 26483 26484 26485 26486 26487 26488 26489 26490 26491 26492 26493 26494 26495 26496 26497 26498 26499 26500 26501 26502 26503 26504 26505 26506 26507 26508 26509 26510 26511 26512 26513 26514 26515 26516 26517 26518 26519 26520 26521 26522 26523 26524 26525 26526 26527 26528 26529 26530 26531 26532 26533 26534 26535 26536 26537 26538 26539 26540 26541 26542 26543 26544 26545 26546 26547 26548 26549 26550 26551 26552 26553 26554 26555 26556 26557 26558 26559 26560 26561 26562 26563 26564 26565 26566 26567 26568 26569 26570 26571 26572 26573 26574 26575 26576 26577 26578 26579 26580 26581 26582 26583 26584 26585 26586 26587 26588 26589 26590 26591 26592 26593 26594 26595 26596 26597 26598 26599 26600 26601 26602 26603 26604 26605 26606 26607 26608 26609 26610 26611 26612 26613 26614 26615 26616 26617 26618 26619 26620 26621 26622 26623 26624 26625 26626 26627 26628 26629 26630 26631 26632 26633 26634 26635 26636 26637 26638 26639 26640 26641 26642 26643 26644 26645 26646 26647 26648 26649 26650 26651 26652 26653 26654 26655 26656 26657 26658 26659 26660 26661 26662 26663 26664 26665 26666 26667 26668 26669 26670 26671 26672 26673 26674 26675 26676 26677 26678 26679 26680 26681 26682 26683 26684 26685 26686 26687 26688 26689 26690 26691 26692 26693 26694 26695 26696 26697 26698 26699 26700 26701 26702 26703 26704 26705 26706 26707 26708 26709 26710 26711 26712 26713 26714 26715 26716 26717 26718 26719 26720 26721 26722 26723 26724 26725 26726 26727 26728 26729 26730 26731 26732 26733 26734 26735 26736 26737 26738 26739 26740 26741 26742 26743 26744 26745 26746 26747 26748 26749 26750 26751 26752 26753 26754 26755 26756 26757 26758 26759 26760 26761 26762 26763 26764 26765 26766 26767 26768 26769 26770 26771 26772 26773 26774 26775 26776 26777 26778 26779 26780 26781 26782 26783 26784 26785 26786 26787 26788 26789 26790 26791 26792 26793 26794 26795 26796 26797 26798 26799 26800 26801 26802 26803 26804 26805 26806 26807 26808 26809 26810 26811 26812 26813 26814 26815 26816 26817 26818 26819 26820 26821 26822 26823 26824 26825 26826 26827 26828 26829 26830 26831 26832 26833 26834 26835 26836 26837 26838 26839 26840 26841 26842 26843 26844 26845 26846 26847 26848 26849 26850 26851 26852 26853 26854 26855 26856 26857 26858 26859 26860 26861 26862 26863 26864 26865 26866 26867 26868 26869 26870 26871 26872 26873 26874 26875 26876 26877 26878 26879 26880 26881 26882 26883 26884 26885 26886 26887 26888 26889 26890 26891 26892 26893 26894 26895 26896 26897 26898 26899 26900 26901 26902 26903 26904 26905 26906 26907 26908 26909 26910 26911 26912 26913 26914 26915 26916 26917 26918 26919 26920 26921 26922 26923 26924 26925 26926 26927 26928 26929 26930 26931 26932 26933 26934 26935 26936 26937 26938 26939 26940 26941 26942 26943 26944 26945 26946 26947 26948 26949 26950 26951 26952 26953 26954 26955 26956 26957 26958 26959 26960 26961 26962 26963 26964 26965 26966 26967 26968 26969 26970 26971 26972 26973 26974 26975 26976 26977 26978 26979 26980 26981 26982 26983 26984 26985 26986 26987 26988 26989 26990 26991 26992 26993 26994 26995 26996 26997 26998 26999 27000 27001 27002 27003 27004 27005 27006 27007 27008 27009 27010 27011 27012 27013 27014 27015 27016 27017 27018 27019 27020 27021 27022 27023 27024 27025 27026 27027 27028 27029 27030 27031 27032 27033 27034 27035 27036 27037 27038 27039 27040 27041 27042 27043 27044 27045 27046 27047 27048 27049 27050 27051 27052 27053 27054 27055 27056 27057 27058 27059 27060 27061 27062 27063 27064 27065 27066 27067 27068 27069 27070 27071 27072 27073 27074 27075 27076 27077 27078 27079 27080 27081 27082 27083 27084 27085 27086 27087 27088 27089 27090 27091 27092 27093 27094 27095 27096 27097 27098 27099 27100 27101 27102 27103 27104 27105 27106 27107 27108 27109 27110 27111 27112 27113 27114 27115 27116 27117 27118 27119 27120 27121 27122 27123 27124 27125 27126 27127 27128 27129 27130 27131 27132 27133 27134 27135 27136 27137 27138 27139 27140 27141 27142 27143 27144 27145 27146 27147 27148 27149 27150 27151 27152 27153 27154 27155 27156 27157 27158 27159 27160 27161 27162 27163 27164 27165 27166 27167 27168 27169 27170 27171 27172 27173 27174 27175 27176 27177 27178 27179 27180 27181 27182 27183 27184 27185 27186 27187 27188 27189 27190 27191 27192 27193 27194 27195 27196 27197 27198 27199 27200 27201 27202 27203 27204 27205 27206 27207 27208 27209 27210 27211 27212 27213 27214 27215 27216 27217 27218 27219 27220 27221 27222 27223 27224 27225 27226 27227 27228 27229 27230 27231 27232 27233 27234 27235 27236 27237 27238 27239 27240 27241 27242 27243 27244 27245 27246 27247 27248 27249 27250 27251 27252 27253 27254 27255 27256 27257 27258 27259 27260 27261 27262 27263 27264 27265 27266 27267 27268 27269 27270 27271 27272 27273 27274 27275 27276 27277 27278 27279 27280 27281 27282 27283 27284 27285 27286 27287 27288 27289 27290 27291 27292 27293 27294 27295 27296 27297 27298 27299 27300 27301 27302 27303 27304 27305 27306 27307 27308 27309 27310 27311 27312 27313 27314 27315 27316 27317 27318 27319 27320 27321 27322 27323 27324 27325 27326 27327 27328 27329 27330 27331 27332 27333 27334 27335 27336 27337 27338 27339 27340 27341 27342 27343 27344 27345 27346 27347 27348 27349 27350 27351 27352 27353 27354 27355 27356 27357 27358 27359 27360 27361 27362 27363 27364 27365 27366 27367 27368 27369 27370 27371 27372 27373 27374 27375 27376 27377 27378 27379 27380 27381 27382 27383 27384 27385 27386 27387 27388 27389 27390 27391 27392 27393 27394 27395 27396 27397 27398 27399 27400 27401 27402 27403 27404 27405 27406 27407 27408 27409 27410 27411 27412 27413 27414 27415 27416 27417 27418 27419 27420 27421 27422 27423 27424 27425 27426 27427 27428 27429 27430 27431 27432 27433 27434 27435 27436 27437 27438 27439 27440 27441 27442 27443 27444 27445 27446 27447 27448 27449 27450 27451 27452 27453 27454 27455 27456 27457 27458 27459 27460 27461 27462 27463 27464 27465 27466 27467 27468 27469 27470 27471 27472 27473 27474 27475 27476 27477 27478 27479 27480 27481 27482 27483 27484 27485 27486 27487 27488 27489 27490 27491 27492 27493 27494 27495 27496 27497 27498 27499 27500 27501 27502 27503 27504 27505 27506 27507 27508 27509 27510 27511 27512 27513 27514 27515 27516 27517 27518 27519 27520 27521 27522 27523 27524 27525 27526 27527 27528 27529 27530 27531 27532 27533 27534 27535 27536 27537 27538 27539 27540 27541 27542 27543 27544 27545 27546 27547 27548 27549 27550 27551 27552 27553 27554 27555 27556 27557 27558 27559 27560 27561 27562 27563 27564 27565 27566 27567 27568 27569 27570 27571 27572 27573 27574 27575 27576 27577 27578 27579 27580 27581 27582 27583 27584 27585 27586 27587 27588 27589 27590 27591 27592 27593 27594 27595 27596 27597 27598 27599 27600 27601 27602 27603 27604 27605 27606 27607 27608 27609 27610 27611 27612 27613 27614 27615 27616 27617 27618 27619 27620 27621 27622 27623 27624 27625 27626 27627 27628 27629 27630 27631 27632 27633 27634 27635 27636 27637 27638 27639 27640 27641 27642 27643 27644 27645 27646 27647 27648 27649 27650 27651 27652 27653 27654 27655 27656 27657 27658 27659 27660 27661 27662 27663 27664 27665 27666 27667 27668 27669 27670 27671 27672 27673 27674 27675 27676 27677 27678 27679 27680 27681 27682 27683 27684 27685 27686 27687 27688 27689 27690 27691 27692 27693 27694 27695 27696 27697 27698 27699 27700 27701 27702 27703 27704 27705 27706 27707 27708 27709 27710 27711 27712 27713 27714 27715 27716 27717 27718 27719 27720 27721 27722 27723 27724 27725 27726 27727 27728 27729 27730 27731 27732 27733 27734 27735 27736 27737 27738 27739 27740 27741 27742 27743 27744 27745 27746 27747 27748 27749 27750 27751 27752 27753 27754 27755 27756 27757 27758 27759 27760 27761 27762 27763 27764 27765 27766 27767 27768 27769 27770 27771 27772 27773 27774 27775 27776 27777 27778 27779 27780 27781 27782 27783 27784 27785 27786 27787 27788 27789 27790 27791 27792 27793 27794 27795 27796 27797 27798 27799 27800 27801 27802 27803 27804 27805 27806 27807 27808 27809 27810 27811 27812 27813 27814 27815 27816 27817 27818 27819 27820 27821 27822 27823 27824 27825 27826 27827 27828 27829 27830 27831 27832 27833 27834 27835 27836 27837 27838 27839 27840 27841 27842 27843 27844 27845 27846 27847 27848 27849 27850 27851 27852 27853 27854 27855 27856 27857 27858 27859 27860 27861 27862 27863 27864 27865 27866 27867 27868 27869 27870 27871 27872 27873 27874 27875 27876 27877 27878 27879 27880 27881 27882 27883 27884 27885 27886 27887 27888 27889 27890 27891 27892 27893 27894 27895 27896 27897 27898 27899 27900 27901 27902 27903 27904 27905 27906 27907 27908 27909 27910 27911 27912 27913 27914 27915 27916 27917 27918 27919 27920 27921 27922 27923 27924 27925 27926 27927 27928 27929 27930 27931 27932 27933 27934 27935 27936 27937 27938 27939 27940 27941 27942 27943 27944 27945 27946 27947 27948 27949 27950 27951 27952 27953 27954 27955 27956 27957 27958 27959 27960 27961 27962 27963 27964 27965 27966 27967 27968 27969 27970 27971 27972 27973 27974 27975 27976 27977 27978 27979 27980 27981 27982 27983 27984 27985 27986 27987 27988 27989 27990 27991 27992 27993 27994 27995 27996 27997 27998 27999 28000 28001 28002 28003 28004 28005 28006 28007 28008 28009 28010 28011 28012 28013 28014 28015 28016 28017 28018 28019 28020 28021 28022 28023 28024 28025 28026 28027 28028 28029 28030 28031 28032 28033 28034 28035 28036 28037 28038 28039 28040 28041 28042 28043 28044 28045 28046 28047 28048 28049 28050 28051 28052 28053 28054 28055 28056 28057 28058 28059 28060 28061 28062 28063 28064 28065 28066 28067 28068 28069 28070 28071 28072 28073 28074 28075 28076 28077 28078 28079 28080 28081 28082 28083 28084 28085 28086 28087 28088 28089 28090 28091 28092 28093 28094 28095 28096 28097 28098 28099 28100 28101 28102 28103 28104 28105 28106 28107 28108 28109 28110 28111 28112 28113 28114 28115 28116 28117 28118 28119 28120 28121 28122 28123 28124 28125 28126 28127 28128 28129 28130 28131 28132 28133 28134 28135 28136 28137 28138 28139 28140 28141 28142 28143 28144 28145 28146 28147 28148 28149 28150 28151 28152 28153 28154 28155 28156 28157 28158 28159 28160 28161 28162 28163 28164 28165 28166 28167 28168 28169 28170 28171 28172 28173 28174 28175 28176 28177 28178 28179 28180 28181 28182 28183 28184 28185 28186 28187 28188 28189 28190 28191 28192 28193 28194 28195 28196 28197 28198 28199 28200 28201 28202 28203 28204 28205 28206 28207 28208 28209 28210 28211 28212 28213 28214 28215 28216 28217 28218 28219 28220 28221 28222 28223 28224 28225 28226 28227 28228 28229 28230 28231 28232 28233 28234 28235 28236 28237 28238 28239 28240 28241 28242 28243 28244 28245 28246 28247 28248 28249 28250 28251 28252 28253 28254 28255 28256 28257 28258 28259 28260 28261 28262 28263 28264 28265 28266 28267 28268 28269 28270 28271 28272 28273 28274 28275 28276 28277 28278 28279 28280 28281 28282 28283 28284 28285 28286 28287 28288 28289 28290 28291 28292 28293 28294 28295 28296 28297 28298 28299 28300 28301 28302 28303 28304 28305 28306 28307 28308 28309 28310 28311 28312 28313 28314 28315 28316 28317 28318 28319 28320 28321 28322 28323 28324 28325 28326 28327 28328 28329 28330 28331 28332 28333 28334 28335 28336 28337 28338 28339 28340 28341 28342 28343 28344 28345 28346 28347 28348 28349 28350 28351 28352 28353 28354 28355 28356 28357 28358 28359 28360 28361 28362 28363 28364 28365 28366 28367 28368 28369 28370 28371 28372 28373 28374 28375 28376 28377 28378 28379 28380 28381 28382 28383 28384 28385 28386 28387 28388 28389 28390 28391 28392 28393 28394 28395 28396 28397 28398 28399 28400 28401 28402 28403 28404 28405 28406 28407 28408 28409 28410 28411 28412 28413 28414 28415 28416 28417 28418 28419 28420 28421 28422 28423 28424 28425 28426 28427 28428 28429 28430 28431 28432 28433 28434 28435 28436 28437 28438 28439 28440 28441 28442 28443 28444 28445 28446 28447 28448 28449 28450 28451 28452 28453 28454 28455 28456 28457 28458 28459 28460 28461 28462 28463 28464 28465 28466 28467 28468 28469 28470 28471 28472 28473 28474 28475 28476 28477 28478 28479 28480 28481 28482 28483 28484 28485 28486 28487 28488 28489 28490 28491 28492 28493 28494 28495 28496 28497 28498 28499 28500 28501 28502 28503 28504 28505 28506 28507 28508 28509 28510 28511 28512 28513 28514 28515 28516 28517 28518 28519 28520 28521 28522 28523 28524 28525 28526 28527 28528 28529 28530 28531 28532 28533 28534 28535 28536 28537 28538 28539 28540 28541 28542 28543 28544 28545 28546 28547 28548 28549 28550 28551 28552 28553 28554 28555 28556 28557 28558 28559 28560 28561 28562 28563 28564 28565 28566 28567 28568 28569 28570 28571 28572 28573 28574 28575 28576 28577 28578 28579 28580 28581 28582 28583 28584 28585 28586 28587 28588 28589 28590 28591 28592 28593 28594 28595 28596 28597 28598 28599 28600 28601 28602 28603 28604 28605 28606 28607 28608 28609 28610 28611 28612 28613 28614 28615 28616 28617 28618 28619 28620 28621 28622 28623 28624 28625 28626 28627 28628 28629 28630 28631 28632 28633 28634 28635 28636 28637 28638 28639 28640 28641 28642 28643 28644 28645 28646 28647 28648 28649 28650 28651 28652 28653 28654 28655 28656 28657 28658 28659 28660 28661 28662 28663 28664 28665 28666 28667 28668 28669 28670 28671 28672 28673 28674 28675 28676 28677 28678 28679 28680 28681 28682 28683 28684 28685 28686 28687 28688 28689 28690 28691 28692 28693 28694 28695 28696 28697 28698 28699 28700 28701 28702 28703 28704 28705 28706 28707 28708 28709 28710 28711 28712 28713 28714 28715 28716 28717 28718 28719 28720 28721 28722 28723 28724 28725 28726 28727 28728 28729 28730 28731 28732 28733 28734 28735 28736 28737 28738 28739 28740 28741 28742 28743 28744 28745 28746 28747 28748 28749 28750 28751 28752 28753 28754 28755 28756 28757 28758 28759 28760 28761 28762 28763 28764 28765 28766 28767 28768 28769 28770 28771 28772 28773 28774 28775 28776 28777 28778 28779 28780 28781 28782 28783 28784 28785 28786 28787 28788 28789 28790 28791 28792 28793 28794 28795 28796 28797 28798 28799 28800 28801 28802 28803 28804 28805 28806 28807 28808 28809 28810 28811 28812 28813 28814 28815 28816 28817 28818 28819 28820 28821 28822 28823 28824 28825 28826 28827 28828 28829 28830 28831 28832 28833 28834 28835 28836 28837 28838 28839 28840 28841 28842 28843 28844 28845 28846 28847 28848 28849 28850 28851 28852 28853 28854 28855 28856 28857 28858 28859 28860 28861 28862 28863 28864 28865 28866 28867 28868 28869 28870 28871 28872 28873 28874 28875 28876 28877 28878 28879 28880 28881 28882 28883 28884 28885 28886 28887 28888 28889 28890 28891 28892 28893 28894 28895 28896 28897 28898 28899 28900 28901 28902 28903 28904 28905 28906 28907 28908 28909 28910 28911 28912 28913 28914 28915 28916 28917 28918 28919 28920 28921 28922 28923 28924 28925 28926 28927 28928 28929 28930 28931 28932 28933 28934 28935 28936 28937 28938 28939 28940 28941 28942 28943 28944 28945 28946 28947 28948 28949 28950 28951 28952 28953 28954 28955 28956 28957 28958 28959 28960 28961 28962 28963 28964 28965 28966 28967 28968 28969 28970 28971 28972 28973 28974 28975 28976 28977 28978 28979 28980 28981 28982 28983 28984 28985 28986 28987 28988 28989 28990 28991 28992 28993 28994 28995 28996 28997 28998 28999 29000 29001 29002 29003 29004 29005 29006 29007 29008 29009 29010 29011 29012 29013 29014 29015 29016 29017 29018 29019 29020 29021 29022 29023 29024 29025 29026 29027 29028 29029 29030 29031 29032 29033 29034 29035 29036 29037 29038 29039 29040 29041 29042 29043 29044 29045 29046 29047 29048 29049 29050 29051 29052 29053 29054 29055 29056 29057 29058 29059 29060 29061 29062 29063 29064 29065 29066 29067 29068 29069 29070 29071 29072 29073 29074 29075 29076 29077 29078 29079 29080 29081 29082 29083 29084 29085 29086 29087 29088 29089 29090 29091 29092 29093 29094 29095 29096 29097 29098 29099 29100 29101 29102 29103 29104 29105 29106 29107 29108 29109 29110 29111 29112 29113 29114 29115 29116 29117 29118 29119 29120 29121 29122 29123 29124 29125 29126 29127 29128 29129 29130 29131 29132 29133 29134 29135 29136 29137 29138 29139 29140 29141 29142 29143 29144 29145 29146 29147 29148 29149 29150 29151 29152 29153 29154 29155 29156 29157 29158 29159 29160 29161 29162 29163 29164 29165 29166 29167 29168 29169 29170 29171 29172 29173 29174 29175 29176 29177 29178 29179 29180 29181 29182 29183 29184 29185 29186 29187 29188 29189 29190 29191 29192 29193 29194 29195 29196 29197 29198 29199 29200 29201 29202 29203 29204 29205 29206 29207 29208 29209 29210 29211 29212 29213 29214 29215 29216 29217 29218 29219 29220 29221 29222 29223 29224 29225 29226 29227 29228 29229 29230 29231 29232 29233 29234 29235 29236 29237 29238 29239 29240 29241 29242 29243 29244 29245 29246 29247 29248 29249 29250 29251 29252 29253 29254 29255 29256 29257 29258 29259 29260 29261 29262 29263 29264 29265 29266 29267 29268 29269 29270 29271 29272 29273 29274 29275 29276 29277 29278 29279 29280 29281 29282 29283 29284 29285 29286 29287 29288 29289 29290 29291 29292 29293 29294 29295 29296 29297 29298 29299 29300 29301 29302 29303 29304 29305 29306 29307 29308 29309 29310 29311 29312 29313 29314 29315 29316 29317 29318 29319 29320 29321 29322 29323 29324 29325 29326 29327 29328 29329 29330 29331 29332 29333 29334 29335 29336 29337 29338 29339 29340 29341 29342 29343 29344 29345 29346 29347 29348 29349 29350 29351 29352 29353 29354 29355 29356 29357 29358 29359 29360 29361 29362 29363 29364 29365 29366 29367 29368 29369 29370 29371 29372 29373 29374 29375 29376 29377 29378 29379 29380 29381 29382 29383 29384 29385 29386 29387 29388 29389 29390 29391 29392 29393 29394 29395 29396 29397 29398 29399 29400 29401 29402 29403 29404 29405 29406 29407 29408 29409 29410 29411 29412 29413 29414 29415 29416 29417 29418 29419 29420 29421 29422 29423 29424 29425 29426 29427 29428 29429 29430 29431 29432 29433 29434 29435 29436 29437 29438 29439 29440 29441 29442 29443 29444 29445 29446 29447 29448 29449 29450 29451 29452 29453 29454 29455 29456 29457 29458 29459 29460 29461 29462 29463 29464 29465 29466 29467 29468 29469 29470 29471 29472 29473 29474 29475 29476 29477 29478 29479 29480 29481 29482 29483 29484 29485 29486 29487 29488 29489 29490 29491 29492 29493 29494 29495 29496 29497 29498 29499 29500 29501 29502 29503 29504 29505 29506 29507 29508 29509 29510 29511 29512 29513 29514 29515 29516 29517 29518 29519 29520 29521 29522 29523 29524 29525 29526 29527 29528 29529 29530 29531 29532 29533 29534 29535 29536 29537 29538 29539 29540 29541 29542 29543 29544 29545 29546 29547 29548 29549 29550 29551 29552 29553 29554 29555 29556 29557 29558 29559 29560 29561 29562 29563 29564 29565 29566 29567 29568 29569 29570 29571 29572 29573 29574 29575 29576 29577 29578 29579 29580 29581 29582 29583 29584 29585 29586 29587 29588 29589 29590 29591 29592 29593 29594 29595 29596 29597 29598 29599 29600 29601 29602 29603 29604 29605 29606 29607 29608 29609 29610 29611 29612 29613 29614 29615 29616 29617 29618 29619 29620 29621 29622 29623 29624 29625 29626 29627 29628 29629 29630 29631 29632 29633 29634 29635 29636 29637 29638 29639 29640 29641 29642 29643 29644 29645 29646 29647 29648 29649 29650 29651 29652 29653 29654 29655 29656 29657 29658 29659 29660 29661 29662 29663 29664 29665 29666 29667 29668 29669 29670 29671 29672 29673 29674 29675 29676 29677 29678 29679 29680 29681 29682 29683 29684 29685 29686 29687 29688 29689 29690 29691 29692 29693 29694 29695 29696 29697 29698 29699 29700 29701 29702 29703 29704 29705 29706 29707 29708 29709 29710 29711 29712 29713 29714 29715 29716 29717 29718 29719 29720 29721 29722 29723 29724 29725 29726 29727 29728 29729 29730 29731 29732 29733 29734 29735 29736 29737 29738 29739 29740 29741 29742 29743 29744 29745 29746 29747 29748 29749 29750 29751 29752 29753 29754 29755 29756 29757 29758 29759 29760 29761 29762 29763 29764 29765 29766 29767 29768 29769 29770 29771 29772 29773 29774 29775 29776 29777 29778 29779 29780 29781 29782 29783 29784 29785 29786 29787 29788 29789 29790 29791 29792 29793 29794 29795 29796 29797 29798 29799 29800 29801 29802 29803 29804 29805 29806 29807 29808 29809 29810 29811 29812 29813 29814 29815 29816 29817 29818 29819 29820 29821 29822 29823 29824 29825 29826 29827 29828 29829 29830 29831 29832 29833 29834 29835 29836 29837 29838 29839 29840 29841 29842 29843 29844 29845 29846 29847 29848 29849 29850 29851 29852 29853 29854 29855 29856 29857 29858 29859 29860 29861 29862 29863 29864 29865 29866 29867 29868 29869 29870 29871 29872 29873 29874 29875 29876 29877 29878 29879 29880 29881 29882 29883 29884 29885 29886 29887 29888 29889 29890 29891 29892 29893 29894 29895 29896 29897 29898 29899 29900 29901 29902 29903 29904 29905 29906 29907 29908 29909 29910 29911 29912 29913 29914 29915 29916 29917 29918 29919 29920 29921 29922 29923 29924 29925 29926 29927 29928 29929 29930 29931 29932 29933 29934 29935 29936 29937 29938 29939 29940 29941 29942 29943 29944 29945 29946 29947 29948 29949 29950 29951 29952 29953 29954 29955 29956 29957 29958 29959 29960 29961 29962 29963 29964 29965 29966 29967 29968 29969 29970 29971 29972 29973 29974 29975 29976 29977 29978 29979 29980 29981 29982 29983 29984 29985 29986 29987 29988 29989 29990 29991 29992 29993 29994 29995 29996 29997 29998 29999 30000 30001 30002 30003 30004 30005 30006 30007 30008 30009 30010 30011 30012 30013 30014 30015 30016 30017 30018 30019 30020 30021 30022 30023 30024 30025 30026 30027 30028 30029 30030 30031 30032 30033 30034 30035 30036 30037 30038 30039 30040 30041 30042 30043 30044 30045 30046 30047 30048 30049 30050 30051 30052 30053 30054 30055 30056 30057 30058 30059 30060 30061 30062 30063 30064 30065 30066 30067 30068 30069 30070 30071 30072 30073 30074 30075 30076 30077 30078 30079 30080 30081 30082 30083 30084 30085 30086 30087 30088 30089 30090 30091 30092 30093 30094 30095 30096 30097 30098 30099 30100 30101 30102 30103 30104 30105 30106 30107 30108 30109 30110 30111 30112 30113 30114 30115 30116 30117 30118 30119 30120 30121 30122 30123 30124 30125 30126 30127 30128 30129 30130 30131 30132 30133 30134 30135 30136 30137 30138 30139 30140 30141 30142 30143 30144 30145 30146 30147 30148 30149 30150 30151 30152 30153 30154 30155 30156 30157 30158 30159 30160 30161 30162 30163 30164 30165 30166 30167 30168 30169 30170 30171 30172 30173 30174 30175 30176 30177 30178 30179 30180 30181 30182 30183 30184 30185 30186 30187 30188 30189 30190 30191 30192 30193 30194 30195 30196 30197 30198 30199 30200 30201 30202 30203 30204 30205 30206 30207 30208 30209 30210 30211 30212 30213 30214 30215 30216 30217 30218 30219 30220 30221 30222 30223 30224 30225 30226 30227 30228 30229 30230 30231 30232 30233 30234 30235 30236 30237 30238 30239 30240 30241 30242 30243 30244 30245 30246 30247 30248 30249 30250 30251 30252 30253 30254 30255 30256 30257 30258 30259 30260 30261 30262 30263 30264 30265 30266 30267 30268 30269 30270 30271 30272 30273 30274 30275 30276 30277 30278 30279 30280 30281 30282 30283 30284 30285 30286 30287 30288 30289 30290 30291 30292 30293 30294 30295 30296 30297 30298 30299 30300 30301 30302 30303 30304 30305 30306 30307 30308 30309 30310 30311 30312 30313 30314 30315 30316 30317 30318 30319 30320 30321 30322 30323 30324 30325 30326 30327 30328 30329 30330 30331 30332 30333 30334 30335 30336 30337 30338 30339 30340 30341 30342 30343 30344 30345 30346 30347 30348 30349 30350 30351 30352 30353 30354 30355 30356 30357 30358 30359 30360 30361 30362 30363 30364 30365 30366 30367 30368 30369 30370 30371 30372 30373 30374 30375 30376 30377 30378 30379 30380 30381 30382 30383 30384 30385 30386 30387 30388 30389 30390 30391 30392 30393 30394 30395 30396 30397 30398 30399 30400 30401 30402 30403 30404 30405 30406 30407 30408 30409 30410 30411 30412 30413 30414 30415 30416 30417 30418 30419 30420 30421 30422 30423 30424 30425 30426 30427 30428 30429 30430 30431 30432 30433 30434 30435 30436 30437 30438 30439 30440 30441 30442 30443 30444 30445 30446 30447 30448 30449 30450 30451 30452 30453 30454 30455 30456 30457 30458 30459 30460 30461 30462 30463 30464 30465 30466 30467 30468 30469 30470 30471 30472 30473 30474 30475 30476 30477 30478 30479 30480 30481 30482 30483 30484 30485 30486 30487 30488 30489 30490 30491 30492 30493 30494 30495 30496 30497 30498 30499 30500 30501 30502 30503 30504 30505 30506 30507 30508 30509 30510 30511 30512 30513 30514 30515 30516 30517 30518 30519 30520 30521 30522 30523 30524 30525 30526 30527 30528 30529 30530 30531 30532 30533 30534 30535 30536 30537 30538 30539 30540 30541 30542 30543 30544 30545 30546 30547 30548 30549 30550 30551 30552 30553 30554 30555 30556 30557 30558 30559 30560 30561 30562 30563 30564 30565 30566 30567 30568 30569 30570 30571 30572 30573 30574 30575 30576 30577 30578 30579 30580 30581 30582 30583 30584 30585 30586 30587 30588 30589 30590 30591 30592 30593 30594 30595 30596 30597 30598 30599 30600 30601 30602 30603 30604 30605 30606 30607 30608 30609 30610 30611 30612 30613 30614 30615 30616 30617 30618 30619 30620 30621 30622 30623 30624 30625 30626 30627 30628 30629 30630 30631 30632 30633 30634 30635 30636 30637 30638 30639 30640 30641 30642 30643 30644 30645 30646 30647 30648 30649 30650 30651 30652 30653 30654 30655 30656 30657 30658 30659 30660 30661 30662 30663 30664 30665 30666 30667 30668 30669 30670 30671 30672 30673 30674 30675 30676 30677 30678 30679 30680 30681 30682 30683 30684 30685 30686 30687 30688 30689 30690 30691 30692 30693 30694 30695 30696 30697 30698 30699 30700 30701 30702 30703 30704 30705 30706 30707 30708 30709 30710 30711 30712 30713 30714 30715 30716 30717 30718 30719 30720 30721 30722 30723 30724 30725 30726 30727 30728 30729 30730 30731 30732 30733 30734 30735 30736 30737 30738 30739 30740 30741 30742 30743 30744 30745 30746 30747 30748 30749 30750 30751 30752 30753 30754 30755 30756 30757 30758 30759 30760 30761 30762 30763 30764 30765 30766 30767 30768 30769 30770 30771 30772 30773 30774 30775 30776 30777 30778 30779 30780 30781 30782 30783 30784 30785 30786 30787 30788 30789 30790 30791 30792 30793 30794 30795 30796 30797 30798 30799 30800 30801 30802 30803 30804 30805 30806 30807 30808 30809 30810 30811 30812 30813 30814 30815 30816 30817 30818 30819 30820 30821 30822 30823 30824 30825 30826 30827 30828 30829 30830 30831 30832 30833 30834 30835 30836 30837 30838 30839 30840 30841 30842 30843 30844 30845 30846 30847 30848 30849 30850 30851 30852 30853 30854 30855 30856 30857 30858 30859 30860 30861 30862 30863 30864 30865 30866 30867 30868 30869 30870 30871 30872 30873 30874 30875 30876 30877 30878 30879 30880 30881 30882 30883 30884 30885 30886 30887 30888 30889 30890 30891 30892 30893 30894 30895 30896 30897 30898 30899 30900 30901 30902 30903 30904 30905 30906 30907 30908 30909 30910 30911 30912 30913 30914 30915 30916 30917 30918 30919 30920 30921 30922 30923 30924 30925 30926 30927 30928 30929 30930 30931 30932 30933 30934 30935 30936 30937 30938 30939 30940 30941 30942 30943 30944 30945 30946 30947 30948 30949 30950 30951 30952 30953 30954 30955 30956 30957 30958 30959 30960 30961 30962 30963 30964 30965 30966 30967 30968 30969 30970 30971 30972 30973 30974 30975 30976 30977 30978 30979 30980 30981 30982 30983 30984 30985 30986 30987 30988 30989 30990 30991 30992 30993 30994 30995 30996 30997 30998 30999 31000 31001 31002 31003 31004 31005 31006 31007 31008 31009 31010 31011 31012 31013 31014 31015 31016 31017 31018 31019 31020 31021 31022 31023 31024 31025 31026 31027 31028 31029 31030 31031 31032 31033 31034 31035 31036 31037 31038 31039 31040 31041 31042 31043 31044 31045 31046 31047 31048 31049 31050 31051 31052 31053 31054 31055 31056 31057 31058 31059 31060 31061 31062 31063 31064 31065 31066 31067 31068 31069 31070 31071 31072 31073 31074 31075 31076 31077 31078 31079 31080 31081 31082 31083 31084 31085 31086 31087 31088 31089 31090 31091 31092 31093 31094 31095 31096 31097 31098 31099 31100 31101 31102 31103 31104 31105 31106 31107 31108 31109 31110 31111 31112 31113 31114 31115 31116 31117 31118 31119 31120 31121 31122 31123 31124 31125 31126 31127 31128 31129 31130 31131 31132 31133 31134 31135 31136 31137 31138 31139 31140 31141 31142 31143 31144 31145 31146 31147 31148 31149 31150 31151 31152 
</DataArray>
<DataArray type="UInt32" Name="offsets" format="ascii">
3 6 9 12 15 17 20 23 26 29 32 35 38 41 44 47 49 52 55 58 61 64 67 70 73 75 77 80 82 85 88 90 93 96 98 101 103 106 108 111 114 117 119 122 124 127 129 132 135 138 141 144 147 150 153 156 159 162 165 168 170 173 176 178 181 184 187 190 193 196 198 201 204 207 210 213 216 218 221 224 227 230 233 236 239 242 244 247 250 253 256 259 262 265 268 271 274 276 279 282 285 288 291 294 297 300 303 305 308 310 313 316 319 322 325 328 331 334 337 340 343 346 349 352 355 357 360 362 364 367 369 372 375 378 380 382 385 388 391 394 397 400 403 406 409 412 415 418 421 424 427 430 433 436 439 442 445 448 451 453 456 459 462 465 468 471 474 477 480 483 486 489 492 495 498 501 504 507 510 513 516 519 522 525 528 531 534 537 540 543 546 549 552 555 558 561 564 567 570 573 576 579 582 585 588 591 594 597 599 602 604 607 610 613 616 619 622 625 628 631 634 637 640 643 646 649 652 655 658 661 663 666 669 672 675 678 680 683 686 688 690 693 696 699 701 704 707 710 713 716 718 720 723 725 728 731 734 737 740 743 746 749 752 755 758 761 763 766 769 772 775 778 781 784 787 790 793 795 798 801 804 807 810 813 816 819 822 825 828 831 834 836 839 842 845 848 851 854 857 860 863 866 869 872 875 878 881 884 887 890 893 896 899 902 905 908 911 914 917 920 923 926 929 932 935 938 941 944 947 950 953 956 958 961 963 966 969 971 974 977 979 982 985 988 991 993 996 999 1001 1004 1007 1010 1013 1016 1019 1021 1024 1027 1029 1032 1035 1038 1041 1043 1046 1049 1052 1054 1057 1059 1061 1064 1067 1069 1071 1074 1077 1080 1083 1086 1089 1092 1095 1098 1101 1104 1107 1110 1113 1116 1119 1122 1125 1128 1130 1133 1136 1139 1142 1145 1148 1151 1154 1157 1159 1162 1165 1168 1171 1174 1177 1180 1183 1186 1189 1192 1195 1198 1201 1204 1207 1210 1213 1216 1219 1222 1225 1228 1231 1234 1237 1240 1243 1246 1249 1252 1255 1258 1261 1264 1267 1270 1273 1276 1279 1282 1285 1288 1291 1294 1297 1300 1303 1306 1309 1312 1315 1318 1321 1324 1327 1329 1332 1335 1338 1341 1344 1347 1350 1353 1356 1359 1362 1365 1368 1371 1374 1377 1380 1383 1386 1389 1392 1395 1398 1401 1404 1407 1410 1413 1416 1419 1422 1425 1428 1431 1434 1437 1440 1443 1446 1449 1452 1455 1458 1461 1464 1467 1470 1473 1476 1479 1482 1485 1488 1491 1494 1497 1500 1503 1506 1509 1512 1515 1518 1521 1524 1527 1530 1533 1536 1539 1542 1544 1547 1549 1552 1555 1558 1561 1564 1567 1570 1573 1576 1579 1582 1585 1588 1591 1594 1597 1600 1602 1605 1608 1611 1614 1617 1619 1622 1625 1628 1631 1634 1637 1640 1643 1646 1649 1652 1655 1658 1661 1664 1667 1670 1673 1676 1679 1682 1685 1688 1691 1694 1697 1700 1703 1706 1709 1712 1715 1718 1721 1724 1727 1730 1732 1735 1738 1741 1743 1746 1749 1752 1755 1758 1761 1764 1767 1770 1773 1776 1778 1781 1783 1786 1789 1792 1794 1797 1799 1802 1805 1808 1811 1814 1817 1820 1823 1826 1829 1832 1835 1838 1841 1844 1847 1850 1853 1856 1859 1862 1865 1868 1871 1874 1877 1880 1883 1886 1889 1892 1895 1898 1901 1904 1907 1910 1913 1916 1919 1922 1925 1928 1930 1933 1936 1939 1942 1945 1947 1950 1953 1956 1959 1962 1965 1967 1970 1973 1976 1979 1982 1985 1987 1990 1993 1996 1999 2002 2005 2008 2011 2013 2016 2019 2022 2025 2028 2031 2034 2037 2040 2043 2045 2048 2051 2054 2057 2059 2062 2065 2068 2071 2074 2076 2078 2081 2083 2086 2089 2092 2095 2097 2100 2102 2104 2106 2109 2112 2115 2118 2121 2123 2126 2129 2132 2135 2138 2140 2143 2146 2148 2151 2154 2157 2160 2163 2166 2169 2172 2175 2178 2181 2184 2187 2190 2193 2196 2199 2202 2205 2208 2211 2214 2217 2219 2222 2225 2228 2231 2234 2237 2239 2242 2245 2248 2251 2254 2257 2260 2263 2266 2269 2272 2275 2278 2280 2283 2286 2289 2292 2295 2298 2301 2304 2306 2309 2312 2315 2318 2321 2324 2327 2330 2333 2336 2339 2342 2345 2348 2351 2354 2357 2360 2363 2366 2369 2372 2375 2378 2381 2384 2387 2390 2393 2396 2399 2402 2405 2408 2411 2414 2417 2420 2423 2426 2429 2432 2435 2438 2441 2444 2447 2450 2453 2456 2459 2462 2465 2468 2471 2474 2477 2480 2483 2486 2489 2492 2495 2498 2501 2504 2507 2510 2513 2516 2519 2522 2525 2528 2531 2534 2537 2540 2543 2546 2549 2552 2555 2558 2561 2564 2567 2570 2573 2576 2579 2582 2585 2588 2591 2594 2597 2600 2603 2605 2608 2611 2614 2617 2620 2623 2625 2628 2631 2634 2637 2640 2643 2646 2649 2652 2655 2658 2661 2664 2667 2670 2673 2676 2679 2682 2685 2688 2691 2694 2697 2700 2703 2706 2708 2711 2713 2716 2719 2722 2725 2728 2731 2733 2735 2738 2741 2744 2747 2750 2753 2756 2759 2762 2764 2767 2770 2772 2775 2778 2781 2784 2787 2790 2793 2796 2798 2801 2804 2806 2808 2811 2814 2817 2820 2823 2826 2829 2831 2834 2837 2839 2842 2845 2848 2851 2854 2857 2859 2862 2865 2868 2871 2874 2877 2880 2883 2886 2889 2892 2895 2898 2901 2904 2907 2910 2912 2915 2917 2920 2923 2926 2929 2932 2935 2938 2941 2944 2947 2950 2952 2955 2958 2961 2964 2967 2970 2973 2976 2979 2982 2985 2988 2991 2994 2997 3000 3003 3006 3009 3012 3015 3018 3021 3024 3027 3030 3033 3036 3039 3042 3045 3048 3051 3054 3057 3060 3063 3066 3069 3072 3075 3078 3081 3084 3087 3090 3093 3096 3099 3102 3105 3108 3111 3114 3117 3119 3122 3125 3128 3131 3134 3137 3140 3143 3146 3148 3151 3154 3157 3159 3161 3164 3166 3169 3171 3174 3176 3179 3182 3185 3188 3191 3193 3196 3199 3201 3204 3207 3209 3212 3215 3218 3221 3224 3227 3229 3232 3234 3236 3239 3242 3245 3248 3251 3254 3257 3260 3263 3265 3268 3271 3274 3277 3280 3282 3285 3288 3291 3294 3296 3299 3302 3305 3308 3311 3313 3316 3319 3321 3324 3327 3329 3332 3335 3338 3341 3344 3347 3350 3353 3355 3358 3361 3364 3367 3370 3373 3376 3378 3381 3384 3386 3388 3391 3394 3397 3400 3403 3406 3409 3412 3415 3417 3420 3422 3425 3428 3431 3434 3437 3440 3443 3446 3449 3452 3455 3458 3461 3464 3467 3470 3473 3476 3479 3482 3484 3487 3490 3493 3495 3498 3501 3504 3507 3509 3511 3513 3516 3519 3522 3524 3527 3530 3533 3535 3538 3540 3543 3545 3547 3550 3553 3556 3558 3561 3564 3567 3569 3572 3575 3577 3580 3582 3585 3588 3590 3593 3596 3599 3602 3605 3608 3611 3614 3617 3620 3623 3626 3629 3632 3634 3637 3640 3643 3646 3649 3652 3654 3657 3659 3662 3665 3668 3670 3673 3676 3678 3681 3684 3686 3689 3692 3695 3698 3701 3704 3707 3710 3712 3715 3718 3721 3724 3726 3729 3732 3735 3738 3740 3743 3746 3749 3752 3755 3758 3761 3764 3766 3769 3772 3775 3777 3780 3783 3786 3789 3792 3795 3798 3801 3804 3807 3810 3813 3816 3819 3822 3825 3828 3831 3834 3836 3839 3842 3844 3847 3850 3853 3856 3859 3862 3865 3868 3871 3873 3876 3879 3882 3885 3888 3890 3893 3896 3899 3901 3904 3907 3909 3912 3914 3916 3919 3922 3925 3928 3931 3934 3936 3939 3941 3944 3947 3950 3952 3955 3958 3961 3963 3966 3969 3972 3975 3978 3981 3984 3987 3990 3993 3996 3999 4002 4005 4008 4011 4014 4017 4020 4023 4025 4028 4031 4034 4037 4039 4042 4045 4048 4051 4054 4057 4060 4063 4066 4069 4071 4074 4077 4080 4083 4086 4089 4092 4095 4098 4101 4104 4107 4110 4113 4116 4119 4122 4125 4127 4130 4133 4136 4139 4142 4145 4148 4151 4154 4157 4160 4163 4166 4169 4171 4174 4177 4180 4183 4185 4188 4191 4194 4197 4200 4203 4206 4208 4211 4214 4217 4220 4223 4226 4229 4232 4235 4238 4241 4244 4247 4250 4253 4256 4259 4261 4264 4267 4270 4273 4275 4278 4281 4284 4287 4290 4293 4296 4299 4301 4304 4307 4309 4312 4315 4317 4320 4323 4326 4329 4332 4335 4338 4341 4344 4347 4349 4352 4355 4358 4360 4363 4366 4369 4372 4375 4378 4381 4384 4387 4390 4393 4396 4399 4402 4405 4408 4411 4414 4417 4420 4423 4426 4429 4432 4435 4438 4440 4443 4446 4449 4452 4455 4458 4461 4464 4467 4470 4472 4475 4477 4480 4483 4486 4489 4492 4495 4498 4500 4503 4505 4508 4511 4513 4516 4518 4521 4523 4526 4529 4532 4535 4538 4540 4543 4546 4549 4552 4555 4558 4561 4563 4566 4569 4572 4575 4578 4581 4584 4587 4590 4593 4596 4599 4602 4605 4608 4611 4614 4617 4620 4623 4626 4629 4632 4635 4638 4641 4644 4647 4650 4653 4656 4659 4661 4664 4667 4670 4673 4676 4679 4682 4684 4687 4690 4693 4696 4699 4702 4705 4707 4710 4713 4716 4719 4722 4724 4727 4730 4733 4736 4739 4742 4745 4748 4751 4754 4757 4760 4762 4765 4768 4771 4774 4777 4779 4782 4784 4787 4790 4793 4796 4799 4802 4805 4808 4810 4813 4816 4819 4822 4825 4828 4830 4833 4836 4838 4841 4844 4847 4850 4853 4856 4859 4862 4865 4868 4871 4874 4877 4880 4883 4886 4889 4892 4895 4898 4901 4903 4906 4909 4912 4914 4917 4920 4923 4926 4928 4930 4933 4935 4937 4939 4942 4945 4948 4950 4952 4955 4958 4961 4964 4967 4970 4973 4976 4979 4981 4984 4986 4989 4992 4995 4998 5000 5003 5006 5009 5012 5014 5017 5019 5022 5025 5028 5030 5033 5036 5039 5042 5045 5047 5050 5053 5055 5058 5061 5064 5067 5070 5072 5075 5078 5081 5084 5087 5090 5093 5096 5099 5102 5105 5108 5111 5114 5117 5120 5123 5126 5129 5132 5135 5138 5141 5144 5147 5150 5153 5156 5159 5162 5165 5168 5171 5174 5177 5180 5183 5186 5189 5192 5195 5198 5200 5203 5206 5209 5212 5215 5218 5220 5223 5225 5228 5231 5234 5237 5240 5243 5246 5249 5252 5254 5257 5259 5262 5265 5268 5271 5274 5277 5280 5282 5285 5288 5291 5294 5296 5299 5302 5304 5307 5310 5313 5316 5319 5322 5325 5328 5331 5334 5337 5339 5341 5344 5347 5350 5352 5354 5357 5360 5363 5366 5369 5372 5375 5378 5381 5384 5387 5390 5393 5396 5399 5402 5405 5408 5411 5414 5417 5420 5423 5426 5429 5432 5435 5437 5440 5443 5446 5449 5451 5454 5457 5460 5463 5466 5469 5472 5474 5476 5479 5481 5484 5487 5490 5493 5496 5499 5502 5505 5508 5511 5514 5517 5519 5522 5525 5528 5531 5534 5537 5540 5543 5545 5548 5551 5554 5557 5560 5562 5565 5568 5571 5573 5576 5579 5582 5585 5588 5591 5593 5596 5599 5602 5605 5608 5611 5614 5617 5620 5623 5626 5629 5632 5635 5638 5641 5644 5647 5650 5653 5656 5659 5662 5665 5668 5671 5674 5677 5680 5682 5685 5688 5691 5694 5697 5700 5703 5706 5709 5712 5715 5718 5721 5724 5727 5730 5733 5736 5739 5742 5745 5748 5751 5754 5757 5760 5763 5766 5769 5772 5775 5778 5781 5784 5787 5790 5793 5796 5799 5802 5805 5808 5811 5814 5817 5820 5823 5826 5829 5832 5835 5838 5840 5843 5846 5849 5852 5855 5858 5861 5864 5867 5870 5873 5876 5879 5882 5885 5888 5891 5894 5897 5899 5902 5905 5907 5910 5913 5916 5919 5922 5925 5928 5931 5934 5937 5940 5943 5946 5949 5952 5955 5958 5961 5964 5967 5970 5973 5976 5979 5982 5985 5988 5991 5994 5997 6000 6003 6006 6009 6012 6015 6018 6021 6024 6027 6030 6033 6036 6039 6042 6045 6048 6051 6054 6057 6060 6062 6065 6068 6071 6074 6077 6080 6083 6085 6088 6091 6094 6097 6100 6102 6105 6108 6111 6114 6117 6120 6123 6126 6129 6132 6135 6138 6141 6144 6147 6150 6153 6156 6159 6161 6164 6167 6170 6173 6176 6179 6182 6185 6187 6190 6192 6195 6198 6201 6204 6207 6209 6211 6214 6217 6219 6222 6225 6228 6231 6234 6237 6240 6242 6245 6248 6251 6254 6257 6260 6263 6266 6269 6272 6275 6278 6281 6284 6287 6290 6293 6296 6298 6301 6304 6307 6310 6313 6316 6319 6322 6324 6327 6330 6333 6336 6339 6342 6345 6348 6351 6354 6357 6360 6363 6366 6369 6372 6375 6378 6381 6384 6387 6390 6393 6396 6398 6401 6404 6407 6410 6413 6416 6419 6422 6425 6428 6431 6434 6437 6440 6443 6446 6449 6452 6455 6458 6461 6464 6467 6470 6473 6476 6478 6481 6483 6486 6489 6492 6495 6498 6501 6504 6507 6510 6513 6516 6519 6522 6525 6528 6531 6534 6537 6540 6543 6546 6549 6552 6555 6558 6561 6564 6566 6569 6572 6574 6577 6580 6583 6586 6589 6592 6594 6597 6600 6603 6606 6608 6611 6613 6615 6618 6621 6624 6627 6630 6633 6636 6639 6642 6645 6648 6651 6654 6657 6660 6663 6666 6669 6672 6675 6677 6679 6682 6685 6688 6691 6693 6696 6699 6702 6705 6708 6711 6714 6717 6720 6723 6726 6729 6732 6735 6738 6740 6742 6745 6748 6750 6753 6756 6759 6762 6765 6768 6771 6774 6777 6780 6783 6786 6789 6792 6795 6798 6801 6804 6806 6809 6812 6815 6818 6821 6824 6826 6828 6831 6833 6836 6839 6842 6845 6848 6851 6854 6857 6860 6863 6866 6869 6872 6874 6877 6880 6883 6886 6889 6892 6895 6898 6901 6904 6907 6910 6913 6916 6919 6922 6925 6928 6931 6934 6937 6940 6943 6946 6949 6952 6955 6957 6960 6962 6965 6968 6971 6974 6977 6980 6983 6986 6989 6992 6995 6998 7001 7003 7006 7009 7012 7014 7017 7020 7023 7025 7028 7031 7034 7037 7040 7043 7045 7048 7051 7053 7056 7059 7062 7065 7068 7071 7074 7077 7080 7083 7086 7089 7092 7095 7098 7101 7104 7107 7109 7112 7115 7118 7121 7123 7126 7128 7131 7134 7136 7139 7142 7145 7148 7151 7154 7157 7160 7163 7166 7169 7172 7175 7177 7179 7182 7185 7187 7190 7192 7194 7197 7200 7203 7206 7209 7212 7215 7218 7221 7224 7227 7229 7232 7235 7237 7240 7243 7246 7249 7251 7253 7256 7258 7261 7263 7265 7268 7271 7274 7276 7278 7280 7283 7286 7288 7290 7293 7295 7298 7301 7303 7306 7309 7312 7314 7317 7320 7323 7325 7328 7331 7333 7336 7339 7341 7344 7346 7349 7352 7355 7357 7360 7362 7365 7368 7370 7372 7374 7376 7379 7381 7384 7387 7390 7392 7395 7398 7401 7403 7405 7408 7411 7413 7416 7418 7421 7424 7426 7428 7431 7433 7436 7439 7442 7444 7447 7450 7453 7456 7459 7462 7464 7467 7470 7473 7475 7478 7481 7484 7487 7490 7493 7496 7499 7502 7505 7508 7511 7513 7516 7519 7522 7525 7528 7531 7534 7537 7540 7543 7546 7549 7552 7555 7558 7560 7563 7566 7569 7571 7574 7577 7579 7582 7585 7588 7591 7594 7597 7600 7603 7606 7609 7612 7615 7618 7621 7624 7627 7630 7632 7635 7638 7640 7643 7646 7649 7651 7654 7656 7659 7662 7664 7667 7670 7673 7675 7678 7681 7684 7686 7689 7692 7695 7698 7701 7704 7707 7710 7713 7716 7719 7721 7724 7726 7729 7731 7734 7737 7740 7743 7746 7749 7752 7754 7757 7760 7763 7766 7768 7771 7773 7776 7778 7781 7784 7787 7789 7792 7794 7797 7800 7802 7805 7807 7809 7812 7815 7818 7821 7824 7827 7830 7832 7835 7838 7840 7843 7846 7849 7852 7855 7858 7860 7863 7866 7869 7872 7875 7878 7881 7884 7886 7889 7892 7895 7898 7900 7903 7905 7908 7911 7913 7916 7918 7921 7924 7927 7930 7933 7936 7939 7942 7944 7947 7950 7953 7956 7959 7962 7965 7968 7971 7974 7977 7980 7983 7986 7989 7992 7995 7997 8000 8002 8004 8007 8010 8013 8016 8019 8021 8024 8027 8030 8033 8036 8039 8042 8045 8047 8050 8053 8055 8058 8061 8064 8067 8070 8072 8075 8078 8081 8084 8087 8090 8093 8096 8098 8101 8104 8106 8109 8112 8115 8118 8121 8124 8126 8129 8132 8134 8136 8139 8141 8144 8146 8148 8150 8153 8156 8159 8161 8163 8166 8169 8171 8173 8176 8178 8181 8184 8186 8188 8191 8194 8196 8199 8202 8205 8207 8210 8212 8214 8217 8220 8223 8226 8229 8232 8235 8238 8240 8243 8246 8249 8252 8255 8258 8261 8264 8267 8270 8272 8275 8278 8280 8283 8285 8288 8291 8294 8297 8300 8303 8306 8309 8311 8314 8317 8320 8322 8325 8328 8331 8334 8337 8340 8343 8345 8348 8351 8354 8357 8360 8363 8365 8368 8371 8374 8377 8380 8383 8385 8388 8391 8394 8396 8399 8402 8405 8407 8410 8412 8415 8417 8420 8423 8426 8429 8431 8433 8436 8439 8442 8445 8448 8451 8454 8457 8460 8463 8466 8469 8472 8475 8478 8481 8484 8487 8490 8493 8495 8498 8501 8503 8506 8509 8512 8514 8516 8519 8521 8524 8527 8530 8533 8536 8539 8542 8545 8548 8550 8553 8556 8559 8562 8565 8568 8570 8573 8576 8579 8582 8585 8588 8591 8594 8596 8599 8602 8605 8607 8609 8612 8615 8618 8621 8624 8627 8630 8633 8636 8639 8642 8645 8648 8651 8653 8656 8659 8662 8665 8668 8671 8674 8677 8680 8682 8685 8687 8690 8693 8696 8699 8702 8705 8708 8711 8714 8717 8720 8723 8726 8729 8732 8735 8738 8741 8744 8747 8750 8753 8756 8759 8762 8765 8768 8771 8774 8777 8780 8783 8786 8789 8792 8795 8798 8801 8804 8807 8810 8813 8816 8819 8822 8825 8828 8831 8834 8837 8840 8843 8846 8848 8851 8853 8856 8858 8861 8864 8867 8870 8873 8876 8879 8881 8884 8887 8890 8893 8895 8898 8901 8904 8907 8910 8913 8916 8919 8921 8924 8927 8930 8933 8936 8938 8940 8943 8946 8949 8952 8954 8957 8960 8962 8965 8968 8971 8973 8976 8979 8981 8984 8987 8990 8993 8996 8998 9001 9003 9005 9008 9011 9013 9015 9018 9021 9024 9026 9029 9031 9034 9036 9039 9042 9045 9047 9049 9052 9055 9058 9060 9062 9065 9067 9070 9073 9076 9078 9080 9083 9086 9089 9091 9093 9096 9098 9100 9103 9105 9107 9110 9113 9116 9119 9121 9124 9126 9129 9131 9134 9136 9139 9142 9145 9148 9151 9154 9157 9160 9163 9166 9168 9171 9174 9176 9179 9181 9184 9187 9190 9192 9194 9197 9200 9203 9205 9208 9210 9213 9215 9217 9220 9223 9226 9229 9232 9235 9238 9241 9244 9247 9250 9253 9255 9258 9261 9264 9267 9270 9273 9275 9278 9281 9283 9286 9289 9292 9295 9298 9301 9304 9307 9310 9312 9315 9318 9320 9323 9326 9329 9332 9335 9338 9341 9344 9347 9350 9353 9356 9359 9362 9365 9368 9371 9374 9377 9380 9383 9386 9389 9392 9395 9398 9401 9404 9407 9410 9413 9416 9419 9422 9425 9428 9431 9434 9437 9439 9442 9445 9448 9451 9454 9457 9459 9462 9465 9468 9471 9474 9477 9480 9483 9486 9489 9492 9495 9497 9500 9502 9505 9508 9511 9514 9517 9520 9523 9526 9529 9532 9535 9538 9541 9544 9547 9550 9553 9556 9559 9562 9564 9567 9570 9572 9575 9578 9581 9583 9585 9588 9591 9594 9597 9600 9603 9606 9609 9611 9614 9617 9620 9623 9626 9629 9632 9635 9638 9641 9644 9647 9650 9653 9656 9659 9661 9664 9667 9670 9673 9676 9679 9681 9683 9686 9689 9692 9695 9698 9701 9704 9707 9709 9712 9715 9718 9720 9723 9726 9729 9732 9735 9738 9740 9743 9746 9749 9752 9755 9758 9761 9763 9766 9769 9772 9775 9778 9781 9784 9787 9790 9793 9796 9799 9801 9804 9807 9810 9812 9815 9818 9821 9824 9826 9829 9832 9835 9838 9841 9844 9847 9850 9853 9856 9859 9862 9865 9868 9871 9874 9876 9879 9882 9885 9888 9891 9894 9897 9900 9903 9906 9909 9911 9914 9916 9919 9922 9925 9928 9931 9934 9937 9940 9942 9945 9948 9950 9953 9956 9959 9962 9965 9968 9970 9973 9976 9978 9980 9983 9986 9989 9992 9995 9998 10001 10004 10007 10009 10012 10015 10018 10020 10023 10026 10029 10032 10035 10038 10041 10044 10047 10050 10052 10055 10058 10061 10064 10067 10070 10073 10076 10079 10082 10085 10088 10091 10094 10097 10100 10103 10106 10109 10112 10115 10118 10121 10124 10127 10130 10133 10136 10139 10142 10144 10147 10150 10153 10156 10159 10161 10164 10167 10170 10173 10176 10179 10182 10185 10188 10190 10193 10195 10198 10201 10204 10207 10210 10213 10215 10218 10221 10223 10226 10229 10232 10235 10238 10241 10244 10247 10250 10253 10256 10259 10262 10265 10268 10271 10274 10277 10280 10283 10286 10289 10291 10294 10296 10299 10302 10305 10308 10311 10314 10317 10320 10323 10326 10329 10332 10335 10338 10341 10344 10347 10350 10353 10356 10359 10362 10365 10367 10370 10373 10376 10379 10381 10384 10387 10390 10393 10396 10398 10401 10404 10406 10409 10411 10414 10417 10420 10423 10425 10427 10429 10432 10435 10437 10440 10443 10445 10447 10450 10452 10455 10458 10461 10464 10467 10469 10472 10475 10478 10480 10482 10484 10486 10489 10492 10495 10497 10499 10502 10505 10508 10510 10512 10515 10517 10520 10523 10526 10529 10532 10535 10538 10541 10544 10547 10550 10553 10556 10559 10562 10565 10568 10571 10573 10576 10579 10582 10585 10588 10591 10594 10597 10600 10603 10606 10609 10611 10614 10617 10620 10623 10626 10629 10632 10635 10638 10641 10644 10647 10650 10652 10654 10657 10660 10663 10666 10669 10672 10675 10678 10680 10683 10685 10688 10691 10694 10697 10699 10702 10704 10707 10710 10713 10716 10719 10722 10724 10727 10730 10733 10736 10739 10742 10745 10748 10751 10754 10757 10760 10763 10766 10769 10772 10774 10777 10780 10782 10785 10788 10791 10794 10797 10800 10803 10806 10809 10812 10815 10818 10821 10824 10827 10830 10833 10836 10839 10842 10844 10847 10850 10853 10856 10859 10862 10865 10868 10870 10873 10876 10879 10882 10885 10888 10891 10894 10897 10900 10903 10905 10908 10910 10913 10916 10919 10922 10925 10927 10930 10933 10936 10938 10941 10943 10946 10949 10952 10955 10958 10961 10964 10967 10970 10972 10975 10978 10981 10984 10987 10990 10993 10996 10999 11002 11005 11007 11010 11013 11015 11018 11021 11024 11027 11030 11032 11034 11037 11040 11043 11046 11049 11051 11054 11057 11059 11062 11065 11067 11070 11073 11076 11079 11082 11085 11088 11091 11094 11097 11100 11103 11106 11109 11112 11115 11117 11120 11123 11125 11128 11131 11134 11137 11140 11143 11146 11149 11152 11155 11158 11161 11164 11167 11170 11173 11176 11179 11182 11184 11187 11190 11193 11196 11198 11201 11204 11207 11210 11213 11215 11218 11221 11224 11227 11230 11232 11235 11238 11241 11244 11246 11249 11252 11255 11258 11261 11263 11266 11269 11272 11275 11278 11281 11284 11287 11290 11293 11296 11299 11302 11305 11308 11311 11314 11317 11320 11323 11326 11329 11332 11334 11337 11340 11343 11346 11349 11352 11355 11357 11360 11363 11366 11369 11372 11375 11378 11380 11383 11386 11389 11391 11394 11397 11400 11403 11406 11409 11412 11415 11418 11421 11424 11426 11429 11432 11435 11438 11441 11444 11446 11449 11452 11455 11458 11461 11464 11467 11470 11473 11476 11479 11482 11485 11488 11491 11494 11497 11500 11503 11506 11508 11511 11514 11517 11520 11523 11526 11528 11531 11534 11537 11540 11543 11546 11549 11552 11554 11557 11560 11563 11565 11568 11571 11574 11577 11580 11583 11586 11589 11592 11595 11598 11601 11604 11607 11610 11613 11616 11619 11622 11625 11628 11631 11634 11637 11640 11643 11646 11649 11652 11655 11658 11661 11664 11667 11670 11673 11676 11679 11682 11685 11688 11691 11693 11696 11699 11702 11705 11708 11711 11714 11717 11720 11723 11726 11729 11732 11735 11738 11741 11744 11747 11750 11753 11756 11759 11762 11765 11768 11771 11773 11776 11779 11782 11785 11788 11791 11794 11797 11800 11803 11806 11809 11811 11814 11817 11820 11823 11826 11829 11832 11835 11838 11841 11844 11846 11849 11852 11854 11857 11860 11863 11866 11869 11872 11875 11877 11880 11883 11886 11889 11892 11895 11898 11901 11904 11907 11910 11913 11915 11918 11920 11923 11925 11928 11930 11933 11936 11939 11942 11945 11947 11950 11953 11956 11959 11962 11965 11968 11971 11974 11977 11980 11983 11986 11989 11992 11995 11997 12000 12003 12006 12009 12012 12015 12018 12021 12024 12027 12030 12032 12035 12037 12040 12043 12046 12049 12051 12054 12056 12059 12062 12065 12068 12071 12074 12077 12080 12083 12086 12088 12090 12093 12096 12099 12102 12105 12108 12111 12113 12116 12119 12122 12125 12127 12129 12132 12135 12138 12141 12143 12146 12149 12152 12155 12158 12161 12164 12167 12170 12173 12176 12179 12182 12185 12188 12191 12194 12197 12200 12203 12206 12209 12212 12215 12218 12221 12224 12227 12230 12233 12236 12239 12242 12245 12248 12251 12254 12257 12260 12263 12266 12269 12272 12275 12278 12281 12284 12287 12290 12293 12296 12299 12302 12305 12308 12311 12314 12317 12320 12323 12326 12329 12332 12335 12338 12341 12344 12347 12350 12353 12356 12358 12361 12364 12367 12370 12373 12376 12379 12382 12385 12388 12391 12394 12397 12400 12403 12406 12409 12412 12415 12418 12421 12423 12426 12429 12432 12435 12438 12440 12443 12446 12449 12452 12454 12457 12460 12463 12466 12469 12472 12475 12477 12480 12483 12486 12488 12491 12494 12497 12500 12503 12506 12509 12512 12515 12518 12521 12524 12527 12530 12532 12535 12538 12541 12544 12546 12549 12551 12554 12557 12560 12563 12566 12569 12571 12574 12577 12580 12583 12586 12589 12592 12595 12598 12601 12603 12606 12609 12611 12614 12617 12620 12623 12626 12629 12632 12635 12638 12641 12644 12646 12649 12652 12655 12658 12661 12664 12667 12669 12672 12675 12678 12681 12684 12687 12690 12693 12696 12699 12702 12705 12708 12711 12713 12716 12718 12721 12724 12726 12729 12732 12734 12736 12739 12742 12745 12748 12750 12753 12755 12758 12761 12763 12766 12768 12771 12774 12777 12780 12783 12786 12789 12792 12795 12798 12801 12804 12806 12809 12812 12815 12817 12820 12823 12826 12828 12831 12834 12837 12840 12843 12846 12849 12852 12855 12858 12861 12863 12866 12869 12872 12874 12877 12879 12882 12885 12888 12891 12893 12896 12899 12902 12905 12908 12911 12914 12917 12920 12923 12926 12928 12931 12934 12937 12940 12943 12946 12949 12951 12954 12957 12960 12963 12965 12968 12970 12973 12975 12978 12981 12984 12987 12990 12993 12996 12998 13001 13004 13007 13010 13013 13016 13018 13021 13024 13027 13030 13033 13036 13039 13041 13044 13047 13050 13053 13056 13058 13061 13064 13067 13070 13072 13074 13077 13080 13083 13086 13089 13091 13094 13097 13100 13103 13106 13108 13111 13113 13116 13119 13122 13125 13127 13130 13133 13136 13138 13141 13144 13147 13150 13153 13156 13159 13162 13165 13168 13171 13174 13177 13180 13183 13186 13189 13192 13195 13198 13201 13204 13207 13210 13213 13216 13219 13221 13224 13227 13230 13232 13234 13237 13240 13243 13246 13249 13252 13255 13258 13260 13263 13266 13269 13272 13274 13277 13280 13283 13286 13289 13292 13295 13298 13301 13303 13306 13309 13311 13314 13317 13320 13323 13325 13328 13331 13333 13336 13339 13342 13345 13347 13350 13353 13355 13358 13361 13363 13366 13369 13371 13374 13377 13380 13383 13386 13389 13392 13395 13398 13401 13404 13407 13410 13413 13416 13419 13421 13424 13427 13430 13432 13435 13438 13441 13444 13447 13450 13453 13455 13458 13461 13464 13466 13469 13472 13474 13476 13479 13482 13485 13487 13490 13492 13495 13498 13501 13503 13505 13508 13511 13514 13517 13520 13523 13526 13529 13532 13534 13537 13539 13542 13545 13548 13551 13553 13555 13558 13561 13564 13566 13569 13572 13575 13578 13581 13583 13586 13589 13592 13595 13598 13601 13604 13607 13610 13613 13616 13619 13622 13625 13628 13631 13634 13637 13640 13643 13646 13649 13652 13655 13658 13661 13664 13667 13669 13672 13675 13678 13681 13684 13687 13690 13693 13696 13699 13701 13704 13707 13709 13712 13715 13718 13721 13723 13726 13729 13732 13735 13738 13741 13744 13747 13750 13753 13756 13759 13762 13765 13768 13771 13773 13776 13779 13782 13785 13788 13791 13794 13796 13798 13801 13804 13807 13810 13813 13816 13819 13821 13823 13826 13829 13832 13835 13838 13841 13844 13846 13849 13852 13855 13858 13861 13863 13866 13869 13872 13875 13878 13880 13883 13885 13887 13890 13892 13895 13898 13901 13904 13907 13910 13913 13916 13919 13922 13925 13928 13931 13934 13937 13940 13943 13946 13949 13952 13955 13958 13961 13964 13967 13970 13973 13976 13979 13982 13985 13988 13991 13993 13996 13999 14002 14005 14008 14011 14014 14017 14020 14023 14026 14028 14031 14034 14037 14040 14043 14046 14049 14052 14054 14057 14060 14062 14064 14067 14069 14072 14074 14077 14079 14082 14085 14088 14090 14092 14095 14098 14100 14103 14106 14109 14111 14114 14117 14120 14123 14126 14129 14131 14134 14137 14139 14142 14145 14148 14151 14154 14157 14159 14162 14165 14168 14170 14173 14176 14179 14182 14185 14188 14191 14194 14197 14200 14203 14205 14208 14211 14214 14217 14220 14223 14226 14228 14231 14234 14237 14239 14242 14245 14248 14251 14254 14257 14260 14262 14265 14268 14271 14274 14276 14279 14282 14285 14288 14291 14294 14297 14300 14302 14305 14308 14311 14313 14316 14319 14322 14324 14327 14330 14333 14336 14338 14341 14344 14347 14350 14353 14355 14358 14360 14363 14366 14369 14371 14374 14376 14379 14382 14385 14388 14390 14393 14396 14398 14401 14404 14406 14409 14412 14415 14418 14421 14424 14427 14430 14433 14436 14439 14442 14445 14448 14451 14454 14457 14460 14463 14466 14469 14472 14475 14478 14481 14484 14487 14490 14493 14496 14499 14502 14505 14508 14511 14514 14517 14520 14523 14526 14529 14532 14535 14538 14541 14544 14547 14550 14553 14555 14557 14560 14563 14566 14569 14572 14575 14577 14580 14583 14586 14589 14592 14595 14598 14601 14604 14607 14610 14613 14616 14619 14622 14625 14628 14631 14634 14637 14640 14643 14646 14649 14652 14655 14658 14661 14664 14666 14669 14672 14675 14678 14681 14684 14686 14689 14692 14694 14697 14700 14703 14706 14709 14712 14715 14718 14720 14723 14726 14729 14732 14735 14737 14740 14743 14746 14748 14751 14754 14757 14759 14762 14765 14768 14771 14774 14776 14779 14782 14785 14787 14790 14792 14795 14797 14799 14802 14804 14807 14810 14813 14816 14818 14821 14824 14827 14830 14833 14836 14839 14842 14845 14847 14850 14853 14856 14859 14862 14865 14867 14870 14873 14875 14878 14881 14884 14887 14890 14893 14896 14898 14901 14904 14907 14910 14913 14916 14919 14922 14925 14928 14931 14934 14937 14940 14943 14946 14949 14952 14955 14958 14961 14964 14967 14970 14973 14976 14979 14982 14984 14987 14989 14992 14994 14997 15000 15003 15006 15008 15010 15013 15016 15019 15022 15025 15028 15030 15033 15035 15038 15041 15044 15047 15050 15053 15056 15059 15062 15065 15068 15071 15074 15077 15080 15083 15086 15089 15092 15095 15098 15101 15103 15106 15108 15111 15113 15115 15117 15120 15123 15126 15129 15132 15135 15138 15140 15143 15145 15148 15151 15154 15157 15160 15163 15166 15169 15171 15173 15176 15178 15181 15184 15186 15189 15192 15195 15197 15200 15202 15205 15208 15211 15214 15216 15219 15222 15225 15228 15231 15234 15237 15240 15243 15246 15249 15252 15255 15257 15260 15263 15266 15269 15272 15275 15278 15281 15284 15286 15289 15292 15295 15298 15301 15304 15307 15310 15312 15315 15318 15321 15324 15327 15329 15332 15335 15338 15341 15344 15346 15349 15352 15355 15358 15361 15364 15367 15369 15372 15375 15377 15380 15383 15385 15388 15391 15394 15397 15400 15403 15405 15408 15411 15414 15417 15419 15422 15424 15427 15430 15433 15436 15439 15442 15445 15447 15450 15453 15455 15457 15460 15462 15465 15467 15470 15473 15476 15478 15481 15483 15486 15488 15491 15494 15497 15500 15502 15505 15508 15511 15514 15517 15519 15522 15525 15528 15531 15534 15537 15540 15543 15545 15548 15551 15554 15557 15560 15563 15566 15569 15572 15575 15578 15581 15584 15586 15589 15592 15595 15598 15601 15604 15607 15610 15613 15616 15618 15621 15624 15627 15629 15632 15635 15638 15641 15644 15647 15650 15653 15656 15659 15662 15664 15667 15670 15673 15675 15678 15680 15683 15686 15688 15691 15694 15697 15699 15702 15705 15708 15710 15713 15716 15718 15721 15724 15727 15730 15733 15736 15739 15742 15744 15747 15749 15752 15755 15758 15761 15764 15767 15770 15773 15776 15779 15782 15785 15788 15791 15794 15797 15800 15803 15806 15809 15812 15815 15818 15821 15824 15827 15829 15832 15835 15837 15840 15843 15845 15848 15851 15854 15857 15860 15863 15866 15869 15872 15875 15878 15881 15884 15887 15890 15893 15896 15899 15902 15905 15908 15911 15914 15917 15920 15923 15926 15929 15932 15935 15938 15941 15944 15947 15949 15952 15955 15958 15961 15964 15967 15970 15973 15976 15979 15982 15985 15988 15991 15994 15997 16000 16002 16005 16008 16010 16013 16016 16019 16022 16025 16028 16031 16033 16036 16039 16042 16045 16048 16051 16054 16057 16060 16063 16066 16068 16071 16073 16076 16079 16082 16084 16087 16090 16092 16095 16098 16101 16103 16106 16108 16111 16114 16117 16120 16123 16126 16129 16131 16134 16136 16139 16142 16145 16148 16151 16154 16157 16160 16163 16166 16169 16172 16175 16178 16181 16184 16187 16189 16192 16195 16197 16200 16203 16206 16209 16211 16214 16216 16219 16222 16225 16227 16230 16233 16236 16238 16241 16243 16246 16249 16252 16255 16258 16261 16263 16266 16269 16272 16275 16278 16281 16284 16287 16290 16293 16295 16298 16301 16304 16307 16309 16312 16315 16318 16321 16324 16327 16330 16333 16336 16339 16342 16345 16348 16351 16354 16357 16360 16363 16366 16369 16372 16375 16378 16381 16384 16387 16390 16393 16396 16399 16402 16405 16408 16411 16414 16417 16420 16423 16426 16429 16432 16434 16437 16440 16443 16446 16449 16451 16453 16456 16459 16462 16465 16467 16470 16472 16475 16478 16481 16484 16487 16490 16493 16495 16497 16500 16503 16506 16509 16512 16515 16518 16521 16524 16526 16529 16532 16535 16538 16541 16544 16547 16550 16553 16556 16559 16562 16565 16568 16571 16574 16577 16580 16583 16586 16589 16592 16595 16598 16601 16604 16607 16610 16613 16616 16619 16622 16625 16628 16631 16634 16637 16640 16643 16646 16649 16652 16655 16658 16661 16664 16667 16670 16673 16676 16679 16682 16685 16687 16690 16693 16696 16698 16701 16704 16707 16710 16713 16716 16719 16722 16725 16728 16731 16734 16737 16740 16743 16746 16749 16752 16755 16758 16761 16764 16767 16770 16773 16776 16779 16782 16785 16788 16791 16794 16797 16800 16803 16806 16809 16811 16814 16816 16819 16822 16825 16828 16831 16834 16837 16840 16843 16846 16849 16852 16855 16858 16861 16864 16867 16870 16872 16875 16878 16881 16884 16887 16890 16893 16896 16899 16902 16905 16907 16910 16913 16916 16919 16922 16924 16927 16930 16933 16936 16939 16942 16944 16947 16950 16953 16956 16959 16962 16965 16968 16971 16974 16977 16980 16983 16986 16989 16992 16995 16998 17001 17004 17007 17010 17013 17016 17019 17022 17025 17028 17031 17033 17036 17039 17042 17045 17048 17051 17054 17057 17060 17063 17066 17069 17072 17075 17078 17081 17084 17087 17090 17093 17096 17099 17102 17105 17108 17111 17114 17117 17120 17122 17125 17128 17130 17133 17136 17138 17141 17144 17146 17149 17151 17154 17157 17160 17163 17166 17169 17172 17175 17178 17181 17184 17187 17190 17193 17196 17199 17202 17205 17208 17211 17214 17217 17220 17223 17226 17229 17232 17235 17237 17240 17243 17246 17249 17252 17255 17258 17261 17263 17266 17268 17271 17274 17277 17279 17282 17285 17287 17290 17292 17295 17297 17300 17302 17305 17307 17310 17312 17315 17318 17321 17324 17327 17330 17333 17336 17339 17342 17345 17348 17351 17354 17357 17360 17363 17366 17369 17372 17375 17378 17381 17384 17387 17390 17393 17396 17399 17401 17404 17407 17409 17412 17414 17417 17420 17423 17426 17429 17431 17434 17437 17439 17442 17445 17448 17451 17453 17456 17458 17461 17463 17466 17468 17470 17473 17475 17477 17479 17482 17484 17487 17490 17493 17496 17499 17502 17505 17508 17511 17513 17516 17519 17522 17525 17528 17530 17533 17536 17538 17541 17544 17547 17550 17553 17556 17559 17561 17564 17567 17569 17572 17575 17577 17580 17583 17586 17589 17592 17595 17598 17601 17604 17607 17610 17613 17616 17619 17622 17625 17627 17630 17633 17635 17638 17641 17643 17646 17649 17652 17655 17658 17660 17663 17666 17669 17672 17675 17677 17680 17683 17686 17689 17692 17694 17697 17700 17703 17706 17708 17711 17714 17716 17719 17722 17724 17726 17729 17732 17735 17738 17740 17743 17746 17749 17751 17754 17757 17760 17762 17765 17768 17771 17774 17777 17780 17783 17786 17788 17791 17794 17797 17800 17803 17806 17809 17812 17815 17818 17820 17823 17826 17829 17832 17834 17837 17839 17842 17845 17848 17851 17853 17856 17859 17861 17864 17867 17870 17873 17876 17879 17882 17885 17888 17891 17893 17896 17899 17902 17904 17907 17910 17913 17916 17919 17922 17925 17928 17931 17934 17937 17939 17941 17944 17947 17950 17953 17956 17958 17961 17964 17967 17970 17972 17975 17978 17981 17983 17986 17989 17991 17994 17997 18000 18003 18006 18009 18012 18014 18016 18019 18022 18025 18028 18031 18034 18036 18039 18041 18044 18046 18049 18052 18055 18057 18060 18063 18065 18068 18071 18074 18077 18079 18081 18083 18086 18089 18092 18095 18098 18101 18104 18107 18110 18113 18116 18119 18122 18125 18128 18131 18134 18137 18140 18143 18145 18148 18151 18154 18157 18160 18163 18166 18169 18172 18175 18178 18181 18184 18187 18189 18192 18195 18198 18200 18202 18205 18207 18210 18213 18215 18217 18219 18222 18224 18227 18229 18232 18235 18238 18240 18243 18245 18248 18251 18253 18256 18259 18261 18263 18265 18268 18270 18273 18275 18277 18280 18283 18285 18288 18291 18294 18297 18299 18301 18304 18307 18310 18313 18316 18319 18321 18323 18326 18328 18330 18333 18335 18338 18341 18343 18346 18349 18352 18354 18356 18359 18362 18365 18367 18370 18373 18376 18379 18382 18385 18388 18391 18394 18397 18399 18402 18405 18408 18411 18414 18417 18420 18423 18426 18429 18432 18435 18438 18441 18444 18447 18450 18452 18455 18458 18461 18464 18466 18469 18472 18475 18478 18481 18484 18487 18490 18493 18496 18499 18502 18505 18508 18510 18513 18516 18519 18522 18525 18528 18530 18533 18535 18538 18541 18544 18547 18550 18552 18554 18557 18560 18563 18566 18569 18572 18575 18578 18581 18584 18587 18590 18593 18596 18599 18602 18605 18608 18611 18614 18617 18620 18623 18626 18629 18632 18635 18638 18641 18644 18647 18650 18653 18656 18659 18662 18665 18668 18671 18674 18677 18680 18683 18686 18689 18692 18695 18698 18701 18704 18707 18710 18713 18716 18719 18722 18725 18728 18730 18733 18736 18739 18741 18744 18747 18750 18753 18756 18759 18762 18765 18768 18771 18774 18777 18779 18782 18785 18788 18791 18794 18797 18800 18803 18805 18808 18811 18813 18816 18819 18821 18824 18827 18830 18833 18835 18838 18840 18843 18846 18849 18851 18854 18856 18859 18862 18865 18868 18870 18873 18876 18878 18880 18883 18886 18888 18891 18894 18896 18899 18902 18905 18908 18911 18914 18917 18920 18923 18926 18929 18932 18935 18938 18941 18943 18946 18949 18952 18955 18958 18961 18964 18967 18970 18973 18976 18979 18982 18985 18988 18991 18994 18997 19000 19003 19006 19009 19012 19015 19018 19021 19024 19027 19030 19033 19036 19039 19042 19045 19048 19051 19054 19057 19060 19063 19066 19069 19072 19075 19078 19081 19084 19086 19089 19091 19094 19097 19100 19103 19106 19109 19112 19115 19117 19120 19123 19126 19129 19132 19135 19138 19140 19143 19146 19148 19151 19154 19156 19159 19162 19165 19168 19171 19174 19177 19180 19183 19186 19189 19192 19195 19198 19201 19204 19207 19210 19213 19215 19218 19221 19224 19227 19230 19233 19236 19238 19241 19244 19247 19249 19252 19255 19257 19259 19261 19264 19267 19270 19273 19275 19277 19280 19283 19286 19289 19292 19294 19297 19300 19303 19306 19308 19311 19314 19317 19320 19323 19326 19328 19331 19334 19337 19339 19341 19344 19347 19350 19353 19356 19359 19362 19365 19368 19371 19374 19377 19380 19382 19385 19388 19390 19393 19396 19399 19402 19405 19408 19411 19414 19417 19420 19423 19426 19429 19432 19435 19438 19441 19444 19447 19449 19452 19455 19458 19461 19464 19467 19470 19473 19476 19479 19482 19485 19488 19491 19493 19496 19499 19502 19505 19508 19510 19513 19516 19518 19521 19524 19527 19530 19533 19536 19538 19541 19543 19546 19548 19551 19553 19556 19559 19561 19564 19567 19569 19572 19575 19578 19580 19583 19585 19588 19591 19594 19597 19600 19603 19606 19609 19611 19614 19617 19620 19623 19626 19629 19632 19635 19638 19641 19644 19647 19650 19653 19656 19659 19662 19665 19668 19671 19674 19677 19680 19682 19685 19688 19690 19693 19696 19699 19701 19704 19706 19708 19711 19714 19717 19720 19723 19726 19729 19732 19735 19738 19740 19743 19745 19748 19750 19753 19756 19759 19762 19765 19768 19771 19774 19777 19780 19783 19786 19788 19791 19794 19797 19800 19803 19806 19809 19812 19815 19818 19821 19824 19827 19830 19833 19836 19839 19842 19845 19848 19851 19853 19856 19858 19861 19864 19867 19869 19871 19873 19876 19879 19882 19885 19887 19890 19893 19896 19899 19901 19904 19907 19910 19913 19916 19919 19921 19924 19927 19930 19933 19936 19939 19941 19943 19946 19948 19950 19953 19956 19959 19962 19965 19967 19970 19973 19976 19979 19982 19985 19988 19991 19993 19996 19999 20002 20005 20008 20011 20014 20016 20019 20022 20025 20027 20030 20033 20036 20038 20041 20044 20047 20050 20053 20056 20058 20061 20064 20066 20069 20072 20074 20077 20080 20082 20085 20088 20090 20093 20095 20098 20101 20104 20107 20110 20112 20115 20118 20121 20124 20127 20130 20133 20136 20139 20142 20145 20148 20151 20153 20156 20158 20161 20164 20167 20170 20173 20176 20179 20182 20185 20188 20191 20194 20197 20200 20203 20206 20209 20212 20215 20218 20221 20224 20227 20230 20233 20236 20239 20242 20245 20248 20251 20254 20257 20260 20263 20265 20268 20271 20273 20276 20279 20282 20285 20288 20291 20293 20296 20299 20302 20305 20308 20311 20314 20317 20320 20323 20326 20329 20331 20334 20337 20340 20343 20345 20348 20351 20354 20357 20360 20362 20365 20368 20371 20374 20377 20379 20382 20385 20388 20391 20394 20397 20400 20403 20406 20409 20412 20415 20418 20421 20424 20427 20430 20433 20436 20439 20442 20445 20448 20451 20454 20457 20460 20463 20466 20469 20472 20475 20478 20481 20484 20487 20490 20493 20496 20498 20501 20504 20507 20510 20513 20515 20518 20521 20523 20526 20529 20532 20535 20538 20541 20543 20546 20549 20551 20554 20557 20559 20562 20565 20567 20569 20571 20574 20577 20579 20582 20585 20587 20590 20593 20596 20599 20602 20605 20607 20610 20613 20616 20619 20622 20625 20628 20631 20634 20636 20639 20641 20644 20647 20650 20653 20656 20658 20661 20664 20666 20669 20672 20674 20677 20680 20683 20686 20689 20692 20695 20697 20700 20703 20706 20709 20711 20714 20717 20719 20722 20725 20728 20731 20734 20736 20739 20742 20745 20748 20751 20754 20757 20759 20762 20765 20767 20770 20772 20775 20778 20781 20784 20787 20790 20793 20796 20799 20802 20805 20808 20811 20814 20817 20820 20823 20826 20829 20832 20835 20838 20841 20844 20847 20850 20853 20856 20859 20862 20864 20867 20870 20873 20876 20879 20881 20884 20887 20890 20892 20895 20898 20901 20904 20907 20910 20913 20916 20919 20922 20925 20928 20931 20934 20937 20940 20943 20946 20949 20952 20954 20957 20960 20963 20966 20969 20972 20974 20977 20980 20983 20986 20989 20992 20995 20998 21001 21004 21006 21009 21012 21015 21018 21021 21023 21026 21029 21031 21033 21036 21039 21042 21045 21048 21050 21053 21056 21059 21062 21065 21068 21070 21073 21076 21079 21082 21084 21087 21090 21093 21096 21099 21102 21105 21108 21111 21114 21117 21120 21123 21126 21128 21131 21133 21136 21139 21142 21145 21148 21151 21154 21157 21160 21163 21166 21169 21172 21175 21178 21181 21184 21187 21190 21193 21196 21198 21201 21203 21206 21209 21211 21213 21216 21219 21222 21225 21228 21231 21234 21236 21239 21242 21245 21247 21250 21253 21255 21258 21261 21264 21266 21269 21272 21275 21277 21280 21283 21285 21288 21291 21294 21297 21300 21302 21305 21308 21311 21314 21317 21320 21323 21326 21329 21332 21334 21337 21340 21342 21345 21348 21351 21354 21357 21360 21363 21366 21368 21371 21374 21376 21379 21382 21384 21387 21390 21393 21396 21399 21402 21404 21407 21410 21413 21415 21418 21421 21424 21427 21430 21432 21435 21438 21441 21444 21446 21449 21452 21455 21457 21460 21463 21465 21467 21470 21473 21476 21479 21481 21484 21487 21490 21492 21495 21498 21501 21504 21507 21510 21512 21515 21518 21521 21524 21526 21529 21531 21534 21536 21539 21542 21544 21547 21550 21552 21554 21557 21560 21563 21566 21568 21571 21574 21577 21580 21583 21585 21588 21591 21594 21597 21600 21603 21606 21609 21612 21615 21618 21620 21623 21626 21629 21632 21635 21638 21641 21644 21647 21649 21652 21655 21658 21661 21664 21667 21670 21673 21676 21679 21682 21685 21688 21691 21694 21697 21700 21703 21706 21709 21712 21715 21718 21721 21724 21727 21730 21733 21736 21739 21741 21744 21747 21750 21753 21756 21759 21762 21765 21768 21770 21773 21775 21778 21781 21784 21787 21789 21792 21795 21798 21801 21804 21807 21810 21813 21816 21819 21822 21824 21827 21830 21833 21836 21839 21842 21845 21848 21851 21854 21857 21860 21863 21866 21869 21871 21874 21877 21880 21883 21885 21888 21891 21894 21897 21900 21903 21905 21908 21911 21914 21917 21920 21923 21926 21929 21932 21935 21938 21941 21944 21947 21950 21953 21956 21959 21962 21965 21968 21971 21974 21977 21980 21983 21986 21989 21992 21995 21998 22001 22004 22007 22010 22013 22016 22019 22022 22025 22028 22031 22034 22037 22040 22043 22046 22049 22052 22054 22057 22060 22063 22065 22068 22071 22074 22077 22080 22083 22086 22089 22092 22095 22098 22101 22103 22106 22109 22112 22114 22117 22120 22123 22126 22128 22131 22134 22137 22139 22142 22144 22146 22149 22152 22154 22156 22159 22161 22163 22166 22169 22172 22175 22178 22181 22184 22187 22190 22193 22196 22199 22202 22205 22208 22211 22214 22217 22220 22223 22226 22229 22232 22235 22238 22241 22244 22247 22250 22252 22255 22258 22261 22264 22267 22269 22272 22275 22277 22279 22282 22285 22288 22291 22293 22296 22299 22302 22304 22307 22309 22312 22315 22317 22320 22322 22325 22327 22329 22332 22335 22338 22341 22344 22347 22350 22353 22356 22359 22362 22364 22367 22370 22373 22375 22378 22381 22384 22387 22389 22391 22394 22397 22399 22401 22404 22406 22408 22411 22413 22416 22419 22421 22424 22427 22430 22433 22436 22438 22441 22444 22447 22450 22453 22456 22459 22462 22464 22467 22469 22472 22475 22478 22481 22484 22487 22490 22493 22496 22498 22501 22504 22507 22510 22512 22515 22518 22521 22524 22527 22530 22533 22535 22538 22541 22544 22546 22549 22552 22555 22558 22561 22564 22567 22570 22572 22574 22577 22580 22582 22584 22586 22589 22592 22595 22598 22601 22604 22607 22610 22613 22616 22619 22622 22625 22628 22631 22634 22637 22640 22643 22645 22648 22651 22654 22657 22659 22662 22665 22667 22670 22673 22676 22679 22682 22685 22688 22691 22694 22697 22700 22703 22706 22709 22712 22715 22717 22720 22723 22726 22729 22732 22735 22738 22740 22743 22745 22748 22751 22754 22757 22760 22763 22766 22769 22772 22774 22777 22780 22782 22785 22788 22790 22793 22795 22798 22801 22804 22806 22809 22812 22815 22818 22820 22823 22826 22829 22832 22835 22838 22841 22844 22847 22850 22853 22855 22858 22861 22864 22867 22870 22873 22876 22879 22882 22884 22887 22890 22893 22896 22899 22902 22905 22908 22911 22913 22916 22919 22921 22924 22927 22930 22932 22935 22938 22940 22943 22946 22949 22952 22954 22957 22960 22962 22965 22968 22970 22973 22976 22979 22982 22985 22988 22991 22994 22997 23000 23003 23006 23009 23012 23015 23017 23020 23022 23025 23028 23030 23033 23035 23038 23041 23044 23047 23050 23053 23056 23059 23062 23065 23068 23071 23074 23076 23079 23082 23085 23087 23090 23092 23094 23097 23100 23103 23106 23108 23111 23114 23117 23120 23123 23126 23129 23132 23134 23137 23140 23143 23146 23149 23152 23155 23158 23160 23163 23166 23169 23172 23175 23178 23181 23183 23186 23189 23192 23195 23198 23201 23204 23207 23210 23213 23216 23219 23222 23225 23228 23230 23233 23236 23239 23242 23245 23248 23251 23254 23256 23259 23262 23264 23267 23270 23273 23276 23278 23281 23284 23287 23290 23293 23296 23299 23302 23305 23308 23311 23314 23317 23320 23323 23326 23329 23331 23334 23337 23340 23343 23346 23349 23352 23355 23358 23361 23364 23367 23370 23373 23376 23379 23382 23384 23387 23390 23393 23396 23399 23402 23405 23408 23411 23414 23417 23419 23422 23425 23428 23430 23433 23436 23439 23442 23445 23448 23451 23454 23456 23459 23462 23465 23467 23470 23473 23476 23479 23482 23485 23488 23491 23494 23497 23500 23503 23506 23509 23512 23514 23517 23520 23523 23526 23529 23532 23535 23538 23541 23543 23546 23549 23552 23555 23558 23561 23564 23567 23570 23573 23576 23578 23581 23584 23587 23590 23593 23596 23599 23602 23605 23608 23611 23614 23616 23618 23621 23624 23627 23630 23633 23636 23639 23641 23644 23647 23650 23652 23655 23658 23661 23664 23667 23670 23672 23675 23678 23681 23684 23687 23690 23693 23696 23699 23702 23705 23708 23711 23714 23717 23720 23723 23726 23729 23732 23735 23738 23741 23744 23747 23750 23753 23756 23759 23762 23765 23768 23771 23774 23777 23780 23783 23786 23789 23792 23794 23797 23800 23803 23806 23809 23812 23815 23818 23821 23824 23827 23830 23833 23836 23839 23842 23845 23848 23851 23854 23857 23860 23863 23866 23869 23872 23874 23877 23879 23882 23885 23888 23891 23893 23896 23899 23902 23905 23907 23910 23913 23916 23919 23922 23925 23928 23931 23934 23937 23940 23943 23945 23948 23951 23954 23957 23960 23962 23965 23968 23970 23973 23975 23978 23981 23983 23986 23989 23992 23995 23998 24001 24004 24007 24010 24013 24016 24019 24022 24025 24028 24031 24034 24037 24040 24043 24046 24048 24051 24054 24057 24060 24063 24066 24069 24071 24074 24077 24080 24083 24086 24089 24092 24095 24098 24101 24104 24107 24110 24113 24116 24118 24121 24124 24127 24130 24133 24136 24139 24142 24145 24148 24150 24153 24156 24159 24162 24164 24167 24170 24172 24175 24178 24181 24184 24187 24190 24193 24196 24198 24201 24204 24207 24210 24213 24216 24219 24221 24224 24227 24229 24232 24235 24238 24241 24244 24247 24250 24253 24256 24258 24261 24264 24267 24270 24273 24276 24279 24282 24285 24288 24291 24294 24297 24300 24303 24306 24309 24312 24315 24318 24321 24324 24327 24330 24333 24336 24339 24342 24345 24348 24351 24354 24357 24360 24363 24366 24369 24372 24375 24378 24381 24384 24387 24390 24393 24396 24399 24402 24405 24408 24411 24414 24417 24420 24423 24426 24429 24431 24434 24437 24440 24443 24446 24448 24451 24454 24457 24460 24463 24466 24469 24472 24475 24477 24480 24483 24486 24489 24492 24495 24498 24501 24504 24507 24509 24512 24515 24518 24521 24524 24527 24530 24533 24536 24539 24542 24545 24548 24551 24554 24557 24560 24563 24566 24569 24572 24574 24577 24579 24582 24585 24588 24591 24594 24597 24599 24602 24605 24608 24611 24614 24617 24620 24623 24626 24628 24631 24634 24637 24640 24642 24645 24648 24650 24653 24656 24659 24662 24665 24668 24671 24674 24677 24680 24683 24686 24689 24692 24695 24698 24701 24704 24707 24710 24713 24716 24719 24722 24725 24728 24731 24734 24737 24740 24743 24746 24749 24752 24755 24758 24761 24764 24767 24770 24773 24776 24779 24782 24785 24788 24791 24794 24797 24800 24803 24806 24809 24812 24815 24818 24821 24824 24827 24830 24833 24836 24839 24842 24845 24848 24851 24854 24857 24860 24863 24866 24869 24872 24875 24878 24881 24884 24887 24890 24893 24896 24899 24902 24905 24908 24911 24914 24917 24920 24923 24926 24929 24932 24935 24938 24941 24944 24947 24950 24953 24956 24959 24962 24965 24968 24971 24974 24977 24980 24983 24986 24989 24992 24995 24998 25001 25004 25007 25010 25013 25016 25019 25022 25025 25028 25031 25034 25037 25040 25043 25046 25049 25052 25055 25057 25060 25063 25066 25069 25072 25075 25078 25080 25083 25086 25089 25092 25095 25097 25100 25103 25106 25109 25112 25115 25118 25121 25124 25127 25130 25133 25136 25139 25142 25145 25148 25151 25154 25157 25160 25162 25165 25168 25171 25174 25176 25179 25182 25185 25188 25191 25194 25197 25200 25203 25206 25209 25212 25215 25218 25221 25224 25227 25230 25233 25236 25239 25242 25245 25247 25250 25253 25256 25259 25262 25265 25268 25271 25274 25277 25280 25283 25286 25289 25292 25295 25298 25301 25304 25307 25310 25312 25315 25318 25321 25324 25326 25329 25332 25334 25336 25339 25342 25345 25347 25350 25353 25356 25359 25361 25363 25366 25369 25371 25374 25377 25380 25383 25386 25389 25392 25395 25398 25401 25404 25407 25410 25413 25416 25419 25422 25425 25428 25431 25434 25437 25440 25443 25446 25448 25451 25454 25457 25459 25462 25465 25467 25469 25472 25475 25478 25481 25484 25487 25490 25492 25495 25498 25500 25503 25506 25508 25511 25513 25516 25519 25521 25524 25527 25530 25533 25536 25539 25541 25544 25547 25550 25552 25555 25558 25561 25564 25567 25570 25573 25576 25579 25582 25585 25588 25591 25594 25597 25600 25603 25606 25609 25612 25615 25617 25620 25623 25626 25629 25631 25634 25637 25639 25642 25645 25648 25651 25654 25657 25659 25662 25664 25667 25670 25673 25675 25678 25681 25684 25687 25689 25691 25694 25697 25700 25703 25706 25708 25710 25713 25716 25718 25721 25723 25726 25729 25732 25735 25738 25741 25744 25746 25749 25751 25754 25757 25760 25763 25766 25769 25772 25775 25778 25780 25783 25786 25789 25792 25795 25798 25801 25804 25806 25808 25811 25814 25817 25820 25823 25826 25829 25832 25835 25838 25841 25844 25847 25849 25852 25854 25857 25859 25862 25865 25868 25870 25873 25876 25879 25882 25885 25887 25890 25892 25894 25897 25900 25903 25906 25909 25912 25915 25918 25921 25924 25927 25930 25932 25935 25938 25941 25944 25947 25950 25952 25955 25958 25961 25963 25966 25969 25972 25974 25977 25980 25983 25986 25989 25992 25995 25998 26001 26003 26006 26008 26011 26013 26016 26019 26022 26025 26028 26031 26034 26037 26040 26043 26046 26049 26052 26055 26058 26061 26063 26066 26069 26072 26074 26077 26079 26082 26085 26088 26091 26093 26096 26099 26102 26104 26107 26110 26113 26116 26119 26122 26125 26128 26131 26133 26136 26139 26142 26145 26148 26151 26154 26157 26160 26163 26166 26169 26172 26175 26178 26181 26184 26187 26190 26193 26196 26199 26202 26205 26208 26211 26214 26216 26219 26222 26225 26228 26231 26234 26237 26239 26242 26245 26247 26250 26252 26255 26257 26260 26262 26265 26268 26271 26274 26277 26280 26282 26285 26288 26290 26293 26296 26298 26301 26304 26306 26309 26312 26315 26318 26320 26323 26325 26327 26330 26333 26336 26339 26342 26345 26347 26350 26353 26356 26359 26362 26365 26368 26370 26373 26376 26379 26382 26385 26387 26390 26393 26396 26398 26400 26403 26406 26409 26411 26414 26417 26419 26422 26425 26427 26430 26432 26435 26437 26440 26443 26446 26448 26451 26454 26457 26460 26463 26466 26469 26472 26475 26478 26481 26484 26486 26488 26491 26494 26497 26500 26503 26506 26509 26511 26514 26517 26519 26522 26525 26528 26531 26534 26537 26540 26542 26545 26548 26551 26553 26556 26559 26562 26564 26567 26570 26573 26576 26579 26582 26585 26588 26591 26594 26597 26600 26603 26606 26609 26611 26614 26617 26620 26623 26626 26629 26631 26633 26636 26638 26641 26644 26647 26650 26653 26656 26659 26662 26665 26668 26671 26674 26677 26680 26683 26686 26689 26692 26695 26698 26701 26704 26707 26710 26713 26716 26719 26722 26725 26728 26731 26734 26737 26740 26743 26746 26749 26752 26755 26758 26761 26764 26767 26770 26773 26776 26778 26780 26782 26785 26788 26791 26794 26797 26800 26803 26806 26809 26811 26813 26816 26819 26821 26824 26827 26829 26831 26834 26837 26840 26843 26846 26849 26852 26854 26857 26860 26863 26866 26869 26872 26875 26878 26881 26884 26887 26890 26893 26896 26899 26902 26905 26908 26910 26913 26916 26918 26921 26923 26926 26928 26930 26933 26936 26939 26942 26945 26948 26951 26953 26956 26958 26961 26964 26967 26969 26972 26975 26978 26980 26983 26986 26989 26992 26995 26998 27001 27004 27007 27010 27013 27016 27019 27022 27024 27027 27030 27033 27036 27039 27041 27044 27047 27050 27052 27055 27058 27061 27063 27066 27069 27072 27075 27078 27081 27084 27087 27090 27093 27096 27099 27102 27105 27108 27111 27114 27117 27120 27123 27126 27129 27132 27135 27138 27141 27144 27147 27150 27153 27156 27159 27162 27165 27168 27171 27174 27177 27180 27183 27186 27189 27192 27195 27198 27201 27204 27206 27209 27212 27215 27218 27221 27224 27227 27230 27233 27236 27238 27241 27244 27247 27250 27253 27256 27259 27262 27265 27268 27271 27274 27277 27280 27283 27286 27289 27292 27295 27298 27301 27304 27307 27310 27313 27316 27319 27321 27324 27327 27330 27333 27336 27339 27342 27345 27348 27351 27354 27357 27360 27363 27366 27369 27371 27374 27377 27380 27383 27386 27389 27392 27395 27398 27400 27403 27406 27409 27412 27415 27418 27421 27423 27426 27429 27432 27435 27438 27441 27444 27447 27450 27452 27455 27458 27461 27464 27467 27470 27473 27475 27478 27481 27484 27487 27490 27493 27496 27499 27502 27504 27507 27510 27513 27516 27519 27522 27525 27528 27530 27533 27536 27538 27541 27544 27547 27550 27553 27556 27559 27562 27564 27567 27570 27572 27574 27577 27580 27583 27586 27589 27592 27594 27597 27600 27603 27606 27609 27612 27615 27618 27621 27624 27627 27630 27632 27635 27638 27641 27644 27647 27650 27653 27656 27658 27661 27664 27666 27669 27672 27675 27678 27681 27684 27687 27690 27693 27696 27699 27702 27704 27707 27710 27713 27716 27719 27722 27725 27728 27731 27734 27737 27739 27742 27745 27747 27750 27753 27756 27758 27761 27764 27767 27769 27772 27775 27777 27779 27781 27783 27785 27788 27791 27794 27797 27800 27803 27805 27807 27810 27812 27814 27816 27819 27821 27824 27826 27829 27832 27834 27837 27839 27842 27845 27847 27849 27852 27855 27858 27861 27864 27867 27870 27872 27875 27878 27881 27884 27887 27890 27893 27895 27898 27900 27902 27904 27907 27910 27913 27916 27918 27920 27923 27926 27929 27932 27934 27936 27939 27942 27945 27947 27950 27953 27956 27959 27962 27965 27967 27970 27973 27976 27978 27981 27984 27987 27990 27993 27996 27998 28001 28004 28007 28010 28013 28016 28019 28022 28025 28028 28031 28034 28037 28040 28043 28046 28049 28052 28055 28058 28061 28064 28067 28070 28073 28076 28078 28081 28084 28086 28089 28092 28095 28098 28101 28104 28107 28110 28113 28116 28119 28122 28125 28128 28131 28134 28137 28140 28143 28146 28149 28152 28155 28157 28160 28163 28166 28169 28171 28173 28176 28179 28182 28185 28188 28191 28193 28196 28199 28202 28205 28207 28209 28212 28215 28218 28221 28224 28227 28230 28233 28236 28239 28242 28245 28248 28251 28254 28257 28260 28263 28266 28269 28272 28275 28278 28281 28284 28287 28290 28293 28296 28299 28302 28305 28308 28311 28314 28317 28320 28323 28326 28329 28332 28335 28338 28341 28344 28347 28350 28353 28356 28359 28362 28365 28368 28371 28374 28377 28379 28382 28385 28388 28391 28393 28396 28399 28401 28404 28407 28410 28413 28416 28419 28422 28425 28428 28431 28434 28437 28439 28442 28445 28448 28451 28454 28457 28460 28463 28466 28469 28472 28475 28478 28481 28484 28487 28490 28493 28496 28499 28502 28504 28506 28509 28512 28515 28518 28521 28524 28527 28530 28533 28536 28539 28542 28545 28547 28550 28553 28556 28559 28562 28565 28567 28570 28573 28575 28578 28581 28584 28587 28590 28593 28596 28599 28602 28604 28607 28610 28613 28616 28619 28622 28625 28628 28631 28634 28637 28640 28643 28646 28649 28652 28655 28658 28661 28663 28666 28669 28672 28675 28678 28680 28683 28685 28688 28691 28694 28697 28700 28702 28705 28708 28711 28714 28717 28719 28722 28725 28728 28731 28734 28736 28738 28741 28743 28746 28749 28752 28755 28758 28761 28764 28767 28770 28773 28776 28779 28782 28785 28788 28791 28794 28797 28800 28803 28805 28808 28811 28814 28817 28820 28822 28825 28828 28830 28832 28835 28838 28841 28844 28847 28850 28853 28856 28859 28862 28865 28868 28871 28874 28876 28879 28882 28885 28888 28891 28894 28897 28899 28902 28905 28907 28910 28912 28915 28918 28920 28923 28926 28929 28932 28935 28938 28941 28944 28947 28950 28953 28956 28959 28962 28965 28968 28971 28974 28977 28980 28983 28986 28989 28991 28994 28997 29000 29003 29006 29009 29012 29015 29018 29021 29023 29026 29029 29032 29035 29037 29040 29043 29046 29049 29052 29055 29058 29061 29064 29067 29070 29072 29075 29078 29081 29084 29087 29090 29093 29096 29099 29102 29105 29108 29111 29114 29117 29120 29123 29126 29129 29132 29135 29138 29141 29144 29147 29150 29153 29156 29158 29161 29164 29167 29170 29172 29175 29178 29181 29184 29187 29189 29192 29195 29198 29201 29204 29207 29210 29213 29216 29219 29222 29225 29228 29231 29234 29237 29239 29242 29245 29248 29251 29254 29257 29260 29263 29266 29269 29272 29274 29277 29280 29282 29285 29288 29291 29294 29296 29299 29302 29305 29308 29311 29314 29317 29320 29323 29326 29329 29332 29335 29338 29341 29344 29347 29350 29353 29355 29358 29361 29363 29366 29368 29371 29373 29376 29379 29381 29384 29387 29390 29393 29396 29399 29402 29405 29408 29411 29414 29417 29420 29422 29425 29427 29430 29433 29436 29439 29442 29445 29448 29451 29454 29457 29460 29463 29466 29469 29472 29475 29478 29481 29484 29487 29490 29493 29496 29499 29502 29505 29508 29511 29514 29516 29519 29522 29525 29528 29531 29534 29537 29540 29542 29545 29547 29550 29552 29555 29558 29561 29563 29566 29569 29572 29575 29578 29581 29584 29587 29589 29592 29595 29598 29601 29603 29606 29609 29612 29615 29618 29621 29624 29626 29629 29631 29634 29637 29640 29643 29646 29649 29652 29655 29658 29661 29664 29667 29670 29673 29676 29679 29682 29685 29688 29691 29694 29697 29700 29703 29706 29709 29711 29714 29717 29720 29723 29726 29729 29732 29734 29737 29740 29743 29745 29748 29750 29753 29756 29758 29761 29764 29766 29768 29770 29773 29776 29779 29782 29784 29787 29790 29792 29795 29797 29800 29803 29806 29809 29812 29815 29818 29821 29824 29826 29829 29831 29834 29836 29839 29841 29843 29845 29848 29851 29854 29857 29860 29863 29865 29868 29871 29874 29877 29880 29883 29886 29889 29892 29895 29898 29901 29904 29907 29910 29913 29916 29919 29922 29925 29928 29931 29934 29937 29940 29943 29946 29949 29952 29954 29957 29960 29963 29966 29969 29972 29975 29978 29981 29984 29986 29988 29991 29994 29997 30000 30003 30006 30009 30011 30014 30017 30020 30023 30026 30029 30032 30035 30038 30040 30043 30046 30049 30051 30054 30057 30060 30063 30066 30069 30071 30074 30077 30079 30082 30085 30088 30090 30093 30096 30099 30101 30104 30106 30109 30112 30115 30118 30121 30123 30126 30129 30132 30135 30138 30141 30143 30146 30149 30152 30155 30158 30161 30164 30167 30170 30173 30176 30178 30181 30184 30187 30190 30193 30196 30199 30202 30205 30208 30211 30214 30217 30220 30223 30226 30229 30232 30235 30238 30240 30243 30246 30249 30252 30254 30257 30260 30263 30265 30268 30271 30273 30276 30279 30282 30285 30288 30291 30294 30297 30300 30302 30305 30307 30310 30313 30316 30319 30322 30325 30328 30331 30334 30336 30339 30341 30344 30346 30349 30352 30355 30358 30360 30363 30365 30368 30371 30374 30377 30380 30383 30385 30388 30391 30394 30397 30400 30402 30405 30408 30411 30414 30417 30420 30422 30425 30428 30431 30434 30437 30440 30443 30446 30449 30451 30454 30457 30460 30463 30465 30467 30470 30472 30475 30478 30480 30483 30486 30489 30492 30495 30498 30501 30504 30507 30510 30513 30516 30519 30522 30525 30528 30531 30534 30537 30540 30543 30546 30548 30551 30554 30556 30559 30562 30565 30567 30570 30573 30576 30579 30581 30584 30587 30590 30592 30595 30598 30601 30604 30607 30610 30612 30615 30617 30620 30623 30626 30629 30632 30635 30638 30641 30644 30647 30650 30652 30655 30658 30660 30663 30666 30669 30672 30675 30678 30681 30683 30686 30689 30692 30695 30698 30701 30703 30706 30709 30712 30715 30718 30721 30724 30727 30730 30733 30735 30738 30741 30744 30747 30750 30753 30756 30759 30762 30765 30767 30770 30773 30775 30778 30780 30782 30785 30788 30791 30794 30796 30799 30801 30804 30807 30810 30813 30816 30818 30821 30824 30827 30830 30832 30835 30838 30841 30843 30846 30849 30852 30855 30858 30861 30863 30866 30869 30872 30874 30877 30880 30882 30885 30888 30891 30894 30897 30900 30903 30906 30909 30912 30915 30918 30921 30924 30927 30930 30933 30935 30938 30941 30943 30946 30949 30952 30955 30958 30960 30963 30966 30969 30972 30975 30978 30981 30984 30986 30989 30991 30993 30996 30999 31002 31005 31008 31011 31014 31016 31018 31021 31024 31027 31030 31033 31035 31038 31040 31042 31045 31047 31050 31053 31055 31058 31061 31064 31067 31070 31073 31076 31079 31082 31085 31088 31091 31094 31097 31100 31103 31106 31109 31111 31114 31117 31120 31123 31126 31129 31132 31135 31138 31141 31144 31147 31150 31153 
</DataArray>
<DataArray type="UInt32" Name="types" format="ascii">
5 5 5 5 5 3 5 5 5 5 5 5 5 5 5 5 3 5 5 5 5 5 5 5 5 3 3 5 3 5 5 3 5 5 3 5 3 5 3 5 5 5 3 5 3 5 3 5 5 5 5 5 5 5 5 5 5 5 5 5 3 5 5 3 5 5 5 5 5 5 3 5 5 5 5 5 5 3 5 5 5 5 5 5 5 5 3 5 5 5 5 5 5 5 5 5 5 3 5 5 5 5 5 5 5 5 5 3 5 3 5 5 5 5 5 5 5 5 5 5 5 5 5 5 5 3 5 3 3 5 3 5 5 5 3 3 5 5 5 5 5 5 5 5 5 5 5 5 5 5 5 5 5 5 5 5 5 5 5 3 5 5 5 5 5 5 5 5 5 5 5 5 5 5 5 5 5 5 5 5 5 5 5 5 5 5 5 5 5 5 5 5 5 5 5 5 5 5 5 5 5 5 5 5 5 5 5 5 3 5 3 5 5 5 5 5 5 5 5 5 5 5 5 5 5 5 5 5 5 5 3 5 5 5 5 5 3 5 5 3 3 5 5 5 3 5 5 5 5 5 3 3 5 3 5 5 5 5 5 5 5 5 5 5 5 5 3 5 5 5 5 5 5 5 5 5 5 3 5 5 5 5 5 5 5 5 5 5 5 5 5 3 5 5 5 5 5 5 5 5 5 5 5 5 5 5 5 5 5 5 5 5 5 5 5 5 5 5 5 5 5 5 5 5 5 5 5 5 5 5 5 5 3 5 3 5 5 3 5 5 3 5 5 5 5 3 5 5 3 5 5 5 5 5 5 3 5 5 3 5 5 5 5 3 5 5 5 3 5 3 3 5 5 3 3 5 5 5 5 5 5 5 5 5 5 5 5 5 5 5 5 5 5 5 3 5 5 5 5 5 5 5 5 5 3 5 5 5 5 5 5 5 5 5 5 5 5 5 5 5 5 5 5 5 5 5 5 5 5 5 5 5 5 5 5 5 5 5 5 5 5 5 5 5 5 5 5 5 5 5 5 5 5 5 5 5 5 5 5 5 5 3 5 5 5 5 5 5 5 5 5 5 5 5 5 5 5 5 5 5 5 5 5 5 5 5 5 5 5 5 5 5 5 5 5 5 5 5 5 5 5 5 5 5 5 5 5 5 5 5 5 5 5 5 5 5 5 5 5 5 5 5 5 5 5 5 5 5 5 5 5 5 5 3 5 3 5 5 5 5 5 5 5 5 5 5 5 5 5 5 5 5 5 3 5 5 5 5 5 3 5 5 5 5 5 5 5 5 5 5 5 5 5 5 5 5 5 5 5 5 5 5 5 5 5 5 5 5 5 5 5 5 5 5 5 5 5 3 5 5 5 3 5 5 5 5 5 5 5 5 5 5 5 3 5 3 5 5 5 3 5 3 5 5 5 5 5 5 5 5 5 5 5 5 5 5 5 5 5 5 5 5 5 5 5 5 5 5 5 5 5 5 5 5 5 5 5 5 5 5 5 5 5 5 5 3 5 5 5 5 5 3 5 5 5 5 5 5 3 5 5 5 5 5 5 3 5 5 5 5 5 5 5 5 3 5 5 5 5 5 5 5 5 5 5 3 5 5 5 5 3 5 5 5 5 5 3 3 5 3 5 5 5 5 3 5 3 3 3 5 5 5 5 5 3 5 5 5 5 5 3 5 5 3 5 5 5 5 5 5 5 5 5 5 5 5 5 5 5 5 5 5 5 5 5 5 5 3 5 5 5 5 5 5 3 5 5 5 5 5 5 5 5 5 5 5 5 5 3 5 5 5 5 5 5 5 5 3 5 5 5 5 5 5 5 5 5 5 5 5 5 5 5 5 5 5 5 5 5 5 5 5 5 5 5 5 5 5 5 5 5 5 5 5 5 5 5 5 5 5 5 5 5 5 5 5 5 5 5 5 5 5 5 5 5 5 5 5 5 5 5 5 5 5 5 5 5 5 5 5 5 5 5 5 5 5 5 5 5 5 5 5 5 5 5 5 5 5 5 5 5 5 5 5 5 5 5 3 5 5 5 5 5 5 3 5 5 5 5 5 5 5 5 5 5 5 5 5 5 5 5 5 5 5 5 5 5 5 5 5 5 5 3 5 3 5 5 5 5 5 5 3 3 5 5 5 5 5 5 5 5 5 3 5 5 3 5 5 5 5 5 5 5 5 3 5 5 3 3 5 5 5 5 5 5 5 3 5 5 3 5 5 5 5 5 5 3 5 5 5 5 5 5 5 5 5 5 5 5 5 5 5 5 5 3 5 3 5 5 5 5 5 5 5 5 5 5 5 3 5 5 5 5 5 5 5 5 5 5 5 5 5 5 5 5 5 5 5 5 5 5 5 5 5 5 5 5 5 5 5 5 5 5 5 5 5 5 5 5 5 5 5 5 5 5 5 5 5 5 5 5 5 5 5 3 5 5 5 5 5 5 5 5 5 3 5 5 5 3 3 5 3 5 3 5 3 5 5 5 5 5 3 5 5 3 5 5 3 5 5 5 5 5 5 3 5 3 3 5 5 5 5 5 5 5 5 5 3 5 5 5 5 5 3 5 5 5 5 3 5 5 5 5 5 3 5 5 3 5 5 3 5 5 5 5 5 5 5 5 3 5 5 5 5 5 5 5 3 5 5 3 3 5 5 5 5 5 5 5 5 5 3 5 3 5 5 5 5 5 5 5 5 5 5 5 5 5 5 5 5 5 5 5 5 3 5 5 5 3 5 5 5 5 3 3 3 5 5 5 3 5 5 5 3 5 3 5 3 3 5 5 5 3 5 5 5 3 5 5 3 5 3 5 5 3 5 5 5 5 5 5 5 5 5 5 5 5 5 5 3 5 5 5 5 5 5 3 5 3 5 5 5 3 5 5 3 5 5 3 5 5 5 5 5 5 5 5 3 5 5 5 5 3 5 5 5 5 3 5 5 5 5 5 5 5 5 3 5 5 5 3 5 5 5 5 5 5 5 5 5 5 5 5 5 5 5 5 5 5 5 3 5 5 3 5 5 5 5 5 5 5 5 5 3 5 5 5 5 5 3 5 5 5 3 5 5 3 5 3 3 5 5 5 5 5 5 3 5 3 5 5 5 3 5 5 5 3 5 5 5 5 5 5 5 5 5 5 5 5 5 5 5 5 5 5 5 5 3 5 5 5 5 3 5 5 5 5 5 5 5 5 5 5 3 5 5 5 5 5 5 5 5 5 5 5 5 5 5 5 5 5 5 3 5 5 5 5 5 5 5 5 5 5 5 5 5 5 3 5 5 5 5 3 5 5 5 5 5 5 5 3 5 5 5 5 5 5 5 5 5 5 5 5 5 5 5 5 5 3 5 5 5 5 3 5 5 5 5 5 5 5 5 3 5 5 3 5 5 3 5 5 5 5 5 5 5 5 5 5 3 5 5 5 3 5 5 5 5 5 5 5 5 5 5 5 5 5 5 5 5 5 5 5 5 5 5 5 5 5 5 3 5 5 5 5 5 5 5 5 5 5 3 5 3 5 5 5 5 5 5 5 3 5 3 5 5 3 5 3 5 3 5 5 5 5 5 3 5 5 5 5 5 5 5 3 5 5 5 5 5 5 5 5 5 5 5 5 5 5 5 5 5 5 5 5 5 5 5 5 5 5 5 5 5 5 5 5 3 5 5 5 5 5 5 5 3 5 5 5 5 5 5 5 3 5 5 5 5 5 3 5 5 5 5 5 5 5 5 5 5 5 5 3 5 5 5 5 5 3 5 3 5 5 5 5 5 5 5 5 3 5 5 5 5 5 5 3 5 5 3 5 5 5 5 5 5 5 5 5 5 5 5 5 5 5 5 5 5 5 5 5 3 5 5 5 3 5 5 5 5 3 3 5 3 3 3 5 5 5 3 3 5 5 5 5 5 5 5 5 5 3 5 3 5 5 5 5 3 5 5 5 5 3 5 3 5 5 5 3 5 5 5 5 5 3 5 5 3 5 5 5 5 5 3 5 5 5 5 5 5 5 5 5 5 5 5 5 5 5 5 5 5 5 5 5 5 5 5 5 5 5 5 5 5 5 5 5 5 5 5 5 5 5 5 5 5 3 5 5 5 5 5 5 3 5 3 5 5 5 5 5 5 5 5 5 3 5 3 5 5 5 5 5 5 5 3 5 5 5 5 3 5 5 3 5 5 5 5 5 5 5 5 5 5 5 3 3 5 5 5 3 3 5 5 5 5 5 5 5 5 5 5 5 5 5 5 5 5 5 5 5 5 5 5 5 5 5 5 5 3 5 5 5 5 3 5 5 5 5 5 5 5 3 3 5 3 5 5 5 5 5 5 5 5 5 5 5 5 3 5 5 5 5 5 5 5 5 3 5 5 5 5 5 3 5 5 5 3 5 5 5 5 5 5 3 5 5 5 5 5 5 5 5 5 5 5 5 5 5 5 5 5 5 5 5 5 5 5 5 5 5 5 5 5 3 5 5 5 5 5 5 5 5 5 5 5 5 5 5 5 5 5 5 5 5 5 5 5 5 5 5 5 5 5 5 5 5 5 5 5 5 5 5 5 5 5 5 5 5 5 5 5 5 5 5 5 5 3 5 5 5 5 5 5 5 5 5 5 5 5 5 5 5 5 5 5 5 3 5 5 3 5 5 5 5 5 5 5 5 5 5 5 5 5 5 5 5 5 5 5 5 5 5 5 5 5 5 5 5 5 5 5 5 5 5 5 5 5 5 5 5 5 5 5 5 5 5 5 5 5 5 5 3 5 5 5 5 5 5 5 3 5 5 5 5 5 3 5 5 5 5 5 5 5 5 5 5 5 5 5 5 5 5 5 5 5 3 5 5 5 5 5 5 5 5 3 5 3 5 5 5 5 5 3 3 5 5 3 5 5 5 5 5 5 5 3 5 5 5 5 5 5 5 5 5 5 5 5 5 5 5 5 5 5 3 5 5 5 5 5 5 5 5 3 5 5 5 5 5 5 5 5 5 5 5 5 5 5 5 5 5 5 5 5 5 5 5 5 3 5 5 5 5 5 5 5 5 5 5 5 5 5 5 5 5 5 5 5 5 5 5 5 5 5 5 3 5 3 5 5 5 5 5 5 5 5 5 5 5 5 5 5 5 5 5 5 5 5 5 5 5 5 5 5 5 3 5 5 3 5 5 5 5 5 5 3 5 5 5 5 3 5 3 3 5 5 5 5 5 5 5 5 5 5 5 5 5 5 5 5 5 5 5 5 3 3 5 5 5 5 3 5 5 5 5 5 5 5 5 5 5 5 5 5 5 5 3 3 5 5 3 5 5 5 5 5 5 5 5 5 5 5 5 5 5 5 5 5 5 3 5 5 5 5 5 5 3 3 5 3 5 5 5 5 5 5 5 5 5 5 5 5 5 3 5 5 5 5 5 5 5 5 5 5 5 5 5 5 5 5 5 5 5 5 5 5 5 5 5 5 5 3 5 3 5 5 5 5 5 5 5 5 5 5 5 5 5 3 5 5 5 3 5 5 5 3 5 5 5 5 5 5 3 5 5 3 5 5 5 5 5 5 5 5 5 5 5 5 5 5 5 5 5 5 3 5 5 5 5 3 5 3 5 5 3 5 5 5 5 5 5 5 5 5 5 5 5 5 3 3 5 5 3 5 3 3 5 5 5 5 5 5 5 5 5 5 5 3 5 5 3 5 5 5 5 3 3 5 3 5 3 3 5 5 5 3 3 3 5 5 3 3 5 3 5 5 3 5 5 5 3 5 5 5 3 5 5 3 5 5 3 5 3 5 5 5 3 5 3 5 5 3 3 3 3 5 3 5 5 5 3 5 5 5 3 3 5 5 3 5 3 5 5 3 3 5 3 5 5 5 3 5 5 5 5 5 5 3 5 5 5 3 5 5 5 5 5 5 5 5 5 5 5 5 3 5 5 5 5 5 5 5 5 5 5 5 5 5 5 5 3 5 5 5 3 5 5 3 5 5 5 5 5 5 5 5 5 5 5 5 5 5 5 5 5 3 5 5 3 5 5 5 3 5 3 5 5 3 5 5 5 3 5 5 5 3 5 5 5 5 5 5 5 5 5 5 5 3 5 3 5 3 5 5 5 5 5 5 5 3 5 5 5 5 3 5 3 5 3 5 5 5 3 5 3 5 5 3 5 3 3 5 5 5 5 5 5 5 3 5 5 3 5 5 5 5 5 5 3 5 5 5 5 5 5 5 5 3 5 5 5 5 3 5 3 5 5 3 5 3 5 5 5 5 5 5 5 5 3 5 5 5 5 5 5 5 5 5 5 5 5 5 5 5 5 5 3 5 3 3 5 5 5 5 5 3 5 5 5 5 5 5 5 5 3 5 5 3 5 5 5 5 5 3 5 5 5 5 5 5 5 5 3 5 5 3 5 5 5 5 5 5 3 5 5 3 3 5 3 5 3 3 3 5 5 5 3 3 5 5 3 3 5 3 5 5 3 3 5 5 3 5 5 5 3 5 3 3 5 5 5 5 5 5 5 5 3 5 5 5 5 5 5 5 5 5 5 3 5 5 3 5 3 5 5 5 5 5 5 5 5 3 5 5 5 3 5 5 5 5 5 5 5 3 5 5 5 5 5 5 3 5 5 5 5 5 5 3 5 5 5 3 5 5 5 3 5 3 5 3 5 5 5 5 3 3 5 5 5 5 5 5 5 5 5 5 5 5 5 5 5 5 5 5 5 5 3 5 5 3 5 5 5 3 3 5 3 5 5 5 5 5 5 5 5 5 3 5 5 5 5 5 5 3 5 5 5 5 5 5 5 5 3 5 5 5 3 3 5 5 5 5 5 5 5 5 5 5 5 5 5 5 3 5 5 5 5 5 5 5 5 5 3 5 3 5 5 5 5 5 5 5 5 5 5 5 5 5 5 5 5 5 5 5 5 5 5 5 5 5 5 5 5 5 5 5 5 5 5 5 5 5 5 5 5 5 5 5 5 5 5 5 5 5 5 5 5 5 3 5 3 5 3 5 5 5 5 5 5 5 3 5 5 5 5 3 5 5 5 5 5 5 5 5 3 5 5 5 5 5 3 3 5 5 5 5 3 5 5 3 5 5 5 3 5 5 3 5 5 5 5 5 3 5 3 3 5 5 3 3 5 5 5 3 5 3 5 3 5 5 5 3 3 5 5 5 3 3 5 3 5 5 5 3 3 5 5 5 3 3 5 3 3 5 3 3 5 5 5 5 3 5 3 5 3 5 3 5 5 5 5 5 5 5 5 5 5 3 5 5 3 5 3 5 5 5 3 3 5 5 5 3 5 3 5 3 3 5 5 5 5 5 5 5 5 5 5 5 5 3 5 5 5 5 5 5 3 5 5 3 5 5 5 5 5 5 5 5 5 3 5 5 3 5 5 5 5 5 5 5 5 5 5 5 5 5 5 5 5 5 5 5 5 5 5 5 5 5 5 5 5 5 5 5 5 5 5 5 5 5 5 5 3 5 5 5 5 5 5 3 5 5 5 5 5 5 5 5 5 5 5 5 3 5 3 5 5 5 5 5 5 5 5 5 5 5 5 5 5 5 5 5 5 5 5 3 5 5 3 5 5 5 3 3 5 5 5 5 5 5 5 5 3 5 5 5 5 5 5 5 5 5 5 5 5 5 5 5 5 3 5 5 5 5 5 5 3 3 5 5 5 5 5 5 5 5 3 5 5 5 3 5 5 5 5 5 5 3 5 5 5 5 5 5 5 3 5 5 5 5 5 5 5 5 5 5 5 5 3 5 5 5 3 5 5 5 5 3 5 5 5 5 5 5 5 5 5 5 5 5 5 5 5 5 3 5 5 5 5 5 5 5 5 5 5 5 3 5 3 5 5 5 5 5 5 5 5 3 5 5 3 5 5 5 5 5 5 3 5 5 3 3 5 5 5 5 5 5 5 5 5 3 5 5 5 3 5 5 5 5 5 5 5 5 5 5 3 5 5 5 5 5 5 5 5 5 5 5 5 5 5 5 5 5 5 5 5 5 5 5 5 5 5 5 5 5 5 3 5 5 5 5 5 3 5 5 5 5 5 5 5 5 5 3 5 3 5 5 5 5 5 5 3 5 5 3 5 5 5 5 5 5 5 5 5 5 5 5 5 5 5 5 5 5 5 5 5 5 3 5 3 5 5 5 5 5 5 5 5 5 5 5 5 5 5 5 5 5 5 5 5 5 5 5 3 5 5 5 5 3 5 5 5 5 5 3 5 5 3 5 3 5 5 5 5 3 3 3 5 5 3 5 5 3 3 5 3 5 5 5 5 5 3 5 5 5 3 3 3 3 5 5 5 3 3 5 5 5 3 3 5 3 5 5 5 5 5 5 5 5 5 5 5 5 5 5 5 5 5 5 3 5 5 5 5 5 5 5 5 5 5 5 5 3 5 5 5 5 5 5 5 5 5 5 5 5 5 3 3 5 5 5 5 5 5 5 5 3 5 3 5 5 5 5 3 5 3 5 5 5 5 5 5 3 5 5 5 5 5 5 5 5 5 5 5 5 5 5 5 5 3 5 5 3 5 5 5 5 5 5 5 5 5 5 5 5 5 5 5 5 5 5 5 5 3 5 5 5 5 5 5 5 5 3 5 5 5 5 5 5 5 5 5 5 5 3 5 3 5 5 5 5 5 3 5 5 5 3 5 3 5 5 5 5 5 5 5 5 5 3 5 5 5 5 5 5 5 5 5 5 5 3 5 5 3 5 5 5 5 5 3 3 5 5 5 5 5 3 5 5 3 5 5 3 5 5 5 5 5 5 5 5 5 5 5 5 5 5 5 5 3 5 5 3 5 5 5 5 5 5 5 5 5 5 5 5 5 5 5 5 5 5 5 3 5 5 5 5 3 5 5 5 5 5 3 5 5 5 5 5 3 5 5 5 5 3 5 5 5 5 5 3 5 5 5 5 5 5 5 5 5 5 5 5 5 5 5 5 5 5 5 5 5 5 5 3 5 5 5 5 5 5 5 3 5 5 5 5 5 5 5 3 5 5 5 3 5 5 5 5 5 5 5 5 5 5 5 3 5 5 5 5 5 5 3 5 5 5 5 5 5 5 5 5 5 5 5 5 5 5 5 5 5 5 5 3 5 5 5 5 5 5 3 5 5 5 5 5 5 5 5 3 5 5 5 3 5 5 5 5 5 5 5 5 5 5 5 5 5 5 5 5 5 5 5 5 5 5 5 5 5 5 5 5 5 5 5 5 5 5 5 5 5 5 5 5 5 5 3 5 5 5 5 5 5 5 5 5 5 5 5 5 5 5 5 5 5 5 5 5 5 5 5 5 5 3 5 5 5 5 5 5 5 5 5 5 5 5 3 5 5 5 5 5 5 5 5 5 5 5 3 5 5 3 5 5 5 5 5 5 5 3 5 5 5 5 5 5 5 5 5 5 5 5 3 5 3 5 3 5 3 5 5 5 5 5 3 5 5 5 5 5 5 5 5 5 5 5 5 5 5 5 5 3 5 5 5 5 5 5 5 5 5 5 5 3 5 3 5 5 5 5 3 5 3 5 5 5 5 5 5 5 5 5 5 3 3 5 5 5 5 5 5 5 3 5 5 5 5 3 3 5 5 5 5 3 5 5 5 5 5 5 5 5 5 5 5 5 5 5 5 5 5 5 5 5 5 5 5 5 5 5 5 5 5 5 5 5 5 5 5 5 5 5 5 5 5 5 5 5 5 5 5 5 5 5 5 5 5 5 5 5 5 5 5 5 5 5 5 5 5 5 5 5 5 5 5 3 5 5 5 5 5 5 5 5 5 5 5 5 5 5 5 5 5 5 5 5 5 3 5 5 5 5 5 3 5 5 5 5 3 5 5 5 5 5 5 5 3 5 5 5 3 5 5 5 5 5 5 5 5 5 5 5 5 5 5 3 5 5 5 5 3 5 3 5 5 5 5 5 5 3 5 5 5 5 5 5 5 5 5 5 3 5 5 3 5 5 5 5 5 5 5 5 5 5 5 3 5 5 5 5 5 5 5 3 5 5 5 5 5 5 5 5 5 5 5 5 5 5 3 5 3 5 5 3 5 5 3 3 5 5 5 5 3 5 3 5 5 3 5 3 5 5 5 5 5 5 5 5 5 5 5 5 3 5 5 5 3 5 5 5 3 5 5 5 5 5 5 5 5 5 5 5 3 5 5 5 3 5 3 5 5 5 5 3 5 5 5 5 5 5 5 5 5 5 5 3 5 5 5 5 5 5 5 3 5 5 5 5 3 5 3 5 3 5 5 5 5 5 5 5 3 5 5 5 5 5 5 3 5 5 5 5 5 5 5 3 5 5 5 5 5 3 5 5 5 5 3 3 5 5 5 5 5 3 5 5 5 5 5 3 5 3 5 5 5 5 3 5 5 5 3 5 5 5 5 5 5 5 5 5 5 5 5 5 5 5 5 5 5 5 5 5 5 5 5 5 5 5 3 5 5 5 3 3 5 5 5 5 5 5 5 5 3 5 5 5 5 3 5 5 5 5 5 5 5 5 5 3 5 5 3 5 5 5 5 3 5 5 3 5 5 5 5 3 5 5 3 5 5 3 5 5 3 5 5 5 5 5 5 5 5 5 5 5 5 5 5 5 5 3 5 5 5 3 5 5 5 5 5 5 5 3 5 5 5 3 5 5 3 3 5 5 5 3 5 3 5 5 5 3 3 5 5 5 5 5 5 5 5 5 3 5 3 5 5 5 5 3 3 5 5 5 3 5 5 5 5 5 3 5 5 5 5 5 5 5 5 5 5 5 5 5 5 5 5 5 5 5 5 5 5 5 5 5 5 5 5 3 5 5 5 5 5 5 5 5 5 5 3 5 5 3 5 5 5 5 3 5 5 5 5 5 5 5 5 5 5 5 5 5 5 5 5 3 5 5 5 5 5 5 5 3 3 5 5 5 5 5 5 5 3 3 5 5 5 5 5 5 5 3 5 5 5 5 5 3 5 5 5 5 5 3 5 3 3 5 3 5 5 5 5 5 5 5 5 5 5 5 5 5 5 5 5 5 5 5 5 5 5 5 5 5 5 5 5 5 5 5 5 5 3 5 5 5 5 5 5 5 5 5 5 5 3 5 5 5 5 5 5 5 5 3 5 5 3 3 5 3 5 3 5 3 5 5 5 3 3 5 5 3 5 5 5 3 5 5 5 5 5 5 3 5 5 3 5 5 5 5 5 5 3 5 5 5 3 5 5 5 5 5 5 5 5 5 5 5 3 5 5 5 5 5 5 5 3 5 5 5 3 5 5 5 5 5 5 5 3 5 5 5 5 3 5 5 5 5 5 5 5 5 3 5 5 5 3 5 5 5 3 5 5 5 5 3 5 5 5 5 5 3 5 3 5 5 5 3 5 3 5 5 5 5 3 5 5 3 5 5 3 5 5 5 5 5 5 5 5 5 5 5 5 5 5 5 5 5 5 5 5 5 5 5 5 5 5 5 5 5 5 5 5 5 5 5 5 5 5 5 5 5 5 5 5 5 5 5 5 5 3 3 5 5 5 5 5 5 3 5 5 5 5 5 5 5 5 5 5 5 5 5 5 5 5 5 5 5 5 5 5 5 5 5 5 5 5 5 3 5 5 5 5 5 5 3 5 5 3 5 5 5 5 5 5 5 5 3 5 5 5 5 5 3 5 5 5 3 5 5 5 3 5 5 5 5 5 3 5 5 5 3 5 3 5 3 3 5 3 5 5 5 5 3 5 5 5 5 5 5 5 5 5 3 5 5 5 5 5 5 3 5 5 3 5 5 5 5 5 5 5 3 5 5 5 5 5 5 5 5 5 5 5 5 5 5 5 5 5 5 5 5 5 5 5 5 5 5 5 5 3 5 3 5 3 5 5 5 5 3 3 5 5 5 5 5 5 3 5 3 5 5 5 5 5 5 5 5 5 5 5 5 5 5 5 5 5 5 5 5 5 5 3 5 3 5 3 3 3 5 5 5 5 5 5 5 3 5 3 5 5 5 5 5 5 5 5 3 3 5 3 5 5 3 5 5 5 3 5 3 5 5 5 5 3 5 5 5 5 5 5 5 5 5 5 5 5 5 3 5 5 5 5 5 5 5 5 5 3 5 5 5 5 5 5 5 5 3 5 5 5 5 5 3 5 5 5 5 5 3 5 5 5 5 5 5 5 3 5 5 3 5 5 3 5 5 5 5 5 5 3 5 5 5 5 3 5 3 5 5 5 5 5 5 5 3 5 5 3 3 5 3 5 3 5 5 5 3 5 3 5 3 5 5 5 5 3 5 5 5 5 5 3 5 5 5 5 5 5 5 5 3 5 5 5 5 5 5 5 5 5 5 5 5 5 3 5 5 5 5 5 5 5 5 5 5 3 5 5 5 3 5 5 5 5 5 5 5 5 5 5 5 3 5 5 5 3 5 3 5 5 3 5 5 5 3 5 5 5 3 5 5 3 5 5 5 5 5 5 5 5 3 5 3 5 5 5 5 5 5 5 5 5 5 5 5 5 5 5 5 5 5 5 5 5 5 5 5 5 5 3 5 5 3 5 5 3 5 5 5 5 5 5 5 5 5 5 5 5 5 5 5 5 5 5 5 5 5 5 5 5 5 5 5 5 5 5 5 5 5 5 3 5 5 5 5 5 5 5 5 5 5 5 5 5 5 5 5 5 3 5 5 3 5 5 5 5 5 5 5 3 5 5 5 5 5 5 5 5 5 5 5 3 5 3 5 5 5 3 5 5 3 5 5 5 3 5 3 5 5 5 5 5 5 5 3 5 3 5 5 5 5 5 5 5 5 5 5 5 5 5 5 5 5 5 3 5 5 3 5 5 5 5 3 5 3 5 5 5 3 5 5 5 3 5 3 5 5 5 5 5 5 3 5 5 5 5 5 5 5 5 5 5 3 5 5 5 5 3 5 5 5 5 5 5 5 5 5 5 5 5 5 5 5 5 5 5 5 5 5 5 5 5 5 5 5 5 5 5 5 5 5 5 5 5 5 5 5 5 5 3 5 5 5 5 5 3 3 5 5 5 5 3 5 3 5 5 5 5 5 5 5 3 3 5 5 5 5 5 5 5 5 5 3 5 5 5 5 5 5 5 5 5 5 5 5 5 5 5 5 5 5 5 5 5 5 5 5 5 5 5 5 5 5 5 5 5 5 5 5 5 5 5 5 5 5 5 5 5 5 5 5 5 5 5 5 5 3 5 5 5 3 5 5 5 5 5 5 5 5 5 5 5 5 5 5 5 5 5 5 5 5 5 5 5 5 5 5 5 5 5 5 5 5 5 5 5 5 5 3 5 3 5 5 5 5 5 5 5 5 5 5 5 5 5 5 5 5 5 5 3 5 5 5 5 5 5 5 5 5 5 5 3 5 5 5 5 5 3 5 5 5 5 5 5 3 5 5 5 5 5 5 5 5 5 5 5 5 5 5 5 5 5 5 5 5 5 5 5 5 5 5 5 5 5 3 5 5 5 5 5 5 5 5 5 5 5 5 5 5 5 5 5 5 5 5 5 5 5 5 5 5 5 5 5 3 5 5 3 5 5 3 5 5 3 5 3 5 5 5 5 5 5 5 5 5 5 5 5 5 5 5 5 5 5 5 5 5 5 5 5 5 5 5 5 3 5 5 5 5 5 5 5 5 3 5 3 5 5 5 3 5 5 3 5 3 5 3 5 3 5 3 5 3 5 5 5 5 5 5 5 5 5 5 5 5 5 5 5 5 5 5 5 5 5 5 5 5 5 5 5 5 5 3 5 5 3 5 3 5 5 5 5 5 3 5 5 3 5 5 5 5 3 5 3 5 3 5 3 3 5 3 3 3 5 3 5 5 5 5 5 5 5 5 5 3 5 5 5 5 5 3 5 5 3 5 5 5 5 5 5 5 3 5 5 3 5 5 3 5 5 5 5 5 5 5 5 5 5 5 5 5 5 5 5 3 5 5 3 5 5 3 5 5 5 5 5 3 5 5 5 5 5 3 5 5 5 5 5 3 5 5 5 5 3 5 5 3 5 5 3 3 5 5 5 5 3 5 5 5 3 5 5 5 3 5 5 5 5 5 5 5 5 3 5 5 5 5 5 5 5 5 5 5 3 5 5 5 5 3 5 3 5 5 5 5 3 5 5 3 5 5 5 5 5 5 5 5 5 5 3 5 5 5 3 5 5 5 5 5 5 5 5 5 5 5 3 3 5 5 5 5 5 3 5 5 5 5 3 5 5 5 3 5 5 3 5 5 5 5 5 5 5 3 3 5 5 5 5 5 5 3 5 3 5 3 5 5 5 3 5 5 3 5 5 5 5 3 3 3 5 5 5 5 5 5 5 5 5 5 5 5 5 5 5 5 5 5 5 5 3 5 5 5 5 5 5 5 5 5 5 5 5 5 5 3 5 5 5 3 3 5 3 5 5 3 3 3 5 3 5 3 5 5 5 3 5 3 5 5 3 5 5 3 3 3 5 3 5 3 3 5 5 3 5 5 5 5 3 3 5 5 5 5 5 5 3 3 5 3 3 5 3 5 5 3 5 5 5 3 3 5 5 5 3 5 5 5 5 5 5 5 5 5 5 3 5 5 5 5 5 5 5 5 5 5 5 5 5 5 5 5 5 3 5 5 5 5 3 5 5 5 5 5 5 5 5 5 5 5 5 5 5 3 5 5 5 5 5 5 3 5 3 5 5 5 5 5 3 3 5 5 5 5 5 5 5 5 5 5 5 5 5 5 5 5 5 5 5 5 5 5 5 5 5 5 5 5 5 5 5 5 5 5 5 5 5 5 5 5 5 5 5 5 5 5 5 5 5 5 5 5 5 5 5 5 5 5 3 5 5 5 3 5 5 5 5 5 5 5 5 5 5 5 5 3 5 5 5 5 5 5 5 5 3 5 5 3 5 5 3 5 5 5 5 3 5 3 5 5 5 3 5 3 5 5 5 5 3 5 5 3 3 5 5 3 5 5 3 5 5 5 5 5 5 5 5 5 5 5 5 5 5 5 3 5 5 5 5 5 5 5 5 5 5 5 5 5 5 5 5 5 5 5 5 5 5 5 5 5 5 5 5 5 5 5 5 5 5 5 5 5 5 5 5 5 5 5 5 5 5 5 3 5 3 5 5 5 5 5 5 5 5 3 5 5 5 5 5 5 5 3 5 5 3 5 5 3 5 5 5 5 5 5 5 5 5 5 5 5 5 5 5 5 5 5 5 3 5 5 5 5 5 5 5 3 5 5 5 3 5 5 3 3 3 5 5 5 5 3 3 5 5 5 5 5 3 5 5 5 5 3 5 5 5 5 5 5 3 5 5 5 3 3 5 5 5 5 5 5 5 5 5 5 5 5 5 3 5 5 3 5 5 5 5 5 5 5 5 5 5 5 5 5 5 5 5 5 5 5 3 5 5 5 5 5 5 5 5 5 5 5 5 5 5 3 5 5 5 5 5 3 5 5 3 5 5 5 5 5 5 3 5 3 5 3 5 3 5 5 3 5 5 3 5 5 5 3 5 3 5 5 5 5 5 5 5 5 3 5 5 5 5 5 5 5 5 5 5 5 5 5 5 5 5 5 5 5 5 5 5 5 3 5 5 3 5 5 5 3 5 3 3 5 5 5 5 5 5 5 5 5 5 3 5 3 5 3 5 5 5 5 5 5 5 5 5 5 5 5 3 5 5 5 5 5 5 5 5 5 5 5 5 5 5 5 5 5 5 5 5 5 3 5 3 5 5 5 3 3 3 5 5 5 5 3 5 5 5 5 3 5 5 5 5 5 5 3 5 5 5 5 5 5 3 3 5 3 3 5 5 5 5 5 3 5 5 5 5 5 5 5 5 3 5 5 5 5 5 5 5 3 5 5 5 3 5 5 5 3 5 5 5 5 5 5 3 5 5 3 5 5 3 5 5 3 5 5 3 5 3 5 5 5 5 5 3 5 5 5 5 5 5 5 5 5 5 5 5 5 3 5 3 5 5 5 5 5 5 5 5 5 5 5 5 5 5 5 5 5 5 5 5 5 5 5 5 5 5 5 5 5 5 5 5 5 5 5 3 5 5 3 5 5 5 5 5 5 3 5 5 5 5 5 5 5 5 5 5 5 5 3 5 5 5 5 3 5 5 5 5 5 3 5 5 5 5 5 3 5 5 5 5 5 5 5 5 5 5 5 5 5 5 5 5 5 5 5 5 5 5 5 5 5 5 5 5 5 5 5 5 5 5 5 5 5 5 5 3 5 5 5 5 5 3 5 5 3 5 5 5 5 5 5 3 5 5 3 5 5 3 5 5 3 3 3 5 5 3 5 5 3 5 5 5 5 5 5 3 5 5 5 5 5 5 5 5 5 3 5 3 5 5 5 5 5 3 5 5 3 5 5 3 5 5 5 5 5 5 5 3 5 5 5 5 3 5 5 3 5 5 5 5 5 3 5 5 5 5 5 5 5 3 5 5 3 5 3 5 5 5 5 5 5 5 5 5 5 5 5 5 5 5 5 5 5 5 5 5 5 5 5 5 5 5 5 5 5 3 5 5 5 5 5 3 5 5 5 3 5 5 5 5 5 5 5 5 5 5 5 5 5 5 5 5 5 5 5 5 3 5 5 5 5 5 5 3 5 5 5 5 5 5 5 5 5 5 3 5 5 5 5 5 3 5 5 3 3 5 5 5 5 5 3 5 5 5 5 5 5 3 5 5 5 5 3 5 5 5 5 5 5 5 5 5 5 5 5 5 5 3 5 3 5 5 5 5 5 5 5 5 5 5 5 5 5 5 5 5 5 5 5 5 5 3 5 3 5 5 3 3 5 5 5 5 5 5 5 3 5 5 5 3 5 5 3 5 5 5 3 5 5 5 3 5 5 3 5 5 5 5 5 3 5 5 5 5 5 5 5 5 5 5 3 5 5 3 5 5 5 5 5 5 5 5 3 5 5 3 5 5 3 5 5 5 5 5 5 3 5 5 5 3 5 5 5 5 5 3 5 5 5 5 3 5 5 5 3 5 5 3 3 5 5 5 5 3 5 5 5 3 5 5 5 5 5 5 3 5 5 5 5 3 5 3 5 3 5 5 3 5 5 3 3 5 5 5 5 3 5 5 5 5 5 3 5 5 5 5 5 5 5 5 5 5 5 3 5 5 5 5 5 5 5 5 5 3 5 5 5 5 5 5 5 5 5 5 5 5 5 5 5 5 5 5 5 5 5 5 5 5 5 5 5 5 5 5 3 5 5 5 5 5 5 5 5 5 3 5 3 5 5 5 5 3 5 5 5 5 5 5 5 5 5 5 5 3 5 5 5 5 5 5 5 5 5 5 5 5 5 5 5 3 5 5 5 5 3 5 5 5 5 5 5 3 5 5 5 5 5 5 5 5 5 5 5 5 5 5 5 5 5 5 5 5 5 5 5 5 5 5 5 5 5 5 5 5 5 5 5 5 5 5 5 5 5 5 5 5 5 5 5 5 5 3 5 5 5 3 5 5 5 5 5 5 5 5 5 5 5 5 3 5 5 5 3 5 5 5 5 3 5 5 5 3 5 3 3 5 5 3 3 5 3 3 5 5 5 5 5 5 5 5 5 5 5 5 5 5 5 5 5 5 5 5 5 5 5 5 5 5 5 5 5 3 5 5 5 5 5 3 5 5 3 3 5 5 5 5 3 5 5 5 3 5 3 5 5 3 5 3 5 3 3 5 5 5 5 5 5 5 5 5 5 5 3 5 5 5 3 5 5 5 5 3 3 5 5 3 3 5 3 3 5 3 5 5 3 5 5 5 5 5 3 5 5 5 5 5 5 5 5 3 5 3 5 5 5 5 5 5 5 5 5 3 5 5 5 5 3 5 5 5 5 5 5 5 3 5 5 5 3 5 5 5 5 5 5 5 5 3 3 5 5 3 3 3 5 5 5 5 5 5 5 5 5 5 5 5 5 5 5 5 5 5 5 3 5 5 5 5 3 5 5 3 5 5 5 5 5 5 5 5 5 5 5 5 5 5 5 5 3 5 5 5 5 5 5 5 3 5 3 5 5 5 5 5 5 5 5 5 3 5 5 3 5 5 3 5 3 5 5 5 3 5 5 5 5 3 5 5 5 5 5 5 5 5 5 5 5 3 5 5 5 5 5 5 5 5 5 3 5 5 5 5 5 5 5 5 5 3 5 5 3 5 5 5 3 5 5 3 5 5 5 5 3 5 5 3 5 5 3 5 5 5 5 5 5 5 5 5 5 5 5 5 5 5 3 5 3 5 5 3 5 3 5 5 5 5 5 5 5 5 5 5 5 5 5 3 5 5 5 3 5 3 3 5 5 5 5 3 5 5 5 5 5 5 5 5 3 5 5 5 5 5 5 5 5 3 5 5 5 5 5 5 5 3 5 5 5 5 5 5 5 5 5 5 5 5 5 5 5 3 5 5 5 5 5 5 5 5 3 5 5 3 5 5 5 5 3 5 5 5 5 5 5 5 5 5 5 5 5 5 5 5 5 5 3 5 5 5 5 5 5 5 5 5 5 5 5 5 5 5 5 5 3 5 5 5 5 5 5 5 5 5 5 5 3 5 5 5 3 5 5 5 5 5 5 5 5 3 5 5 5 3 5 5 5 5 5 5 5 5 5 5 5 5 5 5 5 3 5 5 5 5 5 5 5 5 5 3 5 5 5 5 5 5 5 5 5 5 5 3 5 5 5 5 5 5 5 5 5 5 5 5 3 3 5 5 5 5 5 5 5 3 5 5 5 3 5 5 5 5 5 5 3 5 5 5 5 5 5 5 5 5 5 5 5 5 5 5 5 5 5 5 5 5 5 5 5 5 5 5 5 5 5 5 5 5 5 5 5 5 5 5 5 3 5 5 5 5 5 5 5 5 5 5 5 5 5 5 5 5 5 5 5 5 5 5 5 5 5 5 3 5 3 5 5 5 5 3 5 5 5 5 3 5 5 5 5 5 5 5 5 5 5 5 5 3 5 5 5 5 5 3 5 5 3 5 3 5 5 3 5 5 5 5 5 5 5 5 5 5 5 5 5 5 5 5 5 5 5 5 5 3 5 5 5 5 5 5 5 3 5 5 5 5 5 5 5 5 5 5 5 5 5 5 5 3 5 5 5 5 5 5 5 5 5 5 3 5 5 5 5 3 5 5 3 5 5 5 5 5 5 5 5 3 5 5 5 5 5 5 5 3 5 5 3 5 5 5 5 5 5 5 5 5 3 5 5 5 5 5 5 5 5 5 5 5 5 5 5 5 5 5 5 5 5 5 5 5 5 5 5 5 5 5 5 5 5 5 5 5 5 5 5 5 5 5 5 5 5 5 5 5 5 5 5 5 5 5 5 5 5 5 3 5 5 5 5 5 3 5 5 5 5 5 5 5 5 5 3 5 5 5 5 5 5 5 5 5 5 3 5 5 5 5 5 5 5 5 5 5 5 5 5 5 5 5 5 5 5 5 5 3 5 3 5 5 5 5 5 5 3 5 5 5 5 5 5 5 5 5 3 5 5 5 5 3 5 5 3 5 5 5 5 5 5 5 5 5 5 5 5 5 5 5 5 5 5 5 5 5 5 5 5 5 5 5 5 5 5 5 5 5 5 5 5 5 5 5 5 5 5 5 5 5 5 5 5 5 5 5 5 5 5 5 5 5 5 5 5 5 5 5 5 5 5 5 5 5 5 5 5 5 5 5 5 5 5 5 5 5 5 5 5 5 5 5 5 5 5 5 5 5 5 5 5 5 5 5 5 5 5 5 5 5 5 5 5 5 5 5 5 5 5 5 5 5 5 5 5 5 5 5 5 5 5 5 5 5 5 5 5 5 5 5 3 5 5 5 5 5 5 5 3 5 5 5 5 5 3 5 5 5 5 5 5 5 5 5 5 5 5 5 5 5 5 5 5 5 5 5 3 5 5 5 5 3 5 5 5 5 5 5 5 5 5 5 5 5 5 5 5 5 5 5 5 5 5 5 5 3 5 5 5 5 5 5 5 5 5 5 5 5 5 5 5 5 5 5 5 5 5 3 5 5 5 5 3 5 5 3 3 5 5 5 3 5 5 5 5 3 3 5 5 3 5 5 5 5 5 5 5 5 5 5 5 5 5 5 5 5 5 5 5 5 5 5 5 5 5 3 5 5 5 3 5 5 3 3 5 5 5 5 5 5 5 3 5 5 3 5 5 3 5 3 5 5 3 5 5 5 5 5 5 3 5 5 5 3 5 5 5 5 5 5 5 5 5 5 5 5 5 5 5 5 5 5 5 5 5 3 5 5 5 5 3 5 5 3 5 5 5 5 5 5 3 5 3 5 5 5 3 5 5 5 5 3 3 5 5 5 5 5 3 3 5 5 3 5 3 5 5 5 5 5 5 5 3 5 3 5 5 5 5 5 5 5 5 5 3 5 5 5 5 5 5 5 5 3 3 5 5 5 5 5 5 5 5 5 5 5 5 5 3 5 3 5 3 5 5 5 3 5 5 5 5 5 3 5 3 3 5 5 5 5 5 5 5 5 5 5 5 5 3 5 5 5 5 5 5 3 5 5 5 3 5 5 5 3 5 5 5 5 5 5 5 5 5 3 5 3 5 3 5 5 5 5 5 5 5 5 5 5 5 5 5 5 5 5 3 5 5 5 3 5 3 5 5 5 5 3 5 5 5 3 5 5 5 5 5 5 5 5 5 3 5 5 5 5 5 5 5 5 5 5 5 5 5 5 5 5 5 5 5 5 5 5 5 5 5 5 5 3 5 5 5 5 5 5 5 3 5 5 3 5 3 5 3 5 3 5 5 5 5 5 5 3 5 5 3 5 5 3 5 5 3 5 5 5 5 3 5 3 3 5 5 5 5 5 5 3 5 5 5 5 5 5 5 3 5 5 5 5 5 3 5 5 5 3 3 5 5 5 3 5 5 3 5 5 3 5 3 5 3 5 5 5 3 5 5 5 5 5 5 5 5 5 5 5 5 3 3 5 5 5 5 5 5 5 3 5 5 3 5 5 5 5 5 5 5 3 5 5 5 3 5 5 5 3 5 5 5 5 5 5 5 5 5 5 5 5 5 5 5 3 5 5 5 5 5 5 3 3 5 3 5 5 5 5 5 5 5 5 5 5 5 5 5 5 5 5 5 5 5 5 5 5 5 5 5 5 5 5 5 5 5 5 5 5 5 5 5 5 5 5 5 5 5 5 5 5 3 3 3 5 5 5 5 5 5 5 5 5 3 3 5 5 3 5 5 3 3 5 5 5 5 5 5 5 3 5 5 5 5 5 5 5 5 5 5 5 5 5 5 5 5 5 5 3 5 5 3 5 3 5 3 3 5 5 5 5 5 5 5 3 5 3 5 5 5 3 5 5 5 3 5 5 5 5 5 5 5 5 5 5 5 5 5 5 3 5 5 5 5 5 3 5 5 5 3 5 5 5 3 5 5 5 5 5 5 5 5 5 5 5 5 5 5 5 5 5 5 5 5 5 5 5 5 5 5 5 5 5 5 5 5 5 5 5 5 5 5 5 5 5 5 5 5 5 5 5 3 5 5 5 5 5 5 5 5 5 5 3 5 5 5 5 5 5 5 5 5 5 5 5 5 5 5 5 5 5 5 5 5 5 5 5 5 5 5 3 5 5 5 5 5 5 5 5 5 5 5 5 5 5 5 5 3 5 5 5 5 5 5 5 5 5 3 5 5 5 5 5 5 5 3 5 5 5 5 5 5 5 5 5 3 5 5 5 5 5 5 5 3 5 5 5 5 5 5 5 5 5 3 5 5 5 5 5 5 5 5 3 5 5 3 5 5 5 5 5 5 5 5 3 5 5 3 3 5 5 5 5 5 5 3 5 5 5 5 5 5 5 5 5 5 5 5 3 5 5 5 5 5 5 5 5 3 5 5 3 5 5 5 5 5 5 5 5 5 5 5 5 3 5 5 5 5 5 5 5 5 5 5 5 3 5 5 3 5 5 5 3 5 5 5 3 5 5 3 3 3 3 3 5 5 5 5 5 5 3 3 5 3 3 3 5 3 5 3 5 5 3 5 3 5 5 3 3 5 5 5 5 5 5 5 3 5 5 5 5 5 5 5 3 5 3 3 3 5 5 5 5 3 3 5 5 5 5 3 3 5 5 5 3 5 5 5 5 5 5 3 5 5 5 3 5 5 5 5 5 5 3 5 5 5 5 5 5 5 5 5 5 5 5 5 5 5 5 5 5 5 5 5 5 5 5 5 5 3 5 5 3 5 5 5 5 5 5 5 5 5 5 5 5 5 5 5 5 5 5 5 5 5 5 5 3 5 5 5 5 3 3 5 5 5 5 5 5 3 5 5 5 5 3 3 5 5 5 5 5 5 5 5 5 5 5 5 5 5 5 5 5 5 5 5 5 5 5 5 5 5 5 5 5 5 5 5 5 5 5 5 5 5 5 5 5 5 5 5 5 5 5 5 5 5 5 5 5 5 5 5 3 5 5 5 5 3 5 5 3 5 5 5 5 5 5 5 5 5 5 5 5 3 5 5 5 5 5 5 5 5 5 5 5 5 5 5 5 5 5 5 5 5 5 3 3 5 5 5 5 5 5 5 5 5 5 5 5 5 3 5 5 5 5 5 5 3 5 5 3 5 5 5 5 5 5 5 5 5 3 5 5 5 5 5 5 5 5 5 5 5 5 5 5 5 5 5 5 5 3 5 5 5 5 5 3 5 3 5 5 5 5 5 3 5 5 5 5 5 3 5 5 5 5 5 3 3 5 3 5 5 5 5 5 5 5 5 5 5 5 5 5 5 5 5 5 5 5 5 3 5 5 5 5 5 3 5 5 3 3 5 5 5 5 5 5 5 5 5 5 5 5 5 5 3 5 5 5 5 5 5 5 3 5 5 3 5 3 5 5 3 5 5 5 5 5 5 5 5 5 5 5 5 5 5 5 5 5 5 5 5 5 5 5 3 5 5 5 5 5 5 5 5 5 5 3 5 5 5 5 3 5 5 5 5 5 5 5 5 5 5 5 3 5 5 5 5 5 5 5 5 5 5 5 5 5 5 5 5 5 5 5 5 5 5 5 5 5 5 5 5 3 5 5 5 5 3 5 5 5 5 5 3 5 5 5 5 5 5 5 5 5 5 5 5 5 5 5 5 3 5 5 5 5 5 5 5 5 5 5 5 3 5 5 3 5 5 5 5 3 5 5 5 5 5 5 5 5 5 5 5 5 5 5 5 5 5 5 5 3 5 5 3 5 3 5 3 5 5 3 5 5 5 5 5 5 5 5 5 5 5 5 5 3 5 3 5 5 5 5 5 5 5 5 5 5 5 5 5 5 5 5 5 5 5 5 5 5 5 5 5 5 5 5 5 3 5 5 5 5 5 5 5 5 3 5 3 5 3 5 5 5 3 5 5 5 5 5 5 5 5 3 5 5 5 5 3 5 5 5 5 5 5 5 3 5 3 5 5 5 5 5 5 5 5 5 5 5 5 5 5 5 5 5 5 5 5 5 5 5 5 5 5 3 5 5 5 5 5 5 5 3 5 5 5 3 5 3 5 5 3 5 5 3 3 3 5 5 5 5 3 5 5 3 5 3 5 5 5 5 5 5 5 5 5 3 5 3 5 3 5 3 3 3 5 5 5 5 5 5 3 5 5 5 5 5 5 5 5 5 5 5 5 5 5 5 5 5 5 5 5 5 5 5 5 5 5 5 5 5 3 5 5 5 5 5 5 5 5 5 5 3 3 5 5 5 5 5 5 5 3 5 5 5 5 5 5 5 5 5 3 5 5 5 3 5 5 5 5 5 5 3 5 5 3 5 5 5 3 5 5 5 3 5 3 5 5 5 5 5 3 5 5 5 5 5 5 3 5 5 5 5 5 5 5 5 5 5 5 3 5 5 5 5 5 5 5 5 5 5 5 5 5 5 5 5 5 5 5 5 3 5 5 5 5 3 5 5 5 3 5 5 3 5 5 5 5 5 5 5 5 5 3 5 3 5 5 5 5 5 5 5 5 5 3 5 3 5 3 5 5 5 5 3 5 3 5 5 5 5 5 5 3 5 5 5 5 5 3 5 5 5 5 5 5 3 5 5 5 5 5 5 5 5 5 3 5 5 5 5 3 3 5 3 5 5 3 5 5 5 5 5 5 5 5 5 5 5 5 5 5 5 5 5 5 5 5 5 5 3 5 5 3 5 5 5 3 5 5 5 5 3 5 5 5 3 5 5 5 5 5 5 3 5 3 5 5 5 5 5 5 5 5 5 5 5 3 5 5 3 5 5 5 5 5 5 5 3 5 5 5 5 5 5 3 5 5 5 5 5 5 5 5 5 5 3 5 5 5 5 5 5 5 5 5 5 3 5 5 3 5 3 3 5 5 5 5 3 5 3 5 5 5 5 5 3 5 5 5 5 3 5 5 5 3 5 5 5 5 5 5 3 5 5 5 3 5 5 3 5 5 5 5 5 5 5 5 5 5 5 5 5 5 5 5 5 3 5 5 3 5 5 5 5 5 3 5 5 5 5 5 5 5 5 3 5 3 3 5 5 5 5 5 5 5 3 3 5 5 5 5 5 3 5 3 3 5 3 5 5 3 5 5 5 5 5 5 5 5 5 5 5 5 5 5 5 5 5 5 3 5 5 5 5 5 5 5 5 5 5 5 5 5 5 
</DataArray>
</Cells>
<PointData Scalars="" Vectors="displacement," Tensors="">
<DataArray type="Float64" Name="displacement" NumberOfComponents="3" format="ascii">
-0.034997519376033147 2.9983882735704238e-07 0 -0.033455594401300449 0.00062396148217807256 0 -0.031987454933381489 7.6107825748429428e-07 0 -0.034997519376033147 2.9983882735704238e-07 0 -0.034373494985630679 0.00022516780049248249 0 -0.033455594401300449 0.00062396148217807256 0 -0.034997519376033147 2.9983882735704238e-07 0 -0.034373494985630679 0.00022516780049248249 0 -0.034998193952344728 -1.1026962196682169e-07 0 -0.034373494985630679 0.00022516780049248249 0 -0.034998193952344728 -1.1026962196682169e-07 0 -0.03499967995251415 0.00049953643025244172 0 -0.034373494985630679 0.00022516780049248249 0 -0.033455594401300449 0.00062396148217807256 0 -0.03499967995251415 0.00049953643025244172 0 -0.031981922527698443 8.8223219528096874e-08 0 -0.030357254210646317 0.0001481455678449356 0 -0.033455594401300449 0.00062396148217807256 0 -0.031987454933381489 7.6107825748429428e-07 0 -0.032291896693677699 -0.00039537192396390581 0 -0.033455594401300449 0.00062396148217807256 0 -0.032291896693677699 -0.00039537192396390581 0 -0.030477059624974434 0.00061707153259327522 0 -0.028560541113212431 0.00076432668127771367 0 -0.029564797383365874 -1.6775766711749781e-05 0 -0.028304808016980904 -4.5183074973961133e-05 0 -0.031978807428930403 2.9881597279150465e-06 0 -0.028560541113212431 0.00076432668127771367 0 -0.029564797383365874 -1.6775766711749781e-05 0 -0.031978807428930403 2.9881597279150465e-06 0 -0.029564797383365874 -1.6775766711749781e-05 0 -0.029988736082133094 -1.1436186555269455e-06 0 -0.028085839530087711 -5.2275440413305851e-05 0 -0.027508551675046584 -2.6878291157563021e-05 0 -0.028066732640111711 0.00038167038510877736 0 -0.028085839530087711 -5.2275440413305851e-05 0 -0.027508551675046584 -2.6878291157563021e-05 0 -0.027757992148490337 2.5722159893318146e-06 0 -0.027508551675046584 -2.6878291157563021e-05 0 -0.027757992148490337 2.5722159893318146e-06 0 -0.027298270344356581 -0.00011361363260282463 0 -0.027757992148490337 2.5722159893318146e-06 0 -0.027876448710447515 8.8574152199098684e-05 0 -0.027298270344356581 -0.00011361363260282463 0 -0.028085839530087711 -5.2275440413305851e-05 0 -0.027757992148490337 2.5722159893318146e-06 0 -0.027876448710447515 8.8574152199098684e-05 0 -0.030357254210646317 0.0001481455678449356 0 -0.028331056610482842 -2.0998226826511961e-05 0 -0.028560541113212431 0.00076432668127771367 0 -0.028085839530087711 -5.2275440413305851e-05 0 -0.027876448710447515 8.8574152199098684e-05 0 -0.028560541113212431 0.00076432668127771367 0 -0.027876448710447515 8.8574152199098684e-05 0 -0.028304808016980904 -4.5183074973961133e-05 0 -0.032291896693677699 -0.00039537192396390581 0 -0.028085839530087711 -5.2275440413305851e-05 0 -0.029241678667143046 0.00029580488849732843 0 -0.032291896693677699 -0.00039537192396390581 0 -0.030477059624974434 0.00061707153259327522 0 -0.029241678667143046 0.00029580488849732843 0 -0.030477059624974434 0.00061707153259327522 0 -0.029241678667143046 0.00029580488849732843 0 -0.028066732640111711 0.00038167038510877736 0 -0.028085839530087711 -5.2275440413305851e-05 0 -0.029241678667143046 0.00029580488849732843 0 -0.028066732640111711 0.00038167038510877736 0 -0.028182217406630804 -7.3091382255747911e-05 0 -0.028901469961938864 0.00043716499785186296 0 -0.028712317724733566 0.0004952669495805758 0 -0.028255845175014241 -0.00026562920459890891 0 -0.028182217406630804 -7.3091382255747911e-05 0 -0.028901469961938864 0.00043716499785186296 0 -0.027582426561136904 -0.00053563461315718442 0 -0.031735410452548594 4.4236532822136707e-05 0 -0.027752394070620173 6.6994314647691205e-05 0 -0.032346389225789043 0.00066856784166999684 0 -0.027870546313167929 -0.00052470041380431505 0 -0.027893027369132458 -0.00053771459084880002 0 -0.027929227351999319 -0.00053329066279991376 0 -0.033490057389782425 0.0008759927995620248 0 -0.032346389225789043 0.00066856784166999684 0 -0.033455594401300449 0.00062396148217807256 0 -0.030477059624974434 0.00061707153259327522 0 -0.030587729260099041 0.0023841456019167051 0 -0.030477059624974434 0.00061707153259327522 0 -0.028066732640111711 0.00038167038510877736 0 -0.030587729260099041 0.0023841456019167051 0 -0.032346389225789043 0.00066856784166999684 0 -0.031735410452548594 4.4236532822136707e-05 0 -0.035000213836931048 4.4523919833726337e-08 0 -0.03492606679208906 -6.6163359360607091e-05 0 -0.034999745022467756 -4.7833838983578845e-08 0 -0.03492606679208906 -6.6163359360607091e-05 0 -0.034889707955257282 -5.7375062821259661e-05 0 -0.034999745022467756 -4.7833838983578845e-08 0 -0.035001124291981343 7.9927203382903572e-07 0 -0.032346389225789043 0.00066856784166999684 0 -0.034981393461391411 -1.314003261278488e-06 0 -0.034999973080290063 6.2542594543125162e-09 0 -0.035000012627783468 -1.5469028732667101e-08 0 -0.031735410452548594 4.4236532822136707e-05 0 -0.035001591416922107 1.3630926896456813e-06 0 -0.034981393461391411 -1.314003261278488e-06 0 -0.035000012627783468 -1.5469028732667101e-08 0 -0.034991758986308158 -9.7457206706894598e-06 0 -0.031735410452548594 4.4236532822136707e-05 0 -0.031172381106489653 -0.00024255575996062612 0 -0.027893027369132458 -0.00053771459084880002 0 -0.027929227351999319 -0.00053329066279991376 0 -0.02789819262436467 -0.00055025759825562545 0 -0.02789819262436467 -0.00055025759825562545 0 -0.02790310801576204 -0.00060856011772056416 0 -0.027887437561454467 -0.00056973578201480201 0 -0.035000012627783468 -1.5469028732667101e-08 0 -0.034991758986308158 -9.7457206706894598e-06 0 -0.034999871703438906 2.396587140155405e-08 0 -0.031172381106489653 -0.00024255575996062612 0 -0.032815732853303602 -0.00018127735430326674 0 -0.034991758986308158 -9.7457206706894598e-06 0 -0.034999871703438906 2.396587140155405e-08 0 -0.034928883335321764 -2.019110670920604e-05 0 -0.035001218397963968 4.9109679702118215e-07 0 -0.032815732853303602 -0.00018127735430326674 0 -0.03499998536176048 3.5978321762543797e-09 0 -0.034997213206362419 -2.1968877929447711e-07 0 -0.034999986660495704 -4.6477464867958622e-09 0 -0.032815732853303602 -0.00018127735430326674 0 -0.035001425850129442 -4.9113509626876937e-07 0 -0.02790310801576204 -0.00060856011772056416 0 -0.027887437561454467 -0.00056973578201480201 0 -0.027891349279318661 -0.00060002267666777408 0 -0.027887437561454467 -0.00056973578201480201 0 -0.027891349279318661 -0.00060002267666777408 0 -0.027875836848989415 -0.00052146525728532383 0 -0.027891349279318661 -0.00060002267666777408 0 -0.027875836848989415 -0.00052146525728532383 0 -0.027864306332451946 -0.00046776723590788612 0 -0.027875836848989415 -0.00052146525728532383 0 -0.027882107025271909 -0.00053908485661558956 0 -0.02788484607154167 -0.0004968030246350738 0 -0.027870546313167929 -0.00052470041380431505 0 -0.027882107025271909 -0.00053908485661558956 0 -0.02788484607154167 -0.0004968030246350738 0 -0.027870546313167929 -0.00052470041380431505 0 -0.027893027369132458 -0.00053771459084880002 0 -0.027882107025271909 -0.00053908485661558956 0 -0.027893027369132458 -0.00053771459084880002 0 -0.02789819262436467 -0.00055025759825562545 0 -0.027882107025271909 -0.00053908485661558956 0 -0.027887437561454467 -0.00056973578201480201 0 -0.027875836848989415 -0.00052146525728532383 0 -0.027882107025271909 -0.00053908485661558956 0 -0.02789819262436467 -0.00055025759825562545 0 -0.027887437561454467 -0.00056973578201480201 0 -0.027882107025271909 -0.00053908485661558956 0 -0.03500001457523183 2.0654073074472896e-09 0 -0.034989154908589656 -1.2777962672276317e-07 0 -0.034976045309642059 -6.2722144684843023e-06 0 -0.03500001457523183 2.0654073074472896e-09 0 -0.034989154908589656 -1.2777962672276317e-07 0 -0.034999861189616864 -2.5059018239841672e-08 0 -0.034952954579645798 1.1023080495690066e-05 0 -0.034989154908589656 -1.2777962672276317e-07 0 -0.034999861189616864 -2.5059018239841672e-08 0 -0.02790310801576204 -0.00060856011772056416 0 -0.027891349279318661 -0.00060002267666777408 0 -0.027986223580826326 -0.00077808452213598968 0 -0.032815732853303602 -0.00018127735430326674 0 -0.031215769787704878 -0.00044964488894873528 0 -0.027891349279318661 -0.00060002267666777408 0 -0.027986223580826326 -0.00077808452213598968 0 -0.027919698872407951 -0.000583291948315241 0 -0.027891349279318661 -0.00060002267666777408 0 -0.027919698872407951 -0.000583291948315241 0 -0.027864306332451946 -0.00046776723590788612 0 -0.031215769787704878 -0.00044964488894873528 0 -0.031921398780420759 -0.00048948381481530266 0 -0.027986223580826326 -0.00077808452213598968 0 -0.028175987387472474 -0.00065994621403515246 0 -0.028677816193639294 -0.0010135775003195673 0 -0.027986223580826326 -0.00077808452213598968 0 -0.027919698872407951 -0.000583291948315241 0 -0.028175987387472474 -0.00065994621403515246 0 -0.027919698872407951 -0.000583291948315241 0 -0.028175987387472474 -0.00065994621403515246 0 -0.027835589614250006 -0.00035312272321151827 0 -0.028175987387472474 -0.00065994621403515246 0 -0.027835589614250006 -0.00035312272321151827 0 -0.02831510602354996 0.00025634397977678691 0 -0.027919698872407951 -0.000583291948315241 0 -0.027835589614250006 -0.00035312272321151827 0 -0.027864306332451946 -0.00046776723590788612 0 -0.027835589614250006 -0.00035312272321151827 0 -0.027864306332451946 -0.00046776723590788612 0 -0.027860845840424309 -0.00043472305597281577 0 -0.027807948877244054 -0.000319060857800994 0 -0.0277183383422719 8.878485158972406e-06 0 -0.027835589614250006 -0.00035312272321151827 0 -0.027860845840424309 -0.00043472305597281577 0 -0.027820089395085471 -0.00049442868532981112 0 -0.027860845840424309 -0.00043472305597281577 0 -0.027820089395085471 -0.00049442868532981112 0 -0.027858074841576475 -0.00047986974856088581 0 -0.027612129496889449 0.00048197288109280175 0 -0.027941781050480601 0.00071705699258184266 0 -0.02831510602354996 0.00025634397977678691 0 -0.027835589614250006 -0.00035312272321151827 0 -0.027612129496889449 0.00048197288109280175 0 -0.02831510602354996 0.00025634397977678691 0 -0.027870546313167929 -0.00052470041380431505 0 -0.02788484607154167 -0.0004968030246350738 0 -0.027903131876724465 -0.00042917254000606522 0 -0.028255845175014241 -0.00026562920459890891 0 -0.028182217406630804 -7.3091382255747911e-05 0 -0.027903131876724465 -0.00042917254000606522 0 -0.027582426561136904 -0.00053563461315718442 0 -0.02805373501078973 -0.0002954925762618347 0 -0.027875836848989415 -0.00052146525728532383 0 -0.02788484607154167 -0.0004968030246350738 0 -0.027877533227580308 -0.00045411928227886018 0 -0.027875836848989415 -0.00052146525728532383 0 -0.027864306332451946 -0.00046776723590788612 0 -0.027877533227580308 -0.00045411928227886018 0 -0.027864306332451946 -0.00046776723590788612 0 -0.027860845840424309 -0.00043472305597281577 0 -0.027877533227580308 -0.00045411928227886018 0 -0.02788484607154167 -0.0004968030246350738 0 -0.027877533227580308 -0.00045411928227886018 0 -0.027903131876724465 -0.00042917254000606522 0 -0.027877533227580308 -0.00045411928227886018 0 -0.027875807025579773 -0.00046826418699421024 0 -0.027858074841576475 -0.00047986974856088581 0 -0.027877533227580308 -0.00045411928227886018 0 -0.027875807025579773 -0.00046826418699421024 0 -0.027903131876724465 -0.00042917254000606522 0 -0.027875807025579773 -0.00046826418699421024 0 -0.027858074841576475 -0.00047986974856088581 0 -0.02788821598001336 -0.0005473007852210695 0 -0.027860845840424309 -0.00043472305597281577 0 -0.027877533227580308 -0.00045411928227886018 0 -0.027858074841576475 -0.00047986974856088581 0 -0.027752394070620173 6.6994314647691205e-05 0 -0.027371499681687662 -0.00023726598560685111 0 -0.027508551675046584 -2.6878291157563021e-05 0 -0.028066732640111711 0.00038167038510877736 0 -0.026704867621555991 2.555388806461311e-05 0 -0.027875807025579773 -0.00046826418699421024 0 -0.02788821598001336 -0.0005473007852210695 0 -0.027903131876724465 -0.00042917254000606522 0 -0.028255845175014241 -0.00026562920459890891 0 -0.02788821598001336 -0.0005473007852210695 0 -0.027903131876724465 -0.00042917254000606522 0 -0.026704867621555991 2.555388806461311e-05 0 -0.027020837449119588 -9.9433759775581962e-05 0 -0.026614540157725634 -0.00025845405903072446 0 -0.026704867621555991 2.555388806461311e-05 0 -0.026614540157725634 -0.00025845405903072446 0 -0.026276382485586405 -0.00030300285801586758 0 -0.027508551675046584 -2.6878291157563021e-05 0 -0.026704867621555991 2.555388806461311e-05 0 -0.027020837449119588 -9.9433759775581962e-05 0 -0.027020837449119588 -9.9433759775581962e-05 0 -0.026614540157725634 -0.00025845405903072446 0 -0.027298270344356581 -0.00011361363260282463 0 -0.026704867621555991 2.555388806461311e-05 0 -0.02578885285437052 -0.00030546206352918592 0 -0.026276382485586405 -0.00030300285801586758 0 -0.02788821598001336 -0.0005473007852210695 0 -0.027841991909736703 -0.00051176110406191697 0 -0.027826395641354456 -0.00050857589712360678 0 -0.027858074841576475 -0.00047986974856088581 0 -0.02788821598001336 -0.0005473007852210695 0 -0.027841991909736703 -0.00051176110406191697 0 -0.027371499681687662 -0.00023726598560685111 0 -0.02676870243078406 -0.00063279097128276368 0 -0.02578885285437052 -0.00030546206352918592 0 -0.026002217434342667 -0.00047930947075680065 0 -0.025710398750508158 -0.00056678977289465241 0 -0.02578885285437052 -0.00030546206352918592 0 -0.026276382485586405 -0.00030300285801586758 0 -0.026002217434342667 -0.00047930947075680065 0 -0.026349186859607153 -0.00044934565715716693 0 -0.026276382485586405 -0.00030300285801586758 0 -0.026002217434342667 -0.00047930947075680065 0 -0.026349186859607153 -0.00044934565715716693 0 -0.026614540157725634 -0.00025845405903072446 0 -0.026920619411328981 -0.00031675812848901581 0 -0.026349186859607153 -0.00044934565715716693 0 -0.026614540157725634 -0.00025845405903072446 0 -0.026276382485586405 -0.00030300285801586758 0 -0.027612129496889449 0.00048197288109280175 0 -0.027941781050480601 0.00071705699258184266 0 -0.027545405898798701 0.00080604760739286458 0 -0.027941781050480601 0.00071705699258184266 0 -0.027545405898798701 0.00080604760739286458 0 -0.0276590238849149 0.0010903432246473761 0 -0.027612129496889449 0.00048197288109280175 0 -0.027545405898798701 0.00080604760739286458 0 -0.027439178885305112 0.0010322669426599917 0 -0.027820089395085471 -0.00049442868532981112 0 -0.027841991909736703 -0.00051176110406191697 0 -0.027834719742950844 -0.00050473903790121074 0 -0.0277183383422719 8.878485158972406e-06 0 -0.027694847327328298 0.00021768094650381994 0 -0.027820089395085471 -0.00049442868532981112 0 -0.027858074841576475 -0.00047986974856088581 0 -0.027841991909736703 -0.00051176110406191697 0 -0.027486561901272751 0.00083283639512897662 0 -0.027358511923426983 0.0013671669501165438 0 -0.027545405898798701 0.00080604760739286458 0 -0.027439178885305112 0.0010322669426599917 0 -0.027423657843663407 0.0011806150598191337 0 -0.027826395641354456 -0.00050857589712360678 0 -0.027834719742950844 -0.00050473903790121074 0 -0.027822171090106766 -0.00046079533145209213 0 -0.027841991909736703 -0.00051176110406191697 0 -0.027826395641354456 -0.00050857589712360678 0 -0.027834719742950844 -0.00050473903790121074 0 -0.027439178885305112 0.0010322669426599917 0 -0.027423657843663407 0.0011806150598191337 0 -0.027321212332491199 0.001541148953012478 0 -0.027545405898798701 0.00080604760739286458 0 -0.027308971088092642 0.0013083713998462421 0 -0.0276590238849149 0.0010903432246473761 0 -0.027308971088092642 0.0013083713998462421 0 -0.0276590238849149 0.0010903432246473761 0 -0.02748077988063247 0.0015329953530846328 0 -0.0276590238849149 0.0010903432246473761 0 -0.02748077988063247 0.0015329953530846328 0 -0.028004184662075753 0.0011076800337625294 0 -0.027941781050480601 0.00071705699258184266 0 -0.0276590238849149 0.0010903432246473761 0 -0.028004184662075753 0.0011076800337625294 0 -0.02748077988063247 0.0015329953530846328 0 -0.027429201066447768 0.0018491960263216293 0 -0.027947512802908789 0.0017539651547344259 0 -0.02748077988063247 0.0015329953530846328 0 -0.027273320737573267 0.001778253335470066 0 -0.027429201066447768 0.0018491960263216293 0 -0.027308971088092642 0.0013083713998462421 0 -0.02748077988063247 0.0015329953530846328 0 -0.027316293923710034 0.0015968208394917683 0 -0.027316293923710034 0.0015968208394917683 0 -0.027273320737573267 0.001778253335470066 0 -0.027185941100260055 0.001740844819923118 0 -0.02748077988063247 0.0015329953530846328 0 -0.027316293923710034 0.0015968208394917683 0 -0.027273320737573267 0.001778253335470066 0 -0.027826395641354456 -0.00050857589712360678 0 -0.027822171090106766 -0.00046079533145209213 0 -0.02782026934746604 -0.00045719480209261852 0 -0.027308971088092642 0.0013083713998462421 0 -0.027316293923710034 0.0015968208394917683 0 -0.027185941100260055 0.001740844819923118 0 -0.027694847327328298 0.00021768094650381994 0 -0.0268555369224821 0.00081615766742942659 0 -0.02578885285437052 -0.00030546206352918592 0 -0.025303205401277361 -0.0006328885944193556 0 -0.02549575894830192 -0.00060225745755941454 0 -0.027358511923426983 0.0013671669501165438 0 -0.0268555369224821 0.00081615766742942659 0 -0.02676870243078406 -0.00063279097128276368 0 -0.026468081757041247 0.0005211591061050014 0 -0.027273320737573267 0.001778253335470066 0 -0.027185941100260055 0.001740844819923118 0 -0.027190332560799384 0.0017677269656440366 0 -0.0268555369224821 0.00081615766742942659 0 -0.026468081757041247 0.0005211591061050014 0 -0.025303205401277361 -0.0006328885944193556 0 -0.02549575894830192 -0.00060225745755941454 0 -0.025387063709701913 -0.00064276258551305987 0 -0.02549575894830192 -0.00060225745755941454 0 -0.025411623165324904 -0.00066389306593722176 0 -0.025537142274077721 -0.00066291365732279645 0 -0.02549575894830192 -0.00060225745755941454 0 -0.025387063709701913 -0.00064276258551305987 0 -0.025411623165324904 -0.00066389306593722176 0 -0.026468081757041247 0.0005211591061050014 0 -0.025778372928686254 0.0014689378091844285 0 -0.026468081757041247 0.0005211591061050014 0 -0.024920112832608806 -0.00034833342645952523 0 -0.025303205401277361 -0.0006328885944193556 0 -0.025317161363557859 -0.00071079292563095905 0 -0.025266780820869694 -0.00076562268831873901 0 -0.025303205401277361 -0.0006328885944193556 0 -0.025266780820869694 -0.00076562268831873901 0 -0.025188459867464385 -0.00083687861368790008 0 -0.025411623165324904 -0.00066389306593722176 0 -0.025422103709748123 -0.00071091955789034759 0 -0.025537142274077721 -0.00066291365732279645 0 -0.025387063709701913 -0.00064276258551305987 0 -0.025411623165324904 -0.00066389306593722176 0 -0.025337941746468751 -0.00066819287386393061 0 -0.025411623165324904 -0.00066389306593722176 0 -0.02535843367664492 -0.00068701719058491249 0 -0.025337941746468751 -0.00066819287386393061 0 -0.02535843367664492 -0.00068701719058491249 0 -0.025317161363557859 -0.00071079292563095905 0 -0.025337941746468751 -0.00066819287386393061 0 -0.025411623165324904 -0.00066389306593722176 0 -0.02535843367664492 -0.00068701719058491249 0 -0.025369202516429726 -0.00070129368015416972 0 -0.02535843367664492 -0.00068701719058491249 0 -0.025369202516429726 -0.00070129368015416972 0 -0.025317161363557859 -0.00071079292563095905 0 -0.025369202516429726 -0.00070129368015416972 0 -0.025422103709748123 -0.00071091955789034759 0 -0.025342527109143531 -0.00073117090382455313 0 -0.025411623165324904 -0.00066389306593722176 0 -0.025369202516429726 -0.00070129368015416972 0 -0.025422103709748123 -0.00071091955789034759 0 -0.025422103709748123 -0.00071091955789034759 0 -0.025356674785539032 -0.00075163644579474809 0 -0.025342527109143531 -0.00073117090382455313 0 -0.025356674785539032 -0.00075163644579474809 0 -0.025309344089170828 -0.00075658946518431588 0 -0.025342527109143531 -0.00073117090382455313 0 -0.025356674785539032 -0.00075163644579474809 0 -0.025309344089170828 -0.00075658946518431588 0 -0.025291030332670314 -0.00077773655263348271 0 -0.025309344089170828 -0.00075658946518431588 0 -0.025266780820869694 -0.00076562268831873901 0 -0.025291030332670314 -0.00077773655263348271 0 -0.025304959082242541 -0.00074325892976134615 0 -0.025317161363557859 -0.00071079292563095905 0 -0.025266780820869694 -0.00076562268831873901 0 -0.025309344089170828 -0.00075658946518431588 0 -0.025304959082242541 -0.00074325892976134615 0 -0.025266780820869694 -0.00076562268831873901 0 -0.025309344089170828 -0.00075658946518431588 0 -0.025304959082242541 -0.00074325892976134615 0 -0.025342527109143531 -0.00073117090382455313 0 -0.025304959082242541 -0.00074325892976134615 0 -0.025342527109143531 -0.00073117090382455313 0 -0.025317161363557859 -0.00071079292563095905 0 -0.025369202516429726 -0.00070129368015416972 0 -0.025342527109143531 -0.00073117090382455313 0 -0.025317161363557859 -0.00071079292563095905 0 -0.025303205401277361 -0.0006328885944193556 0 -0.025317161363557859 -0.00071079292563095905 0 -0.025337941746468751 -0.00066819287386393061 0 -0.025303205401277361 -0.0006328885944193556 0 -0.025387063709701913 -0.00064276258551305987 0 -0.025337941746468751 -0.00066819287386393061 0 -0.026729014823580675 0.0015467658306377457 0 -0.027075422488301141 0.0020354174560509304 0 -0.026679078615545842 0.0023272022606333044 0 -0.027075422488301141 0.0020354174560509304 0 -0.027429201066447768 0.0018491960263216293 0 -0.027293871857270995 0.0021141610903736559 0 -0.026468081757041247 0.0005211591061050014 0 -0.02733568702145564 0.0023312195015013594 0 -0.027273320737573267 0.001778253335470066 0 -0.027190332560799384 0.0017677269656440366 0 -0.027075422488301141 0.0020354174560509304 0 -0.027273320737573267 0.001778253335470066 0 -0.027075422488301141 0.0020354174560509304 0 -0.027429201066447768 0.0018491960263216293 0 -0.026067381315556918 -0.00059123883454075346 0 -0.026002217434342667 -0.00047930947075680065 0 -0.025711446891918399 -0.0006655446973523085 0 -0.026349186859607153 -0.00044934565715716693 0 -0.026067381315556918 -0.00059123883454075346 0 -0.026002217434342667 -0.00047930947075680065 0 -0.026002217434342667 -0.00047930947075680065 0 -0.025710398750508158 -0.00056678977289465241 0 -0.025711446891918399 -0.0006655446973523085 0 -0.02578885285437052 -0.00030546206352918592 0 -0.02549575894830192 -0.00060225745755941454 0 -0.025710398750508158 -0.00056678977289465241 0 -0.02549575894830192 -0.00060225745755941454 0 -0.025710398750508158 -0.00056678977289465241 0 -0.025537142274077721 -0.00066291365732279645 0 -0.025710398750508158 -0.00056678977289465241 0 -0.025711446891918399 -0.0006655446973523085 0 -0.025537142274077721 -0.00066291365732279645 0 -0.025711446891918399 -0.0006655446973523085 0 -0.025537142274077721 -0.00066291365732279645 0 -0.025451820408777397 -0.00073807182706122514 0 -0.025422103709748123 -0.00071091955789034759 0 -0.025537142274077721 -0.00066291365732279645 0 -0.025451820408777397 -0.00073807182706122514 0 -0.025422103709748123 -0.00071091955789034759 0 -0.025356674785539032 -0.00075163644579474809 0 -0.025451820408777397 -0.00073807182706122514 0 -0.025356674785539032 -0.00075163644579474809 0 -0.025451820408777397 -0.00073807182706122514 0 -0.025315932887496222 -0.00078288719338197278 0 -0.025451820408777397 -0.00073807182706122514 0 -0.025518252856961327 -0.00073367324100035661 0 -0.025343209928388268 -0.00078313948509124796 0 -0.025711446891918399 -0.0006655446973523085 0 -0.025451820408777397 -0.00073807182706122514 0 -0.025518252856961327 -0.00073367324100035661 0 -0.025518252856961327 -0.00073367324100035661 0 -0.025683094958885409 -0.00070462518785723764 0 -0.025370743098841336 -0.00077238535697666014 0 -0.025711446891918399 -0.0006655446973523085 0 -0.025518252856961327 -0.00073367324100035661 0 -0.025683094958885409 -0.00070462518785723764 0 -0.026067381315556918 -0.00059123883454075346 0 -0.025711446891918399 -0.0006655446973523085 0 -0.025683094958885409 -0.00070462518785723764 0 -0.025683094958885409 -0.00070462518785723764 0 -0.026157800423626441 -0.00058952410826744494 0 -0.025677053686012592 -0.00065527295152028914 0 -0.026067381315556918 -0.00059123883454075346 0 -0.025683094958885409 -0.00070462518785723764 0 -0.026157800423626441 -0.00058952410826744494 0 -0.026067381315556918 -0.00059123883454075346 0 -0.026157800423626441 -0.00058952410826744494 0 -0.026583351387800516 -0.000468378086634666 0 -0.026349186859607153 -0.00044934565715716693 0 -0.026067381315556918 -0.00059123883454075346 0 -0.026583351387800516 -0.000468378086634666 0 -0.026583351387800516 -0.000468378086634666 0 -0.026875112418242437 -0.00042991966002319827 0 -0.027154730489088709 -0.00035830102159355463 0 -0.026157800423626441 -0.00058952410826744494 0 -0.026583351387800516 -0.000468378086634666 0 -0.026875112418242437 -0.00042991966002319827 0 -0.026157800423626441 -0.00058952410826744494 0 -0.026169707244161143 -0.00051203114480401451 0 -0.025677053686012592 -0.00065527295152028914 0 -0.026157800423626441 -0.00058952410826744494 0 -0.026875112418242437 -0.00042991966002319827 0 -0.026169707244161143 -0.00051203114480401451 0 -0.026875112418242437 -0.00042991966002319827 0 -0.026169707244161143 -0.00051203114480401451 0 -0.026864831691770376 -0.00029927180790901588 0 -0.026169707244161143 -0.00051203114480401451 0 -0.026864831691770376 -0.00029927180790901588 0 -0.025595382259143252 -0.00036928894055490442 0 -0.026864831691770376 -0.00029927180790901588 0 -0.026002266145581356 -6.3924857582471128e-07 0 -0.025595382259143252 -0.00036928894055490442 0 -0.026864831691770376 -0.00029927180790901588 0 -0.027995289377146418 -3.8661402606539786e-07 0 -0.026002266145581356 -6.3924857582471128e-07 0 -0.026864831691770376 -0.00029927180790901588 0 -0.027995289377146418 -3.8661402606539786e-07 0 -0.028048802940979719 -0.00026731494015705734 0 -0.026875112418242437 -0.00042991966002319827 0 -0.026864831691770376 -0.00029927180790901588 0 -0.028048802940979719 -0.00026731494015705734 0 -0.027995289377146418 -3.8661402606539786e-07 0 -0.028048802940979719 -0.00026731494015705734 0 -0.029988736082133094 -1.1436186555269455e-06 0 -0.029564797383365874 -1.6775766711749781e-05 0 -0.028048802940979719 -0.00026731494015705734 0 -0.029988736082133094 -1.1436186555269455e-06 0 -0.029564797383365874 -1.6775766711749781e-05 0 -0.028048802940979719 -0.00026731494015705734 0 -0.028304808016980904 -4.5183074973961133e-05 0 -0.028048802940979719 -0.00026731494015705734 0 -0.028304808016980904 -4.5183074973961133e-05 0 -0.027579167302375807 -0.00018147422902140602 0 -0.027876448710447515 8.8574152199098684e-05 0 -0.028304808016980904 -4.5183074973961133e-05 0 -0.027579167302375807 -0.00018147422902140602 0 -0.027876448710447515 8.8574152199098684e-05 0 -0.027579167302375807 -0.00018147422902140602 0 -0.027298270344356581 -0.00011361363260282463 0 -0.027508551675046584 -2.6878291157563021e-05 0 -0.027020837449119588 -9.9433759775581962e-05 0 -0.027298270344356581 -0.00011361363260282463 0 -0.026614540157725634 -0.00025845405903072446 0 -0.027298270344356581 -0.00011361363260282463 0 -0.026920619411328981 -0.00031675812848901581 0 -0.027579167302375807 -0.00018147422902140602 0 -0.027298270344356581 -0.00011361363260282463 0 -0.026920619411328981 -0.00031675812848901581 0 -0.026349186859607153 -0.00044934565715716693 0 -0.026583351387800516 -0.000468378086634666 0 -0.026920619411328981 -0.00031675812848901581 0 -0.026583351387800516 -0.000468378086634666 0 -0.026920619411328981 -0.00031675812848901581 0 -0.027154730489088709 -0.00035830102159355463 0 -0.026875112418242437 -0.00042991966002319827 0 -0.028048802940979719 -0.00026731494015705734 0 -0.027154730489088709 -0.00035830102159355463 0 -0.028048802940979719 -0.00026731494015705734 0 -0.027579167302375807 -0.00018147422902140602 0 -0.027154730489088709 -0.00035830102159355463 0 -0.027579167302375807 -0.00018147422902140602 0 -0.026920619411328981 -0.00031675812848901581 0 -0.027154730489088709 -0.00035830102159355463 0 -0.033575815057291888 0.00058257495985917964 0 -0.032772715177893832 0.001043230534853656 0 -0.033456637965059682 0.00047426266643925072 0 -0.033575815057291888 0.00058257495985917964 0 -0.032772715177893832 0.001043230534853656 0 -0.033505112377958661 0.00093150530221093272 0 -0.032772715177893832 0.001043230534853656 0 -0.032807232641103287 0.00070394108773217821 0 -0.032016397506700878 0.0013369167204448254 0 -0.033339817604483561 0.00050983356215053457 0 -0.031937267196195836 0.0011136276711446291 0 -0.032807232641103287 0.00070394108773217821 0 -0.032314062274844187 0.00053111956693125653 0 -0.032016397506700878 0.0013369167204448254 0 -0.032868131920222067 0.00054567832831598363 0 -0.033339817604483561 0.00050983356215053457 0 -0.032807232641103287 0.00070394108773217821 0 -0.033552141411229801 0.00045851185599540882 0 -0.033501370028949859 0.00047460853616065787 0 -0.032807232641103287 0.00070394108773217821 0 -0.033552141411229801 0.00045851185599540882 0 -0.033456637965059682 0.00047426266643925072 0 -0.032772715177893832 0.001043230534853656 0 -0.032807232641103287 0.00070394108773217821 0 -0.033456637965059682 0.00047426266643925072 0 -0.033552141411229801 0.00045851185599540882 0 -0.033956475822044106 0.00031358685284508647 0 -0.033456637965059682 0.00047426266643925072 0 -0.033552141411229801 0.00045851185599540882 0 -0.033995399930921932 0.0003367203510499056 0 -0.033501370028949859 0.00047460853616065787 0 -0.033552141411229801 0.00045851185599540882 0 -0.033995399930921932 0.0003367203510499056 0 -0.033956475822044106 0.00031358685284508647 0 -0.033956475822044106 0.00031358685284508647 0 -0.033456637965059682 0.00047426266643925072 0 -0.033956197310471989 0.0002993070959572787 0 -0.033575815057291888 0.00058257495985917964 0 -0.033456637965059682 0.00047426266643925072 0 -0.033956197310471989 0.0002993070959572787 0 -0.033575815057291888 0.00058257495985917964 0 -0.033956197310471989 0.0002993070959572787 0 -0.033941044431881638 0.00053353921124733882 0 -0.033956197310471989 0.0002993070959572787 0 -0.034590822091799263 0.00011418154653922887 0 -0.034055536558018532 0.00028199702079932123 0 -0.033956475822044106 0.00031358685284508647 0 -0.033956197310471989 0.0002993070959572787 0 -0.034590822091799263 0.00011418154653922887 0 -0.033956475822044106 0.00031358685284508647 0 -0.034590822091799263 0.00011418154653922887 0 -0.034475784403411147 0.00014617935627885283 0 -0.034590822091799263 0.00011418154653922887 0 -0.034475784403411147 0.00014617935627885283 0 -0.034999614831543728 -1.1314295190996463e-07 0 -0.03499902569630603 2.3844126121310134e-07 0 -0.034475784403411147 0.00014617935627885283 0 -0.034999614831543728 -1.1314295190996463e-07 0 -0.03499902569630603 2.3844126121310134e-07 0 -0.034475784403411147 0.00014617935627885283 0 -0.034364832486814462 0.00023502409685641207 0 -0.033995399930921932 0.0003367203510499056 0 -0.034475784403411147 0.00014617935627885283 0 -0.034364832486814462 0.00023502409685641207 0 -0.033995399930921932 0.0003367203510499056 0 -0.033956475822044106 0.00031358685284508647 0 -0.034475784403411147 0.00014617935627885283 0 -0.03499902569630603 2.3844126121310134e-07 0 -0.034364832486814462 0.00023502409685641207 0 -0.034999703308878194 -4.8490677174468953e-09 0 -0.034999993758732223 -3.3181725614908279e-07 0 -0.034908758623425289 5.7344838064701565e-05 0 -0.034854313687401627 3.8699565865632268e-05 0 -0.034990259418941551 0.00030837418928168845 0 -0.034999822665620635 5.7430912018489255e-09 0 -0.035250978001049697 0.0001684956035613362 0 -0.034999993758732223 -3.3181725614908279e-07 0 -0.034908758623425289 5.7344838064701565e-05 0 -0.035250978001049697 0.0001684956035613362 0 -0.034908758623425289 5.7344838064701565e-05 0 -0.035192712169743262 0.00058605188825596539 0 -0.034908758623425289 5.7344838064701565e-05 0 -0.035192712169743262 0.00058605188825596539 0 -0.034489056649500194 0.0002206742587939172 0 -0.033995399930921932 0.0003367203510499056 0 -0.034364832486814462 0.00023502409685641207 0 -0.033501370028949859 0.00047460853616065787 0 -0.035250978001049697 0.0001684956035613362 0 -0.035192712169743262 0.00058605188825596539 0 -0.035502121599883855 0.00067968452687730172 0 -0.034990259418941551 0.00030837418928168845 0 -0.033339817604483561 0.00050983356215053457 0 -0.031618798361260067 0.0003727338183435845 0 -0.031178074142387879 0.00071646066108759583 0 -0.032016397506700878 0.0013369167204448254 0 -0.031014533206858985 0.00024437860815913683 0 -0.031618798361260067 0.0003727338183435845 0 -0.031178074142387879 0.00071646066108759583 0 -0.033120841950023183 0.00043994588659759348 0 -0.033339817604483561 0.00050983356215053457 0 -0.030361996059666413 0.00048414209340023683 0 -0.031134332985333329 0.00067995186990156651 0 -0.031014533206858985 0.00024437860815913683 0 -0.030713882107489824 0.00054986553180924537 0 -0.031178074142387879 0.00071646066108759583 0 -0.031014533206858985 0.00024437860815913683 0 -0.030713882107489824 0.00054986553180924537 0 -0.030601130771506165 -1.5742556259633e-05 0 -0.030713882107489824 0.00054986553180924537 0 -0.030219531335229061 7.5831823087674108e-05 0 -0.030601130771506165 -1.5742556259633e-05 0 -0.030361996059666413 0.00048414209340023683 0 -0.029394477737540489 0.00039749777053921448 0 -0.030713882107489824 0.00054986553180924537 0 -0.030219531335229061 7.5831823087674108e-05 0 -0.029884134333317932 0.00058114565471781873 0 -0.030007062838771133 0.00037001658910343533 0 -0.028937964511571379 0.00023940605807251954 0 -0.029363683886533161 0.00067822646257810005 0 -0.033537535060760883 0.00060102285250733458 0 -0.030650663574588892 -0.00090590034777150935 0 -0.030066824821963538 -0.00049005919439381977 0 -0.030219531335229061 7.5831823087674108e-05 0 -0.030601130771506165 -1.5742556259633e-05 0 -0.030066824821963538 -0.00049005919439381977 0 -0.033537535060760883 0.00060102285250733458 0 -0.034489056649500194 0.0002206742587939172 0 -0.030650663574588892 -0.00090590034777150935 0 -0.03441206476277342 0.00016219247427716886 0 -0.032825825045293702 -0.00040388176093036085 0 -0.031974189839490914 0.00021885938434080735 0 -0.030212225871211255 -0.00040868018272521888 0 -0.035192712169743262 0.00058605188825596539 0 -0.033537535060760883 0.00060102285250733458 0 -0.034489056649500194 0.0002206742587939172 0 -0.033120841950023183 0.00043994588659759348 0 -0.031974189839490914 0.00021885938434080735 0 -0.034908758623425289 5.7344838064701565e-05 0 -0.034489056649500194 0.0002206742587939172 0 -0.034734298779265704 0.00010730028348122476 0 -0.034489056649500194 0.0002206742587939172 0 -0.034734298779265704 0.00010730028348122476 0 -0.034785228467478321 7.6131638222112739e-05 0 -0.034734298779265704 0.00010730028348122476 0 -0.034854313687401627 3.8699565865632268e-05 0 -0.034785228467478321 7.6131638222112739e-05 0 -0.034908758623425289 5.7344838064701565e-05 0 -0.034734298779265704 0.00010730028348122476 0 -0.034854313687401627 3.8699565865632268e-05 0 -0.034999993758732223 -3.3181725614908279e-07 0 -0.034854313687401627 3.8699565865632268e-05 0 -0.034999739166585414 1.4265251102740766e-07 0 -0.034999739166585414 1.4265251102740766e-07 0 -0.03494319111774772 2.709321924452624e-05 0 -0.034999931678433294 1.2352413350222984e-08 0 -0.034854313687401627 3.8699565865632268e-05 0 -0.034999739166585414 1.4265251102740766e-07 0 -0.03494319111774772 2.709321924452624e-05 0 -0.034854313687401627 3.8699565865632268e-05 0 -0.03494319111774772 2.709321924452624e-05 0 -0.034785228467478321 7.6131638222112739e-05 0 -0.03494319111774772 2.709321924452624e-05 0 -0.03491765243317612 -9.8809301363783516e-06 0 -0.034785228467478321 7.6131638222112739e-05 0 -0.034489056649500194 0.0002206742587939172 0 -0.03491765243317612 -9.8809301363783516e-06 0 -0.034785228467478321 7.6131638222112739e-05 0 -0.03494319111774772 2.709321924452624e-05 0 -0.03491765243317612 -9.8809301363783516e-06 0 -0.034976045309642059 -6.2722144684843023e-06 0 -0.028677816193639294 -0.0010135775003195673 0 -0.028884422911095799 -0.00037855135028751576 0 -0.030066824821963538 -0.00049005919439381977 0 -0.032825825045293702 -0.00040388176093036085 0 -0.031921398780420759 -0.00048948381481530266 0 -0.030650663574588892 -0.00090590034777150935 0 -0.028677816193639294 -0.0010135775003195673 0 -0.030066824821963538 -0.00049005919439381977 0 -0.03494319111774772 2.709321924452624e-05 0 -0.034999931678433294 1.2352413350222984e-08 0 -0.034976045309642059 -6.2722144684843023e-06 0 -0.03500001457523183 2.0654073074472896e-09 0 -0.034999931678433294 1.2352413350222984e-08 0 -0.034976045309642059 -6.2722144684843023e-06 0 -0.028175987387472474 -0.00065994621403515246 0 -0.028677816193639294 -0.0010135775003195673 0 -0.028884422911095799 -0.00037855135028751576 0 -0.028884422911095799 -0.00037855135028751576 0 -0.029495629976253487 2.7839020046915465e-05 0 -0.02831510602354996 0.00025634397977678691 0 -0.028175987387472474 -0.00065994621403515246 0 -0.028884422911095799 -0.00037855135028751576 0 -0.02831510602354996 0.00025634397977678691 0 -0.028884422911095799 -0.00037855135028751576 0 -0.030066824821963538 -0.00049005919439381977 0 -0.029495629976253487 2.7839020046915465e-05 0 -0.030219531335229061 7.5831823087674108e-05 0 -0.030066824821963538 -0.00049005919439381977 0 -0.029495629976253487 2.7839020046915465e-05 0 -0.029495629976253487 2.7839020046915465e-05 0 -0.029884134333317932 0.00058114565471781873 0 -0.02831510602354996 0.00025634397977678691 0 -0.030219531335229061 7.5831823087674108e-05 0 -0.029495629976253487 2.7839020046915465e-05 0 -0.029884134333317932 0.00058114565471781873 0 -0.029394477737540489 0.00039749777053921448 0 -0.028388943377340967 0.00027000687678693471 0 -0.028937964511571379 0.00023940605807251954 0 -0.02831510602354996 0.00025634397977678691 0 -0.028553610652574314 0.0006840879853562843 0 -0.027941781050480601 0.00071705699258184266 0 -0.02831510602354996 0.00025634397977678691 0 -0.028553610652574314 0.0006840879853562843 0 -0.027941781050480601 0.00071705699258184266 0 -0.028553610652574314 0.0006840879853562843 0 -0.028004184662075753 0.0011076800337625294 0 -0.028553610652574314 0.0006840879853562843 0 -0.029230922775411391 0.0011321223914687593 0 -0.029363683886533161 0.00067822646257810005 0 -0.028937964511571379 0.00023940605807251954 0 -0.028553610652574314 0.0006840879853562843 0 -0.029363683886533161 0.00067822646257810005 0 -0.028585799628406097 0.0012652987100346123 0 -0.029266735104262403 0.0018425876512448399 0 -0.029230922775411391 0.0011321223914687593 0 -0.028553610652574314 0.0006840879853562843 0 -0.028585799628406097 0.0012652987100346123 0 -0.029230922775411391 0.0011321223914687593 0 -0.028553610652574314 0.0006840879853562843 0 -0.028585799628406097 0.0012652987100346123 0 -0.028004184662075753 0.0011076800337625294 0 -0.028585799628406097 0.0012652987100346123 0 -0.028004184662075753 0.0011076800337625294 0 -0.027947512802908789 0.0017539651547344259 0 -0.02748077988063247 0.0015329953530846328 0 -0.028004184662075753 0.0011076800337625294 0 -0.027947512802908789 0.0017539651547344259 0 -0.027947512802908789 0.0017539651547344259 0 -0.0274569153453822 0.00209953458952828 0 -0.027293871857270995 0.0021141610903736559 0 -0.027429201066447768 0.0018491960263216293 0 -0.027947512802908789 0.0017539651547344259 0 -0.027293871857270995 0.0021141610903736559 0 -0.027947512802908789 0.0017539651547344259 0 -0.029266735104262403 0.0018425876512448399 0 -0.028799138740498977 0.0025604880171537421 0 -0.027927874621073625 0.0017744022176690941 0 -0.028087900824015657 0.0022450600267536229 0 -0.028585799628406097 0.0012652987100346123 0 -0.027947512802908789 0.0017539651547344259 0 -0.029266735104262403 0.0018425876512448399 0 -0.029266735104262403 0.0018425876512448399 0 -0.029766963935982108 0.0023567756216565034 0 -0.028799138740498977 0.0025604880171537421 0 -0.029266735104262403 0.0018425876512448399 0 -0.029766963935982108 0.0023567756216565034 0 -0.030003173936147008 0.001873185643833093 0 -0.029766963935982108 0.0023567756216565034 0 -0.030003173936147008 0.001873185643833093 0 -0.030461873582924955 0.0021237207656990185 0 -0.029266735104262403 0.0018425876512448399 0 -0.030003173936147008 0.001873185643833093 0 -0.029946831342066667 0.0012956712529782418 0 -0.030003173936147008 0.001873185643833093 0 -0.029946831342066667 0.0012956712529782418 0 -0.030497732734576549 0.0016984579051860149 0 -0.029266735104262403 0.0018425876512448399 0 -0.029946831342066667 0.0012956712529782418 0 -0.029230922775411391 0.0011321223914687593 0 -0.029946831342066667 0.0012956712529782418 0 -0.029230922775411391 0.0011321223914687593 0 -0.029363683886533161 0.00067822646257810005 0 -0.030007062838771133 0.00037001658910343533 0 -0.029946831342066667 0.0012956712529782418 0 -0.030699646637374681 0.0011958402754519914 0 -0.030007062838771133 0.00037001658910343533 0 -0.029946831342066667 0.0012956712529782418 0 -0.029363683886533161 0.00067822646257810005 0 -0.030007062838771133 0.00037001658910343533 0 -0.031178074142387879 0.00071646066108759583 0 -0.030699646637374681 0.0011958402754519914 0 -0.031178074142387879 0.00071646066108759583 0 -0.031325082545591916 0.001309608331832416 0 -0.032016397506700878 0.0013369167204448254 0 -0.031178074142387879 0.00071646066108759583 0 -0.031325082545591916 0.001309608331832416 0 -0.030699646637374681 0.0011958402754519914 0 -0.031325082545591916 0.001309608331832416 0 -0.031106664040607208 0.0015827151030343731 0 -0.030699646637374681 0.0011958402754519914 0 -0.031325082545591916 0.001309608331832416 0 -0.031106664040607208 0.0015827151030343731 0 -0.031599131901034624 0.0015754790867028921 0 -0.031106664040607208 0.0015827151030343731 0 -0.03142823975030435 0.0017523302380144316 0 -0.031599131901034624 0.0015754790867028921 0 -0.031106664040607208 0.0015827151030343731 0 -0.030699646637374681 0.0011958402754519914 0 -0.030497732734576549 0.0016984579051860149 0 -0.029946831342066667 0.0012956712529782418 0 -0.030699646637374681 0.0011958402754519914 0 -0.030497732734576549 0.0016984579051860149 0 -0.030003173936147008 0.001873185643833093 0 -0.030497732734576549 0.0016984579051860149 0 -0.030461873582924955 0.0021237207656990185 0 -0.030497732734576549 0.0016984579051860149 0 -0.030461873582924955 0.0021237207656990185 0 -0.031099448680930186 0.0018974133665565236 0 -0.030461873582924955 0.0021237207656990185 0 -0.031099448680930186 0.0018974133665565236 0 -0.03101334487648166 0.0022291633943683511 0 -0.031099448680930186 0.0018974133665565236 0 -0.031158655023158951 0.0018966826832905895 0 -0.03101334487648166 0.0022291633943683511 0 -0.031106664040607208 0.0015827151030343731 0 -0.031099448680930186 0.0018974133665565236 0 -0.03142823975030435 0.0017523302380144316 0 -0.031106664040607208 0.0015827151030343731 0 -0.030497732734576549 0.0016984579051860149 0 -0.031099448680930186 0.0018974133665565236 0 -0.031338952946596665 0.0018104186806644305 0 -0.03142823975030435 0.0017523302380144316 0 -0.031788518645865696 0.0017878566141055158 0 -0.031099448680930186 0.0018974133665565236 0 -0.031338952946596665 0.0018104186806644305 0 -0.03142823975030435 0.0017523302380144316 0 -0.031338952946596665 0.0018104186806644305 0 -0.031158655023158951 0.0018966826832905895 0 -0.031065224123645856 0.0016945638426906083 0 -0.031099448680930186 0.0018974133665565236 0 -0.031338952946596665 0.0018104186806644305 0 -0.031158655023158951 0.0018966826832905895 0 -0.031065224123645856 0.0016945638426906083 0 -0.030774020376075101 0.0014091620184637197 0 -0.030862632801874366 0.0017600898229853841 0 -0.031338952946596665 0.0018104186806644305 0 -0.031065224123645856 0.0016945638426906083 0 -0.030862632801874366 0.0017600898229853841 0 -0.031338952946596665 0.0018104186806644305 0 -0.031219587160433455 0.0018468069376513256 0 -0.031788518645865696 0.0017878566141055158 0 -0.031338952946596665 0.0018104186806644305 0 -0.031219587160433455 0.0018468069376513256 0 -0.030862632801874366 0.0017600898229853841 0 -0.031788518645865696 0.0017878566141055158 0 -0.032302839179553226 0.00189256934760831 0 -0.03124385737751742 0.0020444826812453794 0 -0.031219587160433455 0.0018468069376513256 0 -0.031788518645865696 0.0017878566141055158 0 -0.03124385737751742 0.0020444826812453794 0 -0.03142823975030435 0.0017523302380144316 0 -0.031788518645865696 0.0017878566141055158 0 -0.031599131901034624 0.0015754790867028921 0 -0.031788518645865696 0.0017878566141055158 0 -0.031599131901034624 0.0015754790867028921 0 -0.032016397506700878 0.0013369167204448254 0 -0.031788518645865696 0.0017878566141055158 0 -0.032016397506700878 0.0013369167204448254 0 -0.032302839179553226 0.00189256934760831 0 -0.031325082545591916 0.001309608331832416 0 -0.031599131901034624 0.0015754790867028921 0 -0.032016397506700878 0.0013369167204448254 0 -0.032772715177893832 0.001043230534853656 0 -0.032016397506700878 0.0013369167204448254 0 -0.032302839179553226 0.00189256934760831 0 -0.032772715177893832 0.001043230534853656 0 -0.032302839179553226 0.00189256934760831 0 -0.033505112377958661 0.00093150530221093272 0 -0.032313282527098142 0.0019980258800597951 0 -0.032580113245024203 0.001961839873746451 0 -0.027442057026369107 0.0021835148039268345 0 -0.027197036966323144 0.0022358479054434234 0 -0.027493449982916422 0.0021892475455757496 0 -0.02645178523433532 0.0017302597110358945 0 -0.026722190860963509 0.0021057548860226186 0 -0.026003145837519115 0.0016102323094531305 0 -0.025739179371841333 0.0017442936412681502 0 -0.025887115618901096 0.0018100373335649745 0 -0.027442057026369107 0.0021835148039268345 0 -0.027637918845362902 0.002052530456529388 0 -0.027375596259240468 0.0019582832364886016 0 -0.02645178523433532 0.0017302597110358945 0 -0.028708992151514519 0.0020880378401437307 0 -0.027442057026369107 0.0021835148039268345 0 -0.027637918845362902 0.002052530456529388 0 -0.027493449982916422 0.0021892475455757496 0 -0.027637918845362902 0.002052530456529388 0 -0.027630071657250954 0.0017845463316891413 0 -0.028015572540758746 0.0018807873861242236 0 -0.029412467210816837 0.001760488781369904 0 -0.029438705345757789 0.0015760827851408351 0 -0.027630071657250954 0.0017845463316891413 0 -0.028229807634465743 0.0015768982699203625 0 -0.028015572540758746 0.0018807873861242236 0 -0.031065224123645856 0.0016945638426906083 0 -0.031074806699616386 0.0018375940254941445 0 -0.030774020376075101 0.0014091620184637197 0 -0.031158655023158951 0.0018966826832905895 0 -0.031065224123645856 0.0016945638426906083 0 -0.031074806699616386 0.0018375940254941445 0 -0.031158655023158951 0.0018966826832905895 0 -0.031074806699616386 0.0018375940254941445 0 -0.03101334487648166 0.0022291633943683511 0 -0.029412467210816837 0.001760488781369904 0 -0.028708992151514519 0.0020880378401437307 0 -0.027637918845362902 0.002052530456529388 0 -0.027630071657250954 0.0017845463316891413 0 -0.027375596259240468 0.0019582832364886016 0 -0.031074806699616386 0.0018375940254941445 0 -0.031040641056366742 0.001996860834762602 0 -0.03101334487648166 0.0022291633943683511 0 -0.028708992151514519 0.0020880378401437307 0 -0.031519604255940366 0.0026422291441385881 0 -0.03138262275176399 0.0031092774122713023 0 -0.03101334487648166 0.0022291633943683511 0 -0.030653226269556234 0.0029326471427701221 0 -0.03138262275176399 0.0031092774122713023 0 -0.030653226269556234 0.0029326471427701221 0 -0.030672432173652404 0.0035539748362252792 0 -0.03101334487648166 0.0022291633943683511 0 -0.030268044086967271 0.0026099872644837967 0 -0.030653226269556234 0.0029326471427701221 0 -0.030461873582924955 0.0021237207656990185 0 -0.03101334487648166 0.0022291633943683511 0 -0.030268044086967271 0.0026099872644837967 0 -0.030653226269556234 0.0029326471427701221 0 -0.030672432173652404 0.0035539748362252792 0 -0.030080780537697551 0.0031565673430078195 0 -0.030268044086967271 0.0026099872644837967 0 -0.030653226269556234 0.0029326471427701221 0 -0.030080780537697551 0.0031565673430078195 0 -0.028326229360836768 0.0025467245768720139 0 -0.026619396375104291 0.0022013199527625357 0 -0.030672432173652404 0.0035539748362252792 0 -0.030058120099251451 0.0039342037760497946 0 -0.030095089572682511 0.0035714912867975328 0 -0.030672432173652404 0.0035539748362252792 0 -0.030095089572682511 0.0035714912867975328 0 -0.030080780537697551 0.0031565673430078195 0 -0.028708992151514519 0.0020880378401437307 0 -0.028326229360836768 0.0025467245768720139 0 -0.026003145837519115 0.0016102323094531305 0 -0.025916213409212897 0.0014074828167361909 0 -0.025722878478387886 0.0015296409288871283 0 -0.026003145837519115 0.0016102323094531305 0 -0.025722878478387886 0.0015296409288871283 0 -0.025739179371841333 0.0017442936412681502 0 -0.025739179371841333 0.0017442936412681502 0 -0.025514946949430142 0.0017673876673016996 0 -0.025571013643194199 0.0018563036840523112 0 -0.025722878478387886 0.0015296409288871283 0 -0.025739179371841333 0.0017442936412681502 0 -0.025567189910217128 0.0016494867861301925 0 -0.025289153050527334 0.0015562704748971136 0 -0.026619396375104291 0.0022013199527625357 0 -0.025237184779855412 0.002236175409444539 0 -0.02514139457864218 0.0022560564678138569 0 -0.025473406471326426 0.0019760086569185352 0 -0.025514946949430142 0.0017673876673016996 0 -0.025487095234845041 0.0019041552871699725 0 -0.025571013643194199 0.0018563036840523112 0 -0.025514946949430142 0.0017673876673016996 0 -0.025473406471326426 0.0019760086569185352 0 -0.025487095234845041 0.0019041552871699725 0 -0.026619396375104291 0.0022013199527625357 0 -0.024990511268338934 0.002001706428921628 0 -0.025237184779855412 0.002236175409444539 0 -0.02514139457864218 0.0022560564678138569 0 -0.025288946229795609 0.0023148471996590862 0 -0.026363960738036617 0.0021551976739085611 0 -0.02737496066479244 0.0030537855694120265 0 -0.026619396375104291 0.0022013199527625357 0 -0.02737496066479244 0.0030537855694120265 0 -0.025237184779855412 0.002236175409444539 0 -0.025524029067103632 0.0022397210653692075 0 -0.025473406471326426 0.0019760086569185352 0 -0.025237184779855412 0.002236175409444539 0 -0.025524029067103632 0.0022397210653692075 0 -0.025280776806009413 0.0023221586069889855 0 -0.02737496066479244 0.0030537855694120265 0 -0.02642771520128414 0.0026539907055197144 0 -0.02737496066479244 0.0030537855694120265 0 -0.028749864238727219 0.0030053255077580436 0 -0.028074784142349221 0.0032060790178376933 0 -0.027698930960733975 0.0025664024060693832 0 -0.027469444152700209 0.0029538153240405503 0 -0.029667060969165372 0.0033554711513286411 0 -0.029747094377436684 0.0037851481616903242 0 -0.029332476002020089 0.0031161989324395584 0 -0.025524029067103632 0.0022397210653692075 0 -0.025280776806009413 0.0023221586069889855 0 -0.025689107484860616 0.0025144570590572481 0 -0.029667060969165372 0.0033554711513286411 0 -0.029849932891665321 0.0035373870419105778 0 -0.029747094377436684 0.0037851481616903242 0 -0.029667060969165372 0.0033554711513286411 0 -0.029849932891665321 0.0035373870419105778 0 -0.030080780537697551 0.0031565673430078195 0 -0.029849932891665321 0.0035373870419105778 0 -0.029747094377436684 0.0037851481616903242 0 -0.029933194583838526 0.0037175074829143787 0 -0.030058120099251451 0.0039342037760497946 0 -0.029933194583838526 0.0037175074829143787 0 -0.030095089572682511 0.0035714912867975328 0 -0.030058120099251451 0.0039342037760497946 0 -0.029747094377436684 0.0037851481616903242 0 -0.029933194583838526 0.0037175074829143787 0 -0.029849932891665321 0.0035373870419105778 0 -0.029933194583838526 0.0037175074829143787 0 -0.030095089572682511 0.0035714912867975328 0 -0.029849932891665321 0.0035373870419105778 0 -0.030095089572682511 0.0035714912867975328 0 -0.030080780537697551 0.0031565673430078195 0 -0.029667060969165372 0.0033554711513286411 0 -0.030080780537697551 0.0031565673430078195 0 -0.02972989511531748 0.0028445699144239722 0 -0.030268044086967271 0.0026099872644837967 0 -0.030080780537697551 0.0031565673430078195 0 -0.02972989511531748 0.0028445699144239722 0 -0.029766963935982108 0.0023567756216565034 0 -0.030461873582924955 0.0021237207656990185 0 -0.030268044086967271 0.0026099872644837967 0 -0.029766963935982108 0.0023567756216565034 0 -0.030268044086967271 0.0026099872644837967 0 -0.02972989511531748 0.0028445699144239722 0 -0.02972989511531748 0.0028445699144239722 0 -0.029332476002020089 0.0031161989324395584 0 -0.028799138740498977 0.0025604880171537421 0 -0.029766963935982108 0.0023567756216565034 0 -0.02972989511531748 0.0028445699144239722 0 -0.028799138740498977 0.0025604880171537421 0 -0.029667060969165372 0.0033554711513286411 0 -0.02972989511531748 0.0028445699144239722 0 -0.029332476002020089 0.0031161989324395584 0 -0.027698930960733975 0.0025664024060693832 0 -0.027237846462564382 0.0024620806826352211 0 -0.027469444152700209 0.0029538153240405503 0 -0.027237846462564382 0.0024620806826352211 0 -0.026623036581596229 0.0026322823668372386 0 -0.027469444152700209 0.0029538153240405503 0 -0.028749864238727219 0.0030053255077580436 0 -0.028087900824015657 0.0022450600267536229 0 -0.027698930960733975 0.0025664024060693832 0 -0.027237846462564382 0.0024620806826352211 0 -0.0274569153453822 0.00209953458952828 0 -0.027237846462564382 0.0024620806826352211 0 -0.0274569153453822 0.00209953458952828 0 -0.027293871857270995 0.0021141610903736559 0 -0.027237846462564382 0.0024620806826352211 0 -0.027293871857270995 0.0021141610903736559 0 -0.026906790299048241 0.0024010763449492235 0 -0.027293871857270995 0.0021141610903736559 0 -0.026906790299048241 0.0024010763449492235 0 -0.026891261687793634 0.0023033526829476909 0 -0.026906790299048241 0.0024010763449492235 0 -0.026623036581596229 0.0026322823668372386 0 -0.026676096597993491 0.0024865832951941409 0 -0.027237846462564382 0.0024620806826352211 0 -0.026906790299048241 0.0024010763449492235 0 -0.026623036581596229 0.0026322823668372386 0 -0.026623036581596229 0.0026322823668372386 0 -0.025689107484860616 0.0025144570590572481 0 -0.025957837318905649 0.0022334094445386572 0 -0.026623036581596229 0.0026322823668372386 0 -0.025957837318905649 0.0022334094445386572 0 -0.026313076645143093 0.002383567904453598 0 -0.025524029067103632 0.0022397210653692075 0 -0.025689107484860616 0.0025144570590572481 0 -0.025957837318905649 0.0022334094445386572 0 -0.02665730596346793 0.0026748231428860452 0 -0.02642771520128414 0.0026539907055197144 0 -0.025524029067103632 0.0022397210653692075 0 -0.025670472495957358 0.0020385134377307293 0 -0.025473406471326426 0.0019760086569185352 0 -0.025524029067103632 0.0022397210653692075 0 -0.025957837318905649 0.0022334094445386572 0 -0.025670472495957358 0.0020385134377307293 0 -0.025957837318905649 0.0022334094445386572 0 -0.02576511908908714 0.0020242475400699365 0 -0.026091549108104777 0.0021939887151212782 0 -0.025957837318905649 0.0022334094445386572 0 -0.026313076645143093 0.002383567904453598 0 -0.026091549108104777 0.0021939887151212782 0 -0.025957837318905649 0.0022334094445386572 0 -0.02576511908908714 0.0020242475400699365 0 -0.025670472495957358 0.0020385134377307293 0 -0.025670472495957358 0.0020385134377307293 0 -0.025529211364638905 0.0019450954524006332 0 -0.025473406471326426 0.0019760086569185352 0 -0.02576511908908714 0.0020242475400699365 0 -0.025670472495957358 0.0020385134377307293 0 -0.025529211364638905 0.0019450954524006332 0 -0.025529211364638905 0.0019450954524006332 0 -0.025381193519656148 0.0019158561239587314 0 -0.025411668726688118 0.0019488119144986215 0 -0.02576511908908714 0.0020242475400699365 0 -0.02553043913282492 0.0019092799336306271 0 -0.025709899902687544 0.0019716995916164454 0 -0.02576511908908714 0.0020242475400699365 0 -0.025529211364638905 0.0019450954524006332 0 -0.02553043913282492 0.0019092799336306271 0 -0.025529211364638905 0.0019450954524006332 0 -0.02553043913282492 0.0019092799336306271 0 -0.025381193519656148 0.0019158561239587314 0 -0.02553043913282492 0.0019092799336306271 0 -0.025342455445172735 0.0018738052488707652 0 -0.025381193519656148 0.0019158561239587314 0 -0.02553043913282492 0.0019092799336306271 0 -0.025342455445172735 0.0018738052488707652 0 -0.025449981638391749 0.0018683929066751848 0 -0.025283908444326375 0.0019156030438953787 0 -0.025342455445172735 0.0018738052488707652 0 -0.025381193519656148 0.0019158561239587314 0 -0.025283908444326375 0.0019156030438953787 0 -0.025342455445172735 0.0018738052488707652 0 -0.025171733978186124 0.0019238527436158095 0 -0.025171733978186124 0.0019238527436158095 0 -0.025147333579467319 0.0018839707065404867 0 -0.024882899062093032 0.0019579958425797977 0 -0.025342455445172735 0.0018738052488707652 0 -0.025171733978186124 0.0019238527436158095 0 -0.025147333579467319 0.0018839707065404867 0 -0.025283908444326375 0.0019156030438953787 0 -0.025171733978186124 0.0019238527436158095 0 -0.025253403569290248 0.001970821241970966 0 -0.025253403569290248 0.001970821241970966 0 -0.025075446374667677 0.0020170583370825376 0 -0.025189956337160035 0.0020788864815336639 0 -0.025171733978186124 0.0019238527436158095 0 -0.025253403569290248 0.001970821241970966 0 -0.025075446374667677 0.0020170583370825376 0 -0.025283908444326375 0.0019156030438953787 0 -0.025253403569290248 0.001970821241970966 0 -0.025381193519656148 0.0019158561239587314 0 -0.025253403569290248 0.001970821241970966 0 -0.025381193519656148 0.0019158561239587314 0 -0.025343862793998584 0.0019755858762648308 0 -0.025343862793998584 0.0019755858762648308 0 -0.025389432859669502 0.0020342783054966137 0 -0.025411668726688118 0.0019488119144986215 0 -0.025381193519656148 0.0019158561239587314 0 -0.025343862793998584 0.0019755858762648308 0 -0.025411668726688118 0.0019488119144986215 0 -0.025343862793998584 0.0019755858762648308 0 -0.025304598954011371 0.0020799419405801733 0 -0.025389432859669502 0.0020342783054966137 0 -0.025253403569290248 0.001970821241970966 0 -0.025343862793998584 0.0019755858762648308 0 -0.025304598954011371 0.0020799419405801733 0 -0.025253403569290248 0.001970821241970966 0 -0.025304598954011371 0.0020799419405801733 0 -0.025189956337160035 0.0020788864815336639 0 -0.025304598954011371 0.0020799419405801733 0 -0.025426106730845409 0.0021498770713489863 0 -0.025358893195295062 0.0022306338856277062 0 -0.025304598954011371 0.0020799419405801733 0 -0.025426106730845409 0.0021498770713489863 0 -0.025389432859669502 0.0020342783054966137 0 -0.025426106730845409 0.0021498770713489863 0 -0.025389432859669502 0.0020342783054966137 0 -0.02550592728515165 0.0020294567404679229 0 -0.025389432859669502 0.0020342783054966137 0 -0.025411668726688118 0.0019488119144986215 0 -0.02550592728515165 0.0020294567404679229 0 -0.025411668726688118 0.0019488119144986215 0 -0.025512020575516239 0.0019357508981464057 0 -0.02550592728515165 0.0020294567404679229 0 -0.025529211364638905 0.0019450954524006332 0 -0.025411668726688118 0.0019488119144986215 0 -0.025473406471326426 0.0019760086569185352 0 -0.025411668726688118 0.0019488119144986215 0 -0.025473406471326426 0.0019760086569185352 0 -0.025487095234845041 0.0019041552871699725 0 -0.025411668726688118 0.0019488119144986215 0 -0.025487095234845041 0.0019041552871699725 0 -0.025512020575516239 0.0019357508981464057 0 -0.025487095234845041 0.0019041552871699725 0 -0.025512020575516239 0.0019357508981464057 0 -0.025571013643194199 0.0018563036840523112 0 -0.025512020575516239 0.0019357508981464057 0 -0.025652602723836109 0.0019088062589397831 0 -0.025571013643194199 0.0018563036840523112 0 -0.025739179371841333 0.0017442936412681502 0 -0.025652602723836109 0.0019088062589397831 0 -0.025571013643194199 0.0018563036840523112 0 -0.025739179371841333 0.0017442936412681502 0 -0.025652602723836109 0.0019088062589397831 0 -0.025887115618901096 0.0018100373335649745 0 -0.025652602723836109 0.0019088062589397831 0 -0.02579304046144747 0.0020155029121880943 0 -0.025887115618901096 0.0018100373335649745 0 -0.025512020575516239 0.0019357508981464057 0 -0.025652602723836109 0.0019088062589397831 0 -0.02550592728515165 0.0020294567404679229 0 -0.025652602723836109 0.0019088062589397831 0 -0.02579304046144747 0.0020155029121880943 0 -0.02550592728515165 0.0020294567404679229 0 -0.025426106730845409 0.0021498770713489863 0 -0.02550592728515165 0.0020294567404679229 0 -0.025570626645030001 0.0021812959846756988 0 -0.02579304046144747 0.0020155029121880943 0 -0.02550592728515165 0.0020294567404679229 0 -0.025570626645030001 0.0021812959846756988 0 -0.025426106730845409 0.0021498770713489863 0 -0.025570626645030001 0.0021812959846756988 0 -0.025497639670784299 0.0022745090562283033 0 -0.025426106730845409 0.0021498770713489863 0 -0.025497639670784299 0.0022745090562283033 0 -0.025358893195295062 0.0022306338856277062 0 -0.025570626645030001 0.0021812959846756988 0 -0.025668250444661832 0.0023210517941039512 0 -0.02577854091277303 0.00221698156023403 0 -0.025570626645030001 0.0021812959846756988 0 -0.025497639670784299 0.0022745090562283033 0 -0.025668250444661832 0.0023210517941039512 0 -0.02579304046144747 0.0020155029121880943 0 -0.025570626645030001 0.0021812959846756988 0 -0.02577854091277303 0.00221698156023403 0 -0.02577854091277303 0.00221698156023403 0 -0.026025312378157819 0.0021654776210481377 0 -0.025897703452505045 0.0023602112731540234 0 -0.02579304046144747 0.0020155029121880943 0 -0.02577854091277303 0.00221698156023403 0 -0.026025312378157819 0.0021654776210481377 0 -0.025668250444661832 0.0023210517941039512 0 -0.02577854091277303 0.00221698156023403 0 -0.025897703452505045 0.0023602112731540234 0 -0.025668250444661832 0.0023210517941039512 0 -0.025897703452505045 0.0023602112731540234 0 -0.025740784769566167 0.0024478102624396502 0 -0.025897703452505045 0.0023602112731540234 0 -0.025740784769566167 0.0024478102624396502 0 -0.026118931564397065 0.0025192024608921243 0 -0.025897703452505045 0.0023602112731540234 0 -0.026542863215698119 0.0022548417804691442 0 -0.026118931564397065 0.0025192024608921243 0 -0.026025312378157819 0.0021654776210481377 0 -0.025897703452505045 0.0023602112731540234 0 -0.026542863215698119 0.0022548417804691442 0 -0.026722190860963509 0.0021057548860226186 0 -0.026587234443744449 0.0022415465501953585 0 -0.026025312378157819 0.0021654776210481377 0 -0.026170685630404027 0.0018056501717832205 0 -0.026542863215698119 0.0022548417804691442 0 -0.02579304046144747 0.0020155029121880943 0 -0.026025312378157819 0.0021654776210481377 0 -0.026170685630404027 0.0018056501717832205 0 -0.026003145837519115 0.0016102323094531305 0 -0.025887115618901096 0.0018100373335649745 0 -0.026170685630404027 0.0018056501717832205 0 -0.02579304046144747 0.0020155029121880943 0 -0.025887115618901096 0.0018100373335649745 0 -0.026170685630404027 0.0018056501717832205 0 -0.024183405052224671 -0.00056391058356400272 0 -0.02472480387299213 -0.00051172156746473636 0 -0.024615296971826663 -0.00066972849606106004 0 -0.024183405052224671 -0.00056391058356400272 0 -0.023567738377569411 -0.00052388139959099063 0 -0.02352836317876764 -0.00036744360197439748 0 -0.024183405052224671 -0.00056391058356400272 0 -0.024145906762529302 -0.00063227117015270053 0 -0.024615296971826663 -0.00066972849606106004 0 -0.024534770466684421 -0.00070841602955629026 0 -0.024145906762529302 -0.00063227117015270053 0 -0.024615296971826663 -0.00066972849606106004 0 -0.024534770466684421 -0.00070841602955629026 0 -0.024615296971826663 -0.00066972849606106004 0 -0.024858144274058525 -0.00075767668552771466 0 -0.024534770466684421 -0.00070841602955629026 0 -0.024145906762529302 -0.00063227117015270053 0 -0.024297675806831835 -0.00065110492817473055 0 -0.024145906762529302 -0.00063227117015270053 0 -0.023868771840889765 -0.00054631768261720879 0 -0.023567738377569411 -0.00052388139959099063 0 -0.024145906762529302 -0.00063227117015270053 0 -0.023868771840889765 -0.00054631768261720879 0 -0.024297675806831835 -0.00065110492817473055 0 -0.024183405052224671 -0.00056391058356400272 0 -0.024145906762529302 -0.00063227117015270053 0 -0.023567738377569411 -0.00052388139959099063 0 -0.02201622365900175 -5.1679554226492692e-07 0 -0.02352836317876764 -0.00036744360197439748 0 -0.022714970060947089 -0.00036197681167032711 0 -0.023567738377569411 -0.00052388139959099063 0 -0.02352836317876764 -0.00036744360197439748 0 -0.022714970060947089 -0.00036197681167032711 0 -0.02201622365900175 -5.1679554226492692e-07 0 -0.024009254572233362 -6.5045349493496643e-07 0 -0.02352836317876764 -0.00036744360197439748 0 -0.024183405052224671 -0.00056391058356400272 0 -0.02352836317876764 -0.00036744360197439748 0 -0.02472480387299213 -0.00051172156746473636 0 -0.024009254572233362 -6.5045349493496643e-07 0 -0.02352836317876764 -0.00036744360197439748 0 -0.02472480387299213 -0.00051172156746473636 0 -0.024009254572233362 -6.5045349493496643e-07 0 -0.02472480387299213 -0.00051172156746473636 0 -0.025595382259143252 -0.00036928894055490442 0 -0.024009254572233362 -6.5045349493496643e-07 0 -0.026002266145581356 -6.3924857582471128e-07 0 -0.025595382259143252 -0.00036928894055490442 0 -0.02472480387299213 -0.00051172156746473636 0 -0.025595382259143252 -0.00036928894055490442 0 -0.025496508970615311 -0.00055752135308816759 0 -0.026169707244161143 -0.00051203114480401451 0 -0.025595382259143252 -0.00036928894055490442 0 -0.025496508970615311 -0.00055752135308816759 0 -0.025496508970615311 -0.00055752135308816759 0 -0.025144140129092486 -0.00068056448140917287 0 -0.025677053686012592 -0.00065527295152028914 0 -0.026169707244161143 -0.00051203114480401451 0 -0.025496508970615311 -0.00055752135308816759 0 -0.025677053686012592 -0.00065527295152028914 0 -0.02472480387299213 -0.00051172156746473636 0 -0.025496508970615311 -0.00055752135308816759 0 -0.025144140129092486 -0.00068056448140917287 0 -0.02472480387299213 -0.00051172156746473636 0 -0.024615296971826663 -0.00066972849606106004 0 -0.025144140129092486 -0.00068056448140917287 0 -0.025144140129092486 -0.00068056448140917287 0 -0.025203442400574476 -0.00076416516684343037 0 -0.024858144274058525 -0.00075767668552771466 0 -0.024615296971826663 -0.00066972849606106004 0 -0.025144140129092486 -0.00068056448140917287 0 -0.024858144274058525 -0.00075767668552771466 0 -0.025144140129092486 -0.00068056448140917287 0 -0.025677053686012592 -0.00065527295152028914 0 -0.025203442400574476 -0.00076416516684343037 0 -0.025683094958885409 -0.00070462518785723764 0 -0.025677053686012592 -0.00065527295152028914 0 -0.025203442400574476 -0.00076416516684343037 0 -0.025683094958885409 -0.00070462518785723764 0 -0.025203442400574476 -0.00076416516684343037 0 -0.025370743098841336 -0.00077238535697666014 0 -0.025203442400574476 -0.00076416516684343037 0 -0.025370743098841336 -0.00077238535697666014 0 -0.025184363354219821 -0.0007954757179890466 0 -0.025518252856961327 -0.00073367324100035661 0 -0.025370743098841336 -0.00077238535697666014 0 -0.025343209928388268 -0.00078313948509124796 0 -0.025370743098841336 -0.00077238535697666014 0 -0.025343209928388268 -0.00078313948509124796 0 -0.025184363354219821 -0.0007954757179890466 0 -0.025343209928388268 -0.00078313948509124796 0 -0.025315932887496222 -0.00078288719338197278 0 -0.025214570340214296 -0.00081029040690100071 0 -0.025451820408777397 -0.00073807182706122514 0 -0.025343209928388268 -0.00078313948509124796 0 -0.025315932887496222 -0.00078288719338197278 0 -0.025315932887496222 -0.00078288719338197278 0 -0.025214570340214296 -0.00081029040690100071 0 -0.025254285456242948 -0.0008006788726582281 0 -0.025214570340214296 -0.00081029040690100071 0 -0.025084810375033753 -0.00081083138546110816 0 -0.025118279389695988 -0.0008147383565746786 0 -0.025214570340214296 -0.00081029040690100071 0 -0.025118279389695988 -0.0008147383565746786 0 -0.025144261717625457 -0.00081868706218844376 0 -0.025214570340214296 -0.00081029040690100071 0 -0.025184363354219821 -0.0007954757179890466 0 -0.025084810375033753 -0.00081083138546110816 0 -0.025343209928388268 -0.00078313948509124796 0 -0.025214570340214296 -0.00081029040690100071 0 -0.025184363354219821 -0.0007954757179890466 0 -0.025184363354219821 -0.0007954757179890466 0 -0.025084810375033753 -0.00081083138546110816 0 -0.024989653468900693 -0.00079266368852709188 0 -0.025118279389695988 -0.0008147383565746786 0 -0.025144261717625457 -0.00081868706218844376 0 -0.025033979668404899 -0.00080852327398532489 0 -0.025084810375033753 -0.00081083138546110816 0 -0.025118279389695988 -0.0008147383565746786 0 -0.025033979668404899 -0.00080852327398532489 0 -0.024931825462902797 -0.00079292012736951469 0 -0.025033979668404899 -0.00080852327398532489 0 -0.024916252150372895 -0.00077825166375234333 0 -0.025084810375033753 -0.00081083138546110816 0 -0.024931825462902797 -0.00079292012736951469 0 -0.025033979668404899 -0.00080852327398532489 0 -0.024931825462902797 -0.00079292012736951469 0 -0.024989653468900693 -0.00079266368852709188 0 -0.024697562461843348 -0.00074925579420701872 0 -0.025084810375033753 -0.00081083138546110816 0 -0.024931825462902797 -0.00079292012736951469 0 -0.024989653468900693 -0.00079266368852709188 0 -0.024858144274058525 -0.00075767668552771466 0 -0.024989653468900693 -0.00079266368852709188 0 -0.024697562461843348 -0.00074925579420701872 0 -0.025203442400574476 -0.00076416516684343037 0 -0.024858144274058525 -0.00075767668552771466 0 -0.024989653468900693 -0.00079266368852709188 0 -0.025203442400574476 -0.00076416516684343037 0 -0.025184363354219821 -0.0007954757179890466 0 -0.024989653468900693 -0.00079266368852709188 0 -0.026906790299048241 0.0024010763449492235 0 -0.026891261687793634 0.0023033526829476909 0 -0.026676096597993491 0.0024865832951941409 0 -0.027075422488301141 0.0020354174560509304 0 -0.027293871857270995 0.0021141610903736559 0 -0.026891261687793634 0.0023033526829476909 0 -0.027075422488301141 0.0020354174560509304 0 -0.026891261687793634 0.0023033526829476909 0 -0.026679078615545842 0.0023272022606333044 0 -0.026891261687793634 0.0023033526829476909 0 -0.026679078615545842 0.0023272022606333044 0 -0.026676424215809166 0.0024284048530799286 0 -0.025128191910789882 0.00058096118721001567 0 -0.024988316136496106 0.00037262632756078604 0 -0.024994167477660718 0.0003975118232812603 0 -0.025188459867464385 -0.00083687861368790008 0 -0.025203816024321975 -0.00082138157497224705 0 -0.025118696990274237 -0.00082056505331115225 0 -0.025188459867464385 -0.00083687861368790008 0 -0.02522349152888104 -0.00080800090109875043 0 -0.025203816024321975 -0.00082138157497224705 0 -0.025266780820869694 -0.00076562268831873901 0 -0.025188459867464385 -0.00083687861368790008 0 -0.02522349152888104 -0.00080800090109875043 0 -0.025266780820869694 -0.00076562268831873901 0 -0.02522349152888104 -0.00080800090109875043 0 -0.025242576436578845 -0.000802009279342119 0 -0.02522349152888104 -0.00080800090109875043 0 -0.025242576436578845 -0.000802009279342119 0 -0.025203816024321975 -0.00082138157497224705 0 -0.025266780820869694 -0.00076562268831873901 0 -0.025242576436578845 -0.000802009279342119 0 -0.025291030332670314 -0.00077773655263348271 0 -0.025315932887496222 -0.00078288719338197278 0 -0.025291030332670314 -0.00077773655263348271 0 -0.025254285456242948 -0.0008006788726582281 0 -0.025356674785539032 -0.00075163644579474809 0 -0.025315932887496222 -0.00078288719338197278 0 -0.025291030332670314 -0.00077773655263348271 0 -0.025242576436578845 -0.000802009279342119 0 -0.025291030332670314 -0.00077773655263348271 0 -0.025254285456242948 -0.0008006788726582281 0 -0.025242576436578845 -0.000802009279342119 0 -0.025254285456242948 -0.0008006788726582281 0 -0.025202828229735814 -0.00081608100591980595 0 -0.025214570340214296 -0.00081029040690100071 0 -0.025254285456242948 -0.0008006788726582281 0 -0.025202828229735814 -0.00081608100591980595 0 -0.025202828229735814 -0.00081608100591980595 0 -0.025203816024321975 -0.00082138157497224705 0 -0.025118696990274237 -0.00082056505331115225 0 -0.025242576436578845 -0.000802009279342119 0 -0.025202828229735814 -0.00081608100591980595 0 -0.025203816024321975 -0.00082138157497224705 0 -0.025202828229735814 -0.00081608100591980595 0 -0.025144261717625457 -0.00081868706218844376 0 -0.025118696990274237 -0.00082056505331115225 0 -0.025214570340214296 -0.00081029040690100071 0 -0.025202828229735814 -0.00081608100591980595 0 -0.025144261717625457 -0.00081868706218844376 0 -0.025778372928686254 0.0014689378091844285 0 -0.025707246093670741 0.0013430607816940061 0 -0.025188459867464385 -0.00083687861368790008 0 -0.025118696990274237 -0.00082056505331115225 0 -0.025013667138579308 -0.00079918498116939604 0 -0.024920112832608806 -0.00034833342645952523 0 -0.024924715610516329 -0.00027287787410122915 0 -0.025188459867464385 -0.00083687861368790008 0 -0.025013667138579308 -0.00079918498116939604 0 -0.024931853837576554 -0.00076412404001712788 0 -0.024988316136496106 0.00037262632756078604 0 -0.024994167477660718 0.0003975118232812603 0 -0.024879153724251514 0.00022243837708029363 0 -0.026679078615545842 0.0023272022606333044 0 -0.026676424215809166 0.0024284048530799286 0 -0.026535388600470923 0.0025131775074174983 0 -0.024988316136496106 0.00037262632756078604 0 -0.024868602575244942 0.00017818256252872879 0 -0.024879153724251514 0.00022243837708029363 0 -0.025144261717625457 -0.00081868706218844376 0 -0.025118696990274237 -0.00082056505331115225 0 -0.025033979668404899 -0.00080852327398532489 0 -0.025118696990274237 -0.00082056505331115225 0 -0.025013667138579308 -0.00079918498116939604 0 -0.025033979668404899 -0.00080852327398532489 0 -0.025013667138579308 -0.00079918498116939604 0 -0.025033979668404899 -0.00080852327398532489 0 -0.024916252150372895 -0.00077825166375234333 0 -0.026891261687793634 0.0023033526829476909 0 -0.026676424215809166 0.0024284048530799286 0 -0.026676096597993491 0.0024865832951941409 0 -0.026676096597993491 0.0024865832951941409 0 -0.026524194503228564 0.0025131493894546136 0 -0.026535388600470923 0.0025131775074174983 0 -0.026676424215809166 0.0024284048530799286 0 -0.026676096597993491 0.0024865832951941409 0 -0.026535388600470923 0.0025131775074174983 0 -0.026623036581596229 0.0026322823668372386 0 -0.026676096597993491 0.0024865832951941409 0 -0.026524194503228564 0.0025131493894546136 0 -0.026623036581596229 0.0026322823668372386 0 -0.026313076645143093 0.002383567904453598 0 -0.026524194503228564 0.0025131493894546136 0 -0.026313076645143093 0.002383567904453598 0 -0.026524194503228564 0.0025131493894546136 0 -0.026413203312537863 0.0024250389820299791 0 -0.026524194503228564 0.0025131493894546136 0 -0.026413203312537863 0.0024250389820299791 0 -0.026535388600470923 0.0025131775074174983 0 -0.026313076645143093 0.002383567904453598 0 -0.026413203312537863 0.0024250389820299791 0 -0.026261127342406883 0.0023047096083378504 0 -0.024868602575244942 0.00017818256252872879 0 -0.024879153724251514 0.00022243837708029363 0 -0.024779290726573564 8.6559887365078507e-05 0 -0.026413203312537863 0.0024250389820299791 0 -0.026535388600470923 0.0025131775074174983 0 -0.026236532712361416 0.002199510144353553 0 -0.025707246093670741 0.0013430607816940061 0 -0.025498266984618469 0.0011635076932016057 0 -0.025013667138579308 -0.00079918498116939604 0 -0.024931853837576554 -0.00076412404001712788 0 -0.024841127894694115 -0.00074474964332081704 0 -0.025013667138579308 -0.00079918498116939604 0 -0.024841127894694115 -0.00074474964332081704 0 -0.024916252150372895 -0.00077825166375234333 0 -0.024931853837576554 -0.00076412404001712788 0 -0.024841127894694115 -0.00074474964332081704 0 -0.024740924885634796 -0.00064755511315946147 0 -0.024931853837576554 -0.00076412404001712788 0 -0.024740924885634796 -0.00064755511315946147 0 -0.024729571913572914 -0.00049442480782389278 0 -0.024868602575244942 0.00017818256252872879 0 -0.024779290726573564 8.6559887365078507e-05 0 -0.024753174637625261 5.4018497229210012e-05 0 -0.024924715610516329 -0.00027287787410122915 0 -0.024741148662210454 -0.00021395959017254869 0 -0.024740924885634796 -0.00064755511315946147 0 -0.024613196129780884 -0.00053882964461481996 0 -0.024729571913572914 -0.00049442480782389278 0 -0.026413203312537863 0.0024250389820299791 0 -0.026236532712361416 0.002199510144353553 0 -0.026261127342406883 0.0023047096083378504 0 -0.026236532712361416 0.002199510144353553 0 -0.026261127342406883 0.0023047096083378504 0 -0.026091549108104777 0.0021939887151212782 0 -0.026236532712361416 0.002199510144353553 0 -0.026091549108104777 0.0021939887151212782 0 -0.025921754478059517 0.0020656968442745679 0 -0.026313076645143093 0.002383567904453598 0 -0.026261127342406883 0.0023047096083378504 0 -0.026091549108104777 0.0021939887151212782 0 -0.024697562461843348 -0.00074925579420701872 0 -0.024489407793144048 -0.00065135981828150116 0 -0.024297675806831835 -0.00065110492817473055 0 -0.024534770466684421 -0.00070841602955629026 0 -0.024697562461843348 -0.00074925579420701872 0 -0.024297675806831835 -0.00065110492817473055 0 -0.024534770466684421 -0.00070841602955629026 0 -0.024858144274058525 -0.00075767668552771466 0 -0.024697562461843348 -0.00074925579420701872 0 -0.024931825462902797 -0.00079292012736951469 0 -0.024697562461843348 -0.00074925579420701872 0 -0.024818189883710023 -0.00075561954804155779 0 -0.024931825462902797 -0.00079292012736951469 0 -0.024916252150372895 -0.00077825166375234333 0 -0.024818189883710023 -0.00075561954804155779 0 -0.024841127894694115 -0.00074474964332081704 0 -0.024916252150372895 -0.00077825166375234333 0 -0.024818189883710023 -0.00075561954804155779 0 -0.024841127894694115 -0.00074474964332081704 0 -0.024818189883710023 -0.00075561954804155779 0 -0.024686684627240229 -0.00069792407491637578 0 -0.024841127894694115 -0.00074474964332081704 0 -0.024740924885634796 -0.00064755511315946147 0 -0.024686684627240229 -0.00069792407491637578 0 -0.024697562461843348 -0.00074925579420701872 0 -0.024686684627240229 -0.00069792407491637578 0 -0.024489407793144048 -0.00065135981828150116 0 -0.024697562461843348 -0.00074925579420701872 0 -0.024818189883710023 -0.00075561954804155779 0 -0.024686684627240229 -0.00069792407491637578 0 -0.024686684627240229 -0.00069792407491637578 0 -0.024489407793144048 -0.00065135981828150116 0 -0.024594257443451603 -0.0006130087109274306 0 -0.024740924885634796 -0.00064755511315946147 0 -0.024686684627240229 -0.00069792407491637578 0 -0.024594257443451603 -0.0006130087109274306 0 -0.024594257443451603 -0.0006130087109274306 0 -0.024613196129780884 -0.00053882964461481996 0 -0.024434140774895575 -0.0005067367391289677 0 -0.024740924885634796 -0.00064755511315946147 0 -0.024594257443451603 -0.0006130087109274306 0 -0.024613196129780884 -0.00053882964461481996 0 -0.024489407793144048 -0.00065135981828150116 0 -0.024594257443451603 -0.0006130087109274306 0 -0.024434140774895575 -0.0005067367391289677 0 -0.024489407793144048 -0.00065135981828150116 0 -0.02409640898375736 -0.00048518514595888285 0 -0.024434140774895575 -0.0005067367391289677 0 -0.024489407793144048 -0.00065135981828150116 0 -0.024297675806831835 -0.00065110492817473055 0 -0.02409640898375736 -0.00048518514595888285 0 -0.023868771840889765 -0.00054631768261720879 0 -0.024297675806831835 -0.00065110492817473055 0 -0.02409640898375736 -0.00048518514595888285 0 -0.02409640898375736 -0.00048518514595888285 0 -0.024217857279460478 -0.00023971977736378378 0 -0.023583782544058969 -0.00013469115261676107 0 -0.02409640898375736 -0.00048518514595888285 0 -0.023583782544058969 -0.00013469115261676107 0 -0.023198052321903334 -0.0003585471058806484 0 -0.024434140774895575 -0.0005067367391289677 0 -0.024518669694230635 -0.00040507863331139786 0 -0.024217857279460478 -0.00023971977736378378 0 -0.02409640898375736 -0.00048518514595888285 0 -0.024434140774895575 -0.0005067367391289677 0 -0.024217857279460478 -0.00023971977736378378 0 -0.024613196129780884 -0.00053882964461481996 0 -0.024434140774895575 -0.0005067367391289677 0 -0.024518669694230635 -0.00040507863331139786 0 -0.024518669694230635 -0.00040507863331139786 0 -0.024217857279460478 -0.00023971977736378378 0 -0.024500410217855238 -0.00019963998307712802 0 -0.024217857279460478 -0.00023971977736378378 0 -0.024340608832693029 3.5125976003439831e-05 0 -0.023957774164895349 0.0001569525785274376 0 -0.024217857279460478 -0.00023971977736378378 0 -0.024340608832693029 3.5125976003439831e-05 0 -0.024500410217855238 -0.00019963998307712802 0 -0.024217857279460478 -0.00023971977736378378 0 -0.023583782544058969 -0.00013469115261676107 0 -0.023957774164895349 0.0001569525785274376 0 -0.026236532712361416 0.002199510144353553 0 -0.025921754478059517 0.0020656968442745679 0 -0.025793133398978065 0.0019634670106160948 0 -0.025921754478059517 0.0020656968442745679 0 -0.025793133398978065 0.0019634670106160948 0 -0.025709899902687544 0.0019716995916164454 0 -0.02576511908908714 0.0020242475400699365 0 -0.025921754478059517 0.0020656968442745679 0 -0.025709899902687544 0.0019716995916164454 0 -0.02576511908908714 0.0020242475400699365 0 -0.026091549108104777 0.0021939887151212782 0 -0.025921754478059517 0.0020656968442745679 0 -0.024779290726573564 8.6559887365078507e-05 0 -0.024753174637625261 5.4018497229210012e-05 0 -0.024710932183899536 7.503221023769216e-05 0 -0.025498266984618469 0.0011635076932016057 0 -0.025292039272987728 0.0010585782528396922 0 -0.024613196129780884 -0.00053882964461481996 0 -0.024518669694230635 -0.00040507863331139786 0 -0.024729571913572914 -0.00049442480782389278 0 -0.024518669694230635 -0.00040507863331139786 0 -0.024729571913572914 -0.00049442480782389278 0 -0.024500410217855238 -0.00019963998307712802 0 -0.024753174637625261 5.4018497229210012e-05 0 -0.024710932183899536 7.503221023769216e-05 0 -0.024631786680806372 0.00016436950500980661 0 -0.024741148662210454 -0.00021395959017254869 0 -0.024646901232878927 0.00014807324281336905 0 -0.024729571913572914 -0.00049442480782389278 0 -0.024500410217855238 -0.00019963998307712802 0 -0.024631786680806372 0.00016436950500980661 0 -0.024340608832693029 3.5125976003439831e-05 0 -0.024500410217855238 -0.00019963998307712802 0 -0.024631786680806372 0.00016436950500980661 0 -0.025793133398978065 0.0019634670106160948 0 -0.025571790626321002 0.0019038958455521134 0 -0.025709899902687544 0.0019716995916164454 0 -0.025793133398978065 0.0019634670106160948 0 -0.025571790626321002 0.0019038958455521134 0 -0.025399740529618079 0.0018144978319069333 0 -0.02553043913282492 0.0019092799336306271 0 -0.025571790626321002 0.0019038958455521134 0 -0.025449981638391749 0.0018683929066751848 0 -0.02553043913282492 0.0019092799336306271 0 -0.025571790626321002 0.0019038958455521134 0 -0.025709899902687544 0.0019716995916164454 0 -0.025793133398978065 0.0019634670106160948 0 -0.025399740529618079 0.0018144978319069333 0 -0.025479743543775586 0.0017311927435693514 0 -0.025342455445172735 0.0018738052488707652 0 -0.025399740529618079 0.0018144978319069333 0 -0.025147333579467319 0.0018839707065404867 0 -0.025342455445172735 0.0018738052488707652 0 -0.025449981638391749 0.0018683929066751848 0 -0.025399740529618079 0.0018144978319069333 0 -0.025571790626321002 0.0019038958455521134 0 -0.025449981638391749 0.0018683929066751848 0 -0.025399740529618079 0.0018144978319069333 0 -0.025399740529618079 0.0018144978319069333 0 -0.025142831644595173 0.0018420703765284839 0 -0.025147333579467319 0.0018839707065404867 0 -0.025120527565407554 0.001539753549505611 0 -0.024863617027264844 0.0009903943271135085 0 -0.024710932183899536 7.503221023769216e-05 0 -0.024767428627083754 0.00036954202000660455 0 -0.024631786680806372 0.00016436950500980661 0 -0.025292039272987728 0.0010585782528396922 0 -0.024863617027264844 0.0009903943271135085 0 -0.024767428627083754 0.00036954202000660455 0 -0.024631786680806372 0.00016436950500980661 0 -0.02431775464755679 0.00038519619735114609 0 -0.024340608832693029 3.5125976003439831e-05 0 -0.024631786680806372 0.00016436950500980661 0 -0.02431775464755679 0.00038519619735114609 0 -0.024279375817408924 0.00015654772898304709 0 -0.023275562545586513 0.0009565475073532038 0 -0.024276122764350358 0.0010148168793343625 0 -0.024863617027264844 0.0009903943271135085 0 -0.024529809801431931 0.0015096501811879919 0 -0.024767428627083754 0.00036954202000660455 0 -0.02431775464755679 0.00038519619735114609 0 -0.024047488322023518 0.001076369759523069 0 -0.024863617027264844 0.0009903943271135085 0 -0.023619194495142517 0.00089832261756024059 0 -0.025142831644595173 0.0018420703765284839 0 -0.025147333579467319 0.0018839707065404867 0 -0.024823604057474566 0.0019241033823229922 0 -0.025147333579467319 0.0018839707065404867 0 -0.024823604057474566 0.0019241033823229922 0 -0.024882899062093032 0.0019579958425797977 0 -0.023583782544058969 -0.00013469115261676107 0 -0.02329974490464326 0.0003596271922910204 0 -0.023957774164895349 0.0001569525785274376 0 -0.02329974490464326 0.0003596271922910204 0 -0.023957774164895349 0.0001569525785274376 0 -0.023788692162897279 0.00055949637389791419 0 -0.024340608832693029 3.5125976003439831e-05 0 -0.023957774164895349 0.0001569525785274376 0 -0.02431775464755679 0.00038519619735114609 0 -0.023957774164895349 0.0001569525785274376 0 -0.02431775464755679 0.00038519619735114609 0 -0.023788692162897279 0.00055949637389791419 0 -0.02431775464755679 0.00038519619735114609 0 -0.024047488322023518 0.001076369759523069 0 -0.023788692162897279 0.00055949637389791419 0 -0.024047488322023518 0.001076369759523069 0 -0.0232441223070027 0.00092647844997100176 0 -0.023788692162897279 0.00055949637389791419 0 -0.02329974490464326 0.0003596271922910204 0 -0.0232441223070027 0.00092647844997100176 0 -0.023788692162897279 0.00055949637389791419 0 -0.02329974490464326 0.0003596271922910204 0 -0.0232441223070027 0.00092647844997100176 0 -0.022320202955103403 0.00073249829686727202 0 -0.022320202955103403 0.00073249829686727202 0 -0.021062647514910382 0.00057885711139160168 0 -0.021334556706170869 0.0013081563147004562 0 -0.022320202955103403 0.00073249829686727202 0 -0.021456707822189541 0.00012462948138384567 0 -0.021062647514910382 0.00057885711139160168 0 -0.022320202955103403 0.00073249829686727202 0 -0.021456707822189541 0.00012462948138384567 0 -0.022635491488318178 1.4528745757722073e-05 0 -0.021456707822189541 0.00012462948138384567 0 -0.022635491488318178 1.4528745757722073e-05 0 -0.022039902230867062 -0.0002242224446898102 0 -0.02329974490464326 0.0003596271922910204 0 -0.022320202955103403 0.00073249829686727202 0 -0.022635491488318178 1.4528745757722073e-05 0 -0.023583782544058969 -0.00013469115261676107 0 -0.02329974490464326 0.0003596271922910204 0 -0.022635491488318178 1.4528745757722073e-05 0 -0.023583782544058969 -0.00013469115261676107 0 -0.022635491488318178 1.4528745757722073e-05 0 -0.023198052321903334 -0.0003585471058806484 0 -0.022635491488318178 1.4528745757722073e-05 0 -0.023198052321903334 -0.0003585471058806484 0 -0.022039902230867062 -0.0002242224446898102 0 -0.023198052321903334 -0.0003585471058806484 0 -0.022714970060947089 -0.00036197681167032711 0 -0.022039902230867062 -0.0002242224446898102 0 -0.023567738377569411 -0.00052388139959099063 0 -0.023198052321903334 -0.0003585471058806484 0 -0.022714970060947089 -0.00036197681167032711 0 -0.023868771840889765 -0.00054631768261720879 0 -0.023567738377569411 -0.00052388139959099063 0 -0.023198052321903334 -0.0003585471058806484 0 -0.023868771840889765 -0.00054631768261720879 0 -0.02409640898375736 -0.00048518514595888285 0 -0.023198052321903334 -0.0003585471058806484 0 -0.02201622365900175 -5.1679554226492692e-07 0 -0.021550530621509138 -0.00020065742926104736 0 -0.02002310109337101 -5.9636775430676118e-07 0 -0.02201622365900175 -5.1679554226492692e-07 0 -0.021550530621509138 -0.00020065742926104736 0 -0.022714970060947089 -0.00036197681167032711 0 -0.021550530621509138 -0.00020065742926104736 0 -0.022714970060947089 -0.00036197681167032711 0 -0.022039902230867062 -0.0002242224446898102 0 -0.021550530621509138 -0.00020065742926104736 0 -0.022039902230867062 -0.0002242224446898102 0 -0.020536035102019227 -8.0271185346493624e-05 0 -0.021550530621509138 -0.00020065742926104736 0 -0.02002310109337101 -5.9636775430676118e-07 0 -0.020536035102019227 -8.0271185346493624e-05 0 -0.02002310109337101 -5.9636775430676118e-07 0 -0.020536035102019227 -8.0271185346493624e-05 0 -0.018030687460462241 7.5377707600646789e-07 0 -0.021456707822189541 0.00012462948138384567 0 -0.022039902230867062 -0.0002242224446898102 0 -0.020536035102019227 -8.0271185346493624e-05 0 -0.021456707822189541 0.00012462948138384567 0 -0.020536035102019227 -8.0271185346493624e-05 0 -0.019933101160699251 0.00018647764060505045 0 -0.021456707822189541 0.00012462948138384567 0 -0.019933101160699251 0.00018647764060505045 0 -0.021062647514910382 0.00057885711139160168 0 -0.019933101160699251 0.00018647764060505045 0 -0.021062647514910382 0.00057885711139160168 0 -0.020068017980515898 0.00070771504710877471 0 -0.019933101160699251 0.00018647764060505045 0 -0.018030687460462241 7.5377707600646789e-07 0 -0.017925032569417028 0.00037411635375063541 0 -0.020536035102019227 -8.0271185346493624e-05 0 -0.019933101160699251 0.00018647764060505045 0 -0.018030687460462241 7.5377707600646789e-07 0 -0.019933101160699251 0.00018647764060505045 0 -0.017925032569417028 0.00037411635375063541 0 -0.020068017980515898 0.00070771504710877471 0 -0.017925032569417028 0.00037411635375063541 0 -0.020217849429119018 0.0014977095260045835 0 -0.020149511765677301 0.0025547592812785245 0 -0.018030687460462241 7.5377707600646789e-07 0 -0.017925032569417028 0.00037411635375063541 0 -0.016035863342310275 1.0547012869322663e-06 0 -0.017925032569417028 0.00037411635375063541 0 -0.020068017980515898 0.00070771504710877471 0 -0.020217849429119018 0.0014977095260045835 0 -0.021062647514910382 0.00057885711139160168 0 -0.020068017980515898 0.00070771504710877471 0 -0.021334556706170869 0.0013081563147004562 0 -0.020217849429119018 0.0014977095260045835 0 -0.021119137981889264 0.0020872297347107245 0 -0.021334556706170869 0.0013081563147004562 0 -0.020068017980515898 0.00070771504710877471 0 -0.020217849429119018 0.0014977095260045835 0 -0.021334556706170869 0.0013081563147004562 0 -0.020217849429119018 0.0014977095260045835 0 -0.021119137981889264 0.0020872297347107245 0 -0.020149511765677301 0.0025547592812785245 0 -0.021119137981889264 0.0020872297347107245 0 -0.020149511765677301 0.0025547592812785245 0 -0.021508546405090621 0.0025820920366245587 0 -0.017773934956204752 0.00023983461989126779 0 -0.017616597968881362 0.0010790774965731126 0 -0.017925032569417028 0.00037411635375063541 0 -0.016035863342310275 1.0547012869322663e-06 0 -0.015095705446060037 -3.5098598608006637e-05 0 -0.022320202955103403 0.00073249829686727202 0 -0.021334556706170869 0.0013081563147004562 0 -0.022837111858399282 0.0019205475391928634 0 -0.0232441223070027 0.00092647844997100176 0 -0.022320202955103403 0.00073249829686727202 0 -0.022837111858399282 0.0019205475391928634 0 -0.021119137981889264 0.0020872297347107245 0 -0.022837111858399282 0.0019205475391928634 0 -0.021508546405090621 0.0025820920366245587 0 -0.021119137981889264 0.0020872297347107245 0 -0.021334556706170869 0.0013081563147004562 0 -0.022837111858399282 0.0019205475391928634 0 -0.02260359609283185 0.0018325585093748062 0 -0.021581331606108492 0.0025357212956379476 0 -0.022371909193604485 0.0017128167087769014 0 -0.022387209029126283 0.0026099048684304232 0 -0.021508546405090621 0.0025820920366245587 0 -0.021508546405090621 0.0025820920366245587 0 -0.021593206353729608 0.0030483533985873152 0 -0.021986815709792502 0.0029528709199440522 0 -0.022387209029126283 0.0026099048684304232 0 -0.021508546405090621 0.0025820920366245587 0 -0.021986815709792502 0.0029528709199440522 0 -0.022387209029126283 0.0026099048684304232 0 -0.021986815709792502 0.0029528709199440522 0 -0.02250240696427917 0.0029600344179076987 0 -0.015095705446060037 -3.5098598608006637e-05 0 -0.013861235306100804 -0.00012268749682871146 0 -0.014042274239884618 -7.829444658577478e-07 0 -0.016035863342310275 1.0547012869322663e-06 0 -0.015095705446060037 -3.5098598608006637e-05 0 -0.014042274239884618 -7.829444658577478e-07 0 -0.017616597968881362 0.0010790774965731126 0 -0.017461747095103237 0.0013556951431766657 0 -0.020149511765677301 0.0025547592812785245 0 -0.021508546405090621 0.0025820920366245587 0 -0.02109780699068271 0.0029822812920121404 0 -0.021508546405090621 0.0025820920366245587 0 -0.021593206353729608 0.0030483533985873152 0 -0.02109780699068271 0.0029822812920121404 0 -0.014042274239884618 -7.829444658577478e-07 0 -0.012757662744794744 9.9345807470564688e-05 0 -0.01348776619469892 3.5325508047272944e-05 0 -0.013861235306100804 -0.00012268749682871146 0 -0.014042274239884618 -7.829444658577478e-07 0 -0.01348776619469892 3.5325508047272944e-05 0 -0.014042274239884618 -7.829444658577478e-07 0 -0.012048857930643593 9.021458722795399e-07 0 -0.012757662744794744 9.9345807470564688e-05 0 -0.012757662744794744 9.9345807470564688e-05 0 -0.013584434614085875 0.0010601329525353799 0 -0.013503246939668867 0.00043545349840429411 0 -0.012496258321172923 5.6595583294191501e-05 0 -0.012324541034105215 0.00057584576745355206 0 -0.012048857930643593 9.021458722795399e-07 0 -0.012757662744794744 9.9345807470564688e-05 0 -0.010723991175171844 -1.0854647146959525e-05 0 -0.012757662744794744 9.9345807470564688e-05 0 -0.01348776619469892 3.5325508047272944e-05 0 -0.013503246939668867 0.00043545349840429411 0 -0.012048857930643593 9.021458722795399e-07 0 -0.010723991175171844 -1.0854647146959525e-05 0 -0.010055343005407584 -8.1035700795808924e-07 0 -0.014062284862945831 0.0013353342049055076 0 -0.014002201357625019 0.00061966492325707097 0 -0.014293402257323161 0.0017018864971755897 0 -0.014062284862945831 0.0013353342049055076 0 -0.013584434614085875 0.0010601329525353799 0 -0.014002201357625019 0.00061966492325707097 0 -0.013584434614085875 0.0010601329525353799 0 -0.014002201357625019 0.00061966492325707097 0 -0.013503246939668867 0.00043545349840429411 0 -0.021593206353729608 0.0030483533985873152 0 -0.02109780699068271 0.0029822812920121404 0 -0.021681206369456481 0.0032444851548338051 0 -0.013861235306100804 -0.00012268749682871146 0 -0.01348776619469892 3.5325508047272944e-05 0 -0.014002201357625019 0.00061966492325707097 0 -0.017461747095103237 0.0013556951431766657 0 -0.018133424086220172 0.0020400983488458599 0 -0.01348776619469892 3.5325508047272944e-05 0 -0.014002201357625019 0.00061966492325707097 0 -0.013503246939668867 0.00043545349840429411 0 -0.021593206353729608 0.0030483533985873152 0 -0.021681206369456481 0.0032444851548338051 0 -0.021912131604947243 0.003172400291944022 0 -0.021593206353729608 0.0030483533985873152 0 -0.021986815709792502 0.0029528709199440522 0 -0.021912131604947243 0.003172400291944022 0 -0.021986815709792502 0.0029528709199440522 0 -0.022288208544258375 0.0031421231559913493 0 -0.02250240696427917 0.0029600344179076987 0 -0.021986815709792502 0.0029528709199440522 0 -0.021912131604947243 0.003172400291944022 0 -0.022288208544258375 0.0031421231559913493 0 -0.022152892331571774 0.0032758970259796397 0 -0.022071366743001596 0.0033600041157315877 0 -0.022252090510941923 0.0034166692609673872 0 -0.022152892331571774 0.0032758970259796397 0 -0.02245021611141107 0.0032754568584741663 0 -0.022252090510941923 0.0034166692609673872 0 -0.022288208544258375 0.0031421231559913493 0 -0.022152892331571774 0.0032758970259796397 0 -0.02245021611141107 0.0032754568584741663 0 -0.021912131604947243 0.003172400291944022 0 -0.022288208544258375 0.0031421231559913493 0 -0.022152892331571774 0.0032758970259796397 0 -0.021681206369456481 0.0032444851548338051 0 -0.021939455772920124 0.003296450324069786 0 -0.02198547055874853 0.0034532804444656522 0 -0.018133424086220172 0.0020400983488458599 0 -0.015710542631760027 0.0024114955958457222 0 -0.021681206369456481 0.0032444851548338051 0 -0.021912131604947243 0.003172400291944022 0 -0.021939455772920124 0.003296450324069786 0 -0.021912131604947243 0.003172400291944022 0 -0.022152892331571774 0.0032758970259796397 0 -0.021939455772920124 0.003296450324069786 0 -0.022152892331571774 0.0032758970259796397 0 -0.022071366743001596 0.0033600041157315877 0 -0.021939455772920124 0.003296450324069786 0 -0.02198547055874853 0.0034532804444656522 0 -0.022252090510941923 0.0034166692609673872 0 -0.022218323860054404 0.0036109674073880778 0 -0.014008942437841912 0.0015196463378390091 0 -0.013651322018977827 0.0011985887156070721 0 -0.022071366743001596 0.0033600041157315877 0 -0.02198547055874853 0.0034532804444656522 0 -0.022252090510941923 0.0034166692609673872 0 -0.014002201357625019 0.00061966492325707097 0 -0.014293402257323161 0.0017018864971755897 0 -0.014374008256459165 0.0018329207934888313 0 -0.022071366743001596 0.0033600041157315877 0 -0.021939455772920124 0.003296450324069786 0 -0.02198547055874853 0.0034532804444656522 0 -0.014062284862945831 0.0013353342049055076 0 -0.014242253872625087 0.0016474475443380293 0 -0.014147352224097078 0.0018242365678005749 0 -0.012503878631209645 0.0014696728740951313 0 -0.011988391697603209 -0.00031816084883432434 0 -0.013106624704095453 0.0012245101184782301 0 -0.015710542631760027 0.0024114955958457222 0 -0.010673853254026953 -0.00024705440028174533 0 -0.013651322018977827 0.0011985887156070721 0 -0.011070597628793541 0.00046984641884795415 0 -0.012752192114539521 0.0018935879698637678 0 -0.012503878631209645 0.0014696728740951313 0 -0.013106624704095453 0.0012245101184782301 0 -0.013651322018977827 0.0011985887156070721 0 -0.015710542631760027 0.0024114955958457222 0 -0.022252090510941923 0.0034166692609673872 0 -0.022499523884124732 0.003542366704873616 0 -0.022548753179536269 0.0033728168383504644 0 -0.02245021611141107 0.0032754568584741663 0 -0.022252090510941923 0.0034166692609673872 0 -0.022548753179536269 0.0033728168383504644 0 -0.022252090510941923 0.0034166692609673872 0 -0.022218323860054404 0.0036109674073880778 0 -0.022499523884124732 0.003542366704873616 0 -0.014591861336807782 0.0015448788299882036 0 -0.014610088833411958 0.0015354971421630281 0 -0.014638821117233644 0.0015289849756161039 0 -0.015710542631760027 0.0024114955958457222 0 -0.019117299461396953 0.0030371621578046772 0 -0.0070231879332734205 -0.0012793656596251366 0 -0.0068445980196448937 -0.0010737757458179847 0 -0.0068538176570384548 -0.0015297509407026194 0 -0.010673853254026953 -0.00024705440028174533 0 -0.011070597628793541 0.00046984641884795415 0 -0.010673853254026953 -0.00024705440028174533 0 -0.0094809466900729212 -0.0012801316504206376 0 -0.010673853254026953 -0.00024705440028174533 0 -0.010717956366473949 -0.00012019167386253373 0 -0.014610088833411958 0.0015354971421630281 0 -0.014638821117233644 0.0015289849756161039 0 -0.014650668913917213 0.0015258428645503349 0 -0.0070250980695645889 -0.0012728215455395644 0 -0.0070616990644218449 -0.0011355429039932926 0 -0.0072741420141379529 -0.00093824634045896517 0 -0.0070231879332734205 -0.0012793656596251366 0 -0.0070616990644218449 -0.0011355429039932926 0 -0.0068445980196448937 -0.0010737757458179847 0 -0.0070616990644218449 -0.0011355429039932926 0 -0.0068445980196448937 -0.0010737757458179847 0 -0.0070300819770919513 -0.00091265395647630954 0 -0.0094023050198406184 -0.00011106682696173701 0 -0.010078667356879888 -2.2272584712849454e-05 0 -0.0099773447413510508 -1.9825609636596465e-05 0 -0.0077392965386869506 -0.00068248428134219576 0 -0.011070597628793541 0.00046984641884795415 0 -0.0068445980196448937 -0.0010737757458179847 0 -0.0065165422511782147 -0.0010296718984768504 0 -0.0068538176570384548 -0.0015297509407026194 0 -0.0094023050198406184 -0.00011106682696173701 0 -0.010055343005407584 -8.1035700795808924e-07 0 -0.008063051078033092 2.3687460211369651e-08 0 -0.0094023050198406184 -0.00011106682696173701 0 -0.010055343005407584 -8.1035700795808924e-07 0 -0.010078667356879888 -2.2272584712849454e-05 0 -0.010723991175171844 -1.0854647146959525e-05 0 -0.010055343005407584 -8.1035700795808924e-07 0 -0.010078667356879888 -2.2272584712849454e-05 0 -0.014062284862945831 0.0013353342049055076 0 -0.013584434614085875 0.0010601329525353799 0 -0.014147352224097078 0.0018242365678005749 0 -0.012324541034105215 0.00057584576745355206 0 -0.011070597628793541 0.00046984641884795415 0 -0.010723991175171844 -1.0854647146959525e-05 0 -0.010078667356879888 -2.2272584712849454e-05 0 -0.0099773447413510508 -1.9825609636596465e-05 0 -0.023311606404485874 0.0032315337043712987 0 -0.023109384287756066 0.0031508360883102933 0 -0.023490810363515805 0.0030282153308568709 0 -0.023850779355781396 0.003154802379094269 0 -0.0238338979805841 0.0029360136682474161 0 -0.023830005783261003 0.0031349154625512849 0 -0.024162880421131523 0.0027857400186009022 0 -0.02428981498473249 0.0028346693349944607 0 -0.023311606404485874 0.0032315337043712987 0 -0.023830005783261003 0.0031349154625512849 0 -0.023490810363515805 0.0030282153308568709 0 -0.023311606404485874 0.0032315337043712987 0 -0.023830005783261003 0.0031349154625512849 0 -0.023484963051474458 0.0033941421534664199 0 -0.023830005783261003 0.0031349154625512849 0 -0.023484963051474458 0.0033941421534664199 0 -0.023809258866096458 0.003412512994109578 0 -0.023311606404485874 0.0032315337043712987 0 -0.022858652367282153 0.0033889885775116517 0 -0.023112488831004425 0.0035123397301474219 0 -0.023311606404485874 0.0032315337043712987 0 -0.023484963051474458 0.0033941421534664199 0 -0.023112488831004425 0.0035123397301474219 0 -0.022858652367282153 0.0033889885775116517 0 -0.022742699986710472 0.0036443988291810555 0 -0.023112488831004425 0.0035123397301474219 0 -0.022858652367282153 0.0033889885775116517 0 -0.022499523884124732 0.003542366704873616 0 -0.022742699986710472 0.0036443988291810555 0 -0.022858652367282153 0.0033889885775116517 0 -0.022499523884124732 0.003542366704873616 0 -0.022548753179536269 0.0033728168383504644 0 -0.022858652367282153 0.0033889885775116517 0 -0.022548753179536269 0.0033728168383504644 0 -0.022758762235552066 0.0032553295978948269 0 -0.02245021611141107 0.0032754568584741663 0 -0.022548753179536269 0.0033728168383504644 0 -0.022758762235552066 0.0032553295978948269 0 -0.022858652367282153 0.0033889885775116517 0 -0.023109384287756066 0.0031508360883102933 0 -0.022758762235552066 0.0032553295978948269 0 -0.023311606404485874 0.0032315337043712987 0 -0.022858652367282153 0.0033889885775116517 0 -0.023109384287756066 0.0031508360883102933 0 -0.023109384287756066 0.0031508360883102933 0 -0.022758762235552066 0.0032553295978948269 0 -0.022708765612816546 0.0031359337940003507 0 -0.023109384287756066 0.0031508360883102933 0 -0.023083428496139303 0.002955291259809421 0 -0.023305042511959039 0.003003235919720459 0 -0.023109384287756066 0.0031508360883102933 0 -0.022708765612816546 0.0031359337940003507 0 -0.023083428496139303 0.002955291259809421 0 -0.022288208544258375 0.0031421231559913493 0 -0.02245021611141107 0.0032754568584741663 0 -0.022708765612816546 0.0031359337940003507 0 -0.02245021611141107 0.0032754568584741663 0 -0.022758762235552066 0.0032553295978948269 0 -0.022708765612816546 0.0031359337940003507 0 -0.022288208544258375 0.0031421231559913493 0 -0.022708765612816546 0.0031359337940003507 0 -0.02250240696427917 0.0029600344179076987 0 -0.022708765612816546 0.0031359337940003507 0 -0.02250240696427917 0.0029600344179076987 0 -0.023083428496139303 0.002955291259809421 0 -0.023083428496139303 0.002955291259809421 0 -0.023305042511959039 0.003003235919720459 0 -0.02349897695361032 0.002854891871416109 0 -0.023305042511959039 0.003003235919720459 0 -0.023490810363515805 0.0030282153308568709 0 -0.02349897695361032 0.002854891871416109 0 -0.023109384287756066 0.0031508360883102933 0 -0.023305042511959039 0.003003235919720459 0 -0.023490810363515805 0.0030282153308568709 0 -0.0238338979805841 0.0029360136682474161 0 -0.023845412109121014 0.0027352769643812511 0 -0.024162880421131523 0.0027857400186009022 0 -0.024202342832966472 0.0026865088464178102 0 -0.024363369062583268 0.0026995456308918698 0 -0.024202342832966472 0.0026865088464178102 0 -0.024589601832619289 0.0025495089367941889 0 -0.024363369062583268 0.0026995456308918698 0 -0.024202342832966472 0.0026865088464178102 0 -0.024301852716043331 0.0023127232176932038 0 -0.024508200184471557 0.0024051287628096248 0 -0.024202342832966472 0.0026865088464178102 0 -0.024508200184471557 0.0024051287628096248 0 -0.024589601832619289 0.0025495089367941889 0 -0.02349897695361032 0.002854891871416109 0 -0.023828473393843586 0.0023732949257368676 0 -0.023313637792295484 0.0027022205025267316 0 -0.023083428496139303 0.002955291259809421 0 -0.02349897695361032 0.002854891871416109 0 -0.023313637792295484 0.0027022205025267316 0 -0.023845412109121014 0.0027352769643812511 0 -0.023804090213137053 0.0023661828112282483 0 -0.023828473393843586 0.0023732949257368676 0 -0.024301852716043331 0.0023127232176932038 0 -0.024320995646800986 0.0019529412672681904 0 -0.024202342832966472 0.0026865088464178102 0 -0.023828473393843586 0.0023732949257368676 0 -0.024301852716043331 0.0023127232176932038 0 -0.024301852716043331 0.0023127232176932038 0 -0.024508200184471557 0.0024051287628096248 0 -0.02465593042450814 0.0021443321381461955 0 -0.022387209029126283 0.0026099048684304232 0 -0.02250240696427917 0.0029600344179076987 0 -0.022858330210899974 0.0027358083116300583 0 -0.02250240696427917 0.0029600344179076987 0 -0.023083428496139303 0.002955291259809421 0 -0.022858330210899974 0.0027358083116300583 0 -0.023083428496139303 0.002955291259809421 0 -0.022858330210899974 0.0027358083116300583 0 -0.023313637792295484 0.0027022205025267316 0 -0.022858330210899974 0.0027358083116300583 0 -0.023313637792295484 0.0027022205025267316 0 -0.023033328873432065 0.0023577901523538715 0 -0.023828473393843586 0.0023732949257368676 0 -0.023313637792295484 0.0027022205025267316 0 -0.023033328873432065 0.0023577901523538715 0 -0.023828473393843586 0.0023732949257368676 0 -0.023033328873432065 0.0023577901523538715 0 -0.023433753831948401 0.0018152510951041762 0 -0.022371909193604485 0.0017128167087769014 0 -0.022387209029126283 0.0026099048684304232 0 -0.023033328873432065 0.0023577901523538715 0 -0.022387209029126283 0.0026099048684304232 0 -0.022858330210899974 0.0027358083116300583 0 -0.023033328873432065 0.0023577901523538715 0 -0.022371909193604485 0.0017128167087769014 0 -0.023033328873432065 0.0023577901523538715 0 -0.023433753831948401 0.0018152510951041762 0 -0.023275562545586513 0.0009565475073532038 0 -0.023433753831948401 0.0018152510951041762 0 -0.023812755995973024 0.0014236256587769917 0 -0.023619194495142517 0.00089832261756024059 0 -0.02260359609283185 0.0018325585093748062 0 -0.024047488322023518 0.001076369759523069 0 -0.0232441223070027 0.00092647844997100176 0 -0.022837111858399282 0.0019205475391928634 0 -0.023275562545586513 0.0009565475073532038 0 -0.022371909193604485 0.0017128167087769014 0 -0.023433753831948401 0.0018152510951041762 0 -0.024301852716043331 0.0023127232176932038 0 -0.02465593042450814 0.0021443321381461955 0 -0.024320995646800986 0.0019529412672681904 0 -0.02465593042450814 0.0021443321381461955 0 -0.024320995646800986 0.0019529412672681904 0 -0.024882899062093032 0.0019579958425797977 0 -0.023433753831948401 0.0018152510951041762 0 -0.024320995646800986 0.0019529412672681904 0 -0.023812755995973024 0.0014236256587769917 0 -0.023828473393843586 0.0023732949257368676 0 -0.023433753831948401 0.0018152510951041762 0 -0.024320995646800986 0.0019529412672681904 0 -0.024320995646800986 0.0019529412672681904 0 -0.024276122764350358 0.0010148168793343625 0 -0.023812755995973024 0.0014236256587769917 0 -0.023275562545586513 0.0009565475073532038 0 -0.024276122764350358 0.0010148168793343625 0 -0.023812755995973024 0.0014236256587769917 0 -0.024383646755695588 0.0019439852142958511 0 -0.024529809801431931 0.0015096501811879919 0 -0.024320995646800986 0.0019529412672681904 0 -0.024823604057474566 0.0019241033823229922 0 -0.024882899062093032 0.0019579958425797977 0 -0.024882899062093032 0.0019579958425797977 0 -0.025075446374667677 0.0020170583370825376 0 -0.024906731515981446 0.0020968199743205663 0 -0.025171733978186124 0.0019238527436158095 0 -0.024882899062093032 0.0019579958425797977 0 -0.025075446374667677 0.0020170583370825376 0 -0.02465593042450814 0.0021443321381461955 0 -0.024882899062093032 0.0019579958425797977 0 -0.024906731515981446 0.0020968199743205663 0 -0.02465593042450814 0.0021443321381461955 0 -0.024906731515981446 0.0020968199743205663 0 -0.024822385354385332 0.0022941113023016799 0 -0.024906731515981446 0.0020968199743205663 0 -0.025061315185541146 0.0021626608401243233 0 -0.024822385354385332 0.0022941113023016799 0 -0.025061315185541146 0.0021626608401243233 0 -0.024822385354385332 0.0022941113023016799 0 -0.024992311021772538 0.002299807427141596 0 -0.025061315185541146 0.0021626608401243233 0 -0.025151652051268483 0.0022760615936620147 0 -0.024992311021772538 0.002299807427141596 0 -0.025075446374667677 0.0020170583370825376 0 -0.025061315185541146 0.0021626608401243233 0 -0.025189956337160035 0.0020788864815336639 0 -0.025075446374667677 0.0020170583370825376 0 -0.024906731515981446 0.0020968199743205663 0 -0.025061315185541146 0.0021626608401243233 0 -0.025304598954011371 0.0020799419405801733 0 -0.025189956337160035 0.0020788864815336639 0 -0.025231204021325341 0.0021843028968471538 0 -0.025061315185541146 0.0021626608401243233 0 -0.025189956337160035 0.0020788864815336639 0 -0.025231204021325341 0.0021843028968471538 0 -0.025304598954011371 0.0020799419405801733 0 -0.025231204021325341 0.0021843028968471538 0 -0.025358893195295062 0.0022306338856277062 0 -0.025231204021325341 0.0021843028968471538 0 -0.025358893195295062 0.0022306338856277062 0 -0.02528172059585812 0.002318233935777209 0 -0.025358893195295062 0.0022306338856277062 0 -0.02528172059585812 0.002318233935777209 0 -0.025419026789800236 0.0023564194293058923 0 -0.02528172059585812 0.002318233935777209 0 -0.025151652051268483 0.0022760615936620147 0 -0.025168726445401794 0.0024132857108452891 0 -0.02528172059585812 0.002318233935777209 0 -0.025168726445401794 0.0024132857108452891 0 -0.02534471222077422 0.0024459428636757854 0 -0.025061315185541146 0.0021626608401243233 0 -0.025231204021325341 0.0021843028968471538 0 -0.025151652051268483 0.0022760615936620147 0 -0.025151652051268483 0.0022760615936620147 0 -0.025168726445401794 0.0024132857108452891 0 -0.024992311021772538 0.002299807427141596 0 -0.025231204021325341 0.0021843028968471538 0 -0.02528172059585812 0.002318233935777209 0 -0.025151652051268483 0.0022760615936620147 0 -0.025168726445401794 0.0024132857108452891 0 -0.024938274200170935 0.0024359626854599812 0 -0.024992311021772538 0.002299807427141596 0 -0.025168726445401794 0.0024132857108452891 0 -0.025085169372169942 0.0025443137592767889 0 -0.025314133239886842 0.0025554811978006882 0 -0.025085169372169942 0.0025443137592767889 0 -0.024938274200170935 0.0024359626854599812 0 -0.02484961091262879 0.0025693503800640473 0 -0.025168726445401794 0.0024132857108452891 0 -0.025085169372169942 0.0025443137592767889 0 -0.024938274200170935 0.0024359626854599812 0 -0.024589601832619289 0.0025495089367941889 0 -0.024938274200170935 0.0024359626854599812 0 -0.02484961091262879 0.0025693503800640473 0 -0.024508200184471557 0.0024051287628096248 0 -0.02465593042450814 0.0021443321381461955 0 -0.024822385354385332 0.0022941113023016799 0 -0.024508200184471557 0.0024051287628096248 0 -0.024589601832619289 0.0025495089367941889 0 -0.024822385354385332 0.0022941113023016799 0 -0.024589601832619289 0.0025495089367941889 0 -0.024822385354385332 0.0022941113023016799 0 -0.024938274200170935 0.0024359626854599812 0 -0.024822385354385332 0.0022941113023016799 0 -0.024938274200170935 0.0024359626854599812 0 -0.024992311021772538 0.002299807427141596 0 -0.025687672861086443 0.002609275889806814 0 -0.025786339507266522 0.0025575250774813128 0 -0.025549984407532044 0.0025304382499819851 0 -0.025786339507266522 0.0025575250774813128 0 -0.025740784769566167 0.0024478102624396502 0 -0.026118931564397065 0.0025192024608921243 0 -0.025786339507266522 0.0025575250774813128 0 -0.025740784769566167 0.0024478102624396502 0 -0.025549984407532044 0.0025304382499819851 0 -0.025549984407532044 0.0025304382499819851 0 -0.025567116407237588 0.0023964419977935843 0 -0.025419026789800236 0.0023564194293058923 0 -0.025740784769566167 0.0024478102624396502 0 -0.025549984407532044 0.0025304382499819851 0 -0.025567116407237588 0.0023964419977935843 0 -0.025668250444661832 0.0023210517941039512 0 -0.025740784769566167 0.0024478102624396502 0 -0.025567116407237588 0.0023964419977935843 0 -0.025497639670784299 0.0022745090562283033 0 -0.025668250444661832 0.0023210517941039512 0 -0.025567116407237588 0.0023964419977935843 0 -0.025497639670784299 0.0022745090562283033 0 -0.025567116407237588 0.0023964419977935843 0 -0.025419026789800236 0.0023564194293058923 0 -0.025497639670784299 0.0022745090562283033 0 -0.025358893195295062 0.0022306338856277062 0 -0.025419026789800236 0.0023564194293058923 0 -0.025549984407532044 0.0025304382499819851 0 -0.025419026789800236 0.0023564194293058923 0 -0.02534471222077422 0.0024459428636757854 0 -0.02528172059585812 0.002318233935777209 0 -0.025419026789800236 0.0023564194293058923 0 -0.02534471222077422 0.0024459428636757854 0 -0.025168726445401794 0.0024132857108452891 0 -0.02534471222077422 0.0024459428636757854 0 -0.025314133239886842 0.0025554811978006882 0 -0.025085169372169942 0.0025443137592767889 0 -0.025314133239886842 0.0025554811978006882 0 -0.025205790607203699 0.002636524075154501 0 -0.025314133239886842 0.0025554811978006882 0 -0.025421228482406525 0.002606039817440225 0 -0.025296683782783397 0.0026496805384057338 0 -0.025549984407532044 0.0025304382499819851 0 -0.02534471222077422 0.0024459428636757854 0 -0.025314133239886842 0.0025554811978006882 0 -0.025549984407532044 0.0025304382499819851 0 -0.025314133239886842 0.0025554811978006882 0 -0.025421228482406525 0.002606039817440225 0 -0.025549984407532044 0.0025304382499819851 0 -0.025421228482406525 0.002606039817440225 0 -0.025518522654408637 0.0026195425167470066 0 -0.025518522654408637 0.0026195425167470066 0 -0.025351178683241087 0.0026375325873621925 0 -0.02559105901804605 0.0026265248312938483 0 -0.025421228482406525 0.002606039817440225 0 -0.025518522654408637 0.0026195425167470066 0 -0.025351178683241087 0.0026375325873621925 0 -0.025687672861086443 0.002609275889806814 0 -0.025549984407532044 0.0025304382499819851 0 -0.025518522654408637 0.0026195425167470066 0 -0.02514274694320472 0.0026820601377214605 0 -0.025351178683241087 0.0026375325873621925 0 -0.025119449466208029 0.0026562680018161152 0 -0.025421228482406525 0.002606039817440225 0 -0.025351178683241087 0.0026375325873621925 0 -0.025296683782783397 0.0026496805384057338 0 -0.02514274694320472 0.0026820601377214605 0 -0.025351178683241087 0.0026375325873621925 0 -0.025296683782783397 0.0026496805384057338 0 -0.02514274694320472 0.0026820601377214605 0 -0.025296683782783397 0.0026496805384057338 0 -0.025227152707318332 0.0026665747151600845 0 -0.025227152707318332 0.0026665747151600845 0 -0.025205790607203699 0.002636524075154501 0 -0.025190358957518137 0.0026826011089050479 0 -0.025296683782783397 0.0026496805384057338 0 -0.025227152707318332 0.0026665747151600845 0 -0.025205790607203699 0.002636524075154501 0 -0.025314133239886842 0.0025554811978006882 0 -0.025296683782783397 0.0026496805384057338 0 -0.025205790607203699 0.002636524075154501 0 -0.025205790607203699 0.002636524075154501 0 -0.025190358957518137 0.0026826011089050479 0 -0.024943564792054118 0.0026700982070011611 0 -0.025190358957518137 0.0026826011089050479 0 -0.024998647222794039 0.0028224263012420116 0 -0.025325877062511659 0.0025883518216878332 0 -0.025190358957518137 0.0026826011089050479 0 -0.025168418627525866 0.002542014752366832 0 -0.025325877062511659 0.0025883518216878332 0 -0.025227152707318332 0.0026665747151600845 0 -0.025190358957518137 0.0026826011089050479 0 -0.025168418627525866 0.002542014752366832 0 -0.02514274694320472 0.0026820601377214605 0 -0.025227152707318332 0.0026665747151600845 0 -0.025168418627525866 0.002542014752366832 0 -0.025168418627525866 0.002542014752366832 0 -0.024934055784274191 0.0020823340386418102 0 -0.024634902315867589 0.0025068246440229803 0 -0.02514274694320472 0.0026820601377214605 0 -0.024634902315867589 0.0025068246440229803 0 -0.025119449466208029 0.0026562680018161152 0 -0.02514274694320472 0.0026820601377214605 0 -0.025168418627525866 0.002542014752366832 0 -0.024634902315867589 0.0025068246440229803 0 -0.024594382862190727 0.0026855983453308811 0 -0.024606223611382337 0.0028391488915781291 0 -0.02428981498473249 0.0028346693349944607 0 -0.024162880421131523 0.0027857400186009022 0 -0.024363369062583268 0.0026995456308918698 0 -0.02428981498473249 0.0028346693349944607 0 -0.024363369062583268 0.0026995456308918698 0 -0.024594382862190727 0.0026855983453308811 0 -0.02428981498473249 0.0028346693349944607 0 -0.024589601832619289 0.0025495089367941889 0 -0.024363369062583268 0.0026995456308918698 0 -0.024594382862190727 0.0026855983453308811 0 -0.024589601832619289 0.0025495089367941889 0 -0.024594382862190727 0.0026855983453308811 0 -0.02484961091262879 0.0025693503800640473 0 -0.024594382862190727 0.0026855983453308811 0 -0.02484961091262879 0.0025693503800640473 0 -0.024943564792054118 0.0026700982070011611 0 -0.025085169372169942 0.0025443137592767889 0 -0.02484961091262879 0.0025693503800640473 0 -0.024943564792054118 0.0026700982070011611 0 -0.025085169372169942 0.0025443137592767889 0 -0.025205790607203699 0.002636524075154501 0 -0.024943564792054118 0.0026700982070011611 0 -0.024594382862190727 0.0026855983453308811 0 -0.024943564792054118 0.0026700982070011611 0 -0.024606223611382337 0.0028391488915781291 0 -0.024943564792054118 0.0026700982070011611 0 -0.024900721900794089 0.0027962280671297935 0 -0.024606223611382337 0.0028391488915781291 0 -0.025190358957518137 0.0026826011089050479 0 -0.024943564792054118 0.0026700982070011611 0 -0.024900721900794089 0.0027962280671297935 0 -0.025190358957518137 0.0026826011089050479 0 -0.024900721900794089 0.0027962280671297935 0 -0.024998647222794039 0.0028224263012420116 0 -0.024900721900794089 0.0027962280671297935 0 -0.024998647222794039 0.0028224263012420116 0 -0.024643928182340534 0.0030259000706342742 0 -0.024900721900794089 0.0027962280671297935 0 -0.024643928182340534 0.0030259000706342742 0 -0.024606223611382337 0.0028391488915781291 0 -0.024643928182340534 0.0030259000706342742 0 -0.024283583247289797 0.003134821534716174 0 -0.024606223611382337 0.0028391488915781291 0 -0.024283583247289797 0.003134821534716174 0 -0.024606223611382337 0.0028391488915781291 0 -0.02428981498473249 0.0028346693349944607 0 -0.023830005783261003 0.0031349154625512849 0 -0.024283583247289797 0.003134821534716174 0 -0.02428981498473249 0.0028346693349944607 0 -0.023830005783261003 0.0031349154625512849 0 -0.024283583247289797 0.003134821534716174 0 -0.023809258866096458 0.003412512994109578 0 -0.023809258866096458 0.003412512994109578 0 -0.023770920168864958 0.0036907946304785212 0 -0.0241049524076987 0.0034557562206906493 0 -0.024283583247289797 0.003134821534716174 0 -0.023809258866096458 0.003412512994109578 0 -0.0241049524076987 0.0034557562206906493 0 -0.023770920168864958 0.0036907946304785212 0 -0.0241049524076987 0.0034557562206906493 0 -0.024255937952537315 0.0037670235258137866 0 -0.0241049524076987 0.0034557562206906493 0 -0.024420330584516269 0.0033417614367882041 0 -0.024255937952537315 0.0037670235258137866 0 -0.024283583247289797 0.003134821534716174 0 -0.0241049524076987 0.0034557562206906493 0 -0.024420330584516269 0.0033417614367882041 0 -0.024643928182340534 0.0030259000706342742 0 -0.024420330584516269 0.0033417614367882041 0 -0.024720635798403764 0.0032095119729364545 0 -0.024643928182340534 0.0030259000706342742 0 -0.024283583247289797 0.003134821534716174 0 -0.024420330584516269 0.0033417614367882041 0 -0.024998647222794039 0.0028224263012420116 0 -0.024720635798403764 0.0032095119729364545 0 -0.024960720711684967 0.0030037262374526092 0 -0.024998647222794039 0.0028224263012420116 0 -0.024643928182340534 0.0030259000706342742 0 -0.024720635798403764 0.0032095119729364545 0 -0.024720635798403764 0.0032095119729364545 0 -0.024960720711684967 0.0030037262374526092 0 -0.02484858404042822 0.0032991041274616287 0 -0.024720635798403764 0.0032095119729364545 0 -0.024709835658205333 0.0033943506483549166 0 -0.024520892198487146 0.0035278675783818616 0 -0.024720635798403764 0.0032095119729364545 0 -0.02484858404042822 0.0032991041274616287 0 -0.024709835658205333 0.0033943506483549166 0 -0.024709835658205333 0.0033943506483549166 0 -0.024520892198487146 0.0035278675783818616 0 -0.024750823027316324 0.0035421722347961436 0 -0.02484858404042822 0.0032991041274616287 0 -0.024750823027316324 0.0035421722347961436 0 -0.025018309717105454 0.0033582917708955707 0 -0.02484858404042822 0.0032991041274616287 0 -0.024709835658205333 0.0033943506483549166 0 -0.024750823027316324 0.0035421722347961436 0 -0.024420330584516269 0.0033417614367882041 0 -0.024520892198487146 0.0035278675783818616 0 -0.024255937952537315 0.0037670235258137866 0 -0.024420330584516269 0.0033417614367882041 0 -0.024720635798403764 0.0032095119729364545 0 -0.024520892198487146 0.0035278675783818616 0 -0.015344136683624587 -0.0021589458337997881 0 -0.0136559608905528 -0.0015011555719371156 0 -0.0036409232136231217 -0.0060675454838037043 0 -0.0030297802493611703 -0.005584897330143084 0 -0.0029929835392526992 -0.0068623872359370279 0 -0.0058865306811617208 -0.0074200563476774384 0 -0.0053588908773101462 -0.0069552069572244432 0 -0.0029929835392526992 -0.0068623872359370279 0 -0.024520892198487146 0.0035278675783818616 0 -0.024750823027316324 0.0035421722347961436 0 -0.024255937952537315 0.0037670235258137866 0 -0.0044695355704979303 -0.0062918891737749217 0 -0.0053588908773101462 -0.0069552069572244432 0 -0.0029929835392526992 -0.0068623872359370279 0 -0.0044695355704979303 -0.0062918891737749217 0 -0.0036409232136231217 -0.0060675454838037043 0 -0.0029929835392526992 -0.0068623872359370279 0 -0.0053588908773101462 -0.0069552069572244432 0 -0.0057444397948763397 -0.0063531473933798382 0 -0.0066801015276964923 -0.0068863714608656031 0 -0.0057451473233941768 -0.0068674796091174632 0 -0.0071809606753227727 -0.0066039579906168686 0 -0.0058865306811617208 -0.0074200563476774384 0 -0.0053588908773101462 -0.0069552069572244432 0 -0.0082282526761986267 -0.0063764642300675493 0 -0.0044695355704979303 -0.0062918891737749217 0 -0.0053588908773101462 -0.0069552069572244432 0 -0.0052152781771802742 -0.0063728651823885272 0 -0.0044695355704979303 -0.0062918891737749217 0 -0.0052152781771802742 -0.0063728651823885272 0 -0.0052645436711959599 -0.0058275560552154132 0 -0.0052152781771802742 -0.0063728651823885272 0 -0.0057444397948763397 -0.0063531473933798382 0 -0.0052645436711959599 -0.0058275560552154132 0 -0.0053588908773101462 -0.0069552069572244432 0 -0.0052152781771802742 -0.0063728651823885272 0 -0.0057444397948763397 -0.0063531473933798382 0 -0.0052645436711959599 -0.0058275560552154132 0 -0.0057574182419122943 -0.004905708622792217 0 -0.0063033875498088943 -0.0058789532031855839 0 -0.0057444397948763397 -0.0063531473933798382 0 -0.0052645436711959599 -0.0058275560552154132 0 -0.0063033875498088943 -0.0058789532031855839 0 -0.0052645436711959599 -0.0058275560552154132 0 -0.0048877436198778287 -0.0051979726079504473 0 -0.0040842448334378282 -0.0055552572872793965 0 -0.0052645436711959599 -0.0058275560552154132 0 -0.0048877436198778287 -0.0051979726079504473 0 -0.0057574182419122943 -0.004905708622792217 0 -0.0048877436198778287 -0.0051979726079504473 0 -0.0057574182419122943 -0.004905708622792217 0 -0.0044468787472826243 -0.0045103702954856573 0 -0.0036409232136231217 -0.0060675454838037043 0 -0.0040842448334378282 -0.0055552572872793965 0 -0.0030297802493611703 -0.005584897330143084 0 -0.0044695355704979303 -0.0062918891737749217 0 -0.0036409232136231217 -0.0060675454838037043 0 -0.0040842448334378282 -0.0055552572872793965 0 -0.0044695355704979303 -0.0062918891737749217 0 -0.0052645436711959599 -0.0058275560552154132 0 -0.0040842448334378282 -0.0055552572872793965 0 -0.0048877436198778287 -0.0051979726079504473 0 -0.0040842448334378282 -0.0055552572872793965 0 -0.0044468787472826243 -0.0045103702954856573 0 -0.0040842448334378282 -0.0055552572872793965 0 -0.0032316554641086408 -0.004429357852171285 0 -0.0044468787472826243 -0.0045103702954856573 0 -0.0040842448334378282 -0.0055552572872793965 0 -0.0030297802493611703 -0.005584897330143084 0 -0.0032316554641086408 -0.004429357852171285 0 -0.0024373891852536582 -0.0048702386088328416 0 -0.0030297802493611703 -0.005584897330143084 0 -0.0032316554641086408 -0.004429357852171285 0 -0.0024373891852536582 -0.0048702386088328416 0 -0.0030297802493611703 -0.005584897330143084 0 -0.0021060915741133376 -0.0058325891948925457 0 -0.0024373891852536582 -0.0048702386088328416 0 -0.0021060915741133376 -0.0058325891948925457 0 -0.0017942233783700696 -0.0052984505863006345 0 -0.0024373891852536582 -0.0048702386088328416 0 -0.0017942233783700696 -0.0052984505863006345 0 -0.0014340715018230511 -0.0045016947756914413 0 -0.0017942233783700696 -0.0052984505863006345 0 -0.0012314694509680047 -0.0057791525126962232 0 -0.0014340715018230511 -0.0045016947756914413 0 -0.0012314694509680047 -0.0057791525126962232 0 -0.0014340715018230511 -0.0045016947756914413 0 -0.0002581557427248953 -0.0045991766054597613 0 -0.0021060915741133376 -0.0058325891948925457 0 -0.0017942233783700696 -0.0052984505863006345 0 -0.0012314694509680047 -0.0057791525126962232 0 -0.0021060915741133376 -0.0058325891948925457 0 -0.0012314694509680047 -0.0057791525126962232 0 -0.0013203270517452765 -0.0058807680191686343 0 -0.023770920168864958 0.0036907946304785212 0 -0.02368953224152481 0.0039932310457093528 0 -0.024255937952537315 0.0037670235258137866 0 -0.0012314694509680047 -0.0057791525126962232 0 -0.0013203270517452765 -0.0058807680191686343 0 -0.0019226585921803393 -0.0058308717887014302 0 -0.0021060915741133376 -0.0058325891948925457 0 -0.0013203270517452765 -0.0058807680191686343 0 -0.0029929835392526992 -0.0068623872359370279 0 -0.012517636731631981 -0.00094826235902160613 0 -0.0136559608905528 -0.0015011555719371156 0 -0.0030297802493611703 -0.005584897330143084 0 -0.0021060915741133376 -0.0058325891948925457 0 -0.0029929835392526992 -0.0068623872359370279 0 -0.018773426260363157 0.00041737986779572363 0 -0.018309125270619668 -0.00020631727667912408 0 -0.02482314667914267 0.0013811858308080739 0 -0.024512178469522094 0.0016278881925141384 0 -0.023882434117455907 0.0004954720744222011 0 -0.02482314667914267 0.0013811858308080739 0 -0.024512178469522094 0.0016278881925141384 0 -0.024934055784274191 0.0020823340386418102 0 -0.024512178469522094 0.0016278881925141384 0 -0.024934055784274191 0.0020823340386418102 0 -0.024634902315867589 0.0025068246440229803 0 -0.025168418627525866 0.002542014752366832 0 -0.024934055784274191 0.0020823340386418102 0 -0.025116565241032153 0.0020720619535104581 0 -0.02482314667914267 0.0013811858308080739 0 -0.024934055784274191 0.0020823340386418102 0 -0.025116565241032153 0.0020720619535104581 0 -0.02482314667914267 0.0013811858308080739 0 -0.025116565241032153 0.0020720619535104581 0 -0.025368264148599478 0.0016378982862139103 0 -0.018773426260363157 0.00041737986779572363 0 -0.018336559916739766 -0.00013191415813158623 0 -0.018336559916739766 -0.00013191415813158623 0 -0.026989074602664316 0.0039405031156759703 0 -0.025116565241032153 0.0020720619535104581 0 -0.025368264148599478 0.0016378982862139103 0 -0.025325877062511659 0.0025883518216878332 0 -0.025168418627525866 0.002542014752366832 0 -0.025116565241032153 0.0020720619535104581 0 -0.025325877062511659 0.0025883518216878332 0 -0.024960720711684967 0.0030037262374526092 0 -0.025325877062511659 0.0025883518216878332 0 -0.02507583708750678 0.0031529654739245391 0 -0.024998647222794039 0.0028224263012420116 0 -0.024960720711684967 0.0030037262374526092 0 -0.025325877062511659 0.0025883518216878332 0 -0.025436326917646215 0.0034644592478770839 0 -0.02507583708750678 0.0031529654739245391 0 -0.025018309717105454 0.0033582917708955707 0 -0.024960720711684967 0.0030037262374526092 0 -0.02484858404042822 0.0032991041274616287 0 -0.02507583708750678 0.0031529654739245391 0 -0.02484858404042822 0.0032991041274616287 0 -0.02507583708750678 0.0031529654739245391 0 -0.025018309717105454 0.0033582917708955707 0 -0.024750823027316324 0.0035421722347961436 0 -0.025436326917646215 0.0034644592478770839 0 -0.025018309717105454 0.0033582917708955707 0 -0.025436326917646215 0.0034644592478770839 0 -0.025325877062511659 0.0025883518216878332 0 -0.02507583708750678 0.0031529654739245391 0 -0.0071809606753227727 -0.0066039579906168686 0 -0.011154476337446087 -0.003776268990177582 0 -0.0058865306811617208 -0.0074200563476774384 0 -0.011049761130316306 -0.0078049985992869322 0 -0.0082282526761986267 -0.0063764642300675493 0 -0.0066801015276964923 -0.0068863714608656031 0 -0.007104644395992731 -0.0062504038843814056 0 -0.0081341279483591773 -0.0067748546511141022 0 -0.015344136683624587 -0.0021589458337997881 0 -0.018336559916739766 -0.00013191415813158623 0 -0.007104644395992731 -0.0062504038843814056 0 -0.0072924393358526664 -0.0054580157361482059 0 -0.0081341279483591773 -0.0067748546511141022 0 -0.0057444397948763397 -0.0063531473933798382 0 -0.0066801015276964923 -0.0068863714608656031 0 -0.0063033875498088943 -0.0058789532031855839 0 -0.0066801015276964923 -0.0068863714608656031 0 -0.007104644395992731 -0.0062504038843814056 0 -0.0063033875498088943 -0.0058789532031855839 0 -0.0057574182419122943 -0.004905708622792217 0 -0.0063033875498088943 -0.0058789532031855839 0 -0.0072924393358526664 -0.0054580157361482059 0 -0.0057574182419122943 -0.004905708622792217 0 -0.0072924393358526664 -0.0054580157361482059 0 -0.0068227268121809747 -0.0039991359373915307 0 -0.007104644395992731 -0.0062504038843814056 0 -0.0063033875498088943 -0.0058789532031855839 0 -0.0072924393358526664 -0.0054580157361482059 0 -0.010971186756971483 -0.00066238273387873544 0 -0.011336496858002936 -0.00031193671193015525 0 -0.011143596478386921 7.5152718794276312e-05 0 -0.0072924393358526664 -0.0054580157361482059 0 -0.0081341279483591773 -0.0067748546511141022 0 -0.0086893894168202021 -0.0045493673668738181 0 -0.011154476337446087 -0.003776268990177582 0 -0.0097361817996561052 -0.0022627282294355416 0 -0.012618557170675952 -0.00061052877853213128 0 -0.012603144230941887 -0.00064756362371842509 0 -0.01248676931433635 -0.00060997263369431487 0 -0.011049761130316306 -0.0078049985992869322 0 -0.0082282526761986267 -0.0063764642300675493 0 -0.011418689986038606 -0.0060144670171578853 0 -0.018336559916739766 -0.00013191415813158623 0 -0.011154476337446087 -0.003776268990177582 0 -0.011154476337446087 -0.003776268990177582 0 -0.012258927749169894 -0.00030775783481874254 0 -0.010971186756971483 -0.00066238273387873544 0 -0.011646018018670629 -0.00059030006749020059 0 -0.011336496858002936 -0.00031193671193015525 0 -0.01248295740109307 -0.00064250187144974729 0 -0.012618557170675952 -0.00061052877853213128 0 -0.01248676931433635 -0.00060997263369431487 0 -0.011646018018670629 -0.00059030006749020059 0 -0.011336496858002936 -0.00031193671193015525 0 -0.011813613528080722 -2.933041687037213e-05 0 -0.011336496858002936 -0.00031193671193015525 0 -0.011813613528080722 -2.933041687037213e-05 0 -0.011143596478386921 7.5152718794276312e-05 0 -0.011646018018670629 -0.00059030006749020059 0 -0.011813613528080722 -2.933041687037213e-05 0 -0.012568329051126868 -0.00041985770445412984 0 -0.011813613528080722 -2.933041687037213e-05 0 -0.012568329051126868 -0.00041985770445412984 0 -0.012451020584324641 3.396487681213161e-05 0 -0.01248295740109307 -0.00064250187144974729 0 -0.01248676931433635 -0.00060997263369431487 0 -0.012568329051126868 -0.00041985770445412984 0 -0.012258927749169894 -0.00030775783481874254 0 -0.012461281852980203 -0.00050553345089188954 0 -0.011631222117019687 0.00059061774395764233 0 -0.011531772961812226 0.00036804959960778932 0 -0.012305159173735938 0.00038585029370764314 0 -0.011631222117019687 0.00059061774395764233 0 -0.011531772961812226 0.00036804959960778932 0 -0.011191413849011686 0.00056368573460702438 0 -0.011279163653558391 0.0012199780137090578 0 -0.012170807570411002 0.00065571639495772883 0 -0.011813613528080722 -2.933041687037213e-05 0 -0.011531772961812226 0.00036804959960778932 0 -0.012305159173735938 0.00038585029370764314 0 -0.011813613528080722 -2.933041687037213e-05 0 -0.011531772961812226 0.00036804959960778932 0 -0.011143596478386921 7.5152718794276312e-05 0 -0.011531772961812226 0.00036804959960778932 0 -0.011199507447791699 0.00047669773716151059 0 -0.011191413849011686 0.00056368573460702438 0 -0.011531772961812226 0.00036804959960778932 0 -0.011199507447791699 0.00047669773716151059 0 -0.011143596478386921 7.5152718794276312e-05 0 -0.0094732581753538599 -0.0022014748068302724 0 -0.0077718701719357011 -0.0029853900948075707 0 -0.0086893894168202021 -0.0045493673668738181 0 -0.0094732581753538599 -0.0022014748068302724 0 -0.0077718701719357011 -0.0029853900948075707 0 -0.0076052940448922976 -0.0015040135200343986 0 -0.010335619530202438 -0.00078213969822444978 0 -0.0097361817996561052 -0.0022627282294355416 0 -0.0077718701719357011 -0.0029853900948075707 0 -0.0086893894168202021 -0.0045493673668738181 0 -0.0068227268121809747 -0.0039991359373915307 0 -0.0072924393358526664 -0.0054580157361482059 0 -0.0086893894168202021 -0.0045493673668738181 0 -0.0068227268121809747 -0.0039991359373915307 0 -0.0068227268121809747 -0.0039991359373915307 0 -0.0062494806591003663 -0.0025335462572192709 0 -0.0052603280571873363 -0.0037082012162094548 0 -0.0077718701719357011 -0.0029853900948075707 0 -0.0068227268121809747 -0.0039991359373915307 0 -0.0062494806591003663 -0.0025335462572192709 0 -0.0077718701719357011 -0.0029853900948075707 0 -0.0062494806591003663 -0.0025335462572192709 0 -0.0076052940448922976 -0.0015040135200343986 0 -0.0062494806591003663 -0.0025335462572192709 0 -0.0076052940448922976 -0.0015040135200343986 0 -0.0062585883268180854 -0.00098924458737563708 0 -0.0076052940448922976 -0.0015040135200343986 0 -0.0062585883268180854 -0.00098924458737563708 0 -0.007465687296160109 3.4791325825074962e-05 0 -0.0062585883268180854 -0.00098924458737563708 0 -0.0060231417904960342 0.00055607554656675155 0 -0.007465687296160109 3.4791325825074962e-05 0 -0.0060231417904960342 0.00055607554656675155 0 -0.007465687296160109 3.4791325825074962e-05 0 -0.0076204183296353957 0.0015317286913126731 0 -0.007465687296160109 3.4791325825074962e-05 0 -0.0087411037677104942 0.00092145199166786349 0 -0.0086914868572843113 -0.0003960478009861483 0 -0.0087411037677104942 0.00092145199166786349 0 -0.010463459510112879 0.00081948964934169073 0 -0.0092148895415632842 0.0022993996665424121 0 -0.007465687296160109 3.4791325825074962e-05 0 -0.0087411037677104942 0.00092145199166786349 0 -0.0076204183296353957 0.0015317286913126731 0 -0.0087411037677104942 0.00092145199166786349 0 -0.0086914868572843113 -0.0003960478009861483 0 -0.010463459510112879 0.00081948964934169073 0 -0.0094732581753538599 -0.0022014748068302724 0 -0.0076052940448922976 -0.0015040135200343986 0 -0.0086914868572843113 -0.0003960478009861483 0 -0.0076052940448922976 -0.0015040135200343986 0 -0.007465687296160109 3.4791325825074962e-05 0 -0.0086914868572843113 -0.0003960478009861483 0 -0.011631222117019687 0.00059061774395764233 0 -0.011191413849011686 0.00056368573460702438 0 -0.010856608562185684 0.00066903349933870816 0 -0.011199507447791699 0.00047669773716151059 0 -0.011191413849011686 0.00056368573460702438 0 -0.010463459510112879 0.00081948964934169073 0 -0.010335619530202438 -0.00078213969822444978 0 -0.010496689062442961 0.00076967350154001375 0 -0.0094732581753538599 -0.0022014748068302724 0 -0.0086914868572843113 -0.0003960478009861483 0 -0.010463459510112879 0.00081948964934169073 0 -0.010413987956521969 0.001767137470772245 0 -0.0090938053959712106 0.0030422627561982676 0 -0.010463459510112879 0.00081948964934169073 0 -0.010856608562185684 0.00066903349933870816 0 -0.0092148895415632842 0.0022993996665424121 0 -0.011191413849011686 0.00056368573460702438 0 -0.010463459510112879 0.00081948964934169073 0 -0.010856608562185684 0.00066903349933870816 0 -0.010118345691469048 0.0033972710117894734 0 -0.0099598855945522442 0.0028614934782744991 0 -0.0097416081156076681 0.003646226778802184 0 -0.0099598855945522442 0.0028614934782744991 0 -0.010623031930892901 0.0031882495254826138 0 -0.010684875624010147 0.0026367171040631516 0 -0.010118345691469048 0.0033972710117894734 0 -0.0099598855945522442 0.0028614934782744991 0 -0.010623031930892901 0.0031882495254826138 0 -0.010118345691469048 0.0033972710117894734 0 -0.010623031930892901 0.0031882495254826138 0 -0.010340973000244868 0.0035933044898691056 0 -0.010623031930892901 0.0031882495254826138 0 -0.011298155824424982 0.0034723187219716065 0 -0.010653725406804704 0.0037694083937360409 0 -0.010623031930892901 0.0031882495254826138 0 -0.011241560019782305 0.0026196154382271859 0 -0.011298155824424982 0.0034723187219716065 0 -0.010623031930892901 0.0031882495254826138 0 -0.010684875624010147 0.0026367171040631516 0 -0.011241560019782305 0.0026196154382271859 0 -0.010915511934613605 0.0018769781074436951 0 -0.010684875624010147 0.0026367171040631516 0 -0.011241560019782305 0.0026196154382271859 0 -0.010915511934613605 0.0018769781074436951 0 -0.0099598855945522442 0.0028614934782744991 0 -0.010684875624010147 0.0026367171040631516 0 -0.011279163653558391 0.0012199780137090578 0 -0.010413987956521969 0.001767137470772245 0 -0.0025310524500161504 -0.0031994632902013218 0 -0.0018087503270140727 -0.0026532157778710948 0 -0.0012798692208251324 -0.0032378725433229172 0 -0.0025310524500161504 -0.0031994632902013218 0 -0.0023569157108460923 -0.0020398176099623651 0 -0.0034480545846479536 -0.0024199332382419895 0 -0.0025310524500161504 -0.0031994632902013218 0 -0.0023569157108460923 -0.0020398176099623651 0 -0.0018087503270140727 -0.0026532157778710948 0 -0.0023569157108460923 -0.0020398176099623651 0 -0.0018087503270140727 -0.0026532157778710948 0 -0.0010805382364335646 -0.0021165211088948126 0 -0.0018087503270140727 -0.0026532157778710948 0 -0.0010805382364335646 -0.0021165211088948126 0 -0.0012798692208251324 -0.0032378725433229172 0 -0.0010805382364335646 -0.0021165211088948126 0 -0.0012798692208251324 -0.0032378725433229172 0 -0.00015749616453357657 -0.0024924104474957822 0 -0.0010805382364335646 -0.0021165211088948126 0 -0.00043423780335548866 -0.0016513000166516712 0 -0.00015749616453357657 -0.0024924104474957822 0 -0.0012798692208251324 -0.0032378725433229172 0 -0.00015749616453357657 -0.0024924104474957822 0 -0.00017559273957578627 -0.0036413376842517656 0 -0.0012798692208251324 -0.0032378725433229172 0 -0.0014340715018230511 -0.0045016947756914413 0 -0.0021770724163869609 -0.0040549024467196378 0 -0.0012798692208251324 -0.0032378725433229172 0 -0.0014340715018230511 -0.0045016947756914413 0 -0.00017559273957578627 -0.0036413376842517656 0 -0.0014340715018230511 -0.0045016947756914413 0 -0.0002581557427248953 -0.0045991766054597613 0 -0.00017559273957578627 -0.0036413376842517656 0 -0.0024373891852536582 -0.0048702386088328416 0 -0.0014340715018230511 -0.0045016947756914413 0 -0.0021770724163869609 -0.0040549024467196378 0 -0.0025310524500161504 -0.0031994632902013218 0 -0.0012798692208251324 -0.0032378725433229172 0 -0.0021770724163869609 -0.0040549024467196378 0 -0.0025310524500161504 -0.0031994632902013218 0 -0.0021770724163869609 -0.0040549024467196378 0 -0.0032316554641086408 -0.004429357852171285 0 -0.0024373891852536582 -0.0048702386088328416 0 -0.0021770724163869609 -0.0040549024467196378 0 -0.0032316554641086408 -0.004429357852171285 0 -0.0032316554641086408 -0.004429357852171285 0 -0.0044468787472826243 -0.0045103702954856573 0 -0.0037947087944262734 -0.0034737120009990506 0 -0.0044468787472826243 -0.0045103702954856573 0 -0.0037947087944262734 -0.0034737120009990506 0 -0.0052603280571873363 -0.0037082012162094548 0 -0.0025310524500161504 -0.0031994632902013218 0 -0.0032316554641086408 -0.004429357852171285 0 -0.0037947087944262734 -0.0034737120009990506 0 -0.0057574182419122943 -0.004905708622792217 0 -0.0068227268121809747 -0.0039991359373915307 0 -0.0052603280571873363 -0.0037082012162094548 0 -0.0057574182419122943 -0.004905708622792217 0 -0.0044468787472826243 -0.0045103702954856573 0 -0.0052603280571873363 -0.0037082012162094548 0 -0.0062494806591003663 -0.0025335462572192709 0 -0.0052603280571873363 -0.0037082012162094548 0 -0.004731964195764337 -0.0026524407668518375 0 -0.0037947087944262734 -0.0034737120009990506 0 -0.0052603280571873363 -0.0037082012162094548 0 -0.004731964195764337 -0.0026524407668518375 0 -0.004731964195764337 -0.0026524407668518375 0 -0.004289011545578752 -0.0018011896095285406 0 -0.0052870147063057843 -0.0017693473488898349 0 -0.0062494806591003663 -0.0025335462572192709 0 -0.004731964195764337 -0.0026524407668518375 0 -0.0052870147063057843 -0.0017693473488898349 0 -0.0025310524500161504 -0.0031994632902013218 0 -0.0037947087944262734 -0.0034737120009990506 0 -0.0034480545846479536 -0.0024199332382419895 0 -0.0037947087944262734 -0.0034737120009990506 0 -0.004731964195764337 -0.0026524407668518375 0 -0.0034480545846479536 -0.0024199332382419895 0 -0.004731964195764337 -0.0026524407668518375 0 -0.0034480545846479536 -0.0024199332382419895 0 -0.004289011545578752 -0.0018011896095285406 0 -0.004289011545578752 -0.0018011896095285406 0 -0.0032298350523808045 -0.0011497136691941874 0 -0.0049352679248056966 -0.00082439492008099077 0 -0.0032298350523808045 -0.0011497136691941874 0 -0.0049352679248056966 -0.00082439492008099077 0 -0.0044668773213329951 0.0004594082735595683 0 -0.0023569157108460923 -0.0020398176099623651 0 -0.0034480545846479536 -0.0024199332382419895 0 -0.0032298350523808045 -0.0011497136691941874 0 -0.0034480545846479536 -0.0024199332382419895 0 -0.004289011545578752 -0.0018011896095285406 0 -0.0032298350523808045 -0.0011497136691941874 0 -0.0062494806591003663 -0.0025335462572192709 0 -0.0062585883268180854 -0.00098924458737563708 0 -0.0052870147063057843 -0.0017693473488898349 0 -0.0062585883268180854 -0.00098924458737563708 0 -0.0052870147063057843 -0.0017693473488898349 0 -0.0049352679248056966 -0.00082439492008099077 0 -0.004289011545578752 -0.0018011896095285406 0 -0.0052870147063057843 -0.0017693473488898349 0 -0.0049352679248056966 -0.00082439492008099077 0 -0.0062585883268180854 -0.00098924458737563708 0 -0.0060231417904960342 0.00055607554656675155 0 -0.0049352679248056966 -0.00082439492008099077 0 -0.0060231417904960342 0.00055607554656675155 0 -0.0049352679248056966 -0.00082439492008099077 0 -0.0044668773213329951 0.0004594082735595683 0 -0.0060231417904960342 0.00055607554656675155 0 -0.0044668773213329951 0.0004594082735595683 0 -0.0052354992702786938 0.0015080909609653324 0 -0.0032298350523808045 -0.0011497136691941874 0 -0.0044668773213329951 0.0004594082735595683 0 -0.0030600587125806703 0.00056342986608519136 0 -0.0032298350523808045 -0.0011497136691941874 0 -0.0030600587125806703 0.00056342986608519136 0 -0.0022800049219852754 -0.00032612758653798133 0 -0.0044668773213329951 0.0004594082735595683 0 -0.0030600587125806703 0.00056342986608519136 0 -0.0041445140683613879 0.002005564604601523 0 -0.0030600587125806703 0.00056342986608519136 0 -0.0016006389996812943 0.00064571156635817866 0 -0.0022800049219852754 -0.00032612758653798133 0 -0.0030600587125806703 0.00056342986608519136 0 -0.0016006389996812943 0.00064571156635817866 0 -0.0024025633914522889 0.0017599431345194376 0 -0.0016006389996812943 0.00064571156635817866 0 -4.1785081739655504e-06 0.00049099351814963985 0 -0.0007874247035852376 0.001762206692784296 0 -0.0016006389996812943 0.00064571156635817866 0 -0.0011992422159768617 -0.00050144796456051991 0 -4.1785081739655504e-06 0.00049099351814963985 0 -0.0016006389996812943 0.00064571156635817866 0 -0.0011992422159768617 -0.00050144796456051991 0 -0.0022800049219852754 -0.00032612758653798133 0 -0.0011992422159768617 -0.00050144796456051991 0 -0.0022800049219852754 -0.00032612758653798133 0 -0.0021814937303489814 -0.0011533503258538311 0 -0.0032298350523808045 -0.0011497136691941874 0 -0.0022800049219852754 -0.00032612758653798133 0 -0.0021814937303489814 -0.0011533503258538311 0 -0.0011992422159768617 -0.00050144796456051991 0 -0.0021814937303489814 -0.0011533503258538311 0 -0.0015126756600980988 -0.0014210312875448481 0 -0.0023569157108460923 -0.0020398176099623651 0 -0.0010805382364335646 -0.0021165211088948126 0 -0.0015126756600980988 -0.0014210312875448481 0 -0.0023569157108460923 -0.0020398176099623651 0 -0.0021814937303489814 -0.0011533503258538311 0 -0.0015126756600980988 -0.0014210312875448481 0 -0.0023569157108460923 -0.0020398176099623651 0 -0.0032298350523808045 -0.0011497136691941874 0 -0.0021814937303489814 -0.0011533503258538311 0 -0.00043423780335548866 -0.0016513000166516712 0 1.7992960532659722e-06 -0.0010760324550544913 0 -0.00015749616453357657 -0.0024924104474957822 0 -0.0010805382364335646 -0.0021165211088948126 0 -0.0015126756600980988 -0.0014210312875448481 0 -0.00051460402095402421 -0.0010263898515975238 0 -0.0010805382364335646 -0.0021165211088948126 0 -0.00043423780335548866 -0.0016513000166516712 0 -0.00051460402095402421 -0.0010263898515975238 0 -0.0011992422159768617 -0.00050144796456051991 0 -0.0015126756600980988 -0.0014210312875448481 0 -0.00051460402095402421 -0.0010263898515975238 0 -0.00022501148631678779 -0.001090950022744993 0 0.00051166129800636942 -0.0011778257389438614 0 -0.00051460402095402421 -0.0010263898515975238 0 0.00095537715347670984 -0.0006615803963319146 0 0.0013070195214878598 -0.0011545969608361116 0 -0.00043423780335548866 -0.0016513000166516712 0 -0.00051460402095402421 -0.0010263898515975238 0 1.7992960532659722e-06 -0.0010760324550544913 0 0.00095537715347670984 -0.0006615803963319146 0 -0.00013412146459330546 -0.00037637205371171572 0 -4.1785081739655504e-06 0.00049099351814963985 0 0.00095537715347670984 -0.0006615803963319146 0 -4.1785081739655504e-06 0.00049099351814963985 0 0.0012547490867631211 0.0016045634520559355 0 -0.00051460402095402421 -0.0010263898515975238 0 0.00095537715347670984 -0.0006615803963319146 0 -0.00013412146459330546 -0.00037637205371171572 0 -0.0011992422159768617 -0.00050144796456051991 0 -0.00013412146459330546 -0.00037637205371171572 0 -4.1785081739655504e-06 0.00049099351814963985 0 -0.0011992422159768617 -0.00050144796456051991 0 -0.00051460402095402421 -0.0010263898515975238 0 -0.00013412146459330546 -0.00037637205371171572 0 0.00095537715347670984 -0.0006615803963319146 0 0.0023866030346907721 -0.00099260619582266325 0 0.0012547490867631211 0.0016045634520559355 0 0.0026177069590813196 -0.00039956554740225005 0 0.0028711620750771997 0.0011242277347785165 0 0.0012547490867631211 0.0016045634520559355 0 0.0019068951436645811 -0.0006991485040860752 0 0.0014680974320123274 0.0014818119220913306 0 0.0034921039215629487 0.00057690897047878371 0 0.0026177069590813196 -0.00039956554740225005 0 0.0043993556209297761 -0.00035537358278414698 0 0.0034921039215629487 0.00057690897047878371 0 0.0026177069590813196 -0.00039956554740225005 0 0.0028711620750771997 0.0011242277347785165 0 0.0034921039215629487 0.00057690897047878371 0 0.0043993556209297761 -0.00035537358278414698 0 0.0040550480061445279 0.0019012984413969293 0 0.0019068951436645811 -0.0006991485040860752 0 0.0012996993013178442 -2.9377604776290425e-05 0 0.0019068951436645811 -0.0006991485040860752 0 0.00092660679161847082 -0.00055962454824283177 0 0.0013553094885959504 -0.00035188632073543098 0 0.00094078144730765935 0.00032063301034098704 0 0.00070718353463736878 -0.00034324692048691614 0 0.00051166129800636942 -0.0011778257389438614 0 0.0012652429742216666 -0.0022008063887996041 0 0.00065139949056771285 -0.0016226829877123122 0 0.00063446361397308118 -0.0016241227232780017 0 0.00061145638557441714 -0.0016044005482678185 0 0.00051166129800636942 -0.0011778257389438614 0 0.0019068951436645811 -0.0006991485040860752 0 0.00095537715347670984 -0.0006615803963319146 0 0.0011837563318369787 -0.00098015905258300108 0 0.0023866030346907721 -0.00099260619582266325 0 0.00058608930312341681 -0.0011280219319808734 0 0.00051166129800636942 -0.0011778257389438614 0 -0.00015749616453357657 -0.0024924104474957822 0 0.0011979760810290096 -0.0029075577373288111 0 -0.00017559273957578627 -0.0036413376842517656 0 1.7992960532659722e-06 -0.0010760324550544913 0 -0.00015749616453357657 -0.0024924104474957822 0 0.0011979760810290096 -0.0029075577373288111 0 0.00063446361397308118 -0.0016241227232780017 0 0.00061145638557441714 -0.0016044005482678185 0 0.00059344433765291143 -0.0016055614164331134 0 0.00061145638557441714 -0.0016044005482678185 0 0.00059344433765291143 -0.0016055614164331134 0 0.00054255008939121496 -0.0015896954769780982 0 0.0011979760810290096 -0.0029075577373288111 0 0.0008155125588460544 -0.0042347413809154816 0 0.0026427409231886026 -0.004951696461103338 0 0.0012652429742216666 -0.0022008063887996041 0 -0.00090460265388820585 -0.0041830903929021062 0 0.0011979760810290096 -0.0029075577373288111 0 0.0008155125588460544 -0.0042347413809154816 0 -0.00017559273957578627 -0.0036413376842517656 0 0.0008155125588460544 -0.0042347413809154816 0 -0.0002581557427248953 -0.0045991766054597613 0 -0.00017559273957578627 -0.0036413376842517656 0 -0.0022795983626922242 0.00067300428788195823 0 -0.0016638575832269328 -0.0013147532277866501 0 0.00038962072591807205 0.00048257870434481338 0 3.5176553287913346e-05 0.00020681201545488711 0 -0.00020456085859962782 0.000840077326776281 0 0.00038962072591807205 0.00048257870434481338 0 -0.00020456085859962782 0.000840077326776281 0 0.0005371275344551753 0.00094828414078069643 0 0.00092660679161847082 -0.00055962454824283177 0 -0.0016638575832269328 -0.0013147532277866501 0 0.00094078144730765935 0.00032063301034098704 0 0.00038962072591807205 0.00048257870434481338 0 0.0005371275344551753 0.00094828414078069643 0 0.00059344433765291143 -0.0016055614164331134 0 0.00054255008939121496 -0.0015896954769780982 0 0.00053040976746555435 -0.001590665116848523 0 0.00094078144730765935 0.00032063301034098704 0 0.00038962072591807205 0.00048257870434481338 0 0.00064470415339382072 9.8923528119082565e-05 0 0.00038962072591807205 0.00048257870434481338 0 0.00064470415339382072 9.8923528119082565e-05 0 3.5176553287913346e-05 0.00020681201545488711 0 0.00064470415339382072 9.8923528119082565e-05 0 3.5176553287913346e-05 0.00020681201545488711 0 0.00014105883051024757 -0.0003031871818542476 0 0.00094078144730765935 0.00032063301034098704 0 0.00064470415339382072 9.8923528119082565e-05 0 0.00070718353463736878 -0.00034324692048691614 0 -0.00050154332965307157 -0.00033058847019605319 0 0.0012996993013178442 -2.9377604776290425e-05 0 0.00064470415339382072 9.8923528119082565e-05 0 0.00014105883051024757 -0.0003031871818542476 0 0.0006975014474091952 -0.00030773219364472072 0 0.00071004166135548873 -1.5190908793233303e-05 0 0.0012996993013178442 -2.9377604776290425e-05 0 0.0012996993013178442 -2.9377604776290425e-05 0 0.0015229837657468402 0.00093912783577103462 0 -0.00057585690729488887 -0.0003324405238709421 0 -0.00083646996135711377 -0.00034281389856631155 0 -0.00071468859446842262 -0.00015210649509997848 0 -0.00083646996135711377 -0.00034281389856631155 0 -0.00071468859446842262 -0.00015210649509997848 0 -0.00092149875454754432 4.2641835710175894e-05 0 -0.00057585690729488887 -0.0003324405238709421 0 -0.00071468859446842262 -0.00015210649509997848 0 -0.0005526305417218497 -1.4109575324381797e-05 0 -0.00057585690729488887 -0.0003324405238709421 0 -0.00035767879824677754 -0.00017705064607057892 0 -0.000404345775467429 -0.00029355288875367047 0 -0.00057585690729488887 -0.0003324405238709421 0 -0.00035767879824677754 -0.00017705064607057892 0 -0.0005526305417218497 -1.4109575324381797e-05 0 -0.00035767879824677754 -0.00017705064607057892 0 -0.000404345775467429 -0.00029355288875367047 0 -0.00029245309472913477 -0.00028810089021411522 0 -0.000404345775467429 -0.00029355288875367047 0 -0.0010023574593313303 -0.00014917770976295778 0 -0.00051606755673660825 0.00025341407909806087 0 -0.000404345775467429 -0.00029355288875367047 0 -0.00029245309472913477 -0.00028810089021411522 0 -0.0010023574593313303 -0.00014917770976295778 0 3.5176553287913346e-05 0.00020681201545488711 0 0.00014105883051024757 -0.0003031871818542476 0 -0.000404345775467429 -0.00029355288875367047 0 -0.00050154332965307157 -0.00033058847019605319 0 -0.00028443744160244115 -0.00029865935594502292 0 -0.00029245309472913477 -0.00028810089021411522 0 -0.0013177930235685729 -1.2147048367695698e-06 0 0.00071720098542046146 -2.8203858210834652e-07 0 -0.00029245309472913477 -0.00028810089021411522 0 -0.0010023574593313303 -0.00014917770976295778 0 -0.0013177930235685729 -1.2147048367695698e-06 0 -0.0010023574593313303 -0.00014917770976295778 0 -0.0013177930235685729 -1.2147048367695698e-06 0 -0.0033485151073347121 2.1346528192946469e-06 0 -0.0010023574593313303 -0.00014917770976295778 0 -0.0011245398731914108 0.00079945018666141446 0 -0.0033485151073347121 2.1346528192946469e-06 0 -0.0033570736232248761 -4.7343776447834742e-08 0 -0.0051972179565711223 6.1940152338486535e-08 0 -0.0043186146253864268 -0.00015359712284293903 0 -0.0027812310125986139 0.00033535295531052071 0 -0.0033524560494696026 1.6408452031395023e-07 0 -0.0044456689921173985 -5.6742759035446045e-06 0 -0.0033570736232248761 -4.7343776447834742e-08 0 -0.0043186146253864268 -0.00015359712284293903 0 3.5176553287913346e-05 0.00020681201545488711 0 -0.00051606755673660825 0.00025341407909806087 0 -0.00020456085859962782 0.000840077326776281 0 3.5176553287913346e-05 0.00020681201545488711 0 -0.000404345775467429 -0.00029355288875367047 0 -0.00051606755673660825 0.00025341407909806087 0 -0.0010023574593313303 -0.00014917770976295778 0 -0.0011245398731914108 0.00079945018666141446 0 -0.00051606755673660825 0.00025341407909806087 0 -0.0027812310125986139 0.00033535295531052071 0 -0.0022795983626922242 0.00067300428788195823 0 -0.0044456689921173985 -5.6742759035446045e-06 0 -0.0043106555003761399 2.1969161317597177e-06 0 -0.0043544165820108465 3.0425891296543668e-05 0 -0.0011245398731914108 0.00079945018666141446 0 -0.00051606755673660825 0.00025341407909806087 0 -0.00020456085859962782 0.000840077326776281 0 -0.0043106555003761399 2.1969161317597177e-06 0 -0.0043544165820108465 3.0425891296543668e-05 0 -0.0043555537720442357 2.9381553703268527e-05 0 -0.0043106555003761399 2.1969161317597177e-06 0 -0.0043555537720442357 2.9381553703268527e-05 0 -0.0043081746124851456 3.50891029626291e-05 0 -0.0043544165820108465 3.0425891296543668e-05 0 -0.0043555537720442357 2.9381553703268527e-05 0 -0.004266593856752451 2.688820188569783e-05 0 -0.0053606721442758425 0.00016139876741875004 0 -0.0055120543656580409 0.00014983643514351717 0 -0.0068985417930101439 -4.2630507685218613e-06 0 -0.0072937561787408236 0.00028654897131500431 0 -0.0065164750162281879 0.00032004308249477376 0 -0.0068985417930101439 -4.2630507685218613e-06 0 -0.0072937561787408236 0.00028654897131500431 0 -0.0072623989278046176 -0.00025452936399607577 0 -0.0053606721442758425 0.00016139876741875004 0 -0.0083200911100576296 0.00032551862551445898 0 -0.0072937561787408236 0.00028654897131500431 0 -0.0072623989278046176 -0.00025452936399607577 0 -0.0078074811423781204 -0.00018534276699937389 0 -0.0051972179565711223 6.1940152338486535e-08 0 -0.0043186146253864268 -0.00015359712284293903 0 -0.004266593856752451 2.688820188569783e-05 0 -0.0052017144360432827 8.378724910595122e-08 0 -0.0055120543656580409 0.00014983643514351717 0 -0.0044456689921173985 -5.6742759035446045e-06 0 -0.0043544165820108465 3.0425891296543668e-05 0 -0.004266593856752451 2.688820188569783e-05 0 -0.0044456689921173985 -5.6742759035446045e-06 0 -0.0043186146253864268 -0.00015359712284293903 0 -0.004266593856752451 2.688820188569783e-05 0 -0.0068985417930101439 -4.2630507685218613e-06 0 -0.0062515144326072743 -0.00015281131774864848 0 -0.0068504862701801641 -0.00039203771071669109 0 -0.0068985417930101439 -4.2630507685218613e-06 0 -0.0065164750162281879 0.00032004308249477376 0 -0.0062515144326072743 -0.00015281131774864848 0 -0.0052058138431550173 8.4652156470536959e-07 0 -0.0062515144326072743 -0.00015281131774864848 0 -0.0060649898315208997 -7.1874541012759056e-07 0 -0.0052058138431550173 8.4652156470536959e-07 0 -0.0065164750162281879 0.00032004308249477376 0 -0.0062515144326072743 -0.00015281131774864848 0 -0.0062515144326072743 -0.00015281131774864848 0 -0.0060649898315208997 -7.1874541012759056e-07 0 -0.0061828173508101901 -0.0004880891252312668 0 -0.006069985522199779 5.8222997218841538e-07 0 -0.0080504271592427724 0.00010599739325504696 0 -0.008063051078033092 2.3687460211369651e-08 0 -0.0060694594535515662 -2.4485137291577007e-07 0 -0.0071612155444297455 -0.00030336295709869159 0 -0.0062515144326072743 -0.00015281131774864848 0 -0.0065421205608025661 -0.00059917329193551834 0 -0.0068504862701801641 -0.00039203771071669109 0 -0.0062515144326072743 -0.00015281131774864848 0 -0.0061828173508101901 -0.0004880891252312668 0 -0.0065421205608025661 -0.00059917329193551834 0 -0.0065421205608025661 -0.00059917329193551834 0 -0.0068504862701801641 -0.00039203771071669109 0 -0.0068239528018762853 -0.00076753239458484605 0 -0.0065165422511782147 -0.0010296718984768504 0 -0.0065421205608025661 -0.00059917329193551834 0 -0.0068239528018762853 -0.00076753239458484605 0 -0.0065165422511782147 -0.0010296718984768504 0 -0.0061828173508101901 -0.0004880891252312668 0 -0.0065421205608025661 -0.00059917329193551834 0 -0.0068445980196448937 -0.0010737757458179847 0 -0.0065165422511782147 -0.0010296718984768504 0 -0.0068239528018762853 -0.00076753239458484605 0 -0.0094023050198406184 -0.00011106682696173701 0 -0.0080504271592427724 0.00010599739325504696 0 -0.008063051078033092 2.3687460211369651e-08 0 -0.0077392965386869506 -0.00068248428134219576 0 -0.0071612155444297455 -0.00030336295709869159 0 -0.0075640959669296161 -0.00057482914078813333 0 -0.0072623989278046176 -0.00025452936399607577 0 -0.0078074811423781204 -0.00018534276699937389 0 -0.0075640959669296161 -0.00057482914078813333 0 -0.0072623989278046176 -0.00025452936399607577 0 -0.0071449074572958755 -0.00063815062591552599 0 -0.014905740763613532 0.0019466811465155139 0 -0.01875275241183429 0.0037930239535724796 0 -0.014905740763613532 0.0019466811465155139 0 -0.010669780592222457 0.0003961081937815005 0 -0.0068985417930101439 -4.2630507685218613e-06 0 -0.0072623989278046176 -0.00025452936399607577 0 -0.0068504862701801641 -0.00039203771071669109 0 -0.0072623989278046176 -0.00025452936399607577 0 -0.0068504862701801641 -0.00039203771071669109 0 -0.0071449074572958755 -0.00063815062591552599 0 -0.0071449074572958755 -0.00063815062591552599 0 -0.0068239528018762853 -0.00076753239458484605 0 -0.0070300819770919513 -0.00091265395647630954 0 -0.0068504862701801641 -0.00039203771071669109 0 -0.0071449074572958755 -0.00063815062591552599 0 -0.0068239528018762853 -0.00076753239458484605 0 -0.0068445980196448937 -0.0010737757458179847 0 -0.0068239528018762853 -0.00076753239458484605 0 -0.0070300819770919513 -0.00091265395647630954 0 -0.0070616990644218449 -0.0011355429039932926 0 -0.0070300819770919513 -0.00091265395647630954 0 -0.0072741420141379529 -0.00093824634045896517 0 -0.0071449074572958755 -0.00063815062591552599 0 -0.0070300819770919513 -0.00091265395647630954 0 -0.0072741420141379529 -0.00093824634045896517 0 -0.022218323860054404 0.0036109674073880778 0 -0.022499523884124732 0.003542366704873616 0 -0.022387201051181631 0.0037887777410375275 0 -0.014638821117233644 0.0015289849756161039 0 -0.014701902021740354 0.0015166803006781274 0 -0.014650668913917213 0.0015258428645503349 0 -0.019117299461396953 0.0030371621578046772 0 -0.014905740763613532 0.0019466811465155139 0 -0.0075640959669296161 -0.00057482914078813333 0 -0.0071449074572958755 -0.00063815062591552599 0 -0.0072741420141379529 -0.00093824634045896517 0 -0.014905740763613532 0.0019466811465155139 0 -0.010717956366473949 -0.00012019167386253373 0 -0.022499523884124732 0.003542366704873616 0 -0.022387201051181631 0.0037887777410375275 0 -0.022742699986710472 0.0036443988291810555 0 -0.022387201051181631 0.0037887777410375275 0 -0.022692235032855876 0.0038283490635971653 0 -0.022742699986710472 0.0036443988291810555 0 -0.022387201051181631 0.0037887777410375275 0 -0.022692235032855876 0.0038283490635971653 0 -0.022518106682975318 0.003953027250965995 0 -0.022692235032855876 0.0038283490635971653 0 -0.022518106682975318 0.003953027250965995 0 -0.022826516501119727 0.0039504578626569625 0 -0.014810875332964893 0.0032382303898980803 0 -0.013774452961395574 0.0014751359865204925 0 -0.013555373341510215 0.0014970553032018865 0 -0.022826516501119727 0.0039504578626569625 0 -0.022951130079829567 0.0037792581217219209 0 -0.023141068291738807 0.0038792450846832933 0 -0.022692235032855876 0.0038283490635971653 0 -0.022826516501119727 0.0039504578626569625 0 -0.022951130079829567 0.0037792581217219209 0 -0.022951130079829567 0.0037792581217219209 0 -0.022742699986710472 0.0036443988291810555 0 -0.023112488831004425 0.0035123397301474219 0 -0.022692235032855876 0.0038283490635971653 0 -0.022951130079829567 0.0037792581217219209 0 -0.022742699986710472 0.0036443988291810555 0 -0.022951130079829567 0.0037792581217219209 0 -0.023112488831004425 0.0035123397301474219 0 -0.023374276503992642 0.0036521152718726082 0 -0.023484963051474458 0.0033941421534664199 0 -0.023112488831004425 0.0035123397301474219 0 -0.023374276503992642 0.0036521152718726082 0 -0.023809258866096458 0.003412512994109578 0 -0.023770920168864958 0.0036907946304785212 0 -0.023374276503992642 0.0036521152718726082 0 -0.023484963051474458 0.0033941421534664199 0 -0.023809258866096458 0.003412512994109578 0 -0.023374276503992642 0.0036521152718726082 0 -0.023770920168864958 0.0036907946304785212 0 -0.023374276503992642 0.0036521152718726082 0 -0.023408667045522785 0.0038686601890521358 0 -0.023770920168864958 0.0036907946304785212 0 -0.02368953224152481 0.0039932310457093528 0 -0.023408667045522785 0.0038686601890521358 0 -0.022951130079829567 0.0037792581217219209 0 -0.023374276503992642 0.0036521152718726082 0 -0.023141068291738807 0.0038792450846832933 0 -0.023374276503992642 0.0036521152718726082 0 -0.023408667045522785 0.0038686601890521358 0 -0.023141068291738807 0.0038792450846832933 0 -0.022826516501119727 0.0039504578626569625 0 -0.023141068291738807 0.0038792450846832933 0 -0.023111285460110296 0.0041207038867401109 0 -0.023408667045522785 0.0038686601890521358 0 -0.023141068291738807 0.0038792450846832933 0 -0.023111285460110296 0.0041207038867401109 0 -0.0013203270517452765 -0.0058807680191686343 0 -0.0029799694494999631 -0.0052021709048502649 0 -0.0019226585921803393 -0.0058308717887014302 0 -0.012517636731631981 -0.00094826235902160613 0 -0.013381311514790072 -0.00062519502575636746 0 -0.02368953224152481 0.0039932310457093528 0 -0.023408667045522785 0.0038686601890521358 0 -0.023111285460110296 0.0041207038867401109 0 -0.0012314694509680047 -0.0057791525126962232 0 -0.0002581557427248953 -0.0045991766054597613 0 0.00090200133494417573 -0.0053534250276087098 0 -0.0012314694509680047 -0.0057791525126962232 0 -0.0019226585921803393 -0.0058308717887014302 0 -0.0024624622786121749 -0.0064575464593263571 0 -0.0011830430070484427 -0.0058145945098302372 0 -0.00087334833663706949 -0.0060007808616597286 0 -0.0029799694494999631 -0.0052021709048502649 0 -0.0019226585921803393 -0.0058308717887014302 0 -0.0024624622786121749 -0.0064575464593263571 0 0.0008155125588460544 -0.0042347413809154816 0 -0.0002581557427248953 -0.0045991766054597613 0 0.00090200133494417573 -0.0053534250276087098 0 0.0008155125588460544 -0.0042347413809154816 0 0.00090200133494417573 -0.0053534250276087098 0 0.0026427409231886026 -0.004951696461103338 0 -0.0029799694494999631 -0.0052021709048502649 0 -0.0024624622786121749 -0.0064575464593263571 0 -0.0044047985751716878 -0.0068903171102362376 0 -0.00087334833663706949 -0.0060007808616597286 0 -0.00090460265388820585 -0.0041830903929021062 0 -0.00090460265388820585 -0.0041830903929021062 0 -0.012740999518488352 -0.00027778955024274088 0 -0.0016638575832269328 -0.0013147532277866501 0 -0.0083200911100576296 0.00032551862551445898 0 -0.0050198494413017927 -0.0044540309386357528 0 -0.0074968413591314535 0.0018642089307108842 0 -0.0087441072030151473 0.0017432469919993377 0 -0.0031482649448839862 -0.0040787555061654376 0 -0.0050198494413017927 -0.0044540309386357528 0 -0.0074968413591314535 0.0018642089307108842 0 -0.0029799694494999631 -0.0052021709048502649 0 -0.0044047985751716878 -0.0068903171102362376 0 -0.0056360384463306152 -0.0052910686856201756 0 -0.00090460265388820585 -0.0041830903929021062 0 -0.0016638575832269328 -0.0013147532277866501 0 -0.0043106555003761399 2.1969161317597177e-06 0 -0.0042665817116266883 3.2722209015710333e-07 0 -0.0043081746124851456 3.50891029626291e-05 0 -0.022518106682975318 0.003953027250965995 0 -0.022826516501119727 0.0039504578626569625 0 -0.022621755978814384 0.0041510952039333108 0 -0.0072937561787408236 0.00028654897131500431 0 -0.0078074811423781204 -0.00018534276699937389 0 -0.0080535656564428119 0.00022876204105415701 0 -0.012740999518488352 -0.00027778955024274088 0 -0.0083200911100576296 0.00032551862551445898 0 -0.013774452961395574 0.0014751359865204925 0 -0.013555373341510215 0.0014970553032018865 0 -0.012659721841552894 -0.00042275760401401177 0 -0.010669780592222457 0.0003961081937815005 0 -0.0083200911100576296 0.00032551862551445898 0 -0.013555373341510215 0.0014970553032018865 0 -0.012203505641758924 -0.00037900960125490706 0 -0.012659721841552894 -0.00042275760401401177 0 -0.01875275241183429 0.0037930239535724796 0 -0.012740999518488352 -0.00027778955024274088 0 -0.013381311514790072 -0.00062519502575636746 0 -0.012740999518488352 -0.00027778955024274088 0 -0.022826516501119727 0.0039504578626569625 0 -0.023111285460110296 0.0041207038867401109 0 -0.022621755978814384 0.0041510952039333108 0 -0.012007750865966563 -4.2594735309736457e-06 0 -0.011827112806051657 -0.0010506703287157801 0 -0.012754392090657735 -0.00064615222881561228 0 -0.012007750865966563 -4.2594735309736457e-06 0 -0.010363938295024331 -0.00029434417501137826 0 -0.011744259752074731 -0.001283229583309013 0 -0.012047720485985677 -0.00070994909466269942 0 -0.0065443229664243208 0.0013251303811632881 0 -0.012007750865966563 -4.2594735309736457e-06 0 -0.01270608793111682 -1.6502915871170434e-05 0 -0.012659835427501388 0.00050037940318508364 0 -0.012007750865966563 -4.2594735309736457e-06 0 -0.012659835427501388 0.00050037940318508364 0 -0.011655327923439771 0.00056789773217365898 0 -0.012007750865966563 -4.2594735309736457e-06 0 -0.010363938295024331 -0.00029434417501137826 0 -0.011655327923439771 0.00056789773217365898 0 -0.0035054184596393975 0.0012168123401278255 0 -0.012580353034544262 0.00056079405364218194 0 -0.007931843597315304 -0.0028188586243977176 0 -0.01240574294646055 0.00051605631817439989 0 -0.01204388399748964 0.0005006863091517015 0 -0.007931843597315304 -0.0028188586243977176 0 -0.01204388399748964 0.0005006863091517015 0 -0.0080743125788636915 0.00078278669761192856 0 -0.0035054184596393975 0.0012168123401278255 0 -0.0065443229664243208 0.0013251303811632881 0 0.0020230713177147451 0.0028051021443239888 0 0.0033174866684916437 0.0039246503817082093 0 0.0021770027203934614 0.0045119664095319778 0 -0.0065443229664243208 0.0013251303811632881 0 -0.0069967055961067887 0.00065048672323438517 0 -0.011827112806051657 -0.0010506703287157801 0 -0.012754392090657735 -0.00064615222881561228 0 -0.01295778042975497 -0.0018618561455079161 0 -0.012754392090657735 -0.00064615222881561228 0 -0.01356561645422244 -0.00061412859352011709 0 -0.01295778042975497 -0.0018618561455079161 0 -0.0069967055961067887 0.00065048672323438517 0 -0.016316459310070183 -0.0012048006187105522 0 -0.013834690414041199 -0.0017081505244864882 0 -0.012619343796987446 -0.0019222980742505179 0 -0.014412452716893967 -0.00074768791508720862 0 -0.01356561645422244 -0.00061412859352011709 0 -0.01295778042975497 -0.0018618561455079161 0 -0.014412452716893967 -0.00074768791508720862 0 -0.013834690414041199 -0.0017081505244864882 0 -0.014412452716893967 -0.00074768791508720862 0 -0.014717640335736035 -0.0013506744218497366 0 -0.01356561645422244 -0.00061412859352011709 0 -0.014175430156601498 9.1570300731147239e-05 0 -0.014412452716893967 -0.00074768791508720862 0 -0.01356561645422244 -0.00061412859352011709 0 -0.014175430156601498 9.1570300731147239e-05 0 -0.013388128012241915 8.3497630589057903e-05 0 -0.014175430156601498 9.1570300731147239e-05 0 -0.013388128012241915 8.3497630589057903e-05 0 -0.013609715134091462 0.00079247442317703827 0 -0.012754392090657735 -0.00064615222881561228 0 -0.013388128012241915 8.3497630589057903e-05 0 -0.01270608793111682 -1.6502915871170434e-05 0 -0.012007750865966563 -4.2594735309736457e-06 0 -0.012754392090657735 -0.00064615222881561228 0 -0.01270608793111682 -1.6502915871170434e-05 0 -0.012754392090657735 -0.00064615222881561228 0 -0.01356561645422244 -0.00061412859352011709 0 -0.013388128012241915 8.3497630589057903e-05 0 -0.013388128012241915 8.3497630589057903e-05 0 -0.01270608793111682 -1.6502915871170434e-05 0 -0.012659835427501388 0.00050037940318508364 0 -0.013388128012241915 8.3497630589057903e-05 0 -0.012659835427501388 0.00050037940318508364 0 -0.013609715134091462 0.00079247442317703827 0 -0.012659835427501388 0.00050037940318508364 0 -0.012821125143806929 0.0012192041476857397 0 -0.013609715134091462 0.00079247442317703827 0 -0.013609715134091462 0.00079247442317703827 0 -0.013854035152344872 0.0017685631180445434 0 -0.014531162204571057 0.00078797556379135746 0 -0.014175430156601498 9.1570300731147239e-05 0 -0.013609715134091462 0.00079247442317703827 0 -0.014531162204571057 0.00078797556379135746 0 -0.012959245247222296 0.0011899244816582278 0 -0.013800046097869421 0.0017461793005027336 0 -0.013287400080812627 0.0012623150693890977 0 -0.013854035152344872 0.0017685631180445434 0 -0.013169977921612024 0.0020509994953356227 0 -0.012821125143806929 0.0012192041476857397 0 -0.013609715134091462 0.00079247442317703827 0 -0.013854035152344872 0.0017685631180445434 0 -0.013287400080812627 0.0012623150693890977 0 -0.012521934793337179 0.0014556279671034797 0 -0.013169977921612024 0.0020509994953356227 0 -0.013287400080812627 0.0012623150693890977 0 -0.012521934793337179 0.0014556279671034797 0 -0.01240574294646055 0.00051605631817439989 0 -0.012521934793337179 0.0014556279671034797 0 -0.01240574294646055 0.00051605631817439989 0 -0.01204388399748964 0.0005006863091517015 0 -0.012659835427501388 0.00050037940318508364 0 -0.012821125143806929 0.0012192041476857397 0 -0.011655327923439771 0.00056789773217365898 0 -0.012959245247222296 0.0011899244816582278 0 -0.012580353034544262 0.00056079405364218194 0 -0.01204388399748964 0.0005006863091517015 0 -0.0080743125788636915 0.00078278669761192856 0 -0.0069905056273188871 0.0039289175621551077 0 -0.011945849793423648 0.00054571191094655912 0 -0.0093678001946974569 0.0026741153692501178 0 -0.012521934793337179 0.0014556279671034797 0 -0.01204388399748964 0.0005006863091517015 0 -0.011829653398486406 0.0013731147764382233 0 -0.012521934793337179 0.0014556279671034797 0 -0.011829653398486406 0.0013731147764382233 0 -0.012512183023348672 0.0026029396666955675 0 -0.0069905056273188871 0.0039289175621551077 0 -0.0042481006812059626 0.0030112554529974963 0 -0.0031871405979358846 0.0058814086210412023 0 -0.0093678001946974569 0.0026741153692501178 0 -0.0076112805868219988 0.0031289997753200928 0 -0.0015248192725940857 0.0027041044519598018 0 -0.0042481006812059626 0.0030112554529974963 0 -0.0031871405979358846 0.0058814086210412023 0 -0.0015248192725940857 0.0027041044519598018 0 -0.00083003609687409005 0.0033308882616259329 0 -0.0031871405979358846 0.0058814086210412023 0 -0.0013240205246325904 0.0031723438023320612 0 -0.0076112805868219988 0.0031289997753200928 0 -0.0015248192725940857 0.0027041044519598018 0 -0.000175991401878885 0.0030086816847159263 0 -0.00091643516040813182 0.0032310989394554253 0 -0.0015248192725940857 0.0027041044519598018 0 -0.0043604100288499393 -1.3440448564204279e-05 0 -0.0042481006812059626 0.0030112554529974963 0 -0.0014875640097752163 0.0025165091643113108 0 -0.0024402472522669603 0.0014544197670426546 0 -0.0080743125788636915 0.00078278669761192856 0 -0.0069905056273188871 0.0039289175621551077 0 -0.0042481006812059626 0.0030112554529974963 0 -0.0080743125788636915 0.00078278669761192856 0 -0.0043604100288499393 -1.3440448564204279e-05 0 -0.0042481006812059626 0.0030112554529974963 0 -0.0032842513033600204 0.0028937096839220201 0 -0.0033243235468393773 0.0028703849841865106 0 -0.0033234969652308787 0.0028810217465053932 0 -0.0032842513033600204 0.0028937096839220201 0 -0.0033243235468393773 0.0028703849841865106 0 -0.0031620725776058374 0.0028891547098142756 0 -0.0033243235468393773 0.0028703849841865106 0 -0.0033234969652308787 0.0028810217465053932 0 -0.0033535441180918947 0.0028585136683777755 0 -0.0015248192725940857 0.0027041044519598018 0 -0.0011739658750745368 0.003037793274873499 0 -0.00091643516040813182 0.0032310989394554253 0 -0.0015248192725940857 0.0027041044519598018 0 -0.00083003609687409005 0.0033308882616259329 0 -0.0011739658750745368 0.003037793274873499 0 -0.0011739658750745368 0.003037793274873499 0 -0.0015360003416919562 0.0033592743042924781 0 -0.0017557025846508109 0.0028786223368435981 0 -0.0013240205246325904 0.0031723438023320612 0 -0.0026518911370464878 0.0029647103088258847 0 -0.00083003609687409005 0.0033308882616259329 0 -0.0011739658750745368 0.003037793274873499 0 -0.0017557025846508109 0.0028786223368435981 0 -0.0011739658750745368 0.003037793274873499 0 -0.0015360003416919562 0.0033592743042924781 0 -0.0011886075681333003 0.0036274204571709171 0 -0.0011739658750745368 0.003037793274873499 0 -0.0011886075681333003 0.0036274204571709171 0 -0.00091643516040813182 0.0032310989394554253 0 -0.0011886075681333003 0.0036274204571709171 0 -0.00091643516040813182 0.0032310989394554253 0 -0.00065288758362508673 0.0037107053741520265 0 4.5401551180688304e-05 0.0044466578666279679 0 -0.00091020147212522121 0.0040011354839162737 0 -0.00094872030922351855 0.0042951550317438759 0 -0.0011886075681333003 0.0036274204571709171 0 -0.0016105152827482409 0.0039023204353670769 0 -0.00094872030922351855 0.0042951550317438759 0 -0.0011886075681333003 0.0036274204571709171 0 -0.00065288758362508673 0.0037107053741520265 0 -0.0015360003416919562 0.0033592743042924781 0 -0.0011886075681333003 0.0036274204571709171 0 -0.0016105152827482409 0.0039023204353670769 0 0.0003270322542255699 0.0033517386647367556 0 -0.000175991401878885 0.0030086816847159263 0 -0.00017789333800356403 0.0034886857683642278 0 -0.0035054184596393975 0.0012168123401278255 0 -0.0024402472522669603 0.0014544197670426546 0 -0.007931843597315304 -0.0028188586243977176 0 -0.0080743125788636915 0.00078278669761192856 0 -0.0043604100288499393 -1.3440448564204279e-05 0 -0.000175991401878885 0.0030086816847159263 0 -0.00091643516040813182 0.0032310989394554253 0 -0.00017789333800356403 0.0034886857683642278 0 -0.00091643516040813182 0.0032310989394554253 0 -0.00017789333800356403 0.0034886857683642278 0 -0.00065288758362508673 0.0037107053741520265 0 -0.00094872030922351855 0.0042951550317438759 0 0.00014925947296700682 0.00409582672203031 0 0.0012448168690776702 0.0048899941773127582 0 -0.00017789333800356403 0.0034886857683642278 0 -0.00065288758362508673 0.0037107053741520265 0 0.00014925947296700682 0.00409582672203031 0 -0.00094872030922351855 0.0042951550317438759 0 -0.00065288758362508673 0.0037107053741520265 0 0.00014925947296700682 0.00409582672203031 0 0.00014925947296700682 0.00409582672203031 0 0.0012448168690776702 0.0048899941773127582 0 0.0021770027203934614 0.0045119664095319778 0 0.0020230713177147451 0.0028051021443239888 0 0.00014925947296700682 0.00409582672203031 0 0.0021770027203934614 0.0045119664095319778 0 -0.0035054184596393975 0.0012168123401278255 0 0.0016938913712691011 0.0042400583154536837 0 0.0003270322542255699 0.0033517386647367556 0 -0.00017789333800356403 0.0034886857683642278 0 0.00014925947296700682 0.00409582672203031 0 0.0019042894170478413 0.0052151304823383334 0 0.0012448168690776702 0.0048899941773127582 0 0.0021770027203934614 0.0045119664095319778 0 0.0019042894170478413 0.0052151304823383334 0 0.0012448168690776702 0.0048899941773127582 0 0.0015794227659725701 0.0054160041370277931 0 4.5401551180688304e-05 0.0044466578666279679 0 0.0011488821362710528 0.0048373853022488714 0 0.00098236674245964404 0.0046050357842907898 0 0.0012448168690776702 0.0048899941773127582 0 0.0012894445487927108 0.0053554261334617572 0 0.0012448168690776702 0.0048899941773127582 0 0.0012894445487927108 0.0053554261334617572 0 0.0015794227659725701 0.0054160041370277931 0 0.0012894445487927108 0.0053554261334617572 0 0.0008802924178634941 0.0058222010593746249 0 0.0018887038210867963 0.0063244263966391913 0 0.0012894445487927108 0.0053554261334617572 0 0.0018504272303365768 0.0059094212178552987 0 0.0018887038210867963 0.0063244263966391913 0 0.0012894445487927108 0.0053554261334617572 0 0.0018504272303365768 0.0059094212178552987 0 0.0015794227659725701 0.0054160041370277931 0 0.0018504272303365768 0.0059094212178552987 0 0.0020669504557926065 0.0062015649974749487 0 0.0021127481129178047 0.0056746653980634327 0 0.0019042894170478413 0.0052151304823383334 0 0.0015794227659725701 0.0054160041370277931 0 0.0021127481129178047 0.0056746653980634327 0 0.0018504272303365768 0.0059094212178552987 0 0.0015794227659725701 0.0054160041370277931 0 0.0021127481129178047 0.0056746653980634327 0 -0.00017597310169884182 0.0040659068361531426 0 0.00066997706194099637 0.0051129392929014535 0 -4.8188275820026968e-05 0.0056126081573739826 0 -0.00017597310169884182 0.0040659068361531426 0 -4.8188275820026968e-05 0.0056126081573739826 0 -0.0010941439770677946 0.0048484423680907971 0 0.00098236674245964404 0.0046050357842907898 0 -0.00017597310169884182 0.0040659068361531426 0 0.00066997706194099637 0.0051129392929014535 0 0.00098236674245964404 0.0046050357842907898 0 0.0012894445487927108 0.0053554261334617572 0 0.00066997706194099637 0.0051129392929014535 0 0.00066997706194099637 0.0051129392929014535 0 0.0008802924178634941 0.0058222010593746249 0 -4.8188275820026968e-05 0.0056126081573739826 0 0.0012894445487927108 0.0053554261334617572 0 0.00066997706194099637 0.0051129392929014535 0 0.0008802924178634941 0.0058222010593746249 0 -4.8188275820026968e-05 0.0056126081573739826 0 -0.00091895421536919582 0.0058412797512937134 0 -0.00070554209608610823 0.0066958327933708912 0 -4.8188275820026968e-05 0.0056126081573739826 0 0.00027209184268739271 0.0071088958736855367 0 -0.00070554209608610823 0.0066958327933708912 0 0.0008802924178634941 0.0058222010593746249 0 -4.8188275820026968e-05 0.0056126081573739826 0 0.00027209184268739271 0.0071088958736855367 0 0.0008802924178634941 0.0058222010593746249 0 0.00027209184268739271 0.0071088958736855367 0 0.0018887038210867963 0.0063244263966391913 0 0.0032082330156424942 0.0064186376168480583 0 0.0018887038210867963 0.0063244263966391913 0 0.0025086769480999914 0.0060651763695052591 0 0.0017414697059705475 0.0068323886610236195 0 0.001941274122448903 0.0063464266159083968 0 0.0032082330156424942 0.0064186376168480583 0 0.0025086769480999914 0.0060651763695052591 0 0.0030258788181289653 0.0058499737405155452 0 0.0032082330156424942 0.0064186376168480583 0 0.003584272215126587 0.0059128964438237199 0 0.0045148574716759246 0.0061521193610133036 0 0.0017414697059705475 0.0068323886610236195 0 0.0016575882210855552 0.006218295956085554 0 0.00027209184268739271 0.0071088958736855367 0 -0.00070554209608610823 0.0066958327933708912 0 -0.0010965500806236731 0.0077542616987779029 0 0.0032082330156424942 0.0064186376168480583 0 0.003584272215126587 0.0059128964438237199 0 0.0030258788181289653 0.0058499737405155452 0 0.0018504272303365768 0.0059094212178552987 0 0.0018887038210867963 0.0063244263966391913 0 0.0020669504557926065 0.0062015649974749487 0 0.0018887038210867963 0.0063244263966391913 0 0.0022190714650034056 0.0060855335172394906 0 0.0020669504557926065 0.0062015649974749487 0 0.0025086769480999914 0.0060651763695052591 0 0.0022190714650034056 0.0060855335172394906 0 0.0029213122652898562 0.0058765871649680253 0 0.0018887038210867963 0.0063244263966391913 0 0.0025086769480999914 0.0060651763695052591 0 0.0022190714650034056 0.0060855335172394906 0 0.0022190714650034056 0.0060855335172394906 0 0.0019037642588406228 0.0061107663744071209 0 0.0020669504557926065 0.0062015649974749487 0 0.0017322618399368275 0.0055896848875926011 0 0.0017672271518453702 0.0055984565127670232 0 0.0018587239811206778 0.0055575089576679329 0 0.0022190714650034056 0.0060855335172394906 0 0.0019037642588406228 0.0061107663744071209 0 0.0018587239811206778 0.0055575089576679329 0 0.0018871794115358157 0.0060403388343381577 0 0.0018504545176591062 0.0054804184440269844 0 0.0017537315098647259 0.00558562818789977 0 0.0017248343158062331 0.0055274444534012005 0 0.0018360643766437024 0.0056251677780056837 0 0.0017537315098647259 0.00558562818789977 0 0.0018360643766437024 0.0056251677780056837 0 0.0017672271518453702 0.0055984565127670232 0 0.0017322618399368275 0.0055896848875926011 0 0.0017537315098647259 0.00558562818789977 0 0.0017672271518453702 0.0055984565127670232 0 0.0017322618399368275 0.0055896848875926011 0 0.0017248343158062331 0.0055274444534012005 0 0.0016696605888251719 0.0054803754662043694 0 0.0017322618399368275 0.0055896848875926011 0 0.0017537315098647259 0.00558562818789977 0 0.0017248343158062331 0.0055274444534012005 0 0.0018871794115358157 0.0060403388343381577 0 0.0010143100797894125 0.0048953522164150286 0 0.0019037642588406228 0.0061107663744071209 0 0.0020669504557926065 0.0062015649974749487 0 0.0019036293557998609 0.0063094010106821211 0 0.0020669504557926065 0.0062015649974749487 0 0.0021127481129178047 0.0056746653980634327 0 0.0028100843024061813 0.0058141978577532401 0 0.0021127481129178047 0.0056746653980634327 0 0.0028100843024061813 0.0058141978577532401 0 0.0024505838891908838 0.0052924189169593168 0 0.0022979457381402824 0.0062259288092655404 0 0.0010143100797894125 0.0048953522164150286 0 0.0016696605888251719 0.0054803754662043694 0 0.0016178542609393196 0.0054266288024164278 0 0.0016793516898059417 0.0054723934679696221 0 0.0017248343158062331 0.0055274444534012005 0 0.0016696605888251719 0.0054803754662043694 0 0.0016793516898059417 0.0054723934679696221 0 0.0010143100797894125 0.0048953522164150286 0 -0.00041871624807396309 0.0036767649505489693 0 -0.0037493752220629306 0.0027195533444667936 0 -0.0036681785976912899 0.0023626392968969052 0 -0.0041856988897688635 0.0024049596197967017 0 -0.0065443229664243208 0.0013251303811632881 0 -0.00041871624807396309 0.0036767649505489693 0 0.0010143100797894125 0.0048953522164150286 0 -0.0069967055961067887 0.00065048672323438517 0 -0.0035812936750451124 0.0020097769917240297 0 -0.0036681785976912899 0.0023626392968969052 0 -0.0041856988897688635 0.0024049596197967017 0 0.0030795730176715482 0.0049945473598054756 0 0.0021770027203934614 0.0045119664095319778 0 0.0024505838891908838 0.0052924189169593168 0 0.0028100843024061813 0.0058141978577532401 0 0.0030795730176715482 0.0049945473598054756 0 0.0024505838891908838 0.0052924189169593168 0 0.0033174866684916437 0.0039246503817082093 0 0.0030795730176715482 0.0049945473598054756 0 0.0021770027203934614 0.0045119664095319778 0 0.0019042894170478413 0.0052151304823383334 0 0.0021770027203934614 0.0045119664095319778 0 0.0024505838891908838 0.0052924189169593168 0 0.0019042894170478413 0.0052151304823383334 0 0.0021127481129178047 0.0056746653980634327 0 0.0024505838891908838 0.0052924189169593168 0 -0.0069967055961067887 0.00065048672323438517 0 -0.0066213400217492334 0.0028637288561312682 0 -0.013834690414041199 -0.0017081505244864882 0 -0.012619343796987446 -0.0019222980742505179 0 -0.013786128722919637 -0.0027578797597036871 0 -0.0066213400217492334 0.0028637288561312682 0 -0.01640945855890644 -0.0005734864123863254 0 -0.013834690414041199 -0.0017081505244864882 0 -0.013786128722919637 -0.0027578797597036871 0 -0.014717640335736035 -0.0013506744218497366 0 0.0016793516898059417 0.0054723934679696221 0 0.0016309665670919049 0.0054402381075931939 0 0.0017238869705257349 0.0055016707372430272 0 0.0016178542609393196 0.0054266288024164278 0 0.0016793516898059417 0.0054723934679696221 0 0.0016309665670919049 0.0054402381075931939 0 -0.0066213400217492334 0.0028637288561312682 0 0.0023353483472230326 0.0058763790808513553 0 0.0013694148880199386 0.0066269993118592309 0 0.001318322391796412 0.0062355936703934771 0 0.0017137827709100668 0.0061273136831173783 0 0.0017137827709100668 0.0061273136831173783 0 0.0017109697101625994 0.005738481805549968 0 0.0014140980595362738 0.00588580578345435 0 0.001318322391796412 0.0062355936703934771 0 0.0017137827709100668 0.0061273136831173783 0 0.0014140980595362738 0.00588580578345435 0 0.0023353483472230326 0.0058763790808513553 0 0.0017011139423733848 0.0057069187296658174 0 0.0017248343158062331 0.0055274444534012005 0 0.0016793516898059417 0.0054723934679696221 0 0.0017238869705257349 0.0055016707372430272 0 0.0017248343158062331 0.0055274444534012005 0 0.0017238869705257349 0.0055016707372430272 0 0.0018360643766437024 0.0056251677780056837 0 0.0017137827709100668 0.0061273136831173783 0 0.0017109697101625994 0.005738481805549968 0 0.0018360643766437024 0.0056251677780056837 0 0.0017109697101625994 0.005738481805549968 0 0.0018060224961095304 0.0056359296239581877 0 0.0018360643766437024 0.0056251677780056837 0 0.0017109697101625994 0.005738481805549968 0 0.0018060224961095304 0.0056359296239581877 0 0.0017649901736648539 0.005613098667609632 0 0.0018060224961095304 0.0056359296239581877 0 0.0017649901736648539 0.005613098667609632 0 0.0018645984880267747 0.0056165394826706615 0 0.0018360643766437024 0.0056251677780056837 0 0.0018645984880267747 0.0056165394826706615 0 0.0017672271518453702 0.0055984565127670232 0 0.0018060224961095304 0.0056359296239581877 0 0.0018360643766437024 0.0056251677780056837 0 0.0018645984880267747 0.0056165394826706615 0 0.0017109697101625994 0.005738481805549968 0 0.0014140980595362738 0.00588580578345435 0 0.0015980289255156691 0.0056656645777239138 0 0.0017109697101625994 0.005738481805549968 0 0.0015980289255156691 0.0056656645777239138 0 0.0017649901736648539 0.005613098667609632 0 0.0015980289255156691 0.0056656645777239138 0 0.0017649901736648539 0.005613098667609632 0 0.0016983162182030739 0.0055664048933673693 0 0.0014140980595362738 0.00588580578345435 0 0.0015980289255156691 0.0056656645777239138 0 0.00137084815269752 0.0056105704885594894 0 0.0015980289255156691 0.0056656645777239138 0 0.00137084815269752 0.0056105704885594894 0 0.0015859603426895067 0.0055263194727451954 0 0.0015980289255156691 0.0056656645777239138 0 0.0015859603426895067 0.0055263194727451954 0 0.0016983162182030739 0.0055664048933673693 0 0.00137084815269752 0.0056105704885594894 0 0.00093189816378443525 0.0056532680306670561 0 0.0011768890307076972 0.005417893726026338 0 0.0014140980595362738 0.00588580578345435 0 0.00137084815269752 0.0056105704885594894 0 0.00093189816378443525 0.0056532680306670561 0 0.001318322391796412 0.0062355936703934771 0 0.0014140980595362738 0.00588580578345435 0 0.00078443476784348127 0.0062691955351514873 0 0.0014140980595362738 0.00588580578345435 0 0.00093189816378443525 0.0056532680306670561 0 0.00078443476784348127 0.0062691955351514873 0 -0.016188502759026977 0.0018181903191915143 0 -0.015643235711720039 0.0025872271242064985 0 -0.015682467475368667 0.0015766350271639391 0 0.00093189816378443525 0.0056532680306670561 0 0.00078443476784348127 0.0062691955351514873 0 7.7645295197964237e-05 0.0058670022670731696 0 -0.0078729268461489067 0.0041587827123855444 0 -0.0076226420426310964 0.0042954332794402092 0 0.00093189816378443525 0.0056532680306670561 0 7.7645295197964237e-05 0.0058670022670731696 0 0.0005391774192149007 0.0054095179358416637 0 7.7645295197964237e-05 0.0058670022670731696 0 7.8684329622924395e-05 0.0052309524293158429 0 0.0005391774192149007 0.0054095179358416637 0 7.7645295197964237e-05 0.0058670022670731696 0 7.8684329622924395e-05 0.0052309524293158429 0 -0.00068025682367594837 0.0053780352768424636 0 -0.015643235711720039 0.0025872271242064985 0 -0.014562924971862906 0.0026048944930667159 0 -0.014787784766013362 0.0035298335914184611 0 -0.0076226420426310964 0.0042954332794402092 0 -0.0083127408020659561 0.004154087751444554 0 -0.015643235711720039 0.0025872271242064985 0 -0.015066369938948672 0.0018284778667432494 0 -0.014562924971862906 0.0026048944930667159 0 -0.015643235711720039 0.0025872271242064985 0 -0.015682467475368667 0.0015766350271639391 0 -0.015066369938948672 0.0018284778667432494 0 -0.015682467475368667 0.0015766350271639391 0 -0.015066369938948672 0.0018284778667432494 0 -0.015426241135076254 0.00084402995079420362 0 -0.015682467475368667 0.0015766350271639391 0 -0.015426241135076254 0.00084402995079420362 0 -0.016101307571128657 0.0011242715143465853 0 -0.015066369938948672 0.0018284778667432494 0 -0.015426241135076254 0.00084402995079420362 0 -0.014465480815959591 0.0014812300167860728 0 -0.016101307571128657 0.0011242715143465853 0 -0.016348385701870673 0.00058700848902016906 0 -0.015854077389999575 0.00042852074301401988 0 -0.015426241135076254 0.00084402995079420362 0 -0.016101307571128657 0.0011242715143465853 0 -0.015854077389999575 0.00042852074301401988 0 -0.01670492769412003 0.0012671733907338694 0 -0.016101307571128657 0.0011242715143465853 0 -0.016348385701870673 0.00058700848902016906 0 -0.01670492769412003 0.0012671733907338694 0 -0.016188502759026977 0.0018181903191915143 0 -0.016101307571128657 0.0011242715143465853 0 0.0013694148880199386 0.0066269993118592309 0 0.001318322391796412 0.0062355936703934771 0 0.00078443476784348127 0.0062691955351514873 0 -0.0066213400217492334 0.0028637288561312682 0 -0.0078729268461489067 0.0041587827123855444 0 -0.016188502759026977 0.0018181903191915143 0 -0.015682467475368667 0.0015766350271639391 0 -0.016101307571128657 0.0011242715143465853 0 -0.010915511934613605 0.0018769781074436951 0 -0.011241560019782305 0.0026196154382271859 0 -0.012332152037255776 0.0022742985080686129 0 -0.011241560019782305 0.0026196154382271859 0 -0.011298155824424982 0.0034723187219716065 0 -0.012332152037255776 0.0022742985080686129 0 -0.011298155824424982 0.0034723187219716065 0 -0.012853873606160141 0.0030390263539173275 0 -0.012332152037255776 0.0022742985080686129 0 -0.011298155824424982 0.0034723187219716065 0 -0.012853873606160141 0.0030390263539173275 0 -0.012671128600929539 0.0040267193293787558 0 -0.012853873606160141 0.0030390263539173275 0 -0.012332152037255776 0.0022742985080686129 0 -0.013621285940130175 0.0022071977264146777 0 -0.012853873606160141 0.0030390263539173275 0 -0.013621285940130175 0.0022071977264146777 0 -0.013735837396562443 0.0032623855027806591 0 -0.012853873606160141 0.0030390263539173275 0 -0.013735837396562443 0.0032623855027806591 0 -0.012671128600929539 0.0040267193293787558 0 -0.013735837396562443 0.0032623855027806591 0 -0.014562924971862906 0.0026048944930667159 0 -0.014787784766013362 0.0035298335914184611 0 -0.015066369938948672 0.0018284778667432494 0 -0.014562924971862906 0.0026048944930667159 0 -0.014465480815959591 0.0014812300167860728 0 -0.013621285940130175 0.0022071977264146777 0 -0.014562924971862906 0.0026048944930667159 0 -0.014465480815959591 0.0014812300167860728 0 -0.013621285940130175 0.0022071977264146777 0 -0.013735837396562443 0.0032623855027806591 0 -0.014562924971862906 0.0026048944930667159 0 -0.015426241135076254 0.00084402995079420362 0 -0.014465480815959591 0.0014812300167860728 0 -0.014574526512599271 0.00075900111683621381 0 -0.014465480815959591 0.0014812300167860728 0 -0.014574526512599271 0.00075900111683621381 0 -0.013506380524366191 0.0010866396593905243 0 -0.013621285940130175 0.0022071977264146777 0 -0.014465480815959591 0.0014812300167860728 0 -0.013506380524366191 0.0010866396593905243 0 -0.012332152037255776 0.0022742985080686129 0 -0.013506380524366191 0.0010866396593905243 0 -0.011996849246175736 0.00093602469339881811 0 -0.012332152037255776 0.0022742985080686129 0 -0.013621285940130175 0.0022071977264146777 0 -0.013506380524366191 0.0010866396593905243 0 -0.013506380524366191 0.0010866396593905243 0 -0.011996849246175736 0.00093602469339881811 0 -0.013069841323522374 0.00010033059828185847 0 -0.012170807570411002 0.00065571639495772883 0 -0.01296067711789119 9.8560554742555215e-05 0 -0.011813613528080722 -2.933041687037213e-05 0 -0.012305159173735938 0.00038585029370764314 0 -0.012451020584324641 3.396487681213161e-05 0 -0.010915511934613605 0.0018769781074436951 0 -0.012332152037255776 0.0022742985080686129 0 -0.011996849246175736 0.00093602469339881811 0 -0.01248295740109307 -0.00064250187144974729 0 -0.012568329051126868 -0.00041985770445412984 0 -0.012902562623682301 -0.00089553289674535017 0 -0.012568329051126868 -0.00041985770445412984 0 -0.013481191629092223 -0.00042860778225684845 0 -0.012902562623682301 -0.00089553289674535017 0 -0.012305159173735938 0.00038585029370764314 0 -0.012451020584324641 3.396487681213161e-05 0 -0.013069841323522374 0.00010033059828185847 0 -0.012568329051126868 -0.00041985770445412984 0 -0.012451020584324641 3.396487681213161e-05 0 -0.013069841323522374 0.00010033059828185847 0 -0.013506380524366191 0.0010866396593905243 0 -0.013069841323522374 0.00010033059828185847 0 -0.014152637086748378 0.00011092577857819116 0 -0.012568329051126868 -0.00041985770445412984 0 -0.013069841323522374 0.00010033059828185847 0 -0.013481191629092223 -0.00042860778225684845 0 -0.013069841323522374 0.00010033059828185847 0 -0.013481191629092223 -0.00042860778225684845 0 -0.014152637086748378 0.00011092577857819116 0 -0.013481191629092223 -0.00042860778225684845 0 -0.014152637086748378 0.00011092577857819116 0 -0.014422574228596493 -0.00094351293833983376 0 -0.014574526512599271 0.00075900111683621381 0 -0.013506380524366191 0.0010866396593905243 0 -0.014152637086748378 0.00011092577857819116 0 -0.015426241135076254 0.00084402995079420362 0 -0.014574526512599271 0.00075900111683621381 0 -0.015421455592043602 0.00016373400374061474 0 -0.014574526512599271 0.00075900111683621381 0 -0.014152637086748378 0.00011092577857819116 0 -0.015421455592043602 0.00016373400374061474 0 -0.014152637086748378 0.00011092577857819116 0 -0.015421455592043602 0.00016373400374061474 0 -0.014422574228596493 -0.00094351293833983376 0 -0.017726693682856696 -0.00058992976640046804 0 -0.016787338377451007 -0.00029654904994208395 0 -0.015421455592043602 0.00016373400374061474 0 -0.014422574228596493 -0.00094351293833983376 0 -0.016791374144386795 -0.00021522291495628703 0 -0.020098911349234246 0.0017200722209279964 0 -0.021158970399452925 -0.00042040467356598601 0 -0.016791374144386795 -0.00021522291495628703 0 -0.020098911349234246 0.0017200722209279964 0 -0.021158970399452925 -0.00042040467356598601 0 -0.02346696880633246 0.0016774489614944312 0 -0.021158970399452925 -0.00042040467356598601 0 -0.02346696880633246 0.0016774489614944312 0 -0.023882434117455907 0.0004954720744222011 0 -0.017726693682856696 -0.00058992976640046804 0 -0.018309125270619668 -0.00020631727667912408 0 -0.013481191629092223 -0.00042860778225684845 0 -0.014422574228596493 -0.00094351293833983376 0 -0.012902562623682301 -0.00089553289674535017 0 -0.024512178469522094 0.0016278881925141384 0 -0.02346696880633246 0.0016774489614944312 0 -0.023882434117455907 0.0004954720744222011 0 -0.024512178469522094 0.0016278881925141384 0 -0.02346696880633246 0.0016774489614944312 0 -0.024634902315867589 0.0025068246440229803 0 -0.015591061931712929 6.3167483419779332e-05 0 -0.015953599035606548 6.6756085973530469e-05 0 -0.015707100981139994 0.00055207365215700021 0 -0.015591061931712929 6.3167483419779332e-05 0 -0.015854077389999575 0.00042852074301401988 0 -0.015953599035606548 6.6756085973530469e-05 0 -0.014175430156601498 9.1570300731147239e-05 0 -0.015591061931712929 6.3167483419779332e-05 0 -0.014531162204571057 0.00078797556379135746 0 -0.014175430156601498 9.1570300731147239e-05 0 -0.015591061931712929 6.3167483419779332e-05 0 -0.014412452716893967 -0.00074768791508720862 0 -0.015432839826574537 3.8597468465519323e-05 0 -0.01640945855890644 -0.0005734864123863254 0 -0.015591061931712929 6.3167483419779332e-05 0 -0.014412452716893967 -0.00074768791508720862 0 -0.014717640335736035 -0.0013506744218497366 0 -0.015591061931712929 6.3167483419779332e-05 0 -0.016348385701870673 0.00058700848902016906 0 -0.015854077389999575 0.00042852074301401988 0 -0.015426241135076254 0.00084402995079420362 0 -0.015854077389999575 0.00042852074301401988 0 -0.015953599035606548 6.6756085973530469e-05 0 -0.015426241135076254 0.00084402995079420362 0 -0.015421455592043602 0.00016373400374061474 0 -0.015953599035606548 6.6756085973530469e-05 0 -0.015421455592043602 0.00016373400374061474 0 -0.015953599035606548 6.6756085973530469e-05 0 -0.016791374144386795 -0.00021522291495628703 0 -0.015953599035606548 6.6756085973530469e-05 0 -0.016791374144386795 -0.00021522291495628703 0 -0.015707100981139994 0.00055207365215700021 0 -0.020098911349234246 0.0017200722209279964 0 -0.016791374144386795 -0.00021522291495628703 0 -0.016622193271980827 0.0018812112897589133 0 -0.016791374144386795 -0.00021522291495628703 0 -0.015707100981139994 0.00055207365215700021 0 -0.016622193271980827 0.0018812112897589133 0 -0.015450778413869276 0.0017119444847885667 0 -0.015707100981139994 0.00055207365215700021 0 -0.016622193271980827 0.0018812112897589133 0 -0.015450778413869276 0.0017119444847885667 0 -0.015707100981139994 0.00055207365215700021 0 -0.014828434001961831 0.0014291275999687614 0 -0.015591061931712929 6.3167483419779332e-05 0 -0.015707100981139994 0.00055207365215700021 0 -0.014531162204571057 0.00078797556379135746 0 -0.015707100981139994 0.00055207365215700021 0 -0.014531162204571057 0.00078797556379135746 0 -0.014828434001961831 0.0014291275999687614 0 -0.013854035152344872 0.0017685631180445434 0 -0.014828434001961831 0.0014291275999687614 0 -0.014690577532288791 0.0022726237464951882 0 -0.013854035152344872 0.0017685631180445434 0 -0.014531162204571057 0.00078797556379135746 0 -0.014828434001961831 0.0014291275999687614 0 -0.015450778413869276 0.0017119444847885667 0 -0.014828434001961831 0.0014291275999687614 0 -0.014690577532288791 0.0022726237464951882 0 -0.014690577532288791 0.0022726237464951882 0 -0.014966790481948553 0.0034837654637088519 0 -0.013903124913790891 0.002585666576903099 0 -0.01555411361659359 0.0026830436821262066 0 -0.016480900096529479 0.0037952605966944317 0 -0.014966790481948553 0.0034837654637088519 0 -0.020680774597124585 0.0030505813945158567 0 -0.019552075807355379 0.0026074343227839472 0 -0.014690577532288791 0.0022726237464951882 0 -0.01555411361659359 0.0026830436821262066 0 -0.014966790481948553 0.0034837654637088519 0 -0.015450778413869276 0.0017119444847885667 0 -0.014690577532288791 0.0022726237464951882 0 -0.01555411361659359 0.0026830436821262066 0 -0.01555411361659359 0.0026830436821262066 0 -0.016622193271980827 0.0018812112897589133 0 -0.016480900096529479 0.0037952605966944317 0 -0.015450778413869276 0.0017119444847885667 0 -0.01555411361659359 0.0026830436821262066 0 -0.016622193271980827 0.0018812112897589133 0 -0.020680774597124585 0.0030505813945158567 0 -0.021960066986686535 0.003441771982003735 0 -0.024867759306477725 0.0022865839800049032 0 -0.024930187050606858 0.0025728193837892682 0 -0.024707758352733065 0.0029978181731583268 0 -0.016622193271980827 0.0018812112897589133 0 -0.016480900096529479 0.0037952605966944317 0 -0.019184136642954892 0.0040138662538400996 0 -0.024867759306477725 0.0022865839800049032 0 -0.024930187050606858 0.0025728193837892682 0 -0.024846354458940661 0.0024530024235317445 0 -0.024930187050606858 0.0025728193837892682 0 -0.025107076441190802 0.0025915928271307322 0 -0.024846354458940661 0.0024530024235317445 0 -0.024846354458940661 0.0024530024235317445 0 -0.024164980448882326 0.002428493675881189 0 -0.024425173987829462 0.0029856691077720524 0 -0.024846354458940661 0.0024530024235317445 0 -0.024164980448882326 0.002428493675881189 0 -0.024166092087139011 0.0017061655831095898 0 -0.024164980448882326 0.002428493675881189 0 -0.023455942900496605 0.0030942287751065667 0 -0.022580929483826728 0.0013272805180981743 0 -0.024164980448882326 0.002428493675881189 0 -0.024166092087139011 0.0017061655831095898 0 -0.022580929483826728 0.0013272805180981743 0 -0.019552075807355379 0.0026074343227839472 0 -0.018189546769371026 0.0023461529929933744 0 -0.024867759306477725 0.0022865839800049032 0 -0.024846354458940661 0.0024530024235317445 0 -0.024166092087139011 0.0017061655831095898 0 -0.023193136527406687 0.0032834409657882583 0 -0.024538263662845228 0.0027053010669494566 0 -0.023872239327551614 0.0032624992593638298 0 -0.024644189270873081 0.0024966914471211037 0 -0.024535366204637209 0.0029123552415589973 0 -0.024634902315867589 0.0025068246440229803 0 -0.023193136527406687 0.0032834409657882583 0 -0.023872239327551614 0.0032624992593638298 0 -0.02346696880633246 0.0016774489614944312 0 -0.024634902315867589 0.0025068246440229803 0 -0.023193136527406687 0.0032834409657882583 0 -0.023138184526782068 0.0032999185481294812 0 -0.021960066986686535 0.003441771982003735 0 -0.023193136527406687 0.0032834409657882583 0 -0.024707758352733065 0.0029978181731583268 0 -0.024538263662845228 0.0027053010669494566 0 -0.020098911349234246 0.0017200722209279964 0 -0.023193136527406687 0.0032834409657882583 0 -0.019184136642954892 0.0040138662538400996 0 -0.020098911349234246 0.0017200722209279964 0 -0.02346696880633246 0.0016774489614944312 0 -0.023193136527406687 0.0032834409657882583 0 -0.020098911349234246 0.0017200722209279964 0 -0.016622193271980827 0.0018812112897589133 0 -0.019184136642954892 0.0040138662538400996 0 -0.024930187050606858 0.0025728193837892682 0 -0.024707758352733065 0.0029978181731583268 0 -0.024538263662845228 0.0027053010669494566 0 -0.025107076441190802 0.0025915928271307322 0 -0.024538263662845228 0.0027053010669494566 0 -0.025025400055682961 0.0026200634397426231 0 -0.024930187050606858 0.0025728193837892682 0 -0.025107076441190802 0.0025915928271307322 0 -0.024538263662845228 0.0027053010669494566 0 -0.024538263662845228 0.0027053010669494566 0 -0.024468567127075635 0.0026783782238136936 0 -0.025025400055682961 0.0026200634397426231 0 -0.024538263662845228 0.0027053010669494566 0 -0.024468567127075635 0.0026783782238136936 0 -0.023872239327551614 0.0032624992593638298 0 -0.025351178683241087 0.0026375325873621925 0 -0.025397192266387453 0.0026086982780482823 0 -0.025119449466208029 0.0026562680018161152 0 -0.024937186344890293 0.0026892642709155181 0 -0.024535366204637209 0.0029123552415589973 0 -0.025687672861086443 0.002609275889806814 0 -0.02559105901804605 0.0026265248312938483 0 -0.025823513389522927 0.0026611597671770217 0 -0.025687672861086443 0.002609275889806814 0 -0.025518522654408637 0.0026195425167470066 0 -0.02559105901804605 0.0026265248312938483 0 -0.025351178683241087 0.0026375325873621925 0 -0.025397192266387453 0.0026086982780482823 0 -0.02559105901804605 0.0026265248312938483 0 -0.024937186344890293 0.0026892642709155181 0 -0.025309946365150129 0.0026549569332126595 0 -0.025397192266387453 0.0026086982780482823 0 -0.02559105901804605 0.0026265248312938483 0 -0.025406890231987906 0.0026422189982178972 0 -0.02559105901804605 0.0026265248312938483 0 -0.025406890231987906 0.0026422189982178972 0 -0.025823513389522927 0.0026611597671770217 0 -0.025406890231987906 0.0026422189982178972 0 -0.025480206390704186 0.0027692987579374996 0 -0.025849072810747695 0.0027359488218261078 0 -0.024468567127075635 0.0026783782238136936 0 -0.025406890231987906 0.0026422189982178972 0 -0.025025400055682961 0.0026200634397426231 0 -0.025406890231987906 0.0026422189982178972 0 -0.025025400055682961 0.0026200634397426231 0 -0.025480206390704186 0.0027692987579374996 0 -0.025107076441190802 0.0025915928271307322 0 -0.025025400055682961 0.0026200634397426231 0 -0.025480206390704186 0.0027692987579374996 0 -0.025480206390704186 0.0027692987579374996 0 -0.025849072810747695 0.0027359488218261078 0 -0.025849569131398697 0.0028200558007940922 0 -0.025849072810747695 0.0027359488218261078 0 -0.025849569131398697 0.0028200558007940922 0 -0.026351056650150171 0.0026915921252891376 0 -0.025849072810747695 0.0027359488218261078 0 -0.026254864264094284 0.0026329860797564171 0 -0.026351056650150171 0.0026915921252891376 0 -0.025406890231987906 0.0026422189982178972 0 -0.025849072810747695 0.0027359488218261078 0 -0.025823513389522927 0.0026611597671770217 0 -0.025849072810747695 0.0027359488218261078 0 -0.025823513389522927 0.0026611597671770217 0 -0.026254864264094284 0.0026329860797564171 0 -0.025786339507266522 0.0025575250774813128 0 -0.025823513389522927 0.0026611597671770217 0 -0.026118931564397065 0.0025192024608921243 0 -0.025823513389522927 0.0026611597671770217 0 -0.026118931564397065 0.0025192024608921243 0 -0.026254864264094284 0.0026329860797564171 0 -0.025687672861086443 0.002609275889806814 0 -0.025786339507266522 0.0025575250774813128 0 -0.025823513389522927 0.0026611597671770217 0 -0.024327435461842621 0.003402373829947142 0 -0.024425173987829462 0.0029856691077720524 0 -0.024837619177592196 0.0031514864433802572 0 -0.024327435461842621 0.003402373829947142 0 -0.02379860895022962 0.0033627307440441444 0 -0.023979406467392189 0.0037364389706035237 0 -0.024327435461842621 0.003402373829947142 0 -0.02379860895022962 0.0033627307440441444 0 -0.024425173987829462 0.0029856691077720524 0 -0.024164980448882326 0.002428493675881189 0 -0.024425173987829462 0.0029856691077720524 0 -0.023455942900496605 0.0030942287751065667 0 -0.02379860895022962 0.0033627307440441444 0 -0.024425173987829462 0.0029856691077720524 0 -0.023455942900496605 0.0030942287751065667 0 -0.024846354458940661 0.0024530024235317445 0 -0.024425173987829462 0.0029856691077720524 0 -0.025161960137661882 0.002813057777052133 0 -0.025107076441190802 0.0025915928271307322 0 -0.024846354458940661 0.0024530024235317445 0 -0.025161960137661882 0.002813057777052133 0 -0.025107076441190802 0.0025915928271307322 0 -0.025480206390704186 0.0027692987579374996 0 -0.025161960137661882 0.002813057777052133 0 -0.025480206390704186 0.0027692987579374996 0 -0.025161960137661882 0.002813057777052133 0 -0.025620145897998263 0.0030395930904172424 0 -0.025161960137661882 0.002813057777052133 0 -0.024837619177592196 0.0031514864433802572 0 -0.025620145897998263 0.0030395930904172424 0 -0.024425173987829462 0.0029856691077720524 0 -0.025161960137661882 0.002813057777052133 0 -0.024837619177592196 0.0031514864433802572 0 -0.025620145897998263 0.0030395930904172424 0 -0.026091518896087552 0.0027063609589797542 0 -0.026179508250267169 0.0028129798386136665 0 -0.025600580804481941 0.0030928256940202306 0 -0.02533447431897784 0.0032938702511778814 0 -0.024837619177592196 0.0031514864433802572 0 -0.025620145897998263 0.0030395930904172424 0 -0.024582191998595303 0.0038099306431987339 0 -0.025480206390704186 0.0027692987579374996 0 -0.025849569131398697 0.0028200558007940922 0 -0.025620145897998263 0.0030395930904172424 0 -0.025849569131398697 0.0028200558007940922 0 -0.025620145897998263 0.0030395930904172424 0 -0.026091518896087552 0.0027063609589797542 0 -0.025849569131398697 0.0028200558007940922 0 -0.026091518896087552 0.0027063609589797542 0 -0.026351056650150171 0.0026915921252891376 0 -0.026091518896087552 0.0027063609589797542 0 -0.026192329018270587 0.0027104878630138372 0 -0.026179508250267169 0.0028129798386136665 0 -0.026192329018270587 0.0027104878630138372 0 -0.026153252186059416 0.0027270165043421718 0 -0.026179508250267169 0.0028129798386136665 0 -0.026192329018270587 0.0027104878630138372 0 -0.026153252186059416 0.0027270165043421718 0 -0.026148102381086873 0.0027445924452139119 0 -0.024327435461842621 0.003402373829947142 0 -0.024582191998595303 0.0038099306431987339 0 -0.023979406467392189 0.0037364389706035237 0 -0.024327435461842621 0.003402373829947142 0 -0.024837619177592196 0.0031514864433802572 0 -0.024582191998595303 0.0038099306431987339 0 -0.024582191998595303 0.0038099306431987339 0 -0.023979406467392189 0.0037364389706035237 0 -0.023838309777276398 0.0040535566865242774 0 -0.02533447431897784 0.0032938702511778814 0 -0.025064103686068963 0.0033303999397148541 0 -0.02379860895022962 0.0033627307440441444 0 -0.023979406467392189 0.0037364389706035237 0 -0.023639476053362123 0.0036656258723933854 0 -0.023980478867942565 0.0037460830776158672 0 -0.023479359353396893 0.0040994915809271833 0 -0.023979406467392189 0.0037364389706035237 0 -0.023838309777276398 0.0040535566865242774 0 -0.02363620197176244 0.004012714168182668 0 -0.023979406467392189 0.0037364389706035237 0 -0.023585463409155235 0.0040178815572439984 0 -0.023639476053362123 0.0036656258723933854 0 -0.026153252186059416 0.0027270165043421718 0 -0.026179508250267169 0.0028129798386136665 0 -0.026091317638114609 0.0026804326152911105 0 -0.026153252186059416 0.0027270165043421718 0 -0.026091317638114609 0.0026804326152911105 0 -0.02608649227965339 0.0027417642948144418 0 -0.026153252186059416 0.0027270165043421718 0 -0.02608649227965339 0.0027417642948144418 0 -0.026148102381086873 0.0027445924452139119 0 -0.026091317638114609 0.0026804326152911105 0 -0.02608649227965339 0.0027417642948144418 0 -0.025998398226577433 0.0027378381838656031 0 -0.023838309777276398 0.0040535566865242774 0 -0.02363620197176244 0.004012714168182668 0 -0.023332727205612497 0.0042004864069300008 0 -0.025064103686068963 0.0033303999397148541 0 -0.024148703543910147 0.0037168205337243534 0 -0.026091317638114609 0.0026804326152911105 0 -0.025998398226577433 0.0027378381838656031 0 -0.025861333691273965 0.0027003942929433801 0 -0.023479359353396893 0.0040994915809271833 0 -0.024148703543910147 0.0037168205337243534 0 -0.023585463409155235 0.0040178815572439984 0 -0.023333747831851763 0.0040292313947985154 0 -0.023218762334650447 0.0042727480106839119 0 -0.025998398226577433 0.0027378381838656031 0 -0.025861333691273965 0.0027003942929433801 0 -0.025920404683855928 0.00279775428005482 0 -0.024148703543910147 0.0037168205337243534 0 -0.022860089575245806 0.0043189674251235387 0 -0.021291957674195661 0.0070997381408041977 0 -0.020440324147859401 0.0077717355875000175 0 -0.020279391414119882 0.0087150602949076002 0 -0.021895457891574446 0.0059486652845348173 0 -0.023483959063997934 0.0049523222099485198 0 -0.022947910163710464 0.004373138951900747 0 -0.023097546095308775 0.0040001839595409042 0 -0.022813460243178672 0.0045587885739124803 0 -0.024148703543910147 0.0037168205337243534 0 -0.023483959063997934 0.0049523222099485198 0 -0.023229119461442134 0.0042743424555013272 0 -0.022947910163710464 0.004373138951900747 0 -0.022813460243178672 0.0045587885739124803 0 -0.020499534282734762 0.0073553789541206966 0 -0.021291957674195661 0.0070997381408041977 0 -0.020440324147859401 0.0077717355875000175 0 -0.023218762334650447 0.0042727480106839119 0 -0.022947910163710464 0.004373138951900747 0 -0.023097546095308775 0.0040001839595409042 0 -0.023333747831851763 0.0040292313947985154 0 -0.023218762334650447 0.0042727480106839119 0 -0.023097546095308775 0.0040001839595409042 0 -0.021291957674195661 0.0070997381408041977 0 -0.020112420385626866 0.0058478229291634883 0 -0.022407987465552118 0.0052395731041324552 0 -0.021895457891574446 0.0059486652845348173 0 -0.022954996119641809 0.0042194964537042284 0 -0.020499534282734762 0.0073553789541206966 0 -0.021291957674195661 0.0070997381408041977 0 -0.020214127328195605 0.0069564477287523199 0 -0.021291957674195661 0.0070997381408041977 0 -0.020214127328195605 0.0069564477287523199 0 -0.020112420385626866 0.0058478229291634883 0 -0.023639476053362123 0.0036656258723933854 0 -0.023433077911788183 0.0038232631983137078 0 -0.02340235895613179 0.0034420756970057181 0 -0.023097546095308775 0.0040001839595409042 0 -0.023433077911788183 0.0038232631983137078 0 -0.02340235895613179 0.0034420756970057181 0 -0.023585463409155235 0.0040178815572439984 0 -0.023639476053362123 0.0036656258723933854 0 -0.023433077911788183 0.0038232631983137078 0 -0.023585463409155235 0.0040178815572439984 0 -0.023333747831851763 0.0040292313947985154 0 -0.023433077911788183 0.0038232631983137078 0 -0.023333747831851763 0.0040292313947985154 0 -0.023097546095308775 0.0040001839595409042 0 -0.023433077911788183 0.0038232631983137078 0 -0.018284509240251243 0.0072555384816350319 0 -0.018492803688748356 0.0073080248534678864 0 -0.018324696859671943 0.0072396065300886214 0 -0.017781286945266643 0.0065978925177728413 0 -0.017035673556522805 0.0072061786955256993 0 -0.018324696859671943 0.0072396065300886214 0 -0.018355227324351756 0.0072773812509082216 0 -0.017781286945266643 0.0065978925177728413 0 -0.018630121500599863 0.0067905539311250099 0 -0.018324696859671943 0.0072396065300886214 0 -0.019109978271623092 0.0068208174130216957 0 -0.018630121500599863 0.0067905539311250099 0 -0.018355227324351756 0.0072773812509082216 0 -0.018680291381972833 0.0062544554886212423 0 -0.018630121500599863 0.0067905539311250099 0 -0.019109978271623092 0.0068208174130216957 0 -0.018920637991858589 0.0065437849602657076 0 -0.018770938102058703 0.007722471124501573 0 -0.019218007104075212 0.0081252168319996803 0 -0.019352871419074776 0.0088021868959242185 0 -0.018630121500599863 0.0067905539311250099 0 -0.018324696859671943 0.0072396065300886214 0 -0.018355227324351756 0.0072773812509082216 0 -0.018770938102058703 0.007722471124501573 0 -0.019177790940360418 0.0077443826307304654 0 -0.019218007104075212 0.0081252168319996803 0 -0.018770938102058703 0.007722471124501573 0 -0.019177790940360418 0.0077443826307304654 0 -0.019185909776913493 0.0071001392054510096 0 -0.019695349657890569 0.0072057523774845386 0 -0.019511056693958147 0.0076246284488790611 0 -0.019185909776913493 0.0071001392054510096 0 -0.019511056693958147 0.0076246284488790611 0 -0.019738945366031543 0.0079944236176840693 0 -0.020056071750185273 0.0075690525087392189 0 -0.019695349657890569 0.0072057523774845386 0 -0.019511056693958147 0.0076246284488790611 0 -0.020056071750185273 0.0075690525087392189 0 -0.019511056693958147 0.0076246284488790611 0 -0.019177790940360418 0.0077443826307304654 0 -0.019428158251649397 0.0079533655634860829 0 -0.019511056693958147 0.0076246284488790611 0 -0.019177790940360418 0.0077443826307304654 0 -0.019185909776913493 0.0071001392054510096 0 -0.019177790940360418 0.0077443826307304654 0 -0.019428158251649397 0.0079533655634860829 0 -0.019218007104075212 0.0081252168319996803 0 -0.019428158251649397 0.0079533655634860829 0 -0.019218007104075212 0.0081252168319996803 0 -0.019497995328975129 0.0082717274107826366 0 -0.019497995328975129 0.0082717274107826366 0 -0.019738945366031543 0.0079944236176840693 0 -0.01982779316034259 0.0084646881867192075 0 -0.019428158251649397 0.0079533655634860829 0 -0.019497995328975129 0.0082717274107826366 0 -0.019738945366031543 0.0079944236176840693 0 -0.019511056693958147 0.0076246284488790611 0 -0.019428158251649397 0.0079533655634860829 0 -0.019738945366031543 0.0079944236176840693 0 -0.020079162942244926 0.0081114804898921415 0 -0.020440324147859401 0.0077717355875000175 0 -0.020279391414119882 0.0087150602949076002 0 -0.019738945366031543 0.0079944236176840693 0 -0.020079162942244926 0.0081114804898921415 0 -0.020056071750185273 0.0075690525087392189 0 -0.019738945366031543 0.0079944236176840693 0 -0.020079162942244926 0.0081114804898921415 0 -0.01982779316034259 0.0084646881867192075 0 -0.020079162942244926 0.0081114804898921415 0 -0.020440324147859401 0.0077717355875000175 0 -0.020056071750185273 0.0075690525087392189 0 -0.020499534282734762 0.0073553789541206966 0 -0.020440324147859401 0.0077717355875000175 0 -0.020056071750185273 0.0075690525087392189 0 -0.019695349657890569 0.0072057523774845386 0 -0.020056071750185273 0.0075690525087392189 0 -0.020214127328195605 0.0069564477287523199 0 -0.020499534282734762 0.0073553789541206966 0 -0.020056071750185273 0.0075690525087392189 0 -0.020214127328195605 0.0069564477287523199 0 -0.020112420385626866 0.0058478229291634883 0 -0.0195411374464706 0.0065716316941518823 0 -0.01835541860931492 0.0056625560048547841 0 -0.019695349657890569 0.0072057523774845386 0 -0.020214127328195605 0.0069564477287523199 0 -0.0195411374464706 0.0065716316941518823 0 -0.020214127328195605 0.0069564477287523199 0 -0.020112420385626866 0.0058478229291634883 0 -0.0195411374464706 0.0065716316941518823 0 -0.019695349657890569 0.0072057523774845386 0 -0.0195411374464706 0.0065716316941518823 0 -0.019185909776913493 0.0071001392054510096 0 -0.0195411374464706 0.0065716316941518823 0 -0.019185909776913493 0.0071001392054510096 0 -0.01835541860931492 0.0056625560048547841 0 -0.018770938102058703 0.007722471124501573 0 -0.019185909776913493 0.0071001392054510096 0 -0.01835541860931492 0.0056625560048547841 0 -0.01828354954754649 0.0078008236726917861 0 -0.018416917946579243 0.0056332894729681816 0 -0.018355227324351756 0.0072773812509082216 0 -0.017781286945266643 0.0065978925177728413 0 -0.01835541860931492 0.0056625560048547841 0 -0.020112420385626866 0.0058478229291634883 0 -0.01835541860931492 0.0056625560048547841 0 -0.018465464079214466 0.0044136137304747027 0 -0.01835541860931492 0.0056625560048547841 0 -0.018465464079214466 0.0044136137304747027 0 -0.016574134505980238 0.0054414783158726176 0 -0.020112420385626866 0.0058478229291634883 0 -0.01990453220094399 0.0036706962110489116 0 -0.018465464079214466 0.0044136137304747027 0 -0.020112420385626866 0.0058478229291634883 0 -0.01990453220094399 0.0036706962110489116 0 -0.02148147962870859 0.004126246598849968 0 -0.01990453220094399 0.0036706962110489116 0 -0.018465464079214466 0.0044136137304747027 0 -0.018619226889177064 0.0028799813466552282 0 -0.018465464079214466 0.0044136137304747027 0 -0.018619226889177064 0.0028799813466552282 0 -0.017225326794256424 0.0036222939758448511 0 -0.022954996119641809 0.0042194964537042284 0 -0.023411681751711103 0.0032289890062363984 0 -0.02379860895022962 0.0033627307440441444 0 -0.02340235895613179 0.0034420756970057181 0 -0.023455942900496605 0.0030942287751065667 0 -0.02379860895022962 0.0033627307440441444 0 -0.023639476053362123 0.0036656258723933854 0 -0.02340235895613179 0.0034420756970057181 0 -0.020112420385626866 0.0058478229291634883 0 -0.022407987465552118 0.0052395731041324552 0 -0.02148147962870859 0.004126246598849968 0 -0.01990453220094399 0.0036706962110489116 0 -0.02148147962870859 0.004126246598849968 0 -0.021528886471736796 0.0027305167784031086 0 -0.022407987465552118 0.0052395731041324552 0 -0.02148147962870859 0.004126246598849968 0 -0.023455942900496605 0.0030942287751065667 0 -0.02148147962870859 0.004126246598849968 0 -0.023455942900496605 0.0030942287751065667 0 -0.021528886471736796 0.0027305167784031086 0 -0.023455942900496605 0.0030942287751065667 0 -0.022580929483826728 0.0013272805180981743 0 -0.021528886471736796 0.0027305167784031086 0 -0.018189546769371026 0.0023461529929933744 0 -0.016539110623828821 0.002231053574667869 0 -0.013839700655427421 0.0033459707906454404 0 -0.013011816395207787 0.0031033408293528555 0 -0.013226744557661619 0.0026893221621626805 0 -0.022580929483826728 0.0013272805180981743 0 -0.021528886471736796 0.0027305167784031086 0 -0.020043759479356233 0.0013547082872849901 0 -0.01990453220094399 0.0036706962110489116 0 -0.021528886471736796 0.0027305167784031086 0 -0.020043759479356233 0.0013547082872849901 0 -0.01990453220094399 0.0036706962110489116 0 -0.018619226889177064 0.0028799813466552282 0 -0.020043759479356233 0.0013547082872849901 0 -0.013011816395207787 0.0031033408293528555 0 -0.012512183023348672 0.0026029396666955675 0 -0.012748502718560092 0.0027452474336757729 0 -0.016539110623828821 0.002231053574667869 0 -0.014968511999908169 0.00228025532570961 0 -0.018619226889177064 0.0028799813466552282 0 -0.017104754647763318 0.0017285803545570319 0 -0.017225326794256424 0.0036222939758448511 0 -0.018619226889177064 0.0028799813466552282 0 -0.020043759479356233 0.0013547082872849901 0 -0.017104754647763318 0.0017285803545570319 0 -0.013011816395207787 0.0031033408293528555 0 -0.012748502718560092 0.0027452474336757729 0 -0.012843220281284437 0.0027260506666756802 0 -0.013011816395207787 0.0031033408293528555 0 -0.012512183023348672 0.0026029396666955675 0 -0.013226744557661619 0.0026893221621626805 0 -0.012512183023348672 0.0026029396666955675 0 -0.013169977921612024 0.0020509994953356227 0 -0.013226744557661619 0.0026893221621626805 0 -0.012521934793337179 0.0014556279671034797 0 -0.012512183023348672 0.0026029396666955675 0 -0.013169977921612024 0.0020509994953356227 0 -0.013169977921612024 0.0020509994953356227 0 -0.013903124913790891 0.002585666576903099 0 -0.013226744557661619 0.0026893221621626805 0 -0.013854035152344872 0.0017685631180445434 0 -0.013169977921612024 0.0020509994953356227 0 -0.013903124913790891 0.002585666576903099 0 -0.013854035152344872 0.0017685631180445434 0 -0.014690577532288791 0.0022726237464951882 0 -0.013903124913790891 0.002585666576903099 0 -0.014966790481948553 0.0034837654637088519 0 -0.013839700655427421 0.0033459707906454404 0 -0.013903124913790891 0.002585666576903099 0 -0.013839700655427421 0.0033459707906454404 0 -0.013903124913790891 0.002585666576903099 0 -0.013226744557661619 0.0026893221621626805 0 -0.012903647677983918 0.0026706676037544183 0 -0.012913525181091436 0.0025870888342023322 0 -0.012879528737872547 0.0025356804342858957 0 -0.0082172774328434679 0.0026565878954729109 0 -0.0079797241194874934 0.0026414649549574608 0 -0.0033190483672047139 0.0028167654558310267 0 -0.0033234969652308787 0.0028810217465053932 0 -0.0033762177031831223 0.002641630321852858 0 -0.0033699480244639719 0.0029100126516441085 0 -0.0033762177031831223 0.002641630321852858 0 -0.0036210966117190702 0.0026518010389789586 0 -0.0033699480244639719 0.0029100126516441085 0 -0.0033234969652308787 0.0028810217465053932 0 -0.0033762177031831223 0.002641630321852858 0 -0.0032842513033600204 0.0028937096839220201 0 -0.0033699480244639719 0.0029100126516441085 0 -0.0033234969652308787 0.0028810217465053932 0 -0.0033190483672047139 0.0028167654558310267 0 -0.0033234969652308787 0.0028810217465053932 0 -0.0033535441180918947 0.0028585136683777755 0 -0.0082172774328434679 0.0026565878954729109 0 -0.0076112805868219988 0.0031289997753200928 0 -0.012903647677983918 0.0026706676037544183 0 -0.012807520238123388 0.0028163245573961087 0 -0.012848560620093576 0.0026675499460475809 0 -0.01414993360603518 0.0026998024470987364 0 -0.0076112805868219988 0.0031289997753200928 0 -0.011829653398486406 0.0013731147764382233 0 -0.012512183023348672 0.0026029396666955675 0 -0.011076082130650481 0.0020818839380135406 0 -0.012512183023348672 0.0026029396666955675 0 -0.012807520238123388 0.0028163245573961087 0 -0.012848560620093576 0.0026675499460475809 0 -0.012512183023348672 0.0026029396666955675 0 -0.012848560620093576 0.0026675499460475809 0 -0.012748502718560092 0.0027452474336757729 0 -0.012903647677983918 0.0026706676037544183 0 -0.012848560620093576 0.0026675499460475809 0 -0.012913525181091436 0.0025870888342023322 0 -0.012848560620093576 0.0026675499460475809 0 -0.013050173301617401 0.002685930769656552 0 -0.012913525181091436 0.0025870888342023322 0 -0.013050173301617401 0.002685930769656552 0 -0.012892164098538111 0.0024839052028768952 0 -0.012913525181091436 0.0025870888342023322 0 -0.013050173301617401 0.002685930769656552 0 -0.012748502718560092 0.0027452474336757729 0 -0.012843220281284437 0.0027260506666756802 0 -0.012848560620093576 0.0026675499460475809 0 -0.013050173301617401 0.002685930769656552 0 -0.012748502718560092 0.0027452474336757729 0 -0.014968511999908169 0.00228025532570961 0 -0.013569470214004294 0.0026955369285836537 0 -0.017104754647763318 0.0017285803545570319 0 -0.013497073871280064 0.0027571221991432833 0 -0.015126344613091015 0.003961988751482722 0 -0.013050173301617401 0.002685930769656552 0 -0.013497073871280064 0.0027571221991432833 0 -0.012892164098538111 0.0024839052028768952 0 -0.013050173301617401 0.002685930769656552 0 -0.012843220281284437 0.0027260506666756802 0 -0.013497073871280064 0.0027571221991432833 0 -0.013497073871280064 0.0027571221991432833 0 -0.012123152406375712 0.0030996167987630582 0 -0.012650319268690801 0.00376972538432159 0 -0.013497073871280064 0.0027571221991432833 0 -0.012892164098538111 0.0024839052028768952 0 -0.012123152406375712 0.0030996167987630582 0 -0.012892164098538111 0.0024839052028768952 0 -0.012913525181091436 0.0025870888342023322 0 -0.012879528737872547 0.0025356804342858957 0 -0.013924891811119609 0.00236747102953526 0 -0.0092351674189106083 0.0026815758585296257 0 -0.0033762177031831223 0.002641630321852858 0 -0.0036081278968209899 0.0025352367875845008 0 -0.0036398667711516333 0.0023493952280562178 0 -0.012892164098538111 0.0024839052028768952 0 -0.012879528737872547 0.0025356804342858957 0 -0.012800117084533056 0.0025489867650614136 0 -0.0079797241194874934 0.0026414649549574608 0 -0.0092351674189106083 0.0026815758585296257 0 -0.012892164098538111 0.0024839052028768952 0 -0.012123152406375712 0.0030996167987630582 0 -0.010850812968743448 0.0022902270193722856 0 -0.012123152406375712 0.0030996167987630582 0 -0.011067147106417567 0.002970145142811889 0 -0.010850812968743448 0.0022902270193722856 0 -0.012123152406375712 0.0030996167987630582 0 -0.011350600622435156 0.0034830447285104675 0 -0.011067147106417567 0.002970145142811889 0 -0.011350600622435156 0.0034830447285104675 0 -0.011873489189287847 0.0038539208629658596 0 -0.011005251954322963 0.0042449313244113029 0 -0.012123152406375712 0.0030996167987630582 0 -0.011350600622435156 0.0034830447285104675 0 -0.011873489189287847 0.0038539208629658596 0 -0.011873489189287847 0.0038539208629658596 0 -0.011908994895847392 0.0051137771909945265 0 -0.011005251954322963 0.0042449313244113029 0 -0.011873489189287847 0.0038539208629658596 0 -0.012650319268690801 0.00376972538432159 0 -0.011908994895847392 0.0051137771909945265 0 -0.012123152406375712 0.0030996167987630582 0 -0.011873489189287847 0.0038539208629658596 0 -0.012650319268690801 0.00376972538432159 0 -0.013497073871280064 0.0027571221991432833 0 -0.012650319268690801 0.00376972538432159 0 -0.013600319355831995 0.0045399316074312759 0 -0.012650319268690801 0.00376972538432159 0 -0.011908994895847392 0.0051137771909945265 0 -0.013600319355831995 0.0045399316074312759 0 -0.013339769247222653 0.0057049750803812504 0 -0.011908994895847392 0.0051137771909945265 0 -0.013600319355831995 0.0045399316074312759 0 -0.013339769247222653 0.0057049750803812504 0 -0.011908994895847392 0.0051137771909945265 0 -0.01254021255014197 0.0061738571438575253 0 -0.011908994895847392 0.0051137771909945265 0 -0.011549013919960537 0.0062515563013999902 0 -0.010224201429839578 0.0051636029311791795 0 -0.011908994895847392 0.0051137771909945265 0 -0.011549013919960537 0.0062515563013999902 0 -0.01254021255014197 0.0061738571438575253 0 -0.017104754647763318 0.0017285803545570319 0 -0.017225326794256424 0.0036222939758448511 0 -0.015126344613091015 0.003961988751482722 0 -0.017225326794256424 0.0036222939758448511 0 -0.015126344613091015 0.003961988751482722 0 -0.015409848843659214 0.0059217726360175499 0 -0.013497073871280064 0.0027571221991432833 0 -0.013600319355831995 0.0045399316074312759 0 -0.015126344613091015 0.003961988751482722 0 -0.013600319355831995 0.0045399316074312759 0 -0.015126344613091015 0.003961988751482722 0 -0.015409848843659214 0.0059217726360175499 0 -0.013339769247222653 0.0057049750803812504 0 -0.013600319355831995 0.0045399316074312759 0 -0.015409848843659214 0.0059217726360175499 0 -0.013339769247222653 0.0057049750803812504 0 -0.015409848843659214 0.0059217726360175499 0 -0.01402247848153952 0.006717926076970449 0 -0.018465464079214466 0.0044136137304747027 0 -0.017225326794256424 0.0036222939758448511 0 -0.016574134505980238 0.0054414783158726176 0 -0.017285532135493803 0.0035833784760104094 0 -0.015625621448196257 0.0058781470316058857 0 -0.017781286945266643 0.0065978925177728413 0 -0.016574134505980238 0.0054414783158726176 0 -0.017035673556522805 0.0072061786955256993 0 -0.017781286945266643 0.0065978925177728413 0 -0.01835541860931492 0.0056625560048547841 0 -0.016574134505980238 0.0054414783158726176 0 -0.016574134505980238 0.0054414783158726176 0 -0.015777504510525918 0.0070394831648438469 0 -0.017035673556522805 0.0072061786955256993 0 -0.015625621448196257 0.0058781470316058857 0 -0.017814521669036527 0.0068065326082402114 0 -0.015409848843659214 0.0059217726360175499 0 -0.01402247848153952 0.006717926076970449 0 -0.014253986119940569 0.0077044211913041656 0 -0.01402247848153952 0.006717926076970449 0 -0.013769743485630084 0.0076476290712937153 0 -0.013416773701598054 0.0065622484810117718 0 -0.01402247848153952 0.006717926076970449 0 -0.013769743485630084 0.0076476290712937153 0 -0.014253986119940569 0.0077044211913041656 0 -0.021021996261958401 0.0075467394149103294 0 -0.020463094039995272 0.0070751905609372084 0 -0.019751248038792583 0.0074169594943075462 0 -0.017814521669036527 0.0068065326082402114 0 -0.018492803688748356 0.0073080248534678864 0 -0.016957823526036819 0.0058331013776086616 0 -0.017814521669036527 0.0068065326082402114 0 -0.018526090216885355 0.0054563478204265638 0 -0.020171324177414775 0.0056777335105299767 0 -0.019619891101754196 0.0066604896185645784 0 -0.016957823526036819 0.0058331013776086616 0 -0.021387808874485607 0.004471959588848138 0 -0.017814521669036527 0.0068065326082402114 0 -0.021387808874485607 0.004471959588848138 0 -0.021387808874485607 0.004471959588848138 0 -0.023419425215052778 0.0013828189398698526 0 -0.020072834887736 0.0036322328842443353 0 -0.020938341907345292 0.0045789022426528641 0 -0.020575386926157756 0.0052262549649057599 0 -0.028046416144751379 -0.0028477551609393981 0 -0.028098292101298251 -0.0028108957559428065 0 -0.028082234911744025 -0.0025544169138722152 0 -0.028056710745369182 -0.0028963995333072538 0 -0.028027279052047729 -0.0028402656978453967 0 -0.028098292101298251 -0.0028108957559428065 0 -0.023419425215052778 0.0013828189398698526 0 -0.024045777768305788 0.0011655083332219969 0 -0.021387808874485607 0.004471959588848138 0 -0.024380625103915466 0.0018992971897361798 0 -0.02116272471974311 0.0073003254377707032 0 -0.020463094039995272 0.0070751905609372084 0 -0.020314794473623818 0.0063343521080006879 0 -0.028056710745369182 -0.0028963995333072538 0 -0.028098292101298251 -0.0028108957559428065 0 -0.028384410724652465 -0.0026588850580438008 0 -0.021021996261958401 0.0075467394149103294 0 -0.02116272471974311 0.0073003254377707032 0 -0.020463094039995272 0.0070751905609372084 0 -0.018324696859671943 0.0072396065300886214 0 -0.019751248038792583 0.0074169594943075462 0 -0.019109978271623092 0.0068208174130216957 0 -0.020463094039995272 0.0070751905609372084 0 -0.01977205757908285 0.0066668756703444155 0 -0.020314794473623818 0.0063343521080006879 0 -0.020463094039995272 0.0070751905609372084 0 -0.019751248038792583 0.0074169594943075462 0 -0.01977205757908285 0.0066668756703444155 0 -0.019751248038792583 0.0074169594943075462 0 -0.01977205757908285 0.0066668756703444155 0 -0.019109978271623092 0.0068208174130216957 0 -0.01977205757908285 0.0066668756703444155 0 -0.019109978271623092 0.0068208174130216957 0 -0.019260870155534376 0.0063081915055311528 0 -0.019109978271623092 0.0068208174130216957 0 -0.019260870155534376 0.0063081915055311528 0 -0.018920637991858589 0.0065437849602657076 0 -0.011450374979330352 0.0063964403585025304 0 -0.017053359905173277 0.005231658277478908 0 -0.022408113314945525 0.0023886358686091582 0 -0.022654081476092342 0.0023135275012851077 0 -0.021046085996579728 0.0020676715528817218 0 -0.017053359905173277 0.005231658277478908 0 -0.016630642030798448 0.0046121231919114122 0 -0.012164756618845305 0.0064719093752895517 0 -0.013756407003359783 0.0075735885760214788 0 -0.011384447691178759 0.0072128474872514784 0 -0.011549013919960537 0.0062515563013999902 0 -0.01254021255014197 0.0061738571438575253 0 -0.013034387312925009 0.0073738980430659035 0 -0.013339769247222653 0.0057049750803812504 0 -0.01254021255014197 0.0061738571438575253 0 -0.013416773701598054 0.0065622484810117718 0 -0.013339769247222653 0.0057049750803812504 0 -0.01402247848153952 0.006717926076970449 0 -0.013416773701598054 0.0065622484810117718 0 -0.016957823526036819 0.0058331013776086616 0 -0.012118223653037764 0.0063280857015228674 0 -0.01378917051913801 0.0074621172901915512 0 -0.01254021255014197 0.0061738571438575253 0 -0.013034387312925009 0.0073738980430659035 0 -0.013769743485630084 0.0076476290712937153 0 -0.01254021255014197 0.0061738571438575253 0 -0.013416773701598054 0.0065622484810117718 0 -0.022408113314945525 0.0023886358686091582 0 -0.022654081476092342 0.0023135275012851077 0 -0.022534389660311856 0.0023042879265976301 0 -0.022460118530609769 0.0023177328744573332 0 -0.022654081476092342 0.0023135275012851077 0 -0.022534389660311856 0.0023042879265976301 0 -0.016957823526036819 0.0058331013776086616 0 -0.017053359905173277 0.005231658277478908 0 -0.020072834887736 0.0036322328842443353 0 -0.020575386926157756 0.0052262549649057599 0 -0.018025368530725682 0.0033647115595312575 0 -0.023419425215052778 0.0013828189398698526 0 -0.017053359905173277 0.005231658277478908 0 -0.022408113314945525 0.0023886358686091582 0 -0.022534389660311856 0.0023042879265976301 0 -0.022669495976822926 0.0022411558606995185 0 -0.022408113314945525 0.0023886358686091582 0 -0.022669495976822926 0.0022411558606995185 0 -0.022895696503872527 0.002375933980787536 0 -0.022408113314945525 0.0023886358686091582 0 -0.021046085996579728 0.0020676715528817218 0 -0.021066109006023691 0.0027205929672866791 0 -0.022373660747344069 0.0024148010527304245 0 -0.021998261159695085 0.0025324844475734997 0 -0.022669495976822926 0.0022411558606995185 0 -0.022867771878042065 0.0021870348845700826 0 -0.022895696503872527 0.002375933980787536 0 -0.022669495976822926 0.0022411558606995185 0 -0.022797456665920746 0.0020290542513832326 0 -0.022549575874290965 0.0020539955702190511 0 -0.022669495976822926 0.0022411558606995185 0 -0.022797456665920746 0.0020290542513832326 0 -0.022867771878042065 0.0021870348845700826 0 -0.028046416144751379 -0.0028477551609393981 0 -0.027756626826695854 -0.0024429397029814858 0 -0.028082234911744025 -0.0025544169138722152 0 -0.022460118530609769 0.0023177328744573332 0 -0.022534389660311856 0.0023042879265976301 0 -0.022549575874290965 0.0020539955702190511 0 -0.023419425215052778 0.0013828189398698526 0 -0.025462666667332975 -0.00059261877342225554 0 -0.022534389660311856 0.0023042879265976301 0 -0.022669495976822926 0.0022411558606995185 0 -0.022549575874290965 0.0020539955702190511 0 -0.027756626826695854 -0.0024429397029814858 0 -0.027939772504936872 -0.0020187706332415703 0 -0.028247965727496348 -0.0023005886832607376 0 -0.025462666667332975 -0.00059261877342225554 0 -0.024953253043177859 5.0953187706385413e-05 0 -0.027756626826695854 -0.0024429397029814858 0 -0.027939772504936872 -0.0020187706332415703 0 -0.027319009017314107 -0.0019170268963307501 0 -0.022797456665920746 0.0020290542513832326 0 -0.022762679479824972 0.0017535066314865414 0 -0.022952636917627361 0.0018694482351557249 0 -0.022797456665920746 0.0020290542513832326 0 -0.022549575874290965 0.0020539955702190511 0 -0.022762679479824972 0.0017535066314865414 0 -0.027319009017314107 -0.0019170268963307501 0 -0.027277737538168895 -0.0015015302146353918 0 -0.026767315332291999 -0.0012930059192720065 0 -0.022762679479824972 0.0017535066314865414 0 -0.023059321935305369 0.001663921108028092 0 -0.023008361929989594 0.0013474754708526202 0 -0.024953253043177859 5.0953187706385413e-05 0 -0.024998254193633031 -0.00015812242332922805 0 -0.022762679479824972 0.0017535066314865414 0 -0.022952636917627361 0.0018694482351557249 0 -0.023059321935305369 0.001663921108028092 0 -0.027319009017314107 -0.0019170268963307501 0 -0.027712915238429094 -0.0016722120909226665 0 -0.027277737538168895 -0.0015015302146353918 0 -0.027939772504936872 -0.0020187706332415703 0 -0.027319009017314107 -0.0019170268963307501 0 -0.027712915238429094 -0.0016722120909226665 0 -0.027939772504936872 -0.0020187706332415703 0 -0.027712915238429094 -0.0016722120909226665 0 -0.028182344149694099 -0.0017071230500212903 0 -0.027712915238429094 -0.0016722120909226665 0 -0.027973994420667343 -0.0014507497667882727 0 -0.028182344149694099 -0.0017071230500212903 0 -0.027712915238429094 -0.0016722120909226665 0 -0.027569288493538194 -0.0012680992078400496 0 -0.027277737538168895 -0.0015015302146353918 0 -0.027569288493538194 -0.0012680992078400496 0 -0.027973994420667343 -0.0014507497667882727 0 -0.027978168125277227 -0.0010877553835839618 0 -0.027712915238429094 -0.0016722120909226665 0 -0.027569288493538194 -0.0012680992078400496 0 -0.027973994420667343 -0.0014507497667882727 0 -0.027569288493538194 -0.0012680992078400496 0 -0.027978168125277227 -0.0010877553835839618 0 -0.027770960609679408 -0.0007883543461277596 0 -0.027569288493538194 -0.0012680992078400496 0 -0.027225692853887672 -0.0009525583150234219 0 -0.027770960609679408 -0.0007883543461277596 0 -0.027569288493538194 -0.0012680992078400496 0 -0.027133813593671296 -0.0012287712688698314 0 -0.027225692853887672 -0.0009525583150234219 0 -0.027133813593671296 -0.0012287712688698314 0 -0.02695616743398516 -0.0010735880228967462 0 -0.027225692853887672 -0.0009525583150234219 0 -0.02695616743398516 -0.0010735880228967462 0 -0.026767315332291999 -0.0012930059192720065 0 -0.026700139545712157 -0.00080771265545568369 0 -0.027133813593671296 -0.0012287712688698314 0 -0.02695616743398516 -0.0010735880228967462 0 -0.026767315332291999 -0.0012930059192720065 0 -0.027133813593671296 -0.0012287712688698314 0 -0.027277737538168895 -0.0015015302146353918 0 -0.026767315332291999 -0.0012930059192720065 0 -0.027569288493538194 -0.0012680992078400496 0 -0.027133813593671296 -0.0012287712688698314 0 -0.027277737538168895 -0.0015015302146353918 0 -0.028826208272637842 -0.0012916181539416427 0 -0.028588670786882143 -0.0010991479248710872 0 -0.028538518248714607 -0.0014815622359487808 0 -0.029109747948583217 -0.001421420739651922 0 -0.029145572408937344 -0.0010662098976704855 0 -0.029353354204394489 -0.0012825425991860007 0 -0.028826208272637842 -0.0012916181539416427 0 -0.029109747948583217 -0.001421420739651922 0 -0.0288235183016066 -0.0016630534680577378 0 -0.028826208272637842 -0.0012916181539416427 0 -0.029109747948583217 -0.001421420739651922 0 -0.029145572408937344 -0.0010662098976704855 0 -0.028826208272637842 -0.0012916181539416427 0 -0.029145572408937344 -0.0010662098976704855 0 -0.02881699261566727 -0.00081693664654165549 0 -0.028826208272637842 -0.0012916181539416427 0 -0.028588670786882143 -0.0010991479248710872 0 -0.02881699261566727 -0.00081693664654165549 0 -0.028588670786882143 -0.0010991479248710872 0 -0.028270045415959452 -0.0012733139676912703 0 -0.02832199898995294 -0.00078639198386552464 0 -0.027978168125277227 -0.0010877553835839618 0 -0.028270045415959452 -0.0012733139676912703 0 -0.02832199898995294 -0.00078639198386552464 0 -0.027973994420667343 -0.0014507497667882727 0 -0.027978168125277227 -0.0010877553835839618 0 -0.028270045415959452 -0.0012733139676912703 0 -0.027973994420667343 -0.0014507497667882727 0 -0.028270045415959452 -0.0012733139676912703 0 -0.028182344149694099 -0.0017071230500212903 0 -0.028588670786882143 -0.0010991479248710872 0 -0.028270045415959452 -0.0012733139676912703 0 -0.028538518248714607 -0.0014815622359487808 0 -0.028538518248714607 -0.0014815622359487808 0 -0.028182344149694099 -0.0017071230500212903 0 -0.028511900531206075 -0.0017906878183452481 0 -0.028270045415959452 -0.0012733139676912703 0 -0.028538518248714607 -0.0014815622359487808 0 -0.028182344149694099 -0.0017071230500212903 0 -0.027939772504936872 -0.0020187706332415703 0 -0.028182344149694099 -0.0017071230500212903 0 -0.02832880436625235 -0.0020260523975527611 0 -0.028182344149694099 -0.0017071230500212903 0 -0.028511900531206075 -0.0017906878183452481 0 -0.02832880436625235 -0.0020260523975527611 0 -0.028511900531206075 -0.0017906878183452481 0 -0.028700480427126966 -0.0020464648299827358 0 -0.02832880436625235 -0.0020260523975527611 0 -0.028511900531206075 -0.0017906878183452481 0 -0.0288235183016066 -0.0016630534680577378 0 -0.028700480427126966 -0.0020464648299827358 0 -0.028538518248714607 -0.0014815622359487808 0 -0.028511900531206075 -0.0017906878183452481 0 -0.0288235183016066 -0.0016630534680577378 0 -0.028826208272637842 -0.0012916181539416427 0 -0.028538518248714607 -0.0014815622359487808 0 -0.0288235183016066 -0.0016630534680577378 0 -0.029109747948583217 -0.001421420739651922 0 -0.029095559618358743 -0.0016545548150879619 0 -0.029281495614967446 -0.0015193881464828198 0 -0.029109747948583217 -0.001421420739651922 0 -0.0288235183016066 -0.0016630534680577378 0 -0.029095559618358743 -0.0016545548150879619 0 -0.0288235183016066 -0.0016630534680577378 0 -0.029095559618358743 -0.0016545548150879619 0 -0.028970871786964877 -0.0018323512938319686 0 -0.028970871786964877 -0.0018323512938319686 0 -0.029005843322738287 -0.0019968258096738842 0 -0.029224503120168947 -0.0018086007796540016 0 -0.0288235183016066 -0.0016630534680577378 0 -0.028970871786964877 -0.0018323512938319686 0 -0.028700480427126966 -0.0020464648299827358 0 -0.029095559618358743 -0.0016545548150879619 0 -0.028970871786964877 -0.0018323512938319686 0 -0.029224503120168947 -0.0018086007796540016 0 -0.028970871786964877 -0.0018323512938319686 0 -0.029005843322738287 -0.0019968258096738842 0 -0.028700480427126966 -0.0020464648299827358 0 -0.026681097093594761 -0.00028103469153882733 0 -0.029190156152200764 -0.0022518725851691521 0 -0.029005843322738287 -0.0019968258096738842 0 -0.02909521338927697 -0.0023101694014513396 0 -0.029224503120168947 -0.0018086007796540016 0 -0.029005843322738287 -0.0019968258096738842 0 -0.02909521338927697 -0.0023101694014513396 0 -0.028700480427126966 -0.0020464648299827358 0 -0.028836193310762481 -0.0021714099149054162 0 -0.028700480427126966 -0.0020464648299827358 0 -0.028577122321761735 -0.0022317590713204698 0 -0.028700480427126966 -0.0020464648299827358 0 -0.028577122321761735 -0.0022317590713204698 0 -0.02832880436625235 -0.0020260523975527611 0 -0.028577122321761735 -0.0022317590713204698 0 -0.028405850204197759 -0.002424404632912104 0 -0.028730805790575329 -0.0023632183906574828 0 -0.024826796525449862 0.0025136225963310415 0 -0.024192872132893842 0.0011780460725079516 0 -0.025189019981248881 0.002268813950537235 0 -0.026681097093594761 -0.00028103469153882733 0 -0.023443238757101501 0.0021979421865537412 0 -0.028836193310762481 -0.0021714099149054162 0 -0.028577122321761735 -0.0022317590713204698 0 -0.028730805790575329 -0.0023632183906574828 0 -0.023443238757101501 0.0021979421865537412 0 -0.023971292094685619 0.0020757309788644721 0 -0.027939772504936872 -0.0020187706332415703 0 -0.02832880436625235 -0.0020260523975527611 0 -0.028247965727496348 -0.0023005886832607376 0 -0.028577122321761735 -0.0022317590713204698 0 -0.028247965727496348 -0.0023005886832607376 0 -0.028405850204197759 -0.002424404632912104 0 -0.028577122321761735 -0.0022317590713204698 0 -0.02832880436625235 -0.0020260523975527611 0 -0.028247965727496348 -0.0023005886832607376 0 -0.027756626826695854 -0.0024429397029814858 0 -0.028247965727496348 -0.0023005886832607376 0 -0.028082234911744025 -0.0025544169138722152 0 -0.028247965727496348 -0.0023005886832607376 0 -0.028405850204197759 -0.002424404632912104 0 -0.028082234911744025 -0.0025544169138722152 0 -0.028405850204197759 -0.002424404632912104 0 -0.028082234911744025 -0.0025544169138722152 0 -0.028384410724652465 -0.0026588850580438008 0 -0.028098292101298251 -0.0028108957559428065 0 -0.028082234911744025 -0.0025544169138722152 0 -0.028384410724652465 -0.0026588850580438008 0 -0.019166299934853526 0.0058603233076478791 0 -0.019445997430257149 0.0053329598419423838 0 -0.018759300715562789 0.0055386960462412834 0 -0.019682576055307145 0.0058659208739332202 0 -0.019166299934853526 0.0058603233076478791 0 -0.019445997430257149 0.0053329598419423838 0 -0.022192107934070854 0.0043127346369349426 0 -0.023443238757101501 0.0021979421865537412 0 -0.019682576055307145 0.0058659208739332202 0 -0.019455952352838434 0.0053192543566866592 0 -0.020314794473623818 0.0063343521080006879 0 -0.023443238757101501 0.0021979421865537412 0 -0.024380625103915466 0.0018992971897361798 0 -0.028405850204197759 -0.002424404632912104 0 -0.028730805790575329 -0.0023632183906574828 0 -0.028384410724652465 -0.0026588850580438008 0 -0.01977205757908285 0.0066668756703444155 0 -0.019682576055307145 0.0058659208739332202 0 -0.020314794473623818 0.0063343521080006879 0 -0.01977205757908285 0.0066668756703444155 0 -0.019682576055307145 0.0058659208739332202 0 -0.019260870155534376 0.0063081915055311528 0 -0.019682576055307145 0.0058659208739332202 0 -0.019166299934853526 0.0058603233076478791 0 -0.019260870155534376 0.0063081915055311528 0 -0.019260870155534376 0.0063081915055311528 0 -0.018920637991858589 0.0065437849602657076 0 -0.018680291381972833 0.0062544554886212423 0 -0.018770938102058703 0.007722471124501573 0 -0.019037497323758985 0.0095188404337802658 0 -0.019352871419074776 0.0088021868959242185 0 -0.018355227324351756 0.0072773812509082216 0 -0.018680291381972833 0.0062544554886212423 0 -0.018063148006383482 0.0053976930817983418 0 -0.01828354954754649 0.0078008236726917861 0 -0.021579315663358904 0.005447279983111529 0 -0.018630121500599863 0.0067905539311250099 0 -0.018920637991858589 0.0065437849602657076 0 -0.018680291381972833 0.0062544554886212423 0 -0.019166299934853526 0.0058603233076478791 0 -0.019260870155534376 0.0063081915055311528 0 -0.018680291381972833 0.0062544554886212423 0 -0.019166299934853526 0.0058603233076478791 0 -0.018680291381972833 0.0062544554886212423 0 -0.018759300715562789 0.0055386960462412834 0 -0.018680291381972833 0.0062544554886212423 0 -0.018759300715562789 0.0055386960462412834 0 -0.018063148006383482 0.0053976930817983418 0 -0.021579315663358904 0.005447279983111529 0 -0.023483959063997934 0.0049523222099485198 0 -0.019218007104075212 0.0081252168319996803 0 -0.019497995328975129 0.0082717274107826366 0 -0.019352871419074776 0.0088021868959242185 0 -0.019037497323758985 0.0095188404337802658 0 -0.019352871419074776 0.0088021868959242185 0 -0.020279391414119882 0.0087150602949076002 0 -0.023483959063997934 0.0049523222099485198 0 -0.026129181723958516 0.0021270776701948326 0 -0.025707087421831056 0.0027930095311738778 0 -0.025629486200370543 0.0029745741869808074 0 -0.025752132225930438 0.0029108320943422488 0 -0.025636060557328279 0.0029945855150652753 0 -0.025517644031676803 0.0031195112497056309 0 -0.025629486200370543 0.0029745741869808074 0 -0.019497995328975129 0.0082717274107826366 0 -0.019352871419074776 0.0088021868959242185 0 -0.01982779316034259 0.0084646881867192075 0 -0.019352871419074776 0.0088021868959242185 0 -0.01982779316034259 0.0084646881867192075 0 -0.020279391414119882 0.0087150602949076002 0 -0.020079162942244926 0.0081114804898921415 0 -0.01982779316034259 0.0084646881867192075 0 -0.020279391414119882 0.0087150602949076002 0 -0.025629486200370543 0.0029745741869808074 0 -0.025625578161770909 0.0030309403917582515 0 -0.02568621612445849 0.0030155621683367142 0 -0.025636060557328279 0.0029945855150652753 0 -0.025629486200370543 0.0029745741869808074 0 -0.025625578161770909 0.0030309403917582515 0 -0.025629486200370543 0.0029745741869808074 0 -0.02573166940075514 0.0029783305752224018 0 -0.025752132225930438 0.0029108320943422488 0 -0.025629486200370543 0.0029745741869808074 0 -0.02573166940075514 0.0029783305752224018 0 -0.02568621612445849 0.0030155621683367142 0 -0.02573166940075514 0.0029783305752224018 0 -0.025762846182187396 0.0030296107788030861 0 -0.02568621612445849 0.0030155621683367142 0 -0.023889668525835669 0.0036656949243310207 0 -0.024579627493897582 0.0031957136650340159 0 -0.02378831463035852 0.0022946657596648271 0 -0.023971292094685619 0.0020757309788644721 0 -0.026399295757157295 0.0016207242759149875 0 -0.021579315663358904 0.005447279983111529 0 -0.026399295757157295 0.0016207242759149875 0 -0.027279265744349062 8.6324974233654587e-05 0 -0.027355836149523739 3.3891531592377706e-05 0 -0.027828250035463686 0.00051605624844354968 0 -0.019445997430257149 0.0053329598419423838 0 -0.018759300715562789 0.0055386960462412834 0 -0.018963002127920771 0.004774532888478328 0 -0.018759300715562789 0.0055386960462412834 0 -0.018063148006383482 0.0053976930817983418 0 -0.018963002127920771 0.004774532888478328 0 -0.021579315663358904 0.005447279983111529 0 -0.023971292094685619 0.0020757309788644721 0 -0.026681097093594761 -0.00028103469153882733 0 -0.023971292094685619 0.0020757309788644721 0 -0.026023164050256377 0.0028025492205264826 0 -0.025946309004012038 0.0028862593212460575 0 -0.02608794567298128 0.0028975281354126727 0 -0.026023164050256377 0.0028025492205264826 0 -0.025920404683855928 0.00279775428005482 0 -0.025946309004012038 0.0028862593212460575 0 -0.025998398226577433 0.0027378381838656031 0 -0.026023164050256377 0.0028025492205264826 0 -0.025920404683855928 0.00279775428005482 0 -0.025920404683855928 0.00279775428005482 0 -0.025843033916793396 0.0028586647485671513 0 -0.025946309004012038 0.0028862593212460575 0 -0.025843033916793396 0.0028586647485671513 0 -0.025820722229699212 0.0027928298620081078 0 -0.025781603125561534 0.0028389762375649994 0 -0.025920404683855928 0.00279775428005482 0 -0.025843033916793396 0.0028586647485671513 0 -0.025820722229699212 0.0027928298620081078 0 -0.025861333691273965 0.0027003942929433801 0 -0.025920404683855928 0.00279775428005482 0 -0.025820722229699212 0.0027928298620081078 0 -0.025707087421831056 0.0027930095311738778 0 -0.025820722229699212 0.0027928298620081078 0 -0.025781603125561534 0.0028389762375649994 0 -0.025861333691273965 0.0027003942929433801 0 -0.025707087421831056 0.0027930095311738778 0 -0.025820722229699212 0.0027928298620081078 0 -0.025843033916793396 0.0028586647485671513 0 -0.025781603125561534 0.0028389762375649994 0 -0.025752132225930438 0.0029108320943422488 0 -0.025707087421831056 0.0027930095311738778 0 -0.025781603125561534 0.0028389762375649994 0 -0.025752132225930438 0.0029108320943422488 0 -0.02573166940075514 0.0029783305752224018 0 -0.025752132225930438 0.0029108320943422488 0 -0.025833644773488679 0.002957611796188741 0 -0.02573166940075514 0.0029783305752224018 0 -0.025833644773488679 0.002957611796188741 0 -0.025762846182187396 0.0030296107788030861 0 -0.025843033916793396 0.0028586647485671513 0 -0.025752132225930438 0.0029108320943422488 0 -0.025833644773488679 0.002957611796188741 0 -0.025843033916793396 0.0028586647485671513 0 -0.025833644773488679 0.002957611796188741 0 -0.025946309004012038 0.0028862593212460575 0 -0.025946309004012038 0.0028862593212460575 0 -0.025953841877450236 0.0030008767164261883 0 -0.02608794567298128 0.0028975281354126727 0 -0.025833644773488679 0.002957611796188741 0 -0.025953841877450236 0.0030008767164261883 0 -0.02585714233238591 0.0030469702153530999 0 -0.025833644773488679 0.002957611796188741 0 -0.025946309004012038 0.0028862593212460575 0 -0.025953841877450236 0.0030008767164261883 0 -0.025953841877450236 0.0030008767164261883 0 -0.025926500983964713 0.0031307429893694299 0 -0.026094805143832514 0.0030871549770862751 0 -0.025953841877450236 0.0030008767164261883 0 -0.02585714233238591 0.0030469702153530999 0 -0.025926500983964713 0.0031307429893694299 0 -0.02585714233238591 0.0030469702153530999 0 -0.025811908674991366 0.0031191458388315479 0 -0.025926500983964713 0.0031307429893694299 0 -0.025833644773488679 0.002957611796188741 0 -0.02585714233238591 0.0030469702153530999 0 -0.025762846182187396 0.0030296107788030861 0 -0.02585714233238591 0.0030469702153530999 0 -0.025762846182187396 0.0030296107788030861 0 -0.025811908674991366 0.0031191458388315479 0 -0.025762846182187396 0.0030296107788030861 0 -0.025811908674991366 0.0031191458388315479 0 -0.025722510067791689 0.0030698657780636037 0 -0.025811908674991366 0.0031191458388315479 0 -0.025722510067791689 0.0030698657780636037 0 -0.025735958166500279 0.0031607845092544392 0 -0.025811908674991366 0.0031191458388315479 0 -0.025735958166500279 0.0031607845092544392 0 -0.025864024533310472 0.0032791437756054015 0 -0.025811908674991366 0.0031191458388315479 0 -0.025926500983964713 0.0031307429893694299 0 -0.025864024533310472 0.0032791437756054015 0 -0.027009087874235126 0.002118064444993609 0 -0.027151695557410357 0.0023161229476413416 0 -0.026003671549864594 0.0032301341484575656 0 -0.025926500983964713 0.0031307429893694299 0 -0.026094805143832514 0.0030871549770862751 0 -0.026003671549864594 0.0032301341484575656 0 -0.025926500983964713 0.0031307429893694299 0 -0.025864024533310472 0.0032791437756054015 0 -0.02909521338927697 -0.0023101694014513396 0 -0.029224503120168947 -0.0018086007796540016 0 -0.029624688069317302 -0.0014317743805525608 0 -0.027279265744349062 8.6324974233654587e-05 0 -0.027828250035463686 0.00051605624844354968 0 -0.027715016800269499 0.00087292222892457509 0 -0.026681097093594761 -0.00028103469153882733 0 -0.028846508173648092 -0.00038984197214434125 0 -0.027828250035463686 0.00051605624844354968 0 -0.027873595113810469 0.00095830299491913749 0 -0.027715016800269499 0.00087292222892457509 0 -0.029095559618358743 -0.0016545548150879619 0 -0.029281495614967446 -0.0015193881464828198 0 -0.029224503120168947 -0.0018086007796540016 0 -0.029281495614967446 -0.0015193881464828198 0 -0.029224503120168947 -0.0018086007796540016 0 -0.029624688069317302 -0.0014317743805525608 0 -0.025625578161770909 0.0030309403917582515 0 -0.02568621612445849 0.0030155621683367142 0 -0.025722510067791689 0.0030698657780636037 0 -0.025762846182187396 0.0030296107788030861 0 -0.02568621612445849 0.0030155621683367142 0 -0.025722510067791689 0.0030698657780636037 0 -0.025625578161770909 0.0030309403917582515 0 -0.025722510067791689 0.0030698657780636037 0 -0.025735958166500279 0.0031607845092544392 0 -0.027827325474245126 0.00061153366653341032 0 -0.027873595113810469 0.00095830299491913749 0 -0.028179895408608085 0.00098029711293109892 0 -0.026399295757157295 0.0016207242759149875 0 -0.027009087874235126 0.002118064444993609 0 -0.026399295757157295 0.0016207242759149875 0 -0.027651267552110125 0.00066605334160436188 0 -0.027873595113810469 0.00095830299491913749 0 -0.027715016800269499 0.00087292222892457509 0 -0.028067248563802934 0.001450362238613407 0 -0.028846508173648092 -0.00038984197214434125 0 -0.029101916209257485 0.00046299986012212897 0 -0.027873595113810469 0.00095830299491913749 0 -0.028179895408608085 0.00098029711293109892 0 -0.028067248563802934 0.001450362238613407 0 -0.029624688069317302 -0.0014317743805525608 0 -0.029542879766627776 -0.00090141482482902627 0 -0.030175825793126686 -0.00055665959477506648 0 -0.029281495614967446 -0.0015193881464828198 0 -0.029624688069317302 -0.0014317743805525608 0 -0.029353354204394489 -0.0012825425991860007 0 -0.029624688069317302 -0.0014317743805525608 0 -0.029353354204394489 -0.0012825425991860007 0 -0.029542879766627776 -0.00090141482482902627 0 -0.029109747948583217 -0.001421420739651922 0 -0.029281495614967446 -0.0015193881464828198 0 -0.029353354204394489 -0.0012825425991860007 0 -0.029145572408937344 -0.0010662098976704855 0 -0.029353354204394489 -0.0012825425991860007 0 -0.029542879766627776 -0.00090141482482902627 0 -0.029145572408937344 -0.0010662098976704855 0 -0.029542879766627776 -0.00090141482482902627 0 -0.029237973482631446 -0.00053911203751858569 0 -0.029542879766627776 -0.00090141482482902627 0 -0.029647697457814433 -0.0005311930721993343 0 -0.029237973482631446 -0.00053911203751858569 0 -0.029647697457814433 -0.0005311930721993343 0 -0.029640616762288803 -0.00012414290960859197 0 -0.029237973482631446 -0.00053911203751858569 0 -0.029647697457814433 -0.0005311930721993343 0 -0.030175825793126686 -0.00055665959477506648 0 -0.029640616762288803 -0.00012414290960859197 0 -0.029542879766627776 -0.00090141482482902627 0 -0.029647697457814433 -0.0005311930721993343 0 -0.030175825793126686 -0.00055665959477506648 0 -0.028179895408608085 0.00098029711293109892 0 -0.028067248563802934 0.001450362238613407 0 -0.028488033718376538 0.0013359430882378611 0 -0.029101916209257485 0.00046299986012212897 0 -0.029550359171411064 0.001102001921003113 0 -0.030175825793126686 -0.00055665959477506648 0 -0.030064371364069857 0.00019082018935373234 0 -0.03071039878224598 0.00035896786168206329 0 -0.030175825793126686 -0.00055665959477506648 0 -0.030064371364069857 0.00019082018935373234 0 -0.029640616762288803 -0.00012414290960859197 0 -0.028067248563802934 0.001450362238613407 0 -0.028379651211199064 0.001628033298172235 0 -0.028386905632719065 0.0018617798481533683 0 -0.029640616762288803 -0.00012414290960859197 0 -0.029237973482631446 -0.00053911203751858569 0 -0.029124670961592526 0.00010964767975422408 0 -0.029640616762288803 -0.00012414290960859197 0 -0.029590957511148458 0.00060003248293209006 0 -0.029124670961592526 0.00010964767975422408 0 -0.030064371364069857 0.00019082018935373234 0 -0.029640616762288803 -0.00012414290960859197 0 -0.029590957511148458 0.00060003248293209006 0 -0.026003671549864594 0.0032301341484575656 0 -0.025864024533310472 0.0032791437756054015 0 -0.025984402812598784 0.0033894680898818677 0 -0.028488033718376538 0.0013359430882378611 0 -0.028531255497003312 0.001634080883643861 0 -0.028727162660214731 0.0016298469753721081 0 -0.027151695557410357 0.0023161229476413416 0 -0.027681407324527285 0.0021592745228007333 0 -0.028067248563802934 0.001450362238613407 0 -0.028488033718376538 0.0013359430882378611 0 -0.028379651211199064 0.001628033298172235 0 -0.028488033718376538 0.0013359430882378611 0 -0.028379651211199064 0.001628033298172235 0 -0.028531255497003312 0.001634080883643861 0 -0.028379651211199064 0.001628033298172235 0 -0.028496701033558912 0.0018251861174186682 0 -0.028386905632719065 0.0018617798481533683 0 -0.028379651211199064 0.001628033298172235 0 -0.028496701033558912 0.0018251861174186682 0 -0.028531255497003312 0.001634080883643861 0 -0.028496701033558912 0.0018251861174186682 0 -0.028531255497003312 0.001634080883643861 0 -0.028727162660214731 0.0016298469753721081 0 -0.028749756696648816 0.0015962425303659114 0 -0.027681407324527285 0.0021592745228007333 0 -0.028496701033558912 0.0018251861174186682 0 -0.028554917676641516 0.0018495491509349373 0 -0.0285630787017968 0.0018163361399244993 0 -0.028554917676641516 0.0018495491509349373 0 -0.028598240500659834 0.0018684804499657899 0 -0.0285630787017968 0.0018163361399244993 0 -0.028554917676641516 0.0018495491509349373 0 -0.028598240500659834 0.0018684804499657899 0 -0.028574124251275645 0.0018672780481264134 0 -0.028334827860905666 0.0021428371231184658 0 -0.027681407324527285 0.0021592745228007333 0 -0.028574124251275645 0.0018672780481264134 0 -0.028566595411843105 0.0018948811085529402 0 -0.028583538219949724 0.0018683800971183524 0 -0.028574124251275645 0.0018672780481264134 0 -0.028528538277146277 0.0018754106792689411 0 -0.028566595411843105 0.0018948811085529402 0 -0.028496701033558912 0.0018251861174186682 0 -0.028554917676641516 0.0018495491509349373 0 -0.028528538277146277 0.0018754106792689411 0 -0.028554917676641516 0.0018495491509349373 0 -0.028574124251275645 0.0018672780481264134 0 -0.028528538277146277 0.0018754106792689411 0 -0.03071039878224598 0.00035896786168206329 0 -0.031204794921062418 0.0012899736511188015 0 -0.030635308401164674 0.00098945428288392426 0 -0.028528538277146277 0.0018754106792689411 0 -0.028386905632719065 0.0018617798481533683 0 -0.028519448979968606 0.0019408320846027909 0 -0.029550359171411064 0.001102001921003113 0 -0.029818910880646799 0.0016301445099238729 0 -0.028496701033558912 0.0018251861174186682 0 -0.028528538277146277 0.0018754106792689411 0 -0.028386905632719065 0.0018617798481533683 0 -0.030725071482937946 0.0013780920637542337 0 -0.031204794921062418 0.0012899736511188015 0 -0.030635308401164674 0.00098945428288392426 0 -0.028528538277146277 0.0018754106792689411 0 -0.028519448979968606 0.0019408320846027909 0 -0.028566595411843105 0.0018948811085529402 0 -0.028519448979968606 0.0019408320846027909 0 -0.028573957448660519 0.001942733890326795 0 -0.028566595411843105 0.0018948811085529402 0 -0.029590957511148458 0.00060003248293209006 0 -0.030220283237559296 0.00069290612656065743 0 -0.030015337601786072 0.00099859724271330707 0 -0.030064371364069857 0.00019082018935373234 0 -0.029590957511148458 0.00060003248293209006 0 -0.030220283237559296 0.00069290612656065743 0 -0.030064371364069857 0.00019082018935373234 0 -0.03071039878224598 0.00035896786168206329 0 -0.030220283237559296 0.00069290612656065743 0 -0.03071039878224598 0.00035896786168206329 0 -0.030220283237559296 0.00069290612656065743 0 -0.030635308401164674 0.00098945428288392426 0 -0.030220283237559296 0.00069290612656065743 0 -0.030306079980216491 0.00127307962748058 0 -0.030015337601786072 0.00099859724271330707 0 -0.030220283237559296 0.00069290612656065743 0 -0.030635308401164674 0.00098945428288392426 0 -0.030306079980216491 0.00127307962748058 0 -0.030725071482937946 0.0013780920637542337 0 -0.030635308401164674 0.00098945428288392426 0 -0.030306079980216491 0.00127307962748058 0 -0.030725071482937946 0.0013780920637542337 0 -0.030306079980216491 0.00127307962748058 0 -0.030515107164330625 0.0016641401202460541 0 -0.030306079980216491 0.00127307962748058 0 -0.02983985762952707 0.0014185514999790606 0 -0.030133529431008554 0.0016673575081507614 0 -0.030306079980216491 0.00127307962748058 0 -0.02983985762952707 0.0014185514999790606 0 -0.030015337601786072 0.00099859724271330707 0 -0.02983985762952707 0.0014185514999790606 0 -0.030015337601786072 0.00099859724271330707 0 -0.029661121629726533 0.0011461012298228832 0 -0.029590957511148458 0.00060003248293209006 0 -0.030015337601786072 0.00099859724271330707 0 -0.029661121629726533 0.0011461012298228832 0 -0.029661121629726533 0.0011461012298228832 0 -0.029506709965463149 0.001322722733229901 0 -0.029335383963033246 0.00099317081408995932 0 -0.029590957511148458 0.00060003248293209006 0 -0.029661121629726533 0.0011461012298228832 0 -0.029335383963033246 0.00099317081408995932 0 -0.02983985762952707 0.0014185514999790606 0 -0.029661121629726533 0.0011461012298228832 0 -0.029506709965463149 0.001322722733229901 0 -0.029198045553567802 0.0013242704135512896 0 -0.028690546242041506 0.0013178773024631169 0 -0.029521976753059707 0.001767131030054214 0 -0.029506709965463149 0.001322722733229901 0 -0.029198045553567802 0.0013242704135512896 0 -0.029521976753059707 0.001767131030054214 0 -0.029506709965463149 0.001322722733229901 0 -0.029198045553567802 0.0013242704135512896 0 -0.029335383963033246 0.00099317081408995932 0 -0.029198045553567802 0.0013242704135512896 0 -0.028977921528451984 0.00077513451566868779 0 -0.028690546242041506 0.0013178773024631169 0 -0.029198045553567802 0.0013242704135512896 0 -0.029335383963033246 0.00099317081408995932 0 -0.028977921528451984 0.00077513451566868779 0 -0.028977921528451984 0.00077513451566868779 0 -0.029124670961592526 0.00010964767975422408 0 -0.028583643611673121 0.00026716196338574729 0 -0.029590957511148458 0.00060003248293209006 0 -0.028977921528451984 0.00077513451566868779 0 -0.029124670961592526 0.00010964767975422408 0 -0.029590957511148458 0.00060003248293209006 0 -0.029335383963033246 0.00099317081408995932 0 -0.028977921528451984 0.00077513451566868779 0 -0.028471843190166966 0.00076002930224270359 0 -0.028136480001254544 0.00041271796069017737 0 -0.028583643611673121 0.00026716196338574729 0 -0.028977921528451984 0.00077513451566868779 0 -0.028471843190166966 0.00076002930224270359 0 -0.028583643611673121 0.00026716196338574729 0 -0.029520350818504282 0.0015053250085987676 0 -0.028196392164259138 0.00099003745887787345 0 -0.028977921528451984 0.00077513451566868779 0 -0.028471843190166966 0.00076002930224270359 0 -0.028690546242041506 0.0013178773024631169 0 -0.028471843190166966 0.00076002930224270359 0 -0.028690546242041506 0.0013178773024631169 0 -0.028058982390047987 0.00097702603611641626 0 -0.028058982390047987 0.00097702603611641626 0 -0.027260791656114159 0.0016416215450227776 0 -0.028178062562170116 0.0023873306403930567 0 -0.030337897385433858 0.0016460288168175777 0 -0.028058982390047987 0.00097702603611641626 0 -0.028178062562170116 0.0023873306403930567 0 -0.028058982390047987 0.00097702603611641626 0 -0.027260791656114159 0.0016416215450227776 0 -0.026998583664254547 0.00077791740267971112 0 -0.027260791656114159 0.0016416215450227776 0 -0.026687447159714703 0.0025848957079588029 0 -0.026440339048987391 0.0014281877905162493 0 -0.027260791656114159 0.0016416215450227776 0 -0.026998583664254547 0.00077791740267971112 0 -0.026440339048987391 0.0014281877905162493 0 -0.028058982390047987 0.00097702603611641626 0 -0.026998583664254547 0.00077791740267971112 0 -0.027453891758670031 0.00018170545551570087 0 -0.026998583664254547 0.00077791740267971112 0 -0.027453891758670031 0.00018170545551570087 0 -0.026492390008637318 0.00020329341981829662 0 -0.026998583664254547 0.00077791740267971112 0 -0.026206444336547723 0.00084130985734873285 0 -0.026440339048987391 0.0014281877905162493 0 -0.028058982390047987 0.00097702603611641626 0 -0.028136480001254544 0.00041271796069017737 0 -0.027453891758670031 0.00018170545551570087 0 -0.028471843190166966 0.00076002930224270359 0 -0.028058982390047987 0.00097702603611641626 0 -0.028136480001254544 0.00041271796069017737 0 -0.028136480001254544 0.00041271796069017737 0 -0.028050275277706101 -0.00018598348126142323 0 -0.027453891758670031 0.00018170545551570087 0 -0.028050275277706101 -0.00018598348126142323 0 -0.027453891758670031 0.00018170545551570087 0 -0.027321259931221524 -0.00049167664827034498 0 -0.027453891758670031 0.00018170545551570087 0 -0.026744042964085994 -0.00033490686907289031 0 -0.026492390008637318 0.00020329341981829662 0 -0.027453891758670031 0.00018170545551570087 0 -0.026744042964085994 -0.00033490686907289031 0 -0.027321259931221524 -0.00049167664827034498 0 -0.026744042964085994 -0.00033490686907289031 0 -0.027321259931221524 -0.00049167664827034498 0 -0.026700139545712157 -0.00080771265545568369 0 -0.027321259931221524 -0.00049167664827034498 0 -0.027225692853887672 -0.0009525583150234219 0 -0.026700139545712157 -0.00080771265545568369 0 -0.02695616743398516 -0.0010735880228967462 0 -0.027225692853887672 -0.0009525583150234219 0 -0.026700139545712157 -0.00080771265545568369 0 -0.028050275277706101 -0.00018598348126142323 0 -0.027321259931221524 -0.00049167664827034498 0 -0.027770960609679408 -0.0007883543461277596 0 -0.028050275277706101 -0.00018598348126142323 0 -0.027770960609679408 -0.0007883543461277596 0 -0.02832199898995294 -0.00078639198386552464 0 -0.027321259931221524 -0.00049167664827034498 0 -0.027225692853887672 -0.0009525583150234219 0 -0.027770960609679408 -0.0007883543461277596 0 -0.027978168125277227 -0.0010877553835839618 0 -0.027770960609679408 -0.0007883543461277596 0 -0.02832199898995294 -0.00078639198386552464 0 -0.028050275277706101 -0.00018598348126142323 0 -0.02832199898995294 -0.00078639198386552464 0 -0.028727879412392091 -0.00030597932404658173 0 -0.02832199898995294 -0.00078639198386552464 0 -0.02881699261566727 -0.00081693664654165549 0 -0.028727879412392091 -0.00030597932404658173 0 -0.028588670786882143 -0.0010991479248710872 0 -0.02832199898995294 -0.00078639198386552464 0 -0.02881699261566727 -0.00081693664654165549 0 -0.029145572408937344 -0.0010662098976704855 0 -0.02881699261566727 -0.00081693664654165549 0 -0.029237973482631446 -0.00053911203751858569 0 -0.02881699261566727 -0.00081693664654165549 0 -0.029237973482631446 -0.00053911203751858569 0 -0.028727879412392091 -0.00030597932404658173 0 -0.029237973482631446 -0.00053911203751858569 0 -0.028727879412392091 -0.00030597932404658173 0 -0.029124670961592526 0.00010964767975422408 0 -0.028727879412392091 -0.00030597932404658173 0 -0.029124670961592526 0.00010964767975422408 0 -0.028583643611673121 0.00026716196338574729 0 -0.028050275277706101 -0.00018598348126142323 0 -0.028727879412392091 -0.00030597932404658173 0 -0.028583643611673121 0.00026716196338574729 0 -0.028136480001254544 0.00041271796069017737 0 -0.028050275277706101 -0.00018598348126142323 0 -0.028583643611673121 0.00026716196338574729 0 -0.027197036966323144 0.0022358479054434234 0 -0.027340162350215563 0.0022199623188165428 0 -0.02693244661343033 0.0022733314554100091 0 -0.027340162350215563 0.0022199623188165428 0 -0.02693244661343033 0.0022733314554100091 0 -0.027487180391015834 0.0021930509654579599 0 -0.02693244661343033 0.0022733314554100091 0 -0.027125773789997542 0.0023477030724749792 0 -0.027487180391015834 0.0021930509654579599 0 -0.02693244661343033 0.0022733314554100091 0 -0.026614196289460344 0.0024612498878691311 0 -0.027125773789997542 0.0023477030724749792 0 -0.027197036966323144 0.0022358479054434234 0 -0.02693244661343033 0.0022733314554100091 0 -0.026542863215698119 0.0022548417804691442 0 -0.02693244661343033 0.0022733314554100091 0 -0.026542863215698119 0.0022548417804691442 0 -0.026614196289460344 0.0024612498878691311 0 -0.026542863215698119 0.0022548417804691442 0 -0.026118931564397065 0.0025192024608921243 0 -0.026614196289460344 0.0024612498878691311 0 -0.026118931564397065 0.0025192024608921243 0 -0.026254864264094284 0.0026329860797564171 0 -0.026614196289460344 0.0024612498878691311 0 -0.026254864264094284 0.0026329860797564171 0 -0.026614196289460344 0.0024612498878691311 0 -0.026758801015715476 0.002584723116531329 0 -0.026614196289460344 0.0024612498878691311 0 -0.026758801015715476 0.002584723116531329 0 -0.027125773789997542 0.0023477030724749792 0 -0.026254864264094284 0.0026329860797564171 0 -0.026758801015715476 0.002584723116531329 0 -0.026351056650150171 0.0026915921252891376 0 -0.026758801015715476 0.002584723116531329 0 -0.027360649380053403 0.0023694357209874642 0 -0.02686823488680682 0.0027465123734333988 0 -0.026758801015715476 0.002584723116531329 0 -0.026351056650150171 0.0026915921252891376 0 -0.02686823488680682 0.0027465123734333988 0 -0.026758801015715476 0.002584723116531329 0 -0.027360649380053403 0.0023694357209874642 0 -0.027125773789997542 0.0023477030724749792 0 -0.027125773789997542 0.0023477030724749792 0 -0.027487180391015834 0.0021930509654579599 0 -0.027714527490268617 0.0021433220569249956 0 -0.027360649380053403 0.0023694357209874642 0 -0.028028943090305441 0.0020393351304010435 0 -0.027714527490268617 0.0021433220569249956 0 -0.027360649380053403 0.0023694357209874642 0 -0.027125773789997542 0.0023477030724749792 0 -0.027714527490268617 0.0021433220569249956 0 -0.027360649380053403 0.0023694357209874642 0 -0.028062130021985647 0.0024260001296079431 0 -0.028028943090305441 0.0020393351304010435 0 -0.028062130021985647 0.0024260001296079431 0 -0.02835122445129689 0.0019868082545325483 0 -0.028028943090305441 0.0020393351304010435 0 -0.027360649380053403 0.0023694357209874642 0 -0.028062130021985647 0.0024260001296079431 0 -0.02686823488680682 0.0027465123734333988 0 -0.027230615511568083 0.0027210892130216384 0 -0.026919396723423406 0.0027604229440600109 0 -0.026091518896087552 0.0027063609589797542 0 -0.026351056650150171 0.0026915921252891376 0 -0.02637116495354605 0.0027028431647245482 0 -0.026351056650150171 0.0026915921252891376 0 -0.02686823488680682 0.0027465123734333988 0 -0.02637116495354605 0.0027028431647245482 0 -0.026091518896087552 0.0027063609589797542 0 -0.026192329018270587 0.0027104878630138372 0 -0.02637116495354605 0.0027028431647245482 0 -0.026365140956946299 0.0031151399022255107 0 -0.02686823488680682 0.0027465123734333988 0 -0.02637116495354605 0.0027028431647245482 0 -0.026365140956946299 0.0031151399022255107 0 -0.02637116495354605 0.0027028431647245482 0 -0.026222367756818889 0.002920172556186834 0 -0.02637116495354605 0.0027028431647245482 0 -0.026222367756818889 0.002920172556186834 0 -0.026193183622277457 0.0027748511600934854 0 -0.026222367756818889 0.002920172556186834 0 -0.026193183622277457 0.0027748511600934854 0 -0.02608794567298128 0.0028975281354126727 0 -0.026192329018270587 0.0027104878630138372 0 -0.02637116495354605 0.0027028431647245482 0 -0.026193183622277457 0.0027748511600934854 0 -0.026193183622277457 0.0027748511600934854 0 -0.026148102381086873 0.0027445924452139119 0 -0.02610892943890443 0.0028013916537935734 0 -0.026192329018270587 0.0027104878630138372 0 -0.026193183622277457 0.0027748511600934854 0 -0.026148102381086873 0.0027445924452139119 0 -0.02608649227965339 0.0027417642948144418 0 -0.026023164050256377 0.0028025492205264826 0 -0.02610892943890443 0.0028013916537935734 0 -0.02608649227965339 0.0027417642948144418 0 -0.025998398226577433 0.0027378381838656031 0 -0.026023164050256377 0.0028025492205264826 0 -0.02608649227965339 0.0027417642948144418 0 -0.026148102381086873 0.0027445924452139119 0 -0.02610892943890443 0.0028013916537935734 0 -0.026193183622277457 0.0027748511600934854 0 -0.02610892943890443 0.0028013916537935734 0 -0.02608794567298128 0.0028975281354126727 0 -0.026023164050256377 0.0028025492205264826 0 -0.02610892943890443 0.0028013916537935734 0 -0.02608794567298128 0.0028975281354126727 0 -0.026222367756818889 0.002920172556186834 0 -0.02608794567298128 0.0028975281354126727 0 -0.026094805143832514 0.0030871549770862751 0 -0.025953841877450236 0.0030008767164261883 0 -0.02608794567298128 0.0028975281354126727 0 -0.026094805143832514 0.0030871549770862751 0 -0.026365140956946299 0.0031151399022255107 0 -0.026222367756818889 0.002920172556186834 0 -0.026094805143832514 0.0030871549770862751 0 -0.028062130021985647 0.0024260001296079431 0 -0.028522209202216285 0.0021270478127792714 0 -0.02835122445129689 0.0019868082545325483 0 -0.027230615511568083 0.0027210892130216384 0 -0.027243623270075051 0.0027959873580301929 0 -0.026365140956946299 0.0031151399022255107 0 -0.026094805143832514 0.0030871549770862751 0 -0.026153515868731422 0.0032509567694046612 0 -0.026003671549864594 0.0032301341484575656 0 -0.026094805143832514 0.0030871549770862751 0 -0.026153515868731422 0.0032509567694046612 0 -0.027681407324527285 0.0021592745228007333 0 -0.027243623270075051 0.0027959873580301929 0 -0.026003671549864594 0.0032301341484575656 0 -0.025984402812598784 0.0033894680898818677 0 -0.026153515868731422 0.0032509567694046612 0 -0.028656376683153077 0.0019227796957821369 0 -0.028522209202216285 0.0021270478127792714 0 -0.028543208863003162 0.0019424394231131383 0 -0.028522209202216285 0.0021270478127792714 0 -0.028543208863003162 0.0019424394231131383 0 -0.02835122445129689 0.0019868082545325483 0 -0.028543208863003162 0.0019424394231131383 0 -0.028560018888934672 0.0018605864278850987 0 -0.02835122445129689 0.0019868082545325483 0 -0.028560018888934672 0.0018605864278850987 0 -0.028471501262727489 0.0018661495211952446 0 -0.02835122445129689 0.0019868082545325483 0 -0.028598240500659834 0.0018684804499657899 0 -0.028656376683153077 0.0019227796957821369 0 -0.028543208863003162 0.0019424394231131383 0 -0.028598240500659834 0.0018684804499657899 0 -0.028543208863003162 0.0019424394231131383 0 -0.028560018888934672 0.0018605864278850987 0 -0.028598240500659834 0.0018684804499657899 0 -0.028583538219949724 0.0018683800971183524 0 -0.028560018888934672 0.0018605864278850987 0 -0.028583538219949724 0.0018683800971183524 0 -0.02860531128690795 0.0018881719874632745 0 -0.028560018888934672 0.0018605864278850987 0 -0.028598240500659834 0.0018684804499657899 0 -0.028574124251275645 0.0018672780481264134 0 -0.028583538219949724 0.0018683800971183524 0 -0.028566595411843105 0.0018948811085529402 0 -0.028583538219949724 0.0018683800971183524 0 -0.02860531128690795 0.0018881719874632745 0 -0.02860531128690795 0.0018881719874632745 0 -0.028661658420993118 0.0019145822591073889 0 -0.028629874005331003 0.0019804070307678735 0 -0.028573957448660519 0.001942733890326795 0 -0.028566595411843105 0.0018948811085529402 0 -0.02860531128690795 0.0018881719874632745 0 -0.028573957448660519 0.001942733890326795 0 -0.02860531128690795 0.0018881719874632745 0 -0.028629874005331003 0.0019804070307678735 0 -0.028640006323085082 0.0018628152927895978 0 -0.028661658420993118 0.0019145822591073889 0 -0.028779789407388019 0.0019568765391399924 0 -0.02860531128690795 0.0018881719874632745 0 -0.028640006323085082 0.0018628152927895978 0 -0.028661658420993118 0.0019145822591073889 0 -0.02860531128690795 0.0018881719874632745 0 -0.028640006323085082 0.0018628152927895978 0 -0.028560018888934672 0.0018605864278850987 0 -0.028640006323085082 0.0018628152927895978 0 -0.028560018888934672 0.0018605864278850987 0 -0.028471501262727489 0.0018661495211952446 0 -0.028640006323085082 0.0018628152927895978 0 -0.028828113200428121 0.0018579360521672385 0 -0.028471501262727489 0.0018661495211952446 0 -0.028640006323085082 0.0018628152927895978 0 -0.028828113200428121 0.0018579360521672385 0 -0.028779789407388019 0.0019568765391399924 0 -0.028828113200428121 0.0018579360521672385 0 -0.028471501262727489 0.0018661495211952446 0 -0.028318002117852376 0.0019012774540925392 0 -0.028471501262727489 0.0018661495211952446 0 -0.028028943090305441 0.0020393351304010435 0 -0.028318002117852376 0.0019012774540925392 0 -0.028471501262727489 0.0018661495211952446 0 -0.02835122445129689 0.0019868082545325483 0 -0.028028943090305441 0.0020393351304010435 0 -0.028028943090305441 0.0020393351304010435 0 -0.027714527490268617 0.0021433220569249956 0 -0.028318002117852376 0.0019012774540925392 0 -0.027714527490268617 0.0021433220569249956 0 -0.027957139642526562 0.0020369884732425649 0 -0.028318002117852376 0.0019012774540925392 0 -0.027487180391015834 0.0021930509654579599 0 -0.027714527490268617 0.0021433220569249956 0 -0.027957139642526562 0.0020369884732425649 0 -0.027487180391015834 0.0021930509654579599 0 -0.027957139642526562 0.0020369884732425649 0 -0.027744045099883333 0.002113957510067497 0 -0.027957139642526562 0.0020369884732425649 0 -0.028283839376471651 0.0019320079653181619 0 -0.027744045099883333 0.002113957510067497 0 -0.027957139642526562 0.0020369884732425649 0 -0.028318002117852376 0.0019012774540925392 0 -0.028283839376471651 0.0019320079653181619 0 -0.028828113200428121 0.0018579360521672385 0 -0.028318002117852376 0.0019012774540925392 0 -0.028819968201223359 0.0018048775056439339 0 -0.028819968201223359 0.0018048775056439339 0 -0.028701729614276472 0.0017943760985128768 0 -0.02923385484318651 0.0017543882276764469 0 -0.028318002117852376 0.0019012774540925392 0 -0.028819968201223359 0.0018048775056439339 0 -0.028283839376471651 0.0019320079653181619 0 -0.028819968201223359 0.0018048775056439339 0 -0.028283839376471651 0.0019320079653181619 0 -0.028701729614276472 0.0017943760985128768 0 -0.028283839376471651 0.0019320079653181619 0 -0.028701729614276472 0.0017943760985128768 0 -0.027958201437097131 0.0020378428349874965 0 -0.028701729614276472 0.0017943760985128768 0 -0.029507212483573065 0.0015643736631084653 0 -0.02923385484318651 0.0017543882276764469 0 -0.028701729614276472 0.0017943760985128768 0 -0.028229807634465743 0.0015768982699203625 0 -0.028015572540758746 0.0018807873861242236 0 -0.028701729614276472 0.0017943760985128768 0 -0.028229807634465743 0.0015768982699203625 0 -0.029507212483573065 0.0015643736631084653 0 -0.027637918845362902 0.002052530456529388 0 -0.028015572540758746 0.0018807873861242236 0 -0.027958201437097131 0.0020378428349874965 0 -0.028701729614276472 0.0017943760985128768 0 -0.028015572540758746 0.0018807873861242236 0 -0.027958201437097131 0.0020378428349874965 0 -0.027958201437097131 0.0020378428349874965 0 -0.027744045099883333 0.002113957510067497 0 -0.027493449982916422 0.0021892475455757496 0 -0.027637918845362902 0.002052530456529388 0 -0.027958201437097131 0.0020378428349874965 0 -0.027493449982916422 0.0021892475455757496 0 -0.028283839376471651 0.0019320079653181619 0 -0.027958201437097131 0.0020378428349874965 0 -0.027744045099883333 0.002113957510067497 0 -0.027340162350215563 0.0022199623188165428 0 -0.027487180391015834 0.0021930509654579599 0 -0.027744045099883333 0.002113957510067497 0 -0.027197036966323144 0.0022358479054434234 0 -0.027340162350215563 0.0022199623188165428 0 -0.027493449982916422 0.0021892475455757496 0 -0.027340162350215563 0.0022199623188165428 0 -0.027744045099883333 0.002113957510067497 0 -0.027493449982916422 0.0021892475455757496 0 -0.030698075703384755 0.0026487905053335288 0 -0.030348558055408668 0.0023818653349526918 0 -0.03124385737751742 0.0020444826812453794 0 -0.031112923355863274 0.002816189160360358 0 -0.030698075703384755 0.0026487905053335288 0 -0.03124385737751742 0.0020444826812453794 0 -0.032302839179553226 0.00189256934760831 0 -0.031112923355863274 0.002816189160360358 0 -0.03124385737751742 0.0020444826812453794 0 -0.032302839179553226 0.00189256934760831 0 -0.033924334177092536 0.0013981876399235922 0 -0.033505112377958661 0.00093150530221093272 0 -0.031112923355863274 0.002816189160360358 0 -0.030698075703384755 0.0026487905053335288 0 -0.030349957356982014 0.0030966856093254955 0 -0.030698075703384755 0.0026487905053335288 0 -0.030348558055408668 0.0023818653349526918 0 -0.030349957356982014 0.0030966856093254955 0 -0.029248653307947525 0.0023195968939945864 0 -0.031212578382760914 0.0011944450970408742 0 -0.030348558055408668 0.0023818653349526918 0 -0.029676008920159657 0.0021806075822182001 0 -0.030349957356982014 0.0030966856093254955 0 -0.030348558055408668 0.0023818653349526918 0 -0.029714703455279629 0.0018885268179049497 0 -0.029676008920159657 0.0021806075822182001 0 -0.030348558055408668 0.0023818653349526918 0 -0.030636973656263441 0.0019458747724754549 0 -0.029714703455279629 0.0018885268179049497 0 -0.030348558055408668 0.0023818653349526918 0 -0.030636973656263441 0.0019458747724754549 0 -0.03124385737751742 0.0020444826812453794 0 -0.031219587160433455 0.0018468069376513256 0 -0.030636973656263441 0.0019458747724754549 0 -0.03124385737751742 0.0020444826812453794 0 -0.030636973656263441 0.0019458747724754549 0 -0.030862632801874366 0.0017600898229853841 0 -0.029507212483573065 0.0015643736631084653 0 -0.031219587160433455 0.0018468069376513256 0 -0.030636973656263441 0.0019458747724754549 0 -0.030862632801874366 0.0017600898229853841 0 -0.029438705345757789 0.0015760827851408351 0 -0.029439657823691293 0.0015858346693630189 0 -0.030774020376075101 0.0014091620184637197 0 -0.030862632801874366 0.0017600898229853841 0 -0.029507212483573065 0.0015643736631084653 0 -0.029507212483573065 0.0015643736631084653 0 -0.029714703455279629 0.0018885268179049497 0 -0.02923385484318651 0.0017543882276764469 0 -0.030636973656263441 0.0019458747724754549 0 -0.029507212483573065 0.0015643736631084653 0 -0.029714703455279629 0.0018885268179049497 0 -0.029714703455279629 0.0018885268179049497 0 -0.029342373207118085 0.0020570898851994335 0 -0.029676008920159657 0.0021806075822182001 0 -0.029714703455279629 0.0018885268179049497 0 -0.02923385484318651 0.0017543882276764469 0 -0.029342373207118085 0.0020570898851994335 0 -0.029418927929274266 0.0020112938809613372 0 -0.029248653307947525 0.0023195968939945864 0 -0.028819968201223359 0.0018048775056439339 0 -0.02923385484318651 0.0017543882276764469 0 -0.029342373207118085 0.0020570898851994335 0 -0.028828113200428121 0.0018579360521672385 0 -0.028819968201223359 0.0018048775056439339 0 -0.029342373207118085 0.0020570898851994335 0 -0.029342373207118085 0.0020570898851994335 0 -0.029638826797856198 0.002231459004085919 0 -0.029942166333335907 0.0026307041101203727 0 -0.029342373207118085 0.0020570898851994335 0 -0.029638826797856198 0.002231459004085919 0 -0.029340676227460852 0.0021992440574800454 0 -0.029340676227460852 0.0021992440574800454 0 -0.02934992332885519 0.0017634061751525436 0 -0.028643188136174474 0.00134618985551108 0 -0.029638826797856198 0.002231459004085919 0 -0.029340676227460852 0.0021992440574800454 0 -0.02934992332885519 0.0017634061751525436 0 -0.02934992332885519 0.0017634061751525436 0 -0.029766706874498554 0.0017568527331377202 0 -0.029525676380586792 0.0014615523192022589 0 -0.02934992332885519 0.0017634061751525436 0 -0.029525676380586792 0.0014615523192022589 0 -0.029114499260443447 0.0013587274331577325 0 -0.029766706874498554 0.0017568527331377202 0 -0.029912235116021934 0.0013197755494866049 0 -0.029525676380586792 0.0014615523192022589 0 -0.029766706874498554 0.0017568527331377202 0 -0.030201761297521588 0.0015638474303231056 0 -0.030175797048066094 0.0020297304040129793 0 -0.029766706874498554 0.0017568527331377202 0 -0.030201761297521588 0.0015638474303231056 0 -0.029912235116021934 0.0013197755494866049 0 -0.029638826797856198 0.002231459004085919 0 -0.029766706874498554 0.0017568527331377202 0 -0.030175797048066094 0.0020297304040129793 0 -0.029638826797856198 0.002231459004085919 0 -0.02934992332885519 0.0017634061751525436 0 -0.029766706874498554 0.0017568527331377202 0 -0.030175797048066094 0.0020297304040129793 0 -0.031032064513254517 0.0015524277743442494 0 -0.031008715460801386 0.0022715607310206999 0 -0.030201761297521588 0.0015638474303231056 0 -0.030175797048066094 0.0020297304040129793 0 -0.031032064513254517 0.0015524277743442494 0 -0.031032064513254517 0.0015524277743442494 0 -0.031902318464257812 0.0019529826597739475 0 -0.032514868404379907 0.0013031033996002278 0 -0.031902318464257812 0.0019529826597739475 0 -0.031008715460801386 0.0022715607310206999 0 -0.032302653474254248 0.002715062032806909 0 -0.031032064513254517 0.0015524277743442494 0 -0.031902318464257812 0.0019529826597739475 0 -0.031008715460801386 0.0022715607310206999 0 -0.031008715460801386 0.0022715607310206999 0 -0.031738678384058729 0.0035196058883198459 0 -0.029942166333335907 0.0026307041101203727 0 -0.030549192718604692 0.003019797093237579 0 -0.029944322363378888 0.0027160111239986654 0 -0.031008715460801386 0.0022715607310206999 0 -0.032302653474254248 0.002715062032806909 0 -0.031738678384058729 0.0035196058883198459 0 -0.029638826797856198 0.002231459004085919 0 -0.030175797048066094 0.0020297304040129793 0 -0.029942166333335907 0.0026307041101203727 0 -0.030175797048066094 0.0020297304040129793 0 -0.031008715460801386 0.0022715607310206999 0 -0.029942166333335907 0.0026307041101203727 0 -0.029342373207118085 0.0020570898851994335 0 -0.029942166333335907 0.0026307041101203727 0 -0.02923167095349917 0.0021048040779464206 0 -0.029030795535957565 0.0025104909666785946 0 -0.029942166333335907 0.0026307041101203727 0 -0.02923167095349917 0.0021048040779464206 0 -0.028828113200428121 0.0018579360521672385 0 -0.029342373207118085 0.0020570898851994335 0 -0.02923167095349917 0.0021048040779464206 0 -0.028828113200428121 0.0018579360521672385 0 -0.02923167095349917 0.0021048040779464206 0 -0.028779789407388019 0.0019568765391399924 0 -0.029030795535957565 0.0025104909666785946 0 -0.02923167095349917 0.0021048040779464206 0 -0.028779789407388019 0.0019568765391399924 0 -0.030549192718604692 0.003019797093237579 0 -0.030046836903412526 0.002469986108659322 0 -0.029030795535957565 0.0025104909666785946 0 -0.028779789407388019 0.0019568765391399924 0 -0.028639130420270345 0.0024027984500213703 0 -0.028498575118466759 0.0020264627260491446 0 -0.030046836903412526 0.002469986108659322 0 -0.028779789407388019 0.0019568765391399924 0 -0.028700842564691666 0.002088136609358466 0 -0.028629874005331003 0.0019804070307678735 0 -0.028661658420993118 0.0019145822591073889 0 -0.028779789407388019 0.0019568765391399924 0 -0.028629874005331003 0.0019804070307678735 0 -0.028573957448660519 0.001942733890326795 0 -0.028629874005331003 0.0019804070307678735 0 -0.028557465937851672 0.0020199285015784145 0 -0.028700842564691666 0.002088136609358466 0 -0.028629874005331003 0.0019804070307678735 0 -0.028557465937851672 0.0020199285015784145 0 -0.030495038694072843 0.0021213579621081075 0 -0.031039952421434633 0.0020400115032923371 0 -0.03117180912559795 0.0023295256879676427 0 -0.030046836903412526 0.002469986108659322 0 -0.030377098506774169 0.0019454382890941523 0 -0.030046836903412526 0.002469986108659322 0 -0.033440581366669116 0.0014810815183355045 0 -0.030495038694072843 0.0021213579621081075 0 -0.031039952421434633 0.0020400115032923371 0 -0.030996438096164494 0.0017577777787709916 0 -0.030495038694072843 0.0021213579621081075 0 -0.030764368549103874 0.0015715108129847014 0 -0.030996438096164494 0.0017577777787709916 0 -0.033273637116625614 0.0026146655816618423 0 -0.033440581366669116 0.0014810815183355045 0 -0.033082952514499879 0.0039306518528053492 0 -0.033199583922922486 0.0028225810899865471 0 -0.034070809840034071 0.0020903503100455525 0 -0.032302653474254248 0.002715062032806909 0 -0.031738678384058729 0.0035196058883198459 0 -0.033082952514499879 0.0039306518528053492 0 -0.032302653474254248 0.002715062032806909 0 -0.033082952514499879 0.0039306518528053492 0 -0.033199583922922486 0.0028225810899865471 0 -0.032302653474254248 0.002715062032806909 0 -0.033199583922922486 0.0028225810899865471 0 -0.033078158193454013 0.0018453297554381263 0 -0.033199583922922486 0.0028225810899865471 0 -0.033078158193454013 0.0018453297554381263 0 -0.034038424462794148 0.00219794176266427 0 -0.031902318464257812 0.0019529826597739475 0 -0.032302653474254248 0.002715062032806909 0 -0.033078158193454013 0.0018453297554381263 0 -0.031902318464257812 0.0019529826597739475 0 -0.033078158193454013 0.0018453297554381263 0 -0.032514868404379907 0.0013031033996002278 0 -0.033440581366669116 0.0014810815183355045 0 -0.034989609100657924 6.1286118101526506e-05 0 -0.033078158193454013 0.0018453297554381263 0 -0.034038424462794148 0.00219794176266427 0 -0.033926242990560844 0.0012889919918145914 0 -0.030764368549103874 0.0015715108129847014 0 -0.030996438096164494 0.0017577777787709916 0 -0.031052471214668323 0.0015664524033285351 0 -0.034038424462794148 0.00219794176266427 0 -0.033926242990560844 0.0012889919918145914 0 -0.034771867464693927 0.00081590057163745042 0 -0.034204381061051461 0.00070570938823427416 0 -0.033476427031540634 0.00097615727639234701 0 -0.034155182223322922 0.00022599988849785418 0 -0.034204381061051461 0.00070570938823427416 0 -0.033926242990560844 0.0012889919918145914 0 -0.033476427031540634 0.00097615727639234701 0 -0.034204381061051461 0.00070570938823427416 0 -0.034603355490496243 0.00026157146768913194 0 -0.034771867464693927 0.00081590057163745042 0 -0.034204381061051461 0.00070570938823427416 0 -0.033926242990560844 0.0012889919918145914 0 -0.034771867464693927 0.00081590057163745042 0 -0.033476427031540634 0.00097615727639234701 0 -0.033009747923708158 0.00033849890078065949 0 -0.032514868404379907 0.0013031033996002278 0 -0.033078158193454013 0.0018453297554381263 0 -0.033926242990560844 0.0012889919918145914 0 -0.033476427031540634 0.00097615727639234701 0 -0.033078158193454013 0.0018453297554381263 0 -0.033476427031540634 0.00097615727639234701 0 -0.032514868404379907 0.0013031033996002278 0 -0.033009747923708158 0.00033849890078065949 0 -0.034155182223322922 0.00022599988849785418 0 -0.034461308878460439 -0.00033779715337872458 0 -0.033476427031540634 0.00097615727639234701 0 -0.033009747923708158 0.00033849890078065949 0 -0.034155182223322922 0.00022599988849785418 0 -0.034204381061051461 0.00070570938823427416 0 -0.034155182223322922 0.00022599988849785418 0 -0.034603355490496243 0.00026157146768913194 0 -0.034155182223322922 0.00022599988849785418 0 -0.034603355490496243 0.00026157146768913194 0 -0.034689630916291535 -8.6327921431386299e-05 0 -0.034155182223322922 0.00022599988849785418 0 -0.034689630916291535 -8.6327921431386299e-05 0 -0.034461308878460439 -0.00033779715337872458 0 -0.034689630916291535 -8.6327921431386299e-05 0 -0.034461308878460439 -0.00033779715337872458 0 -0.034875170124002576 -0.0001370765678269225 0 -0.034999216380735297 -4.5564223335161859e-07 0 -0.034461308878460439 -0.00033779715337872458 0 -0.034875170124002576 -0.0001370765678269225 0 -0.034999216380735297 -4.5564223335161859e-07 0 -0.034461308878460439 -0.00033779715337872458 0 -0.034999940896868066 1.3614134736227185e-07 0 -0.034308997368268042 -0.00037253576205484599 0 -0.033530251029350699 -0.00031213854230856763 0 -0.033009747923708158 0.00033849890078065949 0 -0.034461308878460439 -0.00033779715337872458 0 -0.032200093901822109 -0.00051225815518478421 0 -0.034461308878460439 -0.00033779715337872458 0 -0.034900510740793513 -0.00023733959660285028 0 -0.034999940896868066 1.3614134736227185e-07 0 -0.034900510740793513 -0.00023733959660285028 0 -0.034999940896868066 1.3614134736227185e-07 0 -0.034979221046752072 -0.00011575780151691967 0 -0.034999940896868066 1.3614134736227185e-07 0 -0.035001139960392759 -3.4301062825568148e-05 0 -0.035000027062914371 -9.1340064836682539e-08 0 -0.034999940896868066 1.3614134736227185e-07 0 -0.035001139960392759 -3.4301062825568148e-05 0 -0.034979221046752072 -0.00011575780151691967 0 -0.034900510740793513 -0.00023733959660285028 0 -0.034979221046752072 -0.00011575780151691967 0 -0.035001926646874515 -4.3182798806953541e-05 0 -0.035001139960392759 -3.4301062825568148e-05 0 -0.034979221046752072 -0.00011575780151691967 0 -0.034999939842432944 -3.5765265342687242e-05 0 -0.034979221046752072 -0.00011575780151691967 0 -0.035001926646874515 -4.3182798806953541e-05 0 -0.034995218133737349 -4.9472214364657837e-05 0 -0.033530251029350699 -0.00031213854230856763 0 -0.032753746109206269 8.3190608561608947e-06 0 -0.032200093901822109 -0.00051225815518478421 0 -0.031472280475078926 0.00025301896947171296 0 -0.030434178825571895 5.2470042439581625e-05 0 -0.030460345005594653 0.00014468303175411396 0 -0.030808922456090411 0.00040954235717028222 0 -0.030434178825571895 5.2470042439581625e-05 0 -0.030808922456090411 0.00040954235717028222 0 -0.031472280475078926 0.00025301896947171296 0 -0.030434178825571895 5.2470042439581625e-05 0 -0.030460345005594653 0.00014468303175411396 0 -0.030808922456090411 0.00040954235717028222 0 -0.030530109883783782 0.00069544803388724011 0 -0.030808922456090411 0.00040954235717028222 0 -0.031472280475078926 0.00025301896947171296 0 -0.030931605140089795 0.00090338198724915502 0 -0.033009747923708158 0.00033849890078065949 0 -0.031472280475078926 0.00025301896947171296 0 -0.031812442991446574 0.00091486549612031459 0 -0.033009747923708158 0.00033849890078065949 0 -0.032200093901822109 -0.00051225815518478421 0 -0.031472280475078926 0.00025301896947171296 0 -0.031032064513254517 0.0015524277743442494 0 -0.031812442991446574 0.00091486549612031459 0 -0.032514868404379907 0.0013031033996002278 0 -0.033009747923708158 0.00033849890078065949 0 -0.031812442991446574 0.00091486549612031459 0 -0.032514868404379907 0.0013031033996002278 0 -0.031032064513254517 0.0015524277743442494 0 -0.030623075450098129 0.0012789938710425217 0 -0.030931605140089795 0.00090338198724915502 0 -0.031032064513254517 0.0015524277743442494 0 -0.031812442991446574 0.00091486549612031459 0 -0.030931605140089795 0.00090338198724915502 0 -0.030623075450098129 0.0012789938710425217 0 -0.030931605140089795 0.00090338198724915502 0 -0.030331547693582261 0.0010969969652810301 0 -0.030201761297521588 0.0015638474303231056 0 -0.030623075450098129 0.0012789938710425217 0 -0.030331547693582261 0.0010969969652810301 0 -0.030201761297521588 0.0015638474303231056 0 -0.031032064513254517 0.0015524277743442494 0 -0.030623075450098129 0.0012789938710425217 0 -0.030808922456090411 0.00040954235717028222 0 -0.030530109883783782 0.00069544803388724011 0 -0.030931605140089795 0.00090338198724915502 0 -0.030530109883783782 0.00069544803388724011 0 -0.030931605140089795 0.00090338198724915502 0 -0.030331547693582261 0.0010969969652810301 0 -0.031472280475078926 0.00025301896947171296 0 -0.031812442991446574 0.00091486549612031459 0 -0.030931605140089795 0.00090338198724915502 0 -0.029809133090560228 0.00080487178131627456 0 -0.030061134543604037 0.00087558633306035005 0 -0.029639100696219108 0.0011302314046451819 0 -0.029809133090560228 0.00080487178131627456 0 -0.029639100696219108 0.0011302314046451819 0 -0.029552260316291656 0.00099795550606727079 0 -0.030530109883783782 0.00069544803388724011 0 -0.030061134543604037 0.00087558633306035005 0 -0.030331547693582261 0.0010969969652810301 0 -0.030061134543604037 0.00087558633306035005 0 -0.030331547693582261 0.0010969969652810301 0 -0.029912235116021934 0.0013197755494866049 0 -0.030201761297521588 0.0015638474303231056 0 -0.030331547693582261 0.0010969969652810301 0 -0.029912235116021934 0.0013197755494866049 0 -0.030061134543604037 0.00087558633306035005 0 -0.029912235116021934 0.0013197755494866049 0 -0.029639100696219108 0.0011302314046451819 0 -0.029912235116021934 0.0013197755494866049 0 -0.029639100696219108 0.0011302314046451819 0 -0.029525676380586792 0.0014615523192022589 0 -0.029869374466040672 0.00044881969222479586 0 -0.031212578382760914 0.0011944450970408742 0 -0.029114499260443447 0.0013587274331577325 0 -0.02935285516305047 0.00087760197905463184 0 -0.028643188136174474 0.00134618985551108 0 -0.030715592662612659 7.6741570678875984e-05 0 -0.031110455607901533 -1.1014321325110203e-05 0 -0.031442629221799634 -0.00022645578460909774 0 -0.029525676380586792 0.0014615523192022589 0 -0.029428189647905414 0.0011589277458308818 0 -0.029114499260443447 0.0013587274331577325 0 -0.02934992332885519 0.0017634061751525436 0 -0.029114499260443447 0.0013587274331577325 0 -0.028643188136174474 0.00134618985551108 0 -0.029639100696219108 0.0011302314046451819 0 -0.029525676380586792 0.0014615523192022589 0 -0.029428189647905414 0.0011589277458308818 0 -0.030715592662612659 7.6741570678875984e-05 0 -0.030756146781229947 0.00017560214841348055 0 -0.031110455607901533 -1.1014321325110203e-05 0 -0.029428189647905414 0.0011589277458308818 0 -0.029114499260443447 0.0013587274331577325 0 -0.02935285516305047 0.00087760197905463184 0 -0.029809133090560228 0.00080487178131627456 0 -0.029552260316291656 0.00099795550606727079 0 -0.02935285516305047 0.00087760197905463184 0 -0.029639100696219108 0.0011302314046451819 0 -0.029428189647905414 0.0011589277458308818 0 -0.029552260316291656 0.00099795550606727079 0 -0.029428189647905414 0.0011589277458308818 0 -0.029552260316291656 0.00099795550606727079 0 -0.02935285516305047 0.00087760197905463184 0 -0.034961728357938857 0.00010185054944454582 0 -0.034967080959820554 6.5564203683308377e-05 0 -0.034980290213661669 2.8924062031413378e-05 0 -0.030715592662612659 7.6741570678875984e-05 0 -0.030756146781229947 0.00017560214841348055 0 -0.030589274056889566 0.00011578532956181797 0 -0.034967080959820554 6.5564203683308377e-05 0 -0.034952237229223311 8.8608941511719204e-05 0 -0.034960242653882811 6.8554568145944172e-05 0 -0.034961728357938857 0.00010185054944454582 0 -0.034967080959820554 6.5564203683308377e-05 0 -0.034952237229223311 8.8608941511719204e-05 0 -0.034961728357938857 0.00010185054944454582 0 -0.034952237229223311 8.8608941511719204e-05 0 -0.034930372826689343 0.00011408228458158041 0 -0.034952237229223311 8.8608941511719204e-05 0 -0.034941658602946082 9.2324461736380337e-05 0 -0.034960242653882811 6.8554568145944172e-05 0 -0.034952237229223311 8.8608941511719204e-05 0 -0.034941658602946082 9.2324461736380337e-05 0 -0.034930372826689343 0.00011408228458158041 0 -0.034941658602946082 9.2324461736380337e-05 0 -0.034963807495342697 4.9529873790254256e-05 0 -0.03491557119029931 0.00011310093102542918 0 -0.034941658602946082 9.2324461736380337e-05 0 -0.034960242653882811 6.8554568145944172e-05 0 -0.034963807495342697 4.9529873790254256e-05 0 -0.034963807495342697 4.9529873790254256e-05 0 -0.034974322458323694 3.9285490132743711e-05 0 -0.034986002227037939 8.2716675446433511e-06 0 -0.034967080959820554 6.5564203683308377e-05 0 -0.034974322458323694 3.9285490132743711e-05 0 -0.034980290213661669 2.8924062031413378e-05 0 -0.034967080959820554 6.5564203683308377e-05 0 -0.034960242653882811 6.8554568145944172e-05 0 -0.034974322458323694 3.9285490132743711e-05 0 -0.034960242653882811 6.8554568145944172e-05 0 -0.034963807495342697 4.9529873790254256e-05 0 -0.034974322458323694 3.9285490132743711e-05 0 -0.034974322458323694 3.9285490132743711e-05 0 -0.03498363713164554 1.3605547506185176e-05 0 -0.034986002227037939 8.2716675446433511e-06 0 -0.034961728357938857 0.00010185054944454582 0 -0.034980290213661669 2.8924062031413378e-05 0 -0.035001926646874515 -4.3182798806953541e-05 0 -0.030756146781229947 0.00017560214841348055 0 -0.030589274056889566 0.00011578532956181797 0 -0.030434178825571895 5.2470042439581625e-05 0 -0.03282869933232288 5.7465614281506059e-05 0 -0.032753746109206269 8.3190608561608947e-06 0 -0.030460345005594653 0.00014468303175411396 0 -0.030715592662612659 7.6741570678875984e-05 0 -0.030589274056889566 0.00011578532956181797 0 -0.030507463202955103 0.0001712134074106982 0 -0.029869374466040672 0.00044881969222479586 0 -0.030460345005594653 0.00014468303175411396 0 -0.029809133090560228 0.00080487178131627456 0 -0.02935285516305047 0.00087760197905463184 0 -0.03498363713164554 1.3605547506185176e-05 0 -0.034993230323749708 -1.9878327691809457e-05 0 -0.034986002227037939 8.2716675446433511e-06 0 -0.03498363713164554 1.3605547506185176e-05 0 -0.034993230323749708 -1.9878327691809457e-05 0 -0.034991110524900275 -1.1617199727815105e-05 0 -0.03498363713164554 1.3605547506185176e-05 0 -0.034980290213661669 2.8924062031413378e-05 0 -0.034991110524900275 -1.1617199727815105e-05 0 -0.034974322458323694 3.9285490132743711e-05 0 -0.03498363713164554 1.3605547506185176e-05 0 -0.034980290213661669 2.8924062031413378e-05 0 -0.030460345005594653 0.00014468303175411396 0 -0.030589274056889566 0.00011578532956181797 0 -0.030434178825571895 5.2470042439581625e-05 0 -0.030460345005594653 0.00014468303175411396 0 -0.030530109883783782 0.00069544803388724011 0 -0.030061134543604037 0.00087558633306035005 0 -0.030460345005594653 0.00014468303175411396 0 -0.029809133090560228 0.00080487178131627456 0 -0.030061134543604037 0.00087558633306035005 0 -0.035001926646874515 -4.3182798806953541e-05 0 -0.034991110524900275 -1.1617199727815105e-05 0 -0.034996267884890277 -3.501637163093061e-05 0 -0.034980290213661669 2.8924062031413378e-05 0 -0.035001926646874515 -4.3182798806953541e-05 0 -0.034991110524900275 -1.1617199727815105e-05 0 -0.034993230323749708 -1.9878327691809457e-05 0 -0.034991110524900275 -1.1617199727815105e-05 0 -0.034996267884890277 -3.501637163093061e-05 0 -0.034993230323749708 -1.9878327691809457e-05 0 -0.034996267884890277 -3.501637163093061e-05 0 -0.034995218133737349 -4.9472214364657837e-05 0 -0.035001926646874515 -4.3182798806953541e-05 0 -0.034996267884890277 -3.501637163093061e-05 0 -0.034995218133737349 -4.9472214364657837e-05 0 -0.034979221046752072 -0.00011575780151691967 0 -0.034995218133737349 -4.9472214364657837e-05 0 -0.034999939842432944 -3.5765265342687242e-05 0 -0.035001139960392759 -3.4301062825568148e-05 0 -0.034999939842432944 -3.5765265342687242e-05 0 -0.034994974757595554 -2.6711537827493216e-06 0 -0.034993230323749708 -1.9878327691809457e-05 0 -0.034995218133737349 -4.9472214364657837e-05 0 -0.034999939842432944 -3.5765265342687242e-05 0 -0.034999939842432944 -3.5765265342687242e-05 0 -0.034994974757595554 -2.6711537827493216e-06 0 -0.034986002227037939 8.2716675446433511e-06 0 -0.034993230323749708 -1.9878327691809457e-05 0 -0.034999939842432944 -3.5765265342687242e-05 0 -0.034986002227037939 8.2716675446433511e-06 0 -0.035001139960392759 -3.4301062825568148e-05 0 -0.035000027062914371 -9.1340064836682539e-08 0 -0.034994974757595554 -2.6711537827493216e-06 0 -0.034994974757595554 -2.6711537827493216e-06 0 -0.034948075836691447 4.4532498456469994e-05 0 -0.035000006330632827 4.4099984810447013e-08 0 -0.035000027062914371 -9.1340064836682539e-08 0 -0.034994974757595554 -2.6711537827493216e-06 0 -0.035000006330632827 4.4099984810447013e-08 0 -0.034963807495342697 4.9529873790254256e-05 0 -0.034994974757595554 -2.6711537827493216e-06 0 -0.034948075836691447 4.4532498456469994e-05 0 -0.034963807495342697 4.9529873790254256e-05 0 -0.034994974757595554 -2.6711537827493216e-06 0 -0.034986002227037939 8.2716675446433511e-06 0 -0.034963807495342697 4.9529873790254256e-05 0 -0.034948075836691447 4.4532498456469994e-05 0 -0.03491557119029931 0.00011310093102542918 0 -0.034948075836691447 4.4532498456469994e-05 0 -0.035000006330632827 4.4099984810447013e-08 0 -0.034907606274883152 3.7514436067854671e-05 0 -0.034590822091799263 0.00011418154653922887 0 -0.034907606274883152 3.7514436067854671e-05 0 -0.034999614831543728 -1.1314295190996463e-07 0 -0.035000006330632827 4.4099984810447013e-08 0 -0.034907606274883152 3.7514436067854671e-05 0 -0.034999614831543728 -1.1314295190996463e-07 0 -0.034502868741728435 7.7992499992351349e-05 0 -0.034551044556514754 0.0002128175212632323 0 -0.034948075836691447 4.4532498456469994e-05 0 -0.034907606274883152 3.7514436067854671e-05 0 -0.034839282597301194 0.00016146770246482393 0 -0.034590822091799263 0.00011418154653922887 0 -0.034907606274883152 3.7514436067854671e-05 0 -0.034839282597301194 0.00016146770246482393 0 -0.034551044556514754 0.0002128175212632323 0 -0.033535818672695318 0.00079799805468293804 0 -0.034055536558018532 0.00028199702079932123 0 -0.034342875194001601 0.00075525104811056661 0 -0.033941044431881638 0.00053353921124733882 0 -0.033956197310471989 0.0002993070959572787 0 -0.034055536558018532 0.00028199702079932123 0 -0.033941044431881638 0.00053353921124733882 0 -0.034948075836691447 4.4532498456469994e-05 0 -0.034839282597301194 0.00016146770246482393 0 -0.03491557119029931 0.00011310093102542918 0 -0.034839282597301194 0.00016146770246482393 0 -0.03491557119029931 0.00011310093102542918 0 -0.034883558619312062 0.00017172730397194179 0 -0.03491557119029931 0.00011310093102542918 0 -0.034930372826689343 0.00011408228458158041 0 -0.034883558619312062 0.00017172730397194179 0 -0.034941658602946082 9.2324461736380337e-05 0 -0.03491557119029931 0.00011310093102542918 0 -0.034930372826689343 0.00011408228458158041 0 -0.03282869933232288 5.7465614281506059e-05 0 -0.033535818672695318 0.00079799805468293804 0 -0.034961728357938857 0.00010185054944454582 0 -0.034930372826689343 0.00011408228458158041 0 -0.034883558619312062 0.00017172730397194179 0 -0.030756146781229947 0.00017560214841348055 0 -0.031544145516285559 -6.4503433479559568e-05 0 -0.031110455607901533 -1.1014321325110203e-05 0 -0.031544145516285559 -6.4503433479559568e-05 0 -0.031110455607901533 -1.1014321325110203e-05 0 -0.031442629221799634 -0.00022645578460909774 0 -0.034508731521518322 0.00073547942309075594 0 -0.034652142167740464 0.00096818601334456114 0 -0.034137202596184371 0.00088325786035717182 0 -0.033535818672695318 0.00079799805468293804 0 -0.031212578382760914 0.0011944450970408742 0 -0.033924334177092536 0.0013981876399235922 0 -0.034652142167740464 0.00096818601334456114 0 -0.034137202596184371 0.00088325786035717182 0 -0.032580113245024203 0.001961839873746451 0 -0.031212578382760914 0.0011944450970408742 0 -0.033535818672695318 0.00079799805468293804 0 -0.034109261006004366 0.00070359451428317658 0 -0.033924334177092536 0.0013981876399235922 0 -0.034137202596184371 0.00088325786035717182 0 -0.033505112377958661 0.00093150530221093272 0 -0.034137202596184371 0.00088325786035717182 0 -0.033505112377958661 0.00093150530221093272 0 -0.033941044431881638 0.00053353921124733882 0 -0.033575815057291888 0.00058257495985917964 0 -0.033505112377958661 0.00093150530221093272 0 -0.033941044431881638 0.00053353921124733882 0 -0.034342875194001601 0.00075525104811056661 0 -0.034137202596184371 0.00088325786035717182 0 -0.033941044431881638 0.00053353921124733882 0 -0.033306805598176448 0.0018852051412618991 0 -0.033290990716598502 0.0014834389996183776 0 -0.03374689907117133 0.0015250192740806361 0 -0.033306805598176448 0.0018852051412618991 0 -0.032954817439103785 0.001715962153537511 0 -0.033290990716598502 0.0014834389996183776 0 -0.033306805598176448 0.0018852051412618991 0 -0.032954817439103785 0.001715962153537511 0 -0.032860497387004972 0.0021062843801841658 0 -0.032666465319105102 0.0018866986490027153 0 -0.032612039277367083 0.0022039356541473385 0 -0.032860497387004972 0.0021062843801841658 0 -0.032666465319105102 0.0018866986490027153 0 -0.032954817439103785 0.001715962153537511 0 -0.032860497387004972 0.0021062843801841658 0 -0.032666465319105102 0.0018866986490027153 0 -0.032954817439103785 0.001715962153537511 0 -0.032681203899676506 0.0015229024486909299 0 -0.033041188550134638 0.0012745427631304055 0 -0.032681203899676506 0.0015229024486909299 0 -0.032799555802245139 0.00097777273032434876 0 -0.032954817439103785 0.001715962153537511 0 -0.033041188550134638 0.0012745427631304055 0 -0.033290990716598502 0.0014834389996183776 0 -0.032954817439103785 0.001715962153537511 0 -0.033041188550134638 0.0012745427631304055 0 -0.032681203899676506 0.0015229024486909299 0 -0.033041188550134638 0.0012745427631304055 0 -0.033290990716598502 0.0014834389996183776 0 -0.033352918378998286 0.0011184884017683551 0 -0.033290990716598502 0.0014834389996183776 0 -0.033555486063367494 0.0012582788364117505 0 -0.033352918378998286 0.0011184884017683551 0 -0.033555486063367494 0.0012582788364117505 0 -0.033796502958324544 0.0011906682226956273 0 -0.03374689907117133 0.0015250192740806361 0 -0.033290990716598502 0.0014834389996183776 0 -0.033555486063367494 0.0012582788364117505 0 -0.03374689907117133 0.0015250192740806361 0 -0.033796502958324544 0.0011906682226956273 0 -0.03374689907117133 0.0015250192740806361 0 -0.03407860531027912 0.0012460315586267491 0 -0.03374689907117133 0.0015250192740806361 0 -0.03407860531027912 0.0012460315586267491 0 -0.034301282116566273 0.0016033525309374469 0 -0.030839694637404151 0.0024397116581645804 0 -0.029935104761876163 0.0025629780745660539 0 -0.030205131665292602 0.0016153053077229585 0 -0.032506158408782508 0.0019601743186718457 0 -0.028817742177779774 0.003521744323430108 0 -0.031166109911989839 0.0033943922227453313 0 -0.028817742177779774 0.003521744323430108 0 -0.027994157729982618 0.0048881536408754128 0 -0.026467599579625221 0.0042553647992245123 0 -0.026299682730049487 0.0059623801621428701 0 -0.03374689907117133 0.0015250192740806361 0 -0.033817201184864247 0.0019618840944391606 0 -0.034301282116566273 0.0016033525309374469 0 -0.033306805598176448 0.0018852051412618991 0 -0.03374689907117133 0.0015250192740806361 0 -0.033817201184864247 0.0019618840944391606 0 -0.027994157729982618 0.0048881536408754128 0 -0.027790780328745591 0.0035981151296785754 0 -0.029840023800120026 0.0039297600158618795 0 -0.031166109911989839 0.0033943922227453313 0 -0.031498180660748679 0.0031386132924691407 0 -0.027994157729982618 0.0048881536408754128 0 -0.027790780328745591 0.0035981151296785754 0 -0.026467599579625221 0.0042553647992245123 0 -0.027790780328745591 0.0035981151296785754 0 -0.026467599579625221 0.0042553647992245123 0 -0.026687447159714703 0.0025848957079588029 0 -0.027260791656114159 0.0016416215450227776 0 -0.026687447159714703 0.0025848957079588029 0 -0.028178062562170116 0.0023873306403930567 0 -0.027790780328745591 0.0035981151296785754 0 -0.026687447159714703 0.0025848957079588029 0 -0.028178062562170116 0.0023873306403930567 0 -0.027790780328745591 0.0035981151296785754 0 -0.028178062562170116 0.0023873306403930567 0 -0.029840023800120026 0.0039297600158618795 0 -0.030337897385433858 0.0016460288168175777 0 -0.028178062562170116 0.0023873306403930567 0 -0.029840023800120026 0.0039297600158618795 0 -0.033306805598176448 0.0018852051412618991 0 -0.033223237658096566 0.0023914166556556434 0 -0.032860497387004972 0.0021062843801841658 0 -0.033306805598176448 0.0018852051412618991 0 -0.033817201184864247 0.0019618840944391606 0 -0.033223237658096566 0.0023914166556556434 0 -0.033223237658096566 0.0023914166556556434 0 -0.032860497387004972 0.0021062843801841658 0 -0.032556338350556123 0.0024087001100965271 0 -0.032612039277367083 0.0022039356541473385 0 -0.032860497387004972 0.0021062843801841658 0 -0.032556338350556123 0.0024087001100965271 0 -0.032612039277367083 0.0022039356541473385 0 -0.032556338350556123 0.0024087001100965271 0 -0.032478058485890193 0.0022832104223403453 0 -0.030337897385433858 0.0016460288168175777 0 -0.032194579137637805 0.0026062405061706845 0 -0.03262466455081519 0.0026162762991237703 0 -0.032556338350556123 0.0024087001100965271 0 -0.032194579137637805 0.0026062405061706845 0 -0.032469059925763676 0.0025668142471822158 0 -0.033223237658096566 0.0023914166556556434 0 -0.032556338350556123 0.0024087001100965271 0 -0.032194579137637805 0.0026062405061706845 0 -0.030337897385433858 0.0016460288168175777 0 -0.029840023800120026 0.0039297600158618795 0 -0.032194579137637805 0.0026062405061706845 0 -0.029520350818504282 0.0015053250085987676 0 -0.03102213409553424 0.0021799300613415682 0 -0.031498180660748679 0.0031386132924691407 0 -0.03220702020940594 0.0026311271088936411 0 -0.029521976753059707 0.001767131030054214 0 -0.030133529431008554 0.0016673575081507614 0 -0.030451557760141187 0.0021292973481205446 0 -0.02983985762952707 0.0014185514999790606 0 -0.029506709965463149 0.001322722733229901 0 -0.029521976753059707 0.001767131030054214 0 -0.03102213409553424 0.0021799300613415682 0 -0.03122937862339828 0.0022786252079121266 0 -0.03262466455081519 0.0026162762991237703 0 -0.032020473600095425 0.0024847719606533297 0 -0.032451158294996139 0.002470517606450463 0 -0.03262466455081519 0.0026162762991237703 0 -0.032469059925763676 0.0025668142471822158 0 -0.032451158294996139 0.002470517606450463 0 -0.032194579137637805 0.0026062405061706845 0 -0.03262466455081519 0.0026162762991237703 0 -0.032469059925763676 0.0025668142471822158 0 -0.02983985762952707 0.0014185514999790606 0 -0.029521976753059707 0.001767131030054214 0 -0.030133529431008554 0.0016673575081507614 0 -0.030306079980216491 0.00127307962748058 0 -0.030133529431008554 0.0016673575081507614 0 -0.030515107164330625 0.0016641401202460541 0 -0.030515107164330625 0.0016641401202460541 0 -0.030451557760141187 0.0021292973481205446 0 -0.03094267886896079 0.0019191779240527633 0 -0.030133529431008554 0.0016673575081507614 0 -0.030515107164330625 0.0016641401202460541 0 -0.030451557760141187 0.0021292973481205446 0 -0.032020473600095425 0.0024847719606533297 0 -0.032096257931850079 0.0019536761691968663 0 -0.031751371670848294 0.0020192649451593971 0 -0.032020473600095425 0.0024847719606533297 0 -0.032306920271898576 0.002104598489328069 0 -0.032096257931850079 0.0019536761691968663 0 -0.032020473600095425 0.0024847719606533297 0 -0.032451158294996139 0.002470517606450463 0 -0.032321051041670497 0.0023502640955354944 0 -0.032306920271898576 0.002104598489328069 0 -0.032478058485890193 0.0022832104223403453 0 -0.032321051041670497 0.0023502640955354944 0 -0.032306920271898576 0.002104598489328069 0 -0.032478058485890193 0.0022832104223403453 0 -0.032517004517384714 0.0020738392042423419 0 -0.032612039277367083 0.0022039356541473385 0 -0.032478058485890193 0.0022832104223403453 0 -0.032517004517384714 0.0020738392042423419 0 -0.032556338350556123 0.0024087001100965271 0 -0.032478058485890193 0.0022832104223403453 0 -0.032451158294996139 0.002470517606450463 0 -0.032556338350556123 0.0024087001100965271 0 -0.032469059925763676 0.0025668142471822158 0 -0.032451158294996139 0.002470517606450463 0 -0.032478058485890193 0.0022832104223403453 0 -0.032451158294996139 0.002470517606450463 0 -0.032321051041670497 0.0023502640955354944 0 -0.032020473600095425 0.0024847719606533297 0 -0.032306920271898576 0.002104598489328069 0 -0.032321051041670497 0.0023502640955354944 0 -0.028519448979968606 0.0019408320846027909 0 -0.028573957448660519 0.001942733890326795 0 -0.028557465937851672 0.0020199285015784145 0 -0.029818910880646799 0.0016301445099238729 0 -0.030377098506774169 0.0019454382890941523 0 -0.031204794921062418 0.0012899736511188015 0 -0.03094267886896079 0.0019191779240527633 0 -0.031591830801131204 0.0021219532345753411 0 -0.030725071482937946 0.0013780920637542337 0 -0.031204794921062418 0.0012899736511188015 0 -0.03094267886896079 0.0019191779240527633 0 -0.030725071482937946 0.0013780920637542337 0 -0.030515107164330625 0.0016641401202460541 0 -0.03094267886896079 0.0019191779240527633 0 -0.032020473600095425 0.0024847719606533297 0 -0.031264369763881646 0.0021653791101961021 0 -0.031751371670848294 0.0020192649451593971 0 -0.030451557760141187 0.0021292973481205446 0 -0.03094267886896079 0.0019191779240527633 0 -0.031264369763881646 0.0021653791101961021 0 -0.03094267886896079 0.0019191779240527633 0 -0.031264369763881646 0.0021653791101961021 0 -0.031207558068604584 0.0021195692468052329 0 -0.031344677611138856 0.0020440291983479298 0 -0.030377098506774169 0.0019454382890941523 0 -0.03122937862339828 0.0022786252079121266 0 -0.031230349206383758 0.0021859898889622837 0 -0.031264369763881646 0.0021653791101961021 0 -0.031039952421434633 0.0020400115032923371 0 -0.031207558068604584 0.0021195692468052329 0 -0.031031954832487336 0.0022302645394401245 0 -0.030377098506774169 0.0019454382890941523 0 -0.031264369763881646 0.0021653791101961021 0 -0.031039952421434633 0.0020400115032923371 0 -0.031194502441157575 0.0018851730594576087 0 -0.030996438096164494 0.0017577777787709916 0 -0.031194502441157575 0.0018851730594576087 0 -0.031236222349378274 0.0016118422034257752 0 -0.031039952421434633 0.0020400115032923371 0 -0.030996438096164494 0.0017577777787709916 0 -0.031194502441157575 0.0018851730594576087 0 -0.031194502441157575 0.0018851730594576087 0 -0.031512702741020381 0.00176411583694926 0 -0.031236222349378274 0.0016118422034257752 0 -0.031264369763881646 0.0021653791101961021 0 -0.031194502441157575 0.0018851730594576087 0 -0.031512702741020381 0.00176411583694926 0 -0.031264369763881646 0.0021653791101961021 0 -0.031512702741020381 0.00176411583694926 0 -0.031751371670848294 0.0020192649451593971 0 -0.031512702741020381 0.00176411583694926 0 -0.031751371670848294 0.0020192649451593971 0 -0.031910701522065682 0.0017354313685106449 0 -0.031512702741020381 0.00176411583694926 0 -0.031910701522065682 0.0017354313685106449 0 -0.031887416497038919 0.0014412560199052985 0 -0.031512702741020381 0.00176411583694926 0 -0.031496058305173456 0.0013401185296718072 0 -0.031887416497038919 0.0014412560199052985 0 -0.031496058305173456 0.0013401185296718072 0 -0.031887416497038919 0.0014412560199052985 0 -0.031820877533112114 0.0010560285154590982 0 -0.031512702741020381 0.00176411583694926 0 -0.031496058305173456 0.0013401185296718072 0 -0.031236222349378274 0.0016118422034257752 0 -0.030764368549103874 0.0015715108129847014 0 -0.031207832927875427 0.0013147500625364246 0 -0.031297246015308665 0.0010214781532298389 0 -0.030764368549103874 0.0015715108129847014 0 -0.031207832927875427 0.0013147500625364246 0 -0.031052471214668323 0.0015664524033285351 0 -0.033440581366669116 0.0014810815183355045 0 -0.033020062013688511 0.00017540374949969831 0 -0.031496058305173456 0.0013401185296718072 0 -0.031236222349378274 0.0016118422034257752 0 -0.031207832927875427 0.0013147500625364246 0 -0.031496058305173456 0.0013401185296718072 0 -0.031207832927875427 0.0013147500625364246 0 -0.031297246015308665 0.0010214781532298389 0 -0.030996438096164494 0.0017577777787709916 0 -0.031236222349378274 0.0016118422034257752 0 -0.031052471214668323 0.0015664524033285351 0 -0.031236222349378274 0.0016118422034257752 0 -0.031207832927875427 0.0013147500625364246 0 -0.031052471214668323 0.0015664524033285351 0 -0.032435294176299381 0.0017831742386272974 0 -0.032096257931850079 0.0019536761691968663 0 -0.032302208312216071 0.0015019301187224781 0 -0.032666465319105102 0.0018866986490027153 0 -0.032435294176299381 0.0017831742386272974 0 -0.032681203899676506 0.0015229024486909299 0 -0.032666465319105102 0.0018866986490027153 0 -0.032612039277367083 0.0022039356541473385 0 -0.032517004517384714 0.0020738392042423419 0 -0.032666465319105102 0.0018866986490027153 0 -0.032435294176299381 0.0017831742386272974 0 -0.032517004517384714 0.0020738392042423419 0 -0.032306920271898576 0.002104598489328069 0 -0.032435294176299381 0.0017831742386272974 0 -0.032517004517384714 0.0020738392042423419 0 -0.032306920271898576 0.002104598489328069 0 -0.032435294176299381 0.0017831742386272974 0 -0.032096257931850079 0.0019536761691968663 0 -0.032096257931850079 0.0019536761691968663 0 -0.031910701522065682 0.0017354313685106449 0 -0.032302208312216071 0.0015019301187224781 0 -0.032096257931850079 0.0019536761691968663 0 -0.031751371670848294 0.0020192649451593971 0 -0.031910701522065682 0.0017354313685106449 0 -0.031887416497038919 0.0014412560199052985 0 -0.032302208312216071 0.0015019301187224781 0 -0.032353184861404108 0.0010152602076163786 0 -0.031910701522065682 0.0017354313685106449 0 -0.031887416497038919 0.0014412560199052985 0 -0.032302208312216071 0.0015019301187224781 0 -0.032302208312216071 0.0015019301187224781 0 -0.032681203899676506 0.0015229024486909299 0 -0.032799555802245139 0.00097777273032434876 0 -0.032435294176299381 0.0017831742386272974 0 -0.032302208312216071 0.0015019301187224781 0 -0.032681203899676506 0.0015229024486909299 0 -0.032799555802245139 0.00097777273032434876 0 -0.032353184861404108 0.0010152602076163786 0 -0.032848801446043185 0.00050151733762185315 0 -0.032302208312216071 0.0015019301187224781 0 -0.032799555802245139 0.00097777273032434876 0 -0.032353184861404108 0.0010152602076163786 0 -0.031887416497038919 0.0014412560199052985 0 -0.032353184861404108 0.0010152602076163786 0 -0.031820877533112114 0.0010560285154590982 0 -0.032353184861404108 0.0010152602076163786 0 -0.032077786013556708 0.00042245779331946139 0 -0.031820877533112114 0.0010560285154590982 0 -0.032353184861404108 0.0010152602076163786 0 -0.032077786013556708 0.00042245779331946139 0 -0.032848801446043185 0.00050151733762185315 0 -0.032799555802245139 0.00097777273032434876 0 -0.032848801446043185 0.00050151733762185315 0 -0.033110971080273943 0.00054863556495814039 0 -0.032077786013556708 0.00042245779331946139 0 -0.032848801446043185 0.00050151733762185315 0 -0.033363007097432465 -2.2181275158828936e-05 0 -0.032848801446043185 0.00050151733762185315 0 -0.033176263386934184 0.00025457727101321813 0 -0.033110971080273943 0.00054863556495814039 0 -0.034879845184684996 -0.0003138880101656324 0 -0.03492840547421424 -0.00039970292615551002 0 -0.034903826718904032 -0.00042769297178359676 0 -0.031496058305173456 0.0013401185296718072 0 -0.031297246015308665 0.0010214781532298389 0 -0.031820877533112114 0.0010560285154590982 0 -0.032077786013556708 0.00042245779331946139 0 -0.031297246015308665 0.0010214781532298389 0 -0.031820877533112114 0.0010560285154590982 0 -0.033341634959205516 2.2286603931301541e-05 0 -0.033020062013688511 0.00017540374949969831 0 -0.034632015094619564 -0.00047177478633960042 0 -0.034903826718904032 -0.00042769297178359676 0 -0.034942875700128148 -0.00017486632743090813 0 -0.034989609100657924 6.1286118101526506e-05 0 -0.034887554568678911 -5.2330154436102804e-05 0 -0.034603355490496243 0.00026157146768913194 0 -0.034771867464693927 0.00081590057163745042 0 -0.034942875700128148 -0.00017486632743090813 0 -0.03492840547421424 -0.00039970292615551002 0 -0.034903826718904032 -0.00042769297178359676 0 -0.034942875700128148 -0.00017486632743090813 0 -0.034603355490496243 0.00026157146768913194 0 -0.034689630916291535 -8.6327921431386299e-05 0 -0.034942875700128148 -0.00017486632743090813 0 -0.034689630916291535 -8.6327921431386299e-05 0 -0.034942875700128148 -0.00017486632743090813 0 -0.034875170124002576 -0.0001370765678269225 0 -0.034942875700128148 -0.00017486632743090813 0 -0.034877952332156022 -6.2054286764650951e-05 0 -0.034875170124002576 -0.0001370765678269225 0 -0.034632015094619564 -0.00047177478633960042 0 -0.034942875700128148 -0.00017486632743090813 0 -0.034877952332156022 -6.2054286764650951e-05 0 -0.034877952332156022 -6.2054286764650951e-05 0 -0.034999750265614873 1.5778353683169627e-07 0 -0.034859305197482982 0.00014450193642312224 0 -0.034877952332156022 -6.2054286764650951e-05 0 -0.034999750265614873 1.5778353683169627e-07 0 -0.034875170124002576 -0.0001370765678269225 0 -0.034999216380735297 -4.5564223335161859e-07 0 -0.034999750265614873 1.5778353683169627e-07 0 -0.034875170124002576 -0.0001370765678269225 0 -0.032848801446043185 0.00050151733762185315 0 -0.033363007097432465 -2.2181275158828936e-05 0 -0.033176263386934184 0.00025457727101321813 0 -0.034632015094619564 -0.00047177478633960042 0 -0.033363007097432465 -2.2181275158828936e-05 0 -0.034414936549075466 -0.00010534858017962293 0 -0.033363007097432465 -2.2181275158828936e-05 0 -0.034414936549075466 -0.00010534858017962293 0 -0.034859305197482982 0.00014450193642312224 0 -0.034632015094619564 -0.00047177478633960042 0 -0.034877952332156022 -6.2054286764650951e-05 0 -0.034414936549075466 -0.00010534858017962293 0 -0.033341634959205516 2.2286603931301541e-05 0 -0.033325408379669678 -2.0519299015966154e-06 0 -0.034999626530967907 1.7475227284654811e-07 0 -0.034859305197482982 0.00014450193642312224 0 -0.035026994086488052 -2.7226111519140357e-06 0 -0.034999750265614873 1.5778353683169627e-07 0 -0.034999626530967907 1.7475227284654811e-07 0 -0.034859305197482982 0.00014450193642312224 0 -0.034877952332156022 -6.2054286764650951e-05 0 -0.034414936549075466 -0.00010534858017962293 0 -0.034859305197482982 0.00014450193642312224 0 -0.034827441710070003 0.00015329832099237163 0 -0.034091335902164531 0.0001836420287568125 0 -0.034999626530967907 1.7475227284654811e-07 0 -0.035026994086488052 -2.7226111519140357e-06 0 -0.035000170061293433 -4.4198868877437534e-08 0 -0.033363007097432465 -2.2181275158828936e-05 0 -0.034859305197482982 0.00014450193642312224 0 -0.033281092665392337 0.00038071342882433306 0 -0.033363007097432465 -2.2181275158828936e-05 0 -0.033281092665392337 0.00038071342882433306 0 -0.033224808641011086 0.00016462430355321464 0 -0.034091335902164531 0.0001836420287568125 0 -0.03445028264817275 6.2474727152521435e-05 0 -0.033281092665392337 0.00038071342882433306 0 -0.033194259445511888 0.00022646652584046021 0 -0.03322235488000258 0.0002150629829531166 0 -0.035026994086488052 -2.7226111519140357e-06 0 -0.035000170061293433 -4.4198868877437534e-08 0 -0.03499574174101569 -2.0946355163859123e-06 0 -0.035026994086488052 -2.7226111519140357e-06 0 -0.034985082617260348 -4.9629609918755714e-06 0 -0.03499574174101569 -2.0946355163859123e-06 0 -0.033281092665392337 0.00038071342882433306 0 -0.03322235488000258 0.0002150629829531166 0 -0.033224808641011086 0.00016462430355321464 0 -0.035000170061293433 -4.4198868877437534e-08 0 -0.03499574174101569 -2.0946355163859123e-06 0 -0.034999929004282795 9.9468096366540143e-09 0 -0.034997704031609275 -9.0250230630085122e-07 0 -0.03499574174101569 -2.0946355163859123e-06 0 -0.034999929004282795 9.9468096366540143e-09 0 -0.03445028264817275 6.2474727152521435e-05 0 -0.034877620999966295 9.4807164780949047e-05 0 -0.033194259445511888 0.00022646652584046021 0 -0.03322235488000258 0.0002150629829531166 0 -0.033188127733204426 0.00023721942559303799 0 -0.03322235488000258 0.0002150629829531166 0 -0.033248002621608576 0.00030704063818487074 0 -0.033515422420732882 0.00038281662706568395 0 -0.033252223457070837 0.00027052146884567812 0 -0.033370691294568093 0.00017590180472272437 0 -0.03322235488000258 0.0002150629829531166 0 -0.033188127733204426 0.00023721942559303799 0 -0.03318112175858047 0.00024138141999661294 0 -0.03322235488000258 0.0002150629829531166 0 -0.033224808641011086 0.00016462430355321464 0 -0.033248002621608576 0.00030704063818487074 0 -0.033363007097432465 -2.2181275158828936e-05 0 -0.033224808641011086 0.00016462430355321464 0 -0.033176263386934184 0.00025457727101321813 0 -0.033224808641011086 0.00016462430355321464 0 -0.033248002621608576 0.00030704063818487074 0 -0.033176263386934184 0.00025457727101321813 0 -0.033248002621608576 0.00030704063818487074 0 -0.033176263386934184 0.00025457727101321813 0 -0.033110971080273943 0.00054863556495814039 0 -0.033110971080273943 0.00054863556495814039 0 -0.033299926478922534 0.00056453948916094837 0 -0.033161504981681592 0.00085401691768310808 0 -0.033248002621608576 0.00030704063818487074 0 -0.033110971080273943 0.00054863556495814039 0 -0.033299926478922534 0.00056453948916094837 0 -0.033515422420732882 0.00038281662706568395 0 -0.033299926478922534 0.00056453948916094837 0 -0.033470470324260135 0.00078523755353525283 0 -0.033248002621608576 0.00030704063818487074 0 -0.033515422420732882 0.00038281662706568395 0 -0.033299926478922534 0.00056453948916094837 0 -0.033299926478922534 0.00056453948916094837 0 -0.033470470324260135 0.00078523755353525283 0 -0.033161504981681592 0.00085401691768310808 0 -0.033470470324260135 0.00078523755353525283 0 -0.033352918378998286 0.0011184884017683551 0 -0.033161504981681592 0.00085401691768310808 0 -0.033555486063367494 0.0012582788364117505 0 -0.033352918378998286 0.0011184884017683551 0 -0.033670489410834711 0.0010040160856002443 0 -0.033470470324260135 0.00078523755353525283 0 -0.033352918378998286 0.0011184884017683551 0 -0.033670489410834711 0.0010040160856002443 0 -0.033041188550134638 0.0012745427631304055 0 -0.033352918378998286 0.0011184884017683551 0 -0.033161504981681592 0.00085401691768310808 0 -0.033041188550134638 0.0012745427631304055 0 -0.032799555802245139 0.00097777273032434876 0 -0.033161504981681592 0.00085401691768310808 0 -0.032799555802245139 0.00097777273032434876 0 -0.033110971080273943 0.00054863556495814039 0 -0.033161504981681592 0.00085401691768310808 0 -0.030839694637404151 0.0024397116581645804 0 -0.031472323896563105 0.0032654754783181237 0 -0.030244110055802985 0.0031557931567590307 0 -0.030839694637404151 0.0024397116581645804 0 -0.030244110055802985 0.0031557931567590307 0 -0.029935104761876163 0.0025629780745660539 0 -0.032506158408782508 0.0019601743186718457 0 -0.032886789193456965 0.0016013983701109178 0 -0.033796502958324544 0.0011906682226956273 0 -0.033670489410834711 0.0010040160856002443 0 -0.03384899837940436 0.00089855169083330802 0 -0.033470470324260135 0.00078523755353525283 0 -0.033670489410834711 0.0010040160856002443 0 -0.033871300646128942 0.00086350596043506262 0 -0.033796502958324544 0.0011906682226956273 0 -0.03407860531027912 0.0012460315586267491 0 -0.03384899837940436 0.00089855169083330802 0 -0.033555486063367494 0.0012582788364117505 0 -0.033796502958324544 0.0011906682226956273 0 -0.033670489410834711 0.0010040160856002443 0 -0.033807698939987536 0.00095882033517547818 0 -0.032886789193456965 0.0016013983701109178 0 -0.033515422420732882 0.00038281662706568395 0 -0.033470470324260135 0.00078523755353525283 0 -0.033871300646128942 0.00086350596043506262 0 -0.033370691294568093 0.00017590180472272437 0 -0.032886789193456965 0.0016013983701109178 0 -0.03318112175858047 0.00024138141999661294 0 -0.03316086110849497 0.00024026752982779075 0 -0.033159559381930291 0.00025014793312750348 0 -0.03316086110849497 0.00024026752982779075 0 -0.033117956078407611 0.00025643134865952481 0 -0.033128960045075762 0.00025513232537022326 0 -0.032886789193456965 0.0016013983701109178 0 -0.031575483974071138 0.0019789073854979732 0 -0.03316086110849497 0.00024026752982779075 0 -0.033159559381930291 0.00025014793312750348 0 -0.033128960045075762 0.00025513232537022326 0 -0.031472323896563105 0.0032654754783181237 0 -0.02998312804660036 0.0042131857515210498 0 -0.030244110055802985 0.0031557931567590307 0 -0.033159559381930291 0.00025014793312750348 0 -0.033148415278408221 0.00025738263147976362 0 -0.033128960045075762 0.00025513232537022326 0 -0.033703440254374592 0.00061601464905813982 0 -0.033872088130378966 0.00073715446524633002 0 -0.033573269476180022 0.000677197564317961 0 -0.033146672686222567 0.0002688848039547475 0 -0.03316962586572475 0.00025116457449436312 0 -0.033182864438016338 0.00024926883993791959 0 -0.033148415278408221 0.00025738263147976362 0 -0.033146672686222567 0.0002688848039547475 0 -0.033128960045075762 0.00025513232537022326 0 -0.033159559381930291 0.00025014793312750348 0 -0.033148415278408221 0.00025738263147976362 0 -0.03316962586572475 0.00025116457449436312 0 -0.033148415278408221 0.00025738263147976362 0 -0.033146672686222567 0.0002688848039547475 0 -0.03316962586572475 0.00025116457449436312 0 -0.03318112175858047 0.00024138141999661294 0 -0.033159559381930291 0.00025014793312750348 0 -0.03316962586572475 0.00025116457449436312 0 -0.033188127733204426 0.00023721942559303799 0 -0.03318112175858047 0.00024138141999661294 0 -0.03316962586572475 0.00025116457449436312 0 -0.033188127733204426 0.00023721942559303799 0 -0.03316962586572475 0.00025116457449436312 0 -0.033182864438016338 0.00024926883993791959 0 -0.034997704031609275 -9.0250230630085122e-07 0 -0.034999929004282795 9.9468096366540143e-09 0 -0.034994215784431397 -7.5352433238461104e-08 0 -0.034848615449076574 -1.0466962412960469e-05 0 -0.034929497620386329 1.1999235400233196e-05 0 -0.034994215784431397 -7.5352433238461104e-08 0 -0.03445028264817275 6.2474727152521435e-05 0 -0.035189880231125757 -1.6891794405714016e-05 0 -0.03445028264817275 6.2474727152521435e-05 0 -0.033889496402006163 0.00030339126590259559 0 -0.033194259445511888 0.00022646652584046021 0 -0.033188127733204426 0.00023721942559303799 0 -0.033182864438016338 0.00024926883993791959 0 -0.034929497620386329 1.1999235400233196e-05 0 -0.034971874772858305 1.74358838336805e-05 0 -0.034994215784431397 -7.5352433238461104e-08 0 -0.033889496402006163 0.00030339126590259559 0 -0.034358504410908076 0.00038043368478378882 0 -0.034999929004282795 9.9468096366540143e-09 0 -0.034994215784431397 -7.5352433238461104e-08 0 -0.035000003862587288 -7.4200884736800595e-10 0 -0.034358504410908076 0.00038043368478378882 0 -0.0343717147795084 0.00032850465412214786 0 -0.03345910568928858 0.00040814565735826814 0 -0.033889496402006163 0.00030339126590259559 0 -0.033703440254374592 0.00061601464905813982 0 -0.033964820596848862 0.00075576604518329455 0 -0.033872088130378966 0.00073715446524633002 0 -0.034971874772858305 1.74358838336805e-05 0 -0.03499806372856365 1.1700472192979611e-06 0 -0.035000841036515802 4.2922065004535908e-06 0 -0.034971874772858305 1.74358838336805e-05 0 -0.03499806372856365 1.1700472192979611e-06 0 -0.034994215784431397 -7.5352433238461104e-08 0 -0.03499806372856365 1.1700472192979611e-06 0 -0.034994215784431397 -7.5352433238461104e-08 0 -0.035000003862587288 -7.4200884736800595e-10 0 -0.03499806372856365 1.1700472192979611e-06 0 -0.035000003862587288 -7.4200884736800595e-10 0 -0.034998791331512069 2.7533967143147959e-06 0 -0.03499806372856365 1.1700472192979611e-06 0 -0.034998791331512069 2.7533967143147959e-06 0 -0.035000841036515802 4.2922065004535908e-06 0 -0.034998791331512069 2.7533967143147959e-06 0 -0.034998092627885523 2.0768043691092654e-06 0 -0.03499262526177159 2.8164452833672145e-06 0 -0.034998791331512069 2.7533967143147959e-06 0 -0.03499262526177159 2.8164452833672145e-06 0 -0.035000841036515802 4.2922065004535908e-06 0 -0.035000003862587288 -7.4200884736800595e-10 0 -0.034998791331512069 2.7533967143147959e-06 0 -0.034998092627885523 2.0768043691092654e-06 0 -0.035000003862587288 -7.4200884736800595e-10 0 -0.034998092627885523 2.0768043691092654e-06 0 -0.034999986238504831 9.9964734395784989e-09 0 -0.034980958868611856 1.5069214805109819e-05 0 -0.03499996473583631 3.0075463730041642e-09 0 -0.034992162157155782 8.7865718124827449e-06 0 -0.034269569125886572 0.00024405256736510986 0 -0.035000123533306511 -3.6266729716251645e-07 0 -0.034998092627885523 2.0768043691092654e-06 0 -0.034994988546554306 6.2947041041377705e-06 0 -0.034999986238504831 9.9964734395784989e-09 0 -0.034998092627885523 2.0768043691092654e-06 0 -0.03499262526177159 2.8164452833672145e-06 0 -0.03498196187320117 2.5172228345087685e-06 0 -0.034983494066661444 7.9642207218381594e-05 0 -0.034269569125886572 0.00024405256736510986 0 -0.033279847715458187 0.0005815429515881852 0 -0.033270254701839926 0.00061403619824216323 0 -0.033573269476180022 0.000677197564317961 0 -0.03499262526177159 2.8164452833672145e-06 0 -0.03498196187320117 2.5172228345087685e-06 0 -0.034981572321588876 -6.6744690741656177e-07 0 -0.03499262526177159 2.8164452833672145e-06 0 -0.034981572321588876 -6.6744690741656177e-07 0 -0.035000841036515802 4.2922065004535908e-06 0 -0.034980958868611856 1.5069214805109819e-05 0 -0.034983876840702276 2.0146461396678923e-05 0 -0.034992162157155782 8.7865718124827449e-06 0 -0.034269569125886572 0.00024405256736510986 0 -0.033773965521269517 0.00068726202732221134 0 -0.034269569125886572 0.00024405256736510986 0 -0.033664681348915371 0.00068731188358865897 0 -0.03386516444911758 0.00067702218202089336 0 -0.033915301966907827 0.00051226746585961722 0 -0.033827328939366949 0.00049188444541652294 0 -0.033002387116936163 0.0011562301221836845 0 -0.033664681348915371 0.00068731188358865897 0 -0.033500786484625296 0.00076269332817913745 0 -0.033480182468984612 0.00082987369585660635 0 -0.033417127639055917 0.0008150179245770187 0 -0.033002387116936163 0.0011562301221836845 0 -0.033356035614547572 0.00090600821437723409 0 -0.033664681348915371 0.00068731188358865897 0 -0.033356035614547572 0.00090600821437723409 0 -0.031534487187353966 0.0020696796828004512 0 -0.031534374210484557 0.0020702198052679442 0 -0.031532752733472461 0.0020706353117375133 0 -0.03386516444911758 0.00067702218202089336 0 -0.033767399425589401 0.00052991774919896185 0 -0.033827328939366949 0.00049188444541652294 0 -0.033478130410281429 0.0014155000306091648 0 -0.033820419138524425 0.0011976797033870278 0 -0.033248469357805961 0.0010652823503576824 0 -0.033773965521269517 0.00068726202732221134 0 -0.033356035614547572 0.00090600821437723409 0 -0.033356035614547572 0.00090600821437723409 0 -0.033273469361135767 0.0011137328395320516 0 -0.033773965521269517 0.00068726202732221134 0 -0.033273469361135767 0.0011137328395320516 0 -0.031534487187353966 0.0020696796828004512 0 -0.031532752733472461 0.0020706353117375133 0 -0.031528307199140966 0.0020694749329976921 0 -0.031534487187353966 0.0020696796828004512 0 -0.031528307199140966 0.0020694749329976921 0 -0.031529198716147032 0.0020691638974990848 0 -0.033002387116936163 0.0011562301221836845 0 -0.03091779747820219 0.002538393074120111 0 -0.033002387116936163 0.0011562301221836845 0 -0.032511689983411231 0.0012357689344825705 0 -0.032305788599893463 0.0013419431634413435 0 -0.031800480222533747 0.0016646261826396866 0 -0.032144954226946187 0.0018546190058519104 0 -0.03345910568928858 0.00040814565735826814 0 -0.032511689983411231 0.0012357689344825705 0 -0.033146672686222567 0.0002688848039547475 0 -0.03309745503082713 0.00027024822306045493 0 -0.03311623011281447 0.00025712473275860917 0 -0.033703440254374592 0.00061601464905813982 0 -0.033436574314467664 0.00048042400409576287 0 -0.033573269476180022 0.000677197564317961 0 -0.033664681348915371 0.00068731188358865897 0 -0.0343717147795084 0.00032850465412214786 0 -0.033279847715458187 0.0005815429515881852 0 -0.033436574314467664 0.00048042400409576287 0 -0.033573269476180022 0.000677197564317961 0 -0.033146672686222567 0.0002688848039547475 0 -0.03311623011281447 0.00025712473275860917 0 -0.033128960045075762 0.00025513232537022326 0 -0.034896880708711234 0.00011817070310653182 0 -0.034999713880335279 -4.3059840253236499e-08 0 -0.03471355616726416 8.4184948258839065e-05 0 -0.034999774005426365 1.1825093526310287e-07 0 -0.035023941513665897 -5.4173540113447556e-05 0 -0.034896880708711234 0.00011817070310653182 0 -0.034999713880335279 -4.3059840253236499e-08 0 -0.035000045816534514 2.4368059695970472e-05 0 -0.035000021518531835 2.2923011442100327e-09 0 -0.035000349854037376 4.0588726162242155e-06 0 -0.03499996473583631 3.0075463730041642e-09 0 -0.034983876840702276 2.0146461396678923e-05 0 -0.035000349854037376 4.0588726162242155e-06 0 -0.034992162157155782 8.7865718124827449e-06 0 -0.033773965521269517 0.00068726202732221134 0 -0.035023941513665897 -5.4173540113447556e-05 0 -0.035000349854037376 4.0588726162242155e-06 0 -0.03499996473583631 3.0075463730041642e-09 0 -0.034992162157155782 8.7865718124827449e-06 0 -0.034482412605368273 0.00025364858109462119 0 -0.03471355616726416 8.4184948258839065e-05 0 -0.034787045244941216 0.00030868151827270936 0 -0.033273469361135767 0.0011137328395320516 0 -0.033162123407530344 0.0013148167370461148 0 -0.032237645626227038 0.0025904300570767889 0 -0.030790998275893416 0.0022679919232160527 0 -0.031587175307711567 0.0016258325916841973 0 -0.034467873049142367 0.00023205155011597512 0 -0.034482412605368273 0.00025364858109462119 0 -0.03471355616726416 8.4184948258839065e-05 0 -0.033273469361135767 0.0011137328395320516 0 -0.030217356856221771 0.0026585870020371725 0 -0.031532752733472461 0.0020706353117375133 0 -0.031528307199140966 0.0020694749329976921 0 -0.031515287316914338 0.0020688267518502064 0 -0.033162123407530344 0.0013148167370461148 0 -0.030206143386724477 0.001845879141090123 0 -0.034896880708711234 0.00011817070310653182 0 -0.03471355616726416 8.4184948258839065e-05 0 -0.034787045244941216 0.00030868151827270936 0 -0.034896880708711234 0.00011817070310653182 0 -0.034787045244941216 0.00030868151827270936 0 -0.034971606746934711 0.00020667966102829623 0 -0.02841464280050943 0.0032708070416303477 0 -0.028015587419110338 0.0026598135822086064 0 -0.027119632289962198 0.0032406340581045533 0 -0.026092572372991101 0.0037509469339364826 0 -0.027157728177910224 0.0030528995324504578 0 -0.030790998275893416 0.0022679919232160527 0 -0.031587175307711567 0.0016258325916841973 0 -0.029870545759311199 0.0015896425680180096 0 -0.030217356856221771 0.0026585870020371725 0 -0.027157728177910224 0.0030528995324504578 0 -0.02531435482182124 0.0034102707579594825 0 -0.025122971832361219 0.00341103804922256 0 -0.025074904979810218 0.0035544565373569689 0 -0.028530883046362181 0.0037638383900138591 0 -0.027717740101605808 0.0025080557243692177 0 -0.030120658034514008 0.003793703267174456 0 -0.026092572372991101 0.0037509469339364826 0 -0.030414556096331591 0.0030600237612844676 0 -0.030217356856221771 0.0026585870020371725 0 -0.026092572372991101 0.0037509469339364826 0 -0.030217356856221771 0.0026585870020371725 0 -0.030414556096331591 0.0030600237612844676 0 -0.026092572372991101 0.0037509469339364826 0 -0.02618241963543861 0.0045198826966872871 0 -0.023183571713387245 0.0066587377395090604 0 -0.024318123593279506 0.0060080031078744191 0 -0.02341483815211557 0.0058581651960241477 0 -0.026092572372991101 0.0037509469339364826 0 -0.023789411480213577 0.0045875476013032485 0 -0.025327228697686766 0.0034144946895451975 0 -0.025194875604078522 0.0033463459414716803 0 -0.025121157247415291 0.003140525047455156 0 -0.023183571713387245 0.0066587377395090604 0 -0.02341483815211557 0.0058581651960241477 0 -0.022582156339568161 0.0057646050840363386 0 -0.02531435482182124 0.0034102707579594825 0 -0.025122971832361219 0.00341103804922256 0 -0.025194875604078522 0.0033463459414716803 0 -0.026092572372991101 0.0037509469339364826 0 -0.025199486144646923 0.0033123576234372508 0 -0.025194875604078522 0.0033463459414716803 0 -0.025121157247415291 0.003140525047455156 0 -0.025057253194941079 0.0032887007659393999 0 -0.025122971832361219 0.00341103804922256 0 -0.025194875604078522 0.0033463459414716803 0 -0.025057253194941079 0.0032887007659393999 0 -0.029687904641954022 0.0036659909103799659 0 -0.02998312804660036 0.0042131857515210498 0 -0.030244110055802985 0.0031557931567590307 0 -0.031575483974071138 0.0019789073854979732 0 -0.032585638758060746 0.0015661996482074301 0 -0.032511689983411231 0.0012357689344825705 0 -0.031575483974071138 0.0019789073854979732 0 -0.031444771602962614 0.0024683389259326548 0 -0.031885095505244557 0.0021887164793562021 0 -0.031070059110622876 0.0021719270603434895 0 -0.029687904641954022 0.0036659909103799659 0 -0.02998312804660036 0.0042131857515210498 0 -0.029025439119088232 0.0041945744634536699 0 -0.031575483974071138 0.0019789073854979732 0 -0.030367979657542989 0.0031396490080495905 0 -0.031444771602962614 0.0024683389259326548 0 -0.031044813441064925 0.0022541512012394585 0 -0.031070059110622876 0.0021719270603434895 0 -0.032511689983411231 0.0012357689344825705 0 -0.03091779747820219 0.002538393074120111 0 -0.02901401801554139 0.0042197767661394095 0 -0.028789264969085612 0.004215443403454068 0 -0.029182624525838464 0.0036638321177991291 0 -0.027342169318161105 0.0034499087701218732 0 -0.028789264969085612 0.004215443403454068 0 -0.029182624525838464 0.0036638321177991291 0 -0.03091779747820219 0.002538393074120111 0 -0.030414556096331591 0.0030600237612844676 0 -0.03091779747820219 0.002538393074120111 0 -0.030367979657542989 0.0031396490080495905 0 -0.031069806865987402 0.0031711283185730495 0 -0.031183526295521798 0.0028021879159758956 0 -0.030356825431352472 0.0027839096738940272 0 -0.030367979657542989 0.0031396490080495905 0 -0.030414556096331591 0.0030600237612844676 0 -0.031528307199140966 0.0020694749329976921 0 -0.031515287316914338 0.0020688267518502064 0 -0.03152756313183909 0.0020684070441250191 0 -0.031528307199140966 0.0020694749329976921 0 -0.031529198716147032 0.0020691638974990848 0 -0.03152756313183909 0.0020684070441250191 0 -0.029687904641954022 0.0036659909103799659 0 -0.029025439119088232 0.0041945744634536699 0 -0.029182624525838464 0.0036638321177991291 0 -0.030367979657542989 0.0031396490080495905 0 -0.029546535402639615 0.0040148262619663835 0 -0.029182624525838464 0.0036638321177991291 0 -0.029596119253306866 0.0030806790177707612 0 -0.028785644697923916 0.002523419382995936 0 -0.027342169318161105 0.0034499087701218732 0 -0.029182624525838464 0.0036638321177991291 0 -0.028785644697923916 0.002523419382995936 0 -0.029596119253306866 0.0030806790177707612 0 -0.029935104761876163 0.0025629780745660539 0 -0.028785644697923916 0.002523419382995936 0 -0.029687904641954022 0.0036659909103799659 0 -0.029182624525838464 0.0036638321177991291 0 -0.029596119253306866 0.0030806790177707612 0 -0.029687904641954022 0.0036659909103799659 0 -0.029596119253306866 0.0030806790177707612 0 -0.030244110055802985 0.0031557931567590307 0 -0.029596119253306866 0.0030806790177707612 0 -0.030244110055802985 0.0031557931567590307 0 -0.029935104761876163 0.0025629780745660539 0 -0.028817742177779774 0.003521744323430108 0 -0.02618241963543861 0.0045198826966872871 0 -0.029935104761876163 0.0025629780745660539 0 -0.030205131665292602 0.0016153053077229585 0 -0.028785644697923916 0.002523419382995936 0 -0.026467599579625221 0.0042553647992245123 0 -0.026299682730049487 0.0059623801621428701 0 -0.024832360261641109 0.0039919115121808627 0 -0.025612205597046311 0.005281380795434493 0 -0.024449631263054942 0.0048332174050316097 0 -0.024832360261641109 0.0039919115121808627 0 -0.028817742177779774 0.003521744323430108 0 -0.024117237082488814 0.0046124985099680474 0 -0.025612205597046311 0.005281380795434493 0 -0.024449631263054942 0.0048332174050316097 0 -0.024284245445459825 0.0054091649643715992 0 -0.024449631263054942 0.0048332174050316097 0 -0.023698584796897779 0.0049983676919140713 0 -0.023746519345674958 0.0043191056713720198 0 -0.024449631263054942 0.0048332174050316097 0 -0.024284245445459825 0.0054091649643715992 0 -0.023698584796897779 0.0049983676919140713 0 -0.024318123593279506 0.0060080031078744191 0 -0.024284245445459825 0.0054091649643715992 0 -0.02341483815211557 0.0058581651960241477 0 -0.025612205597046311 0.005281380795434493 0 -0.024318123593279506 0.0060080031078744191 0 -0.024284245445459825 0.0054091649643715992 0 -0.02341483815211557 0.0058581651960241477 0 -0.022873485919175682 0.0049512989863500457 0 -0.023698584796897779 0.0049983676919140713 0 -0.024284245445459825 0.0054091649643715992 0 -0.02341483815211557 0.0058581651960241477 0 -0.023698584796897779 0.0049983676919140713 0 -0.02341483815211557 0.0058581651960241477 0 -0.022582156339568161 0.0057646050840363386 0 -0.022873485919175682 0.0049512989863500457 0 -0.022582156339568161 0.0057646050840363386 0 -0.022873485919175682 0.0049512989863500457 0 -0.022013950087896059 0.0048817449693629496 0 -0.022751539495201208 0.0047538778014301151 0 -0.022970849864131872 0.0041890604798569256 0 -0.022418706157916503 0.0041835865659790358 0 -0.022751539495201208 0.0047538778014301151 0 -0.02331923595544259 0.0045339960942056548 0 -0.022970849864131872 0.0041890604798569256 0 -0.022751539495201208 0.0047538778014301151 0 -0.023698584796897779 0.0049983676919140713 0 -0.02331923595544259 0.0045339960942056548 0 -0.022734624329753182 0.0048689430471550157 0 -0.023657048046102865 0.0049696444488505622 0 -0.023698584796897779 0.0049983676919140713 0 -0.02331923595544259 0.0045339960942056548 0 -0.023746519345674958 0.0043191056713720198 0 -0.023746519345674958 0.0043191056713720198 0 -0.023097254579726837 0.0038169801326980719 0 -0.023422087274725917 0.0035227673496367501 0 -0.02331923595544259 0.0045339960942056548 0 -0.023746519345674958 0.0043191056713720198 0 -0.022970849864131872 0.0041890604798569256 0 -0.023746519345674958 0.0043191056713720198 0 -0.022970849864131872 0.0041890604798569256 0 -0.023097254579726837 0.0038169801326980719 0 -0.022970849864131872 0.0041890604798569256 0 -0.022560387698438128 0.0037587442827512214 0 -0.023097254579726837 0.0038169801326980719 0 -0.022970849864131872 0.0041890604798569256 0 -0.022560387698438128 0.0037587442827512214 0 -0.022418706157916503 0.0041835865659790358 0 -0.022560387698438128 0.0037587442827512214 0 -0.023097254579726837 0.0038169801326980719 0 -0.022825067436143986 0.0034500156119290177 0 -0.022560387698438128 0.0037587442827512214 0 -0.022825067436143986 0.0034500156119290177 0 -0.022326307796705368 0.0033882550745447386 0 -0.023097254579726837 0.0038169801326980719 0 -0.023422087274725917 0.0035227673496367501 0 -0.022825067436143986 0.0034500156119290177 0 -0.024547498144530951 0.0023777499311589925 0 -0.02552292559754946 0.0029313759653228264 0 -0.024832360261641109 0.0039919115121808627 0 -0.024547498144530951 0.0023777499311589925 0 -0.02552292559754946 0.0029313759653228264 0 -0.025785702845918555 0.0021456666859681474 0 -0.026467599579625221 0.0042553647992245123 0 -0.026687447159714703 0.0025848957079588029 0 -0.02552292559754946 0.0029313759653228264 0 -0.026687447159714703 0.0025848957079588029 0 -0.02552292559754946 0.0029313759653228264 0 -0.025785702845918555 0.0021456666859681474 0 -0.026467599579625221 0.0042553647992245123 0 -0.02552292559754946 0.0029313759653228264 0 -0.024832360261641109 0.0039919115121808627 0 -0.023746519345674958 0.0043191056713720198 0 -0.024547498144530951 0.0023777499311589925 0 -0.024832360261641109 0.0039919115121808627 0 -0.023738752447732627 0.0042718509660268616 0 -0.023980389445886239 0.0030242807110220115 0 -0.024449631263054942 0.0048332174050316097 0 -0.023746519345674958 0.0043191056713720198 0 -0.024832360261641109 0.0039919115121808627 0 -0.023729415201593076 0.0039170316394269572 0 -0.022108108726270812 0.0035404049129533445 0 -0.022715513130495801 0.0027656603799036069 0 -0.02188439930645646 0.003582289550994204 0 -0.021944677778358766 0.0035656775402881772 0 -0.022108108726270812 0.0035404049129533445 0 -0.022833751843048207 0.003737062338117195 0 -0.022140474788389389 0.0035544124477899677 0 -0.023729415201593076 0.0039170316394269572 0 -0.024736478447323147 0.0034115000826331491 0 -0.024416036914628344 0.0029556248598272034 0 -0.023729415201593076 0.0039170316394269572 0 -0.024736478447323147 0.0034115000826331491 0 -0.024826732466049935 0.0040346350459959501 0 -0.022833751843048207 0.003737062338117195 0 -0.022998567746992896 0.0037602263758549806 0 -0.02179941642203748 0.0034395282765447609 0 -0.021751919661239613 0.0035113606091058914 0 -0.021718652763058614 0.0034408991078052546 0 -0.02188439930645646 0.003582289550994204 0 -0.02179941642203748 0.0034395282765447609 0 -0.021751919661239613 0.0035113606091058914 0 -0.02179941642203748 0.0034395282765447609 0 -0.021944677778358766 0.0035656775402881772 0 -0.021909678415912123 0.0033453127299616059 0 -0.02188439930645646 0.003582289550994204 0 -0.02179941642203748 0.0034395282765447609 0 -0.021944677778358766 0.0035656775402881772 0 -0.022037619104607845 0.0034568110882920978 0 -0.021944677778358766 0.0035656775402881772 0 -0.021909678415912123 0.0033453127299616059 0 -0.022037619104607845 0.0034568110882920978 0 -0.022046524943861463 0.0036905770687684306 0 -0.021944677778358766 0.0035656775402881772 0 -0.022037619104607845 0.0034568110882920978 0 -0.022200023180586673 0.0036281751676825523 0 -0.022326307796705368 0.0033882550745447386 0 -0.022560387698438128 0.0037587442827512214 0 -0.022200023180586673 0.0036281751676825523 0 -0.022326307796705368 0.0033882550745447386 0 -0.022037619104607845 0.0034568110882920978 0 -0.022046524943861463 0.0036905770687684306 0 -0.022200023180586673 0.0036281751676825523 0 -0.022046524943861463 0.0036905770687684306 0 -0.022200023180586673 0.0036281751676825523 0 -0.022212361207931072 0.003905222949089454 0 -0.022560387698438128 0.0037587442827512214 0 -0.022200023180586673 0.0036281751676825523 0 -0.022212361207931072 0.003905222949089454 0 -0.022560387698438128 0.0037587442827512214 0 -0.022212361207931072 0.003905222949089454 0 -0.022418706157916503 0.0041835865659790358 0 -0.022046524943861463 0.0036905770687684306 0 -0.022212361207931072 0.003905222949089454 0 -0.021948022508634916 0.0040403590344830296 0 -0.022183475566019996 0.0041748647333768396 0 -0.021948022508634916 0.0040403590344830296 0 -0.022160093848201116 0.0045865874877218486 0 -0.022212361207931072 0.003905222949089454 0 -0.022183475566019996 0.0041748647333768396 0 -0.021948022508634916 0.0040403590344830296 0 -0.022212361207931072 0.003905222949089454 0 -0.022183475566019996 0.0041748647333768396 0 -0.022418706157916503 0.0041835865659790358 0 -0.021944677778358766 0.0035656775402881772 0 -0.022108108726270812 0.0035404049129533445 0 -0.021965299520840295 0.003598357670398354 0 -0.021965032844295056 0.0036743738016313627 0 -0.021870050355728719 0.0036853575061333182 0 -0.022046524943861463 0.0036905770687684306 0 -0.021944677778358766 0.0035656775402881772 0 -0.021948022508634916 0.0040403590344830296 0 -0.022108108726270812 0.0035404049129533445 0 -0.021965299520840295 0.003598357670398354 0 -0.021304558050396782 0.0027769527544486382 0 -0.023738624290594094 0.0027651397577421366 0 -0.022746155817736653 0.0039477378957731438 0 -0.022108108726270812 0.0035404049129533445 0 -0.022715513130495801 0.0027656603799036069 0 -0.021304558050396782 0.0027769527544486382 0 -0.024578432473470614 0.0028686034239967166 0 -0.024914488267556805 0.0028709556969734873 0 -0.024757477907585999 0.003027965952216789 0 -0.022751539495201208 0.0047538778014301151 0 -0.022418706157916503 0.0041835865659790358 0 -0.022160093848201116 0.0045865874877218486 0 -0.022734624329753182 0.0048689430471550157 0 -0.022746155817736653 0.0039477378957731438 0 -0.022183475566019996 0.0041748647333768396 0 -0.022418706157916503 0.0041835865659790358 0 -0.022160093848201116 0.0045865874877218486 0 -0.021870050355728719 0.0036853575061333182 0 -0.022746155817736653 0.0039477378957731438 0 -0.024914488267556805 0.0028709556969734873 0 -0.0248941636998312 0.0031425518452271989 0 -0.024757477907585999 0.003027965952216789 0 -0.025121157247415291 0.003140525047455156 0 -0.024914488267556805 0.0028709556969734873 0 -0.0248941636998312 0.0031425518452271989 0 -0.023789411480213577 0.0045875476013032485 0 -0.022746155817736653 0.0039477378957731438 0 -0.025121157247415291 0.003140525047455156 0 -0.0248941636998312 0.0031425518452271989 0 -0.025057253194941079 0.0032887007659393999 0 -0.0248941636998312 0.0031425518452271989 0 -0.024757477907585999 0.003027965952216789 0 -0.024652975502146079 0.0032226234294341792 0 -0.024578432473470614 0.0028686034239967166 0 -0.024757477907585999 0.003027965952216789 0 -0.024652975502146079 0.0032226234294341792 0 -0.024616963222774013 0.0028577509539315332 0 -0.024136733939279738 0.0030783883349216131 0 -0.024497952801146444 0.0029011485425825502 0 -0.024542521331025604 0.0027734225417533026 0 -0.024436851421938882 0.0025983829744241778 0 -0.024578432473470614 0.0028686034239967166 0 -0.024497952801146444 0.0029011485425825502 0 -0.024652975502146079 0.0032226234294341792 0 -0.024542521331025604 0.0027734225417533026 0 -0.02465087267299277 0.0025971389676625236 0 -0.024436851421938882 0.0025983829744241778 0 -0.023738624290594094 0.0027651397577421366 0 -0.024327243220971431 0.0029365005678661611 0 -0.024578432473470614 0.0028686034239967166 0 -0.024497952801146444 0.0029011485425825502 0 -0.024416036914628344 0.0029556248598272034 0 -0.023729415201593076 0.0039170316394269572 0 -0.022715513130495801 0.0027656603799036069 0 -0.024416036914628344 0.0029556248598272034 0 -0.024497952801146444 0.0029011485425825502 0 -0.024416036914628344 0.0029556248598272034 0 -0.024542521331025604 0.0027734225417533026 0 -0.024627375627576876 0.0028481315990850891 0 -0.02465087267299277 0.0025971389676625236 0 -0.025109764575967961 0.0030788560212357645 0 -0.024736478447323147 0.0034115000826331491 0 -0.024726487709494479 0.0030509767260095979 0 -0.024416036914628344 0.0029556248598272034 0 -0.024726487709494479 0.0030509767260095979 0 -0.024627375627576876 0.0028481315990850891 0 -0.025109764575967961 0.0030788560212357645 0 -0.024416036914628344 0.0029556248598272034 0 -0.024627375627576876 0.0028481315990850891 0 -0.024542521331025604 0.0027734225417533026 0 -0.024726487709494479 0.0030509767260095979 0 -0.024416036914628344 0.0029556248598272034 0 -0.024627375627576876 0.0028481315990850891 0 -0.024627375627576876 0.0028481315990850891 0 -0.024542521331025604 0.0027734225417533026 0 -0.02465087267299277 0.0025971389676625236 0 -0.027788079109434 0.00092031483696375707 0 -0.026540143946526512 -0.0016573622072307101 0 -0.028891845440520206 0.0002176422475182809 0 -0.026540143946526512 -0.0016573622072307101 0 -0.028891845440520206 0.0002176422475182809 0 -0.029153353162453783 -0.0011068515833461559 0 -0.025655977936925672 0.0016241463620416717 0 -0.029183293505925394 0.00029822673789597182 0 -0.02465087267299277 0.0025971389676625236 0 -0.024596422636027206 0.0024399306488369346 0 -0.024436851421938882 0.0025983829744241778 0 -0.029183293505925394 0.00029822673789597182 0 -0.027550745390064701 0.0018154759893230228 0 -0.034945393958922953 -8.5626104230204135e-05 0 -0.034810285851104017 5.2611130846792936e-05 0 -0.034533722592135128 5.9330066699568519e-05 0 -0.029183293505925394 0.00029822673789597182 0 -0.031995143749814103 -0.00085472687288727395 0 -0.034945393958922953 -8.5626104230204135e-05 0 -0.034212041531293473 -0.00047516235804588271 0 -0.034533722592135128 5.9330066699568519e-05 0 -0.025122971832361219 0.00341103804922256 0 -0.024927228475580432 0.0033568785534708245 0 -0.024975677141183331 0.0034850917248699432 0 -0.025122971832361219 0.00341103804922256 0 -0.025057253194941079 0.0032887007659393999 0 -0.024927228475580432 0.0033568785534708245 0 -0.0248941636998312 0.0031425518452271989 0 -0.025057253194941079 0.0032887007659393999 0 -0.024927228475580432 0.0033568785534708245 0 -0.024927228475580432 0.0033568785534708245 0 -0.024652975502146079 0.0032226234294341792 0 -0.024889633395048273 0.0035544269604552664 0 -0.0248941636998312 0.0031425518452271989 0 -0.024927228475580432 0.0033568785534708245 0 -0.024652975502146079 0.0032226234294341792 0 -0.024652975502146079 0.0032226234294341792 0 -0.024901089564310006 0.0036160534950965429 0 -0.024889633395048273 0.0035544269604552664 0 -0.024136733939279738 0.0030783883349216131 0 -0.027550745390064701 0.0018154759893230228 0 -0.024596422636027206 0.0024399306488369346 0 -0.024436851421938882 0.0025983829744241778 0 -0.024428528919414532 0.002403842792383014 0 -0.030790998275893416 0.0022679919232160527 0 -0.029339332345001048 0.0019358639745841412 0 -0.029870545759311199 0.0015896425680180096 0 -0.024927228475580432 0.0033568785534708245 0 -0.024889633395048273 0.0035544269604552664 0 -0.024975677141183331 0.0034850917248699432 0 -0.024889633395048273 0.0035544269604552664 0 -0.025157655286440067 0.0037015071320105064 0 -0.025450068789699628 0.0035110919794031359 0 -0.024406004801037509 0.0034824804043326 0 -0.027157728177910224 0.0030528995324504578 0 -0.024889633395048273 0.0035544269604552664 0 -0.024975677141183331 0.0034850917248699432 0 -0.025074904979810218 0.0035544565373569689 0 -0.027550745390064701 0.0018154759893230228 0 -0.030206143386724477 0.001845879141090123 0 -0.024901089564310006 0.0036160534950965429 0 -0.024889633395048273 0.0035544269604552664 0 -0.025157655286440067 0.0037015071320105064 0 -0.030206143386724477 0.001845879141090123 0 -0.027157728177910224 0.0030528995324504578 0 -0.025122971832361219 0.00341103804922256 0 -0.024975677141183331 0.0034850917248699432 0 -0.025074904979810218 0.0035544565373569689 0 -0.034787045244941216 0.00030868151827270936 0 -0.035012310313032459 0.00035188065710682788 0 -0.034971606746934711 0.00020667966102829623 0 -0.034971606746934711 0.00020667966102829623 0 -0.035070276223206819 0.00031545297925476975 0 -0.035000045816534514 2.4368059695970472e-05 0 -0.03191384561027609 0.00081589387096694455 0 -0.035692670008612572 1.9473460863883082e-05 0 -0.035012310313032459 0.00035188065710682788 0 -0.034971606746934711 0.00020667966102829623 0 -0.035070276223206819 0.00031545297925476975 0 -0.030206143386724477 0.001845879141090123 0 -0.03191384561027609 0.00081589387096694455 0 -0.029677745665353469 0.0018465536903440323 0 -0.030342514874288698 0.0020015509023977906 0 -0.029878601892754361 0.0023022837746238881 0 -0.034969453422752421 2.5638856411520257e-05 0 -0.034987716734112329 1.8520227590489005e-05 0 -0.034989896859672569 2.1089615146710416e-05 0 -0.03191384561027609 0.00081589387096694455 0 -0.034086133892473135 -4.1517933673168614e-06 0 -0.030638676909656708 0.00030666440923011741 0 -0.030639524483892643 0.00029807737604458956 0 -0.030683936463019684 0.00027571353693815748 0 -0.027550745390064701 0.0018154759893230228 0 -0.03191384561027609 0.00081589387096694455 0 -0.035000201874671184 3.2961534993776312e-07 0 -0.034086133892473135 -4.1517933673168614e-06 0 -0.034987716734112329 1.8520227590489005e-05 0 -0.035000128371717718 7.7566015178656132e-08 0 -0.034989896859672569 2.1089615146710416e-05 0 -0.034987716734112329 1.8520227590489005e-05 0 -0.035000128371717718 7.7566015178656132e-08 0 -0.035000045816534514 2.4368059695970472e-05 0 -0.034999713880335279 -4.3059840253236499e-08 0 -0.035000128371717718 7.7566015178656132e-08 0 -0.035000045816534514 2.4368059695970472e-05 0 -0.034969453422752421 2.5638856411520257e-05 0 -0.034987716734112329 1.8520227590489005e-05 0 -0.035000045816534514 2.4368059695970472e-05 0 -0.034896880708711234 0.00011817070310653182 0 -0.034971606746934711 0.00020667966102829623 0 -0.035000045816534514 2.4368059695970472e-05 0 -0.034810285851104017 5.2611130846792936e-05 0 -0.03484742752391911 4.3660716226397538e-05 0 -0.034533722592135128 5.9330066699568519e-05 0 -0.034810285851104017 5.2611130846792936e-05 0 -0.03484742752391911 4.3660716226397538e-05 0 -0.034875160680290528 7.9723587206803414e-05 0 -0.029183293505925394 0.00029822673789597182 0 -0.034086133892473135 -4.1517933673168614e-06 0 -0.034945393958922953 -8.5626104230204135e-05 0 -0.034810285851104017 5.2611130846792936e-05 0 -0.034875160680290528 7.9723587206803414e-05 0 -0.030675053345459644 0.00031238056162423715 0 -0.030638676909656708 0.00030666440923011741 0 -0.030683936463019684 0.00027571353693815748 0 -0.034086133892473135 -4.1517933673168614e-06 0 -0.035001200480470868 -3.9667118191363813e-07 0 -0.03499530530950281 2.6767645195036267e-07 0 -0.034999993072867636 3.1008932365378636e-10 0 -0.035000002101308034 -5.4921257556815873e-12 0 -0.034999997096804993 -4.4145072665517309e-10 0 -0.03499530530950281 2.6767645195036267e-07 0 -0.034999993072867636 3.1008932365378636e-10 0 -0.03484742752391911 4.3660716226397538e-05 0 -0.034875160680290528 7.9723587206803414e-05 0 -0.034999620620289121 2.0433214548562128e-08 0 -0.03484742752391911 4.3660716226397538e-05 0 -0.034999620620289121 2.0433214548562128e-08 0 -0.034999754812292561 1.5169552521507906e-07 0 -0.03484742752391911 4.3660716226397538e-05 0 -0.034999754812292561 1.5169552521507906e-07 0 -0.034843644982646971 1.9824894932684083e-05 0 -0.034999754812292561 1.5169552521507906e-07 0 -0.034843644982646971 1.9824894932684083e-05 0 -0.03475112204353055 3.542578325804348e-05 0 -0.034999952187626214 1.5326042475338764e-08 0 -0.034859957576434959 4.0942713034898422e-06 0 -0.03484742752391911 4.3660716226397538e-05 0 -0.034843644982646971 1.9824894932684083e-05 0 -0.034738778166164393 6.4733813532504458e-06 0 -0.03484742752391911 4.3660716226397538e-05 0 -0.034738778166164393 6.4733813532504458e-06 0 -0.034533722592135128 5.9330066699568519e-05 0 -0.034738778166164393 6.4733813532504458e-06 0 -0.034763967419656434 3.0002147665464029e-05 0 -0.034533722592135128 5.9330066699568519e-05 0 -0.034738778166164393 6.4733813532504458e-06 0 -0.034763967419656434 3.0002147665464029e-05 0 -0.03475112204353055 3.542578325804348e-05 0 -0.034999999003225486 1.2657488291700847e-10 0 -0.034999687452570476 -1.6583837503553535e-07 0 -0.034999999956376621 -4.0179954661032641e-10 0 -0.034843644982646971 1.9824894932684083e-05 0 -0.034738778166164393 6.4733813532504458e-06 0 -0.03475112204353055 3.542578325804348e-05 0 -0.034999999956376621 -4.0179954661032641e-10 0 -0.034997983791646405 -1.003575074229901e-08 0 -0.034998320383010179 -3.0911085730603261e-07 0 -0.034999687452570476 -1.6583837503553535e-07 0 -0.034999999956376621 -4.0179954661032641e-10 0 -0.034998320383010179 -3.0911085730603261e-07 0 -0.034859957576434959 4.0942713034898422e-06 0 -0.034948526438630834 4.2714663397436768e-05 0 -0.034999999956376621 -4.0179954661032641e-10 0 -0.034997983791646405 -1.003575074229901e-08 0 -0.034999988182404046 2.2663821515281091e-09 0 -0.034997983791646405 -1.003575074229901e-08 0 -0.034999988182404046 2.2663821515281091e-09 0 -0.034997033400963384 -3.7089756625399334e-07 0 -0.034672487098273551 2.5371116777503633e-05 0 -0.03462704003000304 2.1423270390867826e-05 0 -0.03472198583444968 5.1265898122727059e-05 0 -0.034997983791646405 -1.003575074229901e-08 0 -0.034994248559008935 -2.3415041851324259e-07 0 -0.034998320383010179 -3.0911085730603261e-07 0 -0.034246880859540925 0.00014463016491022147 0 -0.034948526438630834 4.2714663397436768e-05 0 -0.034997983791646405 -1.003575074229901e-08 0 -0.034994248559008935 -2.3415041851324259e-07 0 -0.034997033400963384 -3.7089756625399334e-07 0 -0.033883917985354138 0.00033906819324327759 0 -0.03345381219055809 0.00019869423777373328 0 -0.033542663584485849 0.00050322851397037851 0 -0.033284522614507692 0.00053746257759555922 0 -0.032958838954071576 8.2957991610722542e-05 0 -0.034672487098273551 2.5371116777503633e-05 0 -0.034654372829508305 1.5069313543644011e-05 0 -0.03462704003000304 2.1423270390867826e-05 0 -0.03345381219055809 0.00019869423777373328 0 -0.034246880859540925 0.00014463016491022147 0 -0.034763967419656434 3.0002147665464029e-05 0 -0.03475112204353055 3.542578325804348e-05 0 -0.03472198583444968 5.1265898122727059e-05 0 -0.033691208132847483 0.00020850327893769078 0 -0.03345381219055809 0.00019869423777373328 0 -0.034763967419656434 3.0002147665464029e-05 0 -0.034672487098273551 2.5371116777503633e-05 0 -0.03472198583444968 5.1265898122727059e-05 0 -0.034763967419656434 3.0002147665464029e-05 0 -0.034672487098273551 2.5371116777503633e-05 0 -0.03465688881094476 1.2928738671728748e-05 0 -0.032615507971825421 0.00044710849033152412 0 -0.032016744739071831 0.00026574572970003034 0 -0.032226304776923016 0.00010724983416136348 0 -0.032615507971825421 0.00044710849033152412 0 -0.032226304776923016 0.00010724983416136348 0 -0.032384596808290672 -2.2907963597756145e-05 0 -0.032226304776923016 0.00010724983416136348 0 -0.032254382696505296 -0.00014538894150393928 0 -0.032192760851690747 -5.48223394569545e-05 0 -0.032226304776923016 0.00010724983416136348 0 -0.032254382696505296 -0.00014538894150393928 0 -0.032384596808290672 -2.2907963597756145e-05 0 -0.032254382696505296 -0.00014538894150393928 0 -0.032192760851690747 -5.48223394569545e-05 0 -0.032270441211471775 -7.2861079973299744e-05 0 -0.032254382696505296 -0.00014538894150393928 0 -0.032384596808290672 -2.2907963597756145e-05 0 -0.032110501583672443 -0.00040484622965138937 0 -0.03345381219055809 0.00019869423777373328 0 -0.032002285530780536 0.00066712772188649004 0 -0.032016744739071831 0.00026574572970003034 0 -0.031979978691305123 4.8498925870287999e-05 0 -0.032080872011396117 0.00010274107465104839 0 -0.032016744739071831 0.00026574572970003034 0 -0.031979978691305123 4.8498925870287999e-05 0 -0.031801571016703035 9.6200468360616573e-05 0 -0.031979978691305123 4.8498925870287999e-05 0 -0.032080872011396117 0.00010274107465104839 0 -0.032109130653384992 2.3660046349226657e-06 0 -0.032016744739071831 0.00026574572970003034 0 -0.032226304776923016 0.00010724983416136348 0 -0.032080872011396117 0.00010274107465104839 0 -0.032226304776923016 0.00010724983416136348 0 -0.032080872011396117 0.00010274107465104839 0 -0.032151170848372296 3.9509886261108857e-05 0 -0.032080872011396117 0.00010274107465104839 0 -0.032151170848372296 3.9509886261108857e-05 0 -0.032109130653384992 2.3660046349226657e-06 0 -0.032226304776923016 0.00010724983416136348 0 -0.032151170848372296 3.9509886261108857e-05 0 -0.032192760851690747 -5.48223394569545e-05 0 -0.032192760851690747 -5.48223394569545e-05 0 -0.032157262822976006 -8.9180433685342531e-05 0 -0.032270441211471775 -7.2861079973299744e-05 0 -0.032192760851690747 -5.48223394569545e-05 0 -0.032157262822976006 -8.9180433685342531e-05 0 -0.032137022007201581 -5.3933894879355676e-05 0 -0.032157262822976006 -8.9180433685342531e-05 0 -0.032137022007201581 -5.3933894879355676e-05 0 -0.032065460175079039 -8.0600557380866526e-05 0 -0.032192760851690747 -5.48223394569545e-05 0 -0.032137022007201581 -5.3933894879355676e-05 0 -0.032109130653384992 2.3660046349226657e-06 0 -0.032151170848372296 3.9509886261108857e-05 0 -0.032192760851690747 -5.48223394569545e-05 0 -0.032109130653384992 2.3660046349226657e-06 0 -0.031979978691305123 4.8498925870287999e-05 0 -0.032031942664908254 -0.00012092814647815998 0 -0.031801571016703035 9.6200468360616573e-05 0 -0.031979978691305123 4.8498925870287999e-05 0 -0.032109130653384992 2.3660046349226657e-06 0 -0.032065460175079039 -8.0600557380866526e-05 0 -0.031979978691305123 4.8498925870287999e-05 0 -0.032031942664908254 -0.00012092814647815998 0 -0.032065460175079039 -8.0600557380866526e-05 0 -0.032157262822976006 -8.9180433685342531e-05 0 -0.032076315760336517 -0.00016008709041991318 0 -0.032065460175079039 -8.0600557380866526e-05 0 -0.032137022007201581 -5.3933894879355676e-05 0 -0.032109130653384992 2.3660046349226657e-06 0 -0.032065460175079039 -8.0600557380866526e-05 0 -0.030510559248458902 0.0012708124559060359 0 -0.030555438798363543 0.0011701984842826716 0 -0.028909218601721316 0.0030493824853456281 0 -0.028980569738097303 0.0031871433422184453 0 -0.028817199873392922 0.003277131432914299 0 -0.030510559248458902 0.0012708124559060359 0 -0.02979723070370581 0.0026292176837595998 0 -0.030510559248458902 0.0012708124559060359 0 -0.030482444419026533 0.0018311182962413989 0 -0.028909218601721316 0.0030493824853456281 0 -0.028817199873392922 0.003277131432914299 0 -0.028611865691519339 0.0033762193638333634 0 -0.032076315760336517 -0.00016008709041991318 0 -0.032270441211471775 -7.2861079973299744e-05 0 -0.03248310675073144 0.00015064867934884904 0 -0.032157262822976006 -8.9180433685342531e-05 0 -0.032076315760336517 -0.00016008709041991318 0 -0.032270441211471775 -7.2861079973299744e-05 0 -0.028817199873392922 0.003277131432914299 0 -0.028611865691519339 0.0033762193638333634 0 -0.028767106503880237 0.0034771240051262127 0 -0.028980569738097303 0.0031871433422184453 0 -0.028817199873392922 0.003277131432914299 0 -0.028767106503880237 0.0034771240051262127 0 -0.02979723070370581 0.0026292176837595998 0 -0.028573192369256286 0.0034950526916159587 0 -0.029142602553847551 0.0028934724745807148 0 -0.029350035472472207 0.0032731517340185319 0 -0.028814865941335782 0.0034370512967832425 0 -0.032254382696505296 -0.00014538894150393928 0 -0.032110501583672443 -0.00040484622965138937 0 -0.032314337215792507 -0.00015349217787636912 0 -0.032254382696505296 -0.00014538894150393928 0 -0.032270441211471775 -7.2861079973299744e-05 0 -0.032314337215792507 -0.00015349217787636912 0 -0.032270441211471775 -7.2861079973299744e-05 0 -0.032314337215792507 -0.00015349217787636912 0 -0.03248310675073144 0.00015064867934884904 0 -0.032110501583672443 -0.00040484622965138937 0 -0.032314337215792507 -0.00015349217787636912 0 -0.03177475701874502 0.00038192233839280941 0 -0.032314337215792507 -0.00015349217787636912 0 -0.03248310675073144 0.00015064867934884904 0 -0.03177475701874502 0.00038192233839280941 0 -0.032110501583672443 -0.00040484622965138937 0 -0.03177475701874502 0.00038192233839280941 0 -0.030277907468624403 0.00035170354468536672 0 -0.032110501583672443 -0.00040484622965138937 0 -0.030277907468624403 0.00035170354468536672 0 -0.029153353162453783 -0.0011068515833461559 0 -0.03200482646396613 -0.00044954771028917764 0 -0.031995143749814103 -0.00085472687288727395 0 -0.030277907468624403 0.00035170354468536672 0 -0.028891845440520206 0.0002176422475182809 0 -0.029153353162453783 -0.0011068515833461559 0 -0.034212041531293473 -0.00047516235804588271 0 -0.034533722592135128 5.9330066699568519e-05 0 -0.033187266821902206 -8.7496309525974151e-05 0 -0.033691208132847483 0.00020850327893769078 0 -0.034481670783985389 8.5095994833548789e-05 0 -0.032110501583672443 -0.00040484622965138937 0 -0.034212041531293473 -0.00047516235804588271 0 -0.033187266821902206 -8.7496309525974151e-05 0 -0.032615507971825421 0.00044710849033152412 0 -0.034533722592135128 5.9330066699568519e-05 0 -0.033187266821902206 -8.7496309525974151e-05 0 -0.032615507971825421 0.00044710849033152412 0 -0.032384596808290672 -2.2907963597756145e-05 0 -0.033187266821902206 -8.7496309525974151e-05 0 -0.032384596808290672 -2.2907963597756145e-05 0 -0.032110501583672443 -0.00040484622965138937 0 -0.033187266821902206 -8.7496309525974151e-05 0 -0.034627241241921576 -6.1944513158679112e-05 0 -0.034946608767659239 -1.8303818941632662e-05 0 -0.034864577141288974 6.3282920541446938e-05 0 -0.034826604346625607 -3.0106268719823336e-05 0 -0.034927601398151924 -2.37217501477852e-05 0 -0.034627241241921576 -6.1944513158679112e-05 0 -0.034681055485536828 9.0743131243133042e-05 0 -0.034864577141288974 6.3282920541446938e-05 0 -0.03499993161592576 1.1760128537907587e-08 0 -0.034999045869124688 -1.0526003588136977e-05 0 -0.034946608767659239 -1.8303818941632662e-05 0 -0.03499993161592576 1.1760128537907587e-08 0 -0.034999786436009206 -3.5100930368984963e-06 0 -0.034999045869124688 -1.0526003588136977e-05 0 -0.03499993161592576 1.1760128537907587e-08 0 -0.034999786436009206 -3.5100930368984963e-06 0 -0.035000019069248919 -1.1546278959497771e-08 0 -0.034999786436009206 -3.5100930368984963e-06 0 -0.035000019069248919 -1.1546278959497771e-08 0 -0.034999783307679208 -1.4732833006627547e-06 0 -0.034999786436009206 -3.5100930368984963e-06 0 -0.034999194261116903 -5.3679836634487214e-06 0 -0.034999045869124688 -1.0526003588136977e-05 0 -0.034999786436009206 -3.5100930368984963e-06 0 -0.034999194261116903 -5.3679836634487214e-06 0 -0.034999783307679208 -1.4732833006627547e-06 0 -0.034627241241921576 -6.1944513158679112e-05 0 -0.034315157114614879 -2.2139434673112129e-05 0 -0.034273545900495285 -3.1053656509274938e-05 0 -0.034826604346625607 -3.0106268719823336e-05 0 -0.034566991434233932 -4.4660298416810938e-05 0 -0.034627241241921576 -6.1944513158679112e-05 0 -0.034315157114614879 -2.2139434673112129e-05 0 -0.034455627379462769 0.00016973264646794867 0 -0.034999194261116903 -5.3679836634487214e-06 0 -0.034999045869124688 -1.0526003588136977e-05 0 -0.034997228368635752 -5.4482301934685993e-06 0 -0.03509359774792551 -3.1431952284775609e-05 0 -0.034566991434233932 -4.4660298416810938e-05 0 -0.034999783307679208 -1.4732833006627547e-06 0 -0.034998565941660946 -8.5502102627874087e-07 0 -0.034995761483152442 -1.3587269437115673e-08 0 -0.034999194261116903 -5.3679836634487214e-06 0 -0.034999783307679208 -1.4732833006627547e-06 0 -0.034997228368635752 -5.4482301934685993e-06 0 -0.035000019069248919 -1.1546278959497771e-08 0 -0.034999783307679208 -1.4732833006627547e-06 0 -0.034998565941660946 -8.5502102627874087e-07 0 -0.035000019069248919 -1.1546278959497771e-08 0 -0.034998565941660946 -8.5502102627874087e-07 0 -0.034999988182404046 2.2663821515281091e-09 0 -0.034998565941660946 -8.5502102627874087e-07 0 -0.034999988182404046 2.2663821515281091e-09 0 -0.034997033400963384 -3.7089756625399334e-07 0 -0.033996723537020566 0.00015473769006918539 0 -0.033972028670659078 0.00015586992082893567 0 -0.033977325082071408 0.00014496846934447738 0 -0.034246880859540925 0.00014463016491022147 0 -0.034566991434233932 -4.4660298416810938e-05 0 -0.034994248559008935 -2.3415041851324259e-07 0 -0.034997033400963384 -3.7089756625399334e-07 0 -0.034995761483152442 -1.3587269437115673e-08 0 -0.034998565941660946 -8.5502102627874087e-07 0 -0.034997033400963384 -3.7089756625399334e-07 0 -0.034995761483152442 -1.3587269437115673e-08 0 -0.034566991434233932 -4.4660298416810938e-05 0 -0.033138624811916317 0.00027534442098310765 0 -0.034237379922596338 -0.0002278833130190805 0 -0.033138624811916317 0.00027534442098310765 0 -0.034315157114614879 -2.2139434673112129e-05 0 -0.034273545900495285 -3.1053656509274938e-05 0 -0.034199840067603363 8.1827392286161455e-05 0 -0.034246880859540925 0.00014463016491022147 0 -0.033138624811916317 0.00027534442098310765 0 -0.033284522614507692 0.00053746257759555922 0 -0.032958838954071576 8.2957991610722542e-05 0 -0.032751029269016137 0.00027563875157843326 0 -0.032002285530780536 0.00066712772188649004 0 -0.031716353957340154 0.00099729002078302207 0 -0.031716353957340154 0.00099729002078302207 0 -0.033138624811916317 0.00027534442098310765 0 -0.032002285530780536 0.00066712772188649004 0 -0.033138624811916317 0.00027534442098310765 0 -0.031978142457250211 0.00078901586673482021 0 -0.03217358186747335 0.00093066985632545105 0 -0.032609364338468602 0.00020684191834201396 0 -0.03033333540056023 0.0016553222941280959 0 -0.030635000795874601 0.0022040631195545308 0 -0.031460122359645598 0.00083493852240468377 0 -0.03033333540056023 0.0016553222941280959 0 -0.031327927750123004 0.0007389048375079576 0 -0.031460122359645598 0.00083493852240468377 0 -0.030510559248458902 0.0012708124559060359 0 -0.032002285530780536 0.00066712772188649004 0 -0.02979723070370581 0.0026292176837595998 0 -0.031716353957340154 0.00099729002078302207 0 -0.029861678766343498 0.0023378004882834355 0 -0.030029344770274261 0.0020648302847634942 0 -0.029964027600076396 0.002532553685590958 0 -0.030029344770274261 0.0020648302847634942 0 -0.030448575243059078 0.0023814998552924866 0 -0.029964027600076396 0.002532553685590958 0 -0.02979723070370581 0.0026292176837595998 0 -0.028888468914394318 0.0034040178426297751 0 -0.029897236304096082 0.0025115335556587584 0 -0.028888468914394318 0.0034040178426297751 0 -0.034315157114614879 -2.2139434673112129e-05 0 -0.03420873405175625 7.1416799187352833e-05 0 -0.034455627379462769 0.00016973264646794867 0 -0.031716353957340154 0.00099729002078302207 0 -0.029897236304096082 0.0025115335556587584 0 -0.031948496359809814 0.0010582937071747409 0 -0.032106786083235792 0.0011875125008278639 0 -0.032101493501544724 0.0010833600034430987 0 -0.031948496359809814 0.0010582937071747409 0 -0.031973339005734243 0.0010204059099002576 0 -0.032101493501544724 0.0010833600034430987 0 -0.033138624811916317 0.00027534442098310765 0 -0.033358776882556868 0.0006542545167046572 0 -0.033358776882556868 0.0006542545167046572 0 -0.032934896276792323 0.00085702496564890476 0 -0.034627241241921576 -6.1944513158679112e-05 0 -0.034455627379462769 0.00016973264646794867 0 -0.034681055485536828 9.0743131243133042e-05 0 -0.034455627379462769 0.00016973264646794867 0 -0.034668801325646495 0.00024091394099576944 0 -0.034681055485536828 9.0743131243133042e-05 0 -0.029897236304096082 0.0025115335556587584 0 -0.028080672318614362 0.0026353693599102863 0 -0.030634969242543563 0.0019329418572083829 0 -0.030401968822117525 0.0019977423569379061 0 -0.030345094720185529 0.001859792613662711 0 -0.032106786083235792 0.0011875125008278639 0 -0.032101493501544724 0.0010833600034430987 0 -0.03224171802655873 0.0011453853224553136 0 -0.030634969242543563 0.0019329418572083829 0 -0.030345094720185529 0.001859792613662711 0 -0.030348492734916344 0.0016887387715861291 0 -0.029897236304096082 0.0025115335556587584 0 -0.032934896276792323 0.00085702496564890476 0 -0.034687167700092399 0.00022404115756470707 0 -0.034760705433523768 0.00019778514887931682 0 -0.034842427922944147 0.00027132545095828964 0 -0.032934896276792323 0.00085702496564890476 0 -0.032365411932905867 0.0010775028722255131 0 -0.032934896276792323 0.00085702496564890476 0 -0.034791644739262606 0.00023826842845307473 0 -0.030401968822117525 0.0019977423569379061 0 -0.030345094720185529 0.001859792613662711 0 -0.030114339916357567 0.0018377454136492438 0 -0.030345094720185529 0.001859792613662711 0 -0.0302251996533008 0.0017922583720530667 0 -0.030114339916357567 0.0018377454136492438 0 -0.034760705433523768 0.00019778514887931682 0 -0.034797856954470713 0.00012943501537875579 0 -0.034863052976353857 0.00015562819981273645 0 -0.034797856954470713 0.00012943501537875579 0 -0.034681055485536828 9.0743131243133042e-05 0 -0.034864577141288974 6.3282920541446938e-05 0 -0.034668801325646495 0.00024091394099576944 0 -0.034760705433523768 0.00019778514887931682 0 -0.034681055485536828 9.0743131243133042e-05 0 -0.034760705433523768 0.00019778514887931682 0 -0.034797856954470713 0.00012943501537875579 0 -0.034681055485536828 9.0743131243133042e-05 0 -0.025897457097127971 0.0023435173720652062 0 -0.025577901060638491 0.0029330013270182052 0 -0.026559379834729391 0.0028255820130967885 0 -0.025577901060638491 0.0029330013270182052 0 -0.026095949779556885 0.003476911046222139 0 -0.024935964202839153 0.0026839800895230989 0 -0.025640237511695363 0.0029204885640230112 0 -0.026764323913553635 0.0027719274579619323 0 -0.025897457097127971 0.0023435173720652062 0 -0.025577901060638491 0.0029330013270182052 0 -0.025422291938857242 0.0023796823944904717 0 -0.025577901060638491 0.0029330013270182052 0 -0.026095949779556885 0.003476911046222139 0 -0.026875174235384835 0.0027554534998432828 0 -0.030212369932361493 0.001718809356644429 0 -0.030348492734916344 0.0016887387715861291 0 -0.029435645687042818 0.0010711324634732943 0 -0.030212369932361493 0.001718809356644429 0 -0.0302251996533008 0.0017922583720530667 0 -0.030348492734916344 0.0016887387715861291 0 -0.030212369932361493 0.001718809356644429 0 -0.0302251996533008 0.0017922583720530667 0 -0.030160942767725536 0.0017665125064820076 0 -0.030345094720185529 0.001859792613662711 0 -0.0302251996533008 0.0017922583720530667 0 -0.030348492734916344 0.0016887387715861291 0 -0.026095949779556885 0.003476911046222139 0 -0.026875174235384835 0.0027554534998432828 0 -0.027611607572175834 0.0034214586725310066 0 -0.027368559053322292 0.0043678222302819935 0 -0.026095949779556885 0.003476911046222139 0 -0.027611607572175834 0.0034214586725310066 0 -0.026559379834729391 0.0028255820130967885 0 -0.027588012486399541 0.0027355970838514841 0 -0.027011034451434185 0.001694719008589826 0 -0.026875174235384835 0.0027554534998432828 0 -0.028199008636567317 0.0026321214899472619 0 -0.027611607572175834 0.0034214586725310066 0 -0.026764323913553635 0.0027719274579619323 0 -0.027624030606393842 0.0029551506763863082 0 -0.028199008636567317 0.0026321214899472619 0 -0.027611607572175834 0.0034214586725310066 0 -0.028906601215267315 0.0038939456839575462 0 -0.027368559053322292 0.0043678222302819935 0 -0.027611607572175834 0.0034214586725310066 0 -0.028906601215267315 0.0038939456839575462 0 -0.027624030606393842 0.0029551506763863082 0 -0.028888468914394318 0.0034040178426297751 0 -0.028020071220912192 0.0032289428208946312 0 -0.028111232141462373 0.0033833803970874351 0 -0.028140538028795591 0.00330272811357776 0 -0.027624030606393842 0.0029551506763863082 0 -0.027653150462113675 0.0032522765050311208 0 -0.028020071220912192 0.0032289428208946312 0 -0.028140538028795591 0.00330272811357776 0 -0.028159397111560829 0.003219462558883222 0 -0.026841406720508141 0.0032387337158695175 0 -0.027017080841031937 0.0028455986711234129 0 -0.027244723752276875 0.0032451446861078556 0 -0.027017080841031937 0.0028455986711234129 0 -0.026937681833813017 0.0025324205579014634 0 -0.02723618686580781 0.0024707924039891974 0 -0.026937681833813017 0.0025324205579014634 0 -0.02723618686580781 0.0024707924039891974 0 -0.027100054256844103 0.0024049419842169157 0 -0.026937681833813017 0.0025324205579014634 0 -0.026894496070181375 0.0023575665470595953 0 -0.027100054256844103 0.0024049419842169157 0 -0.026937681833813017 0.0025324205579014634 0 -0.026603172379916541 0.0027616986539640959 0 -0.026668412608558567 0.0023822087960313283 0 -0.026937681833813017 0.0025324205579014634 0 -0.026668412608558567 0.0023822087960313283 0 -0.026894496070181375 0.0023575665470595953 0 -0.027017080841031937 0.0028455986711234129 0 -0.026937681833813017 0.0025324205579014634 0 -0.026603172379916541 0.0027616986539640959 0 -0.027624030606393842 0.0029551506763863082 0 -0.026748313103406376 0.0022373914494040218 0 -0.026841406720508141 0.0032387337158695175 0 -0.027017080841031937 0.0028455986711234129 0 -0.026603172379916541 0.0027616986539640959 0 -0.026559379834729391 0.0028255820130967885 0 -0.027011034451434185 0.001694719008589826 0 -0.026229459362513745 0.0017430406242307467 0 -0.025897457097127971 0.0023435173720652062 0 -0.026559379834729391 0.0028255820130967885 0 -0.026229459362513745 0.0017430406242307467 0 -0.026748313103406376 0.0022373914494040218 0 -0.026413558507385072 0.0013405567084712907 0 -0.027011034451434185 0.001694719008589826 0 -0.026229459362513745 0.0017430406242307467 0 -0.026418143122316138 0.00063420930539118548 0 -0.026603172379916541 0.0027616986539640959 0 -0.026305817859931396 0.0022790055239024208 0 -0.026668412608558567 0.0023822087960313283 0 -0.026229459362513745 0.0017430406242307467 0 -0.025688660151130988 0.0011518595974811686 0 -0.026418143122316138 0.00063420930539118548 0 -0.025688660151130988 0.0011518595974811686 0 -0.025605831648656503 0.0018592301807390814 0 -0.025164683695510927 0.0014819155186161634 0 -0.026229459362513745 0.0017430406242307467 0 -0.025688660151130988 0.0011518595974811686 0 -0.025605831648656503 0.0018592301807390814 0 -0.025897457097127971 0.0023435173720652062 0 -0.026229459362513745 0.0017430406242307467 0 -0.025605831648656503 0.0018592301807390814 0 -0.025897457097127971 0.0023435173720652062 0 -0.025605831648656503 0.0018592301807390814 0 -0.025422291938857242 0.0023796823944904717 0 -0.029341368290807864 0.0031584670382969896 0 -0.029931012547349811 0.002617933279232544 0 -0.028660068970748565 0.003296046910955708 0 -0.029242079801656121 0.0032177581939958049 0 -0.028633485294437537 0.0035374891326100787 0 -0.028660068970748565 0.003296046910955708 0 -0.028950709640713057 0.0031368514279448583 0 -0.028578182117560649 0.0029948785010369809 0 -0.028660068970748565 0.003296046910955708 0 -0.028950709640713057 0.0031368514279448583 0 -0.029242079801656121 0.0032177581939958049 0 -0.029059178798034799 0.0033450176300065851 0 -0.029242079801656121 0.0032177581939958049 0 -0.02937281908253056 0.001689032633981792 0 -0.028950709640713057 0.0031368514279448583 0 -0.029059178798034799 0.0033450176300065851 0 -0.029242079801656121 0.0032177581939958049 0 -0.024736478447323147 0.0034115000826331491 0 -0.024726487709494479 0.0030509767260095979 0 -0.025109764575967961 0.0030788560212357645 0 -0.025655977936925672 0.0016241463620416717 0 -0.027435906683377854 0.0033022821351864381 0 -0.027788079109434 0.00092031483696375707 0 -0.029059178798034799 0.0033450176300065851 0 -0.02937281908253056 0.001689032633981792 0 -0.027788079109434 0.00092031483696375707 0 -0.028891845440520206 0.0002176422475182809 0 -0.02937281908253056 0.001689032633981792 0 -0.030277907468624403 0.00035170354468536672 0 -0.028891845440520206 0.0002176422475182809 0 -0.02937281908253056 0.001689032633981792 0 -0.029242079801656121 0.0032177581939958049 0 -0.02937281908253056 0.001689032633981792 0 -0.03127019614689084 0.0017832801320061965 0 -0.030277907468624403 0.00035170354468536672 0 -0.02937281908253056 0.001689032633981792 0 -0.03127019614689084 0.0017832801320061965 0 -0.03177475701874502 0.00038192233839280941 0 -0.030277907468624403 0.00035170354468536672 0 -0.03127019614689084 0.0017832801320061965 0 -0.028573192369256286 0.0034950526916159587 0 -0.02820777607496483 0.0032716433459377831 0 -0.02861843112575815 0.0034848187721276446 0 -0.028593294523332927 0.0035009196987364709 0 -0.028567843830287661 0.003378711542429727 0 -0.03248310675073144 0.00015064867934884904 0 -0.03177475701874502 0.00038192233839280941 0 -0.03127019614689084 0.0017832801320061965 0 -0.028633485294437537 0.0035374891326100787 0 -0.02861843112575815 0.0034848187721276446 0 -0.028567843830287661 0.003378711542429727 0 -0.030482444419026533 0.0018311182962413989 0 -0.029931012547349811 0.002617933279232544 0 -0.028611865691519339 0.0033762193638333634 0 -0.028633485294437537 0.0035374891326100787 0 -0.02861843112575815 0.0034848187721276446 0 -0.028611865691519339 0.0033762193638333634 0 -0.02861843112575815 0.0034848187721276446 0 -0.028767106503880237 0.0034771240051262127 0 -0.028140538028795591 0.00330272811357776 0 -0.028212391185407349 0.0033513605727801413 0 -0.028159397111560829 0.003219462558883222 0 -0.028888468914394318 0.0034040178426297751 0 -0.028573192369256286 0.0034950526916159587 0 -0.028111232141462373 0.0033833803970874351 0 -0.028140538028795591 0.00330272811357776 0 -0.028212391185407349 0.0033513605727801413 0 -0.028641213714056701 0.0034799026249521096 0 -0.028573192369256286 0.0034950526916159587 0 -0.028212391185407349 0.0033513605727801413 0 -0.028159397111560829 0.003219462558883222 0 -0.028294403233420681 0.0032088629373722283 0 -0.027653150462113675 0.0032522765050311208 0 -0.02820777607496483 0.0032716433459377831 0 -0.027244723752276875 0.0032451446861078556 0 -0.027874027968751741 0.0033160560941921562 0 -0.027587348526807241 0.0030243854189357725 0 -0.028660068970748565 0.003296046910955708 0 -0.028633485294437537 0.0035374891326100787 0 -0.028567843830287661 0.003378711542429727 0 -0.027874027968751741 0.0033160560941921562 0 -0.028143568532087736 0.0030235447068483676 0 -0.027587348526807241 0.0030243854189357725 0 -0.028660068970748565 0.003296046910955708 0 -0.027900075963637552 0.0034464748818378885 0 -0.028143568532087736 0.0030235447068483676 0 -0.028585912507908703 0.0033108972672405033 0 -0.02820777607496483 0.0032716433459377831 0 -0.02820777607496483 0.0032716433459377831 0 -0.028130600700928744 0.0031681935881467528 0 -0.028143568532087736 0.0030235447068483676 0 -0.027718964734837127 0.0027760199709913592 0 -0.027587348526807241 0.0030243854189357725 0 -0.027718964734837127 0.0027760199709913592 0 -0.027388058281112525 0.0025145301576706297 0 -0.027845126398952397 0.0025707781114067854 0 -0.028143568532087736 0.0030235447068483676 0 -0.027718964734837127 0.0027760199709913592 0 -0.028264740959815064 0.0026980730120027955 0 -0.027718964734837127 0.0027760199709913592 0 -0.028264740959815064 0.0026980730120027955 0 -0.027845126398952397 0.0025707781114067854 0 -0.027017080841031937 0.0028455986711234129 0 -0.027244723752276875 0.0032451446861078556 0 -0.027335911122258947 0.0027939177109192752 0 -0.027017080841031937 0.0028455986711234129 0 -0.027335911122258947 0.0027939177109192752 0 -0.02723618686580781 0.0024707924039891974 0 -0.027244723752276875 0.0032451446861078556 0 -0.027587348526807241 0.0030243854189357725 0 -0.027335911122258947 0.0027939177109192752 0 -0.027718964734837127 0.0027760199709913592 0 -0.027587348526807241 0.0030243854189357725 0 -0.027335911122258947 0.0027939177109192752 0 -0.027718964734837127 0.0027760199709913592 0 -0.027335911122258947 0.0027939177109192752 0 -0.027388058281112525 0.0025145301576706297 0 -0.027335911122258947 0.0027939177109192752 0 -0.027388058281112525 0.0025145301576706297 0 -0.02723618686580781 0.0024707924039891974 0 -0.027388058281112525 0.0025145301576706297 0 -0.027083849613732808 0.0022930366037114507 0 -0.02723618686580781 0.0024707924039891974 0 -0.02723618686580781 0.0024707924039891974 0 -0.027451144960187447 0.0024667957926995795 0 -0.027100054256844103 0.0024049419842169157 0 -0.027083849613732808 0.0022930366037114507 0 -0.02723618686580781 0.0024707924039891974 0 -0.027451144960187447 0.0024667957926995795 0 -0.027083849613732808 0.0022930366037114507 0 -0.025703533642979989 0.0026844398101399498 0 -0.025769248852908867 0.0024937397165176308 0 -0.027785309175424266 0.0023699221094806108 0 -0.02810486919289442 0.0024556021242418237 0 -0.028083176098399151 0.0021591412373383645 0 -0.028264740959815064 0.0026980730120027955 0 -0.02810486919289442 0.0024556021242418237 0 -0.027845126398952397 0.0025707781114067854 0 -0.027785309175424266 0.0023699221094806108 0 -0.02810486919289442 0.0024556021242418237 0 -0.027845126398952397 0.0025707781114067854 0 -0.027388058281112525 0.0025145301576706297 0 -0.027785309175424266 0.0023699221094806108 0 -0.027845126398952397 0.0025707781114067854 0 -0.027388058281112525 0.0025145301576706297 0 -0.027785309175424266 0.0023699221094806108 0 -0.027563730655159782 0.002353114627328397 0 -0.027083849613732808 0.0022930366037114507 0 -0.027563730655159782 0.002353114627328397 0 -0.028070996026213671 0.0021690430754848083 0 -0.027129165224802333 0.0023461561963334971 0 -0.026955584159282495 0.00245446749762119 0 -0.027388058281112525 0.0025145301576706297 0 -0.027083849613732808 0.0022930366037114507 0 -0.027563730655159782 0.002353114627328397 0 -0.027785309175424266 0.0023699221094806108 0 -0.027563730655159782 0.002353114627328397 0 -0.028070996026213671 0.0021690430754848083 0 -0.027515195471460908 0.0022288560919096565 0 -0.026955584159282495 0.00245446749762119 0 -0.025703533642979989 0.0026844398101399498 0 -0.025769248852908867 0.0024937397165176308 0 -0.025545119764178476 0.0027306499049119574 0 -0.025847741731020574 0.0027950378344682421 0 -0.025360722069649289 0.003076158588881947 0 -0.025120356496923672 0.0025935805800391711 0 -0.021678492070624632 0.0034275301465566143 0 -0.021692750931154206 0.0034606275600031168 0 -0.021718652763058614 0.0034408991078052546 0 -0.026955584159282495 0.00245446749762119 0 -0.024012348034576001 0.0028018802561514847 0 -0.024012348034576001 0.0028018802561514847 0 -0.025400573250288761 0.0032759820117105971 0 -0.028264740959815064 0.0026980730120027955 0 -0.02810486919289442 0.0024556021242418237 0 -0.02881193308140189 0.0023750000176038849 0 -0.026955584159282495 0.00245446749762119 0 -0.025400573250288761 0.0032759820117105971 0 -0.02810486919289442 0.0024556021242418237 0 -0.028083176098399151 0.0021591412373383645 0 -0.02881193308140189 0.0023750000176038849 0 -0.029059178798034799 0.0033450176300065851 0 -0.02881193308140189 0.0023750000176038849 0 -0.028830637578116231 0.0029171712315007852 0 -0.028264740959815064 0.0026980730120027955 0 -0.028617597655477282 0.0027577904094688273 0 -0.028578182117560649 0.0029948785010369809 0 -0.028264740959815064 0.0026980730120027955 0 -0.02881193308140189 0.0023750000176038849 0 -0.028617597655477282 0.0027577904094688273 0 -0.02881193308140189 0.0023750000176038849 0 -0.028617597655477282 0.0027577904094688273 0 -0.028830637578116231 0.0029171712315007852 0 -0.028617597655477282 0.0027577904094688273 0 -0.028830637578116231 0.0029171712315007852 0 -0.028578182117560649 0.0029948785010369809 0 -0.028950709640713057 0.0031368514279448583 0 -0.028830637578116231 0.0029171712315007852 0 -0.028578182117560649 0.0029948785010369809 0 -0.028660068970748565 0.003296046910955708 0 -0.028143568532087736 0.0030235447068483676 0 -0.028578182117560649 0.0029948785010369809 0 -0.028143568532087736 0.0030235447068483676 0 -0.028264740959815064 0.0026980730120027955 0 -0.028578182117560649 0.0029948785010369809 0 -0.027435906683377854 0.0033022821351864381 0 -0.025400573250288761 0.0032759820117105971 0 -0.025109764575967961 0.0030788560212357645 0 -0.025787297996960674 0.0042735758679889914 0 -0.025106457720618907 0.0036942500378009807 0 -0.025787297996960674 0.0042735758679889914 0 -0.024826732466049935 0.0040346350459959501 0 -0.025106457720618907 0.0036942500378009807 0 -0.024736478447323147 0.0034115000826331491 0 -0.025109764575967961 0.0030788560212357645 0 -0.025106457720618907 0.0036942500378009807 0 -0.028950709640713057 0.0031368514279448583 0 -0.029059178798034799 0.0033450176300065851 0 -0.028830637578116231 0.0029171712315007852 0 -0.024736478447323147 0.0034115000826331491 0 -0.024826732466049935 0.0040346350459959501 0 -0.025106457720618907 0.0036942500378009807 0 -0.021692750931154206 0.0034606275600031168 0 -0.021751919661239613 0.0035113606091058914 0 -0.021718652763058614 0.0034408991078052546 0 -0.025400573250288761 0.0032759820117105971 0 -0.022998567746992896 0.0037602263758549806 0 -0.02179941642203748 0.0034395282765447609 0 -0.021718652763058614 0.0034408991078052546 0 -0.021710067422060355 0.0033665809741511964 0 -0.021678492070624632 0.0034275301465566143 0 -0.021718652763058614 0.0034408991078052546 0 -0.021710067422060355 0.0033665809741511964 0 -0.022778250640986729 0.0020331988302620726 0 -0.023142822196297978 0.0024898142195339265 0 -0.023306006198864346 0.0021007778147128166 0 -0.022778250640986729 0.0020331988302620726 0 -0.022599259978674839 0.0026266596662883022 0 -0.023142822196297978 0.0024898142195339265 0 -0.022599259978674839 0.0026266596662883022 0 -0.023142822196297978 0.0024898142195339265 0 -0.022782546523919943 0.0029757399088476653 0 -0.023142822196297978 0.0024898142195339265 0 -0.023773683700560395 0.0022725484910810657 0 -0.023570842747510281 0.0027783198466281782 0 -0.023142822196297978 0.0024898142195339265 0 -0.023306006198864346 0.0021007778147128166 0 -0.023773683700560395 0.0022725484910810657 0 -0.023142822196297978 0.0024898142195339265 0 -0.023197258640599308 0.002901858472544934 0 -0.023570842747510281 0.0027783198466281782 0 -0.024012348034576001 0.0028018802561514847 0 -0.024598149622086441 0.0024943920851578788 0 -0.023430204833638345 0.0016433785020614732 0 -0.023306006198864346 0.0021007778147128166 0 -0.023773683700560395 0.0022725484910810657 0 -0.025703533642979989 0.0026844398101399498 0 -0.025545119764178476 0.0027306499049119574 0 -0.025403379362804498 0.0028387126677404222 0 -0.023430204833638345 0.0016433785020614732 0 -0.022778250640986729 0.0020331988302620726 0 -0.023306006198864346 0.0021007778147128166 0 -0.024012348034576001 0.0028018802561514847 0 -0.022031478870849643 0.0027656517813155058 0 -0.025710262937387141 0.0026316517176652415 0 -0.026315399696726569 0.0026776669327084413 0 -0.027083849613732808 0.0022930366037114507 0 -0.025703533642979989 0.0026844398101399498 0 -0.027451144960187447 0.0024667957926995795 0 -0.025703533642979989 0.0026844398101399498 0 -0.025484086949099982 0.0027956295737900576 0 -0.025338187380918017 0.0028957741302040739 0 -0.025703533642979989 0.0026844398101399498 0 -0.025484086949099982 0.0027956295737900576 0 -0.025403379362804498 0.0028387126677404222 0 -0.025484086949099982 0.0027956295737900576 0 -0.025361169702286291 0.0028448135503758415 0 -0.025403379362804498 0.0028387126677404222 0 -0.025377862987610897 0.0028428719019960289 0 -0.025320028755690685 0.0028654140198978079 0 -0.025361169702286291 0.0028448135503758415 0 -0.025484086949099982 0.0027956295737900576 0 -0.025338187380918017 0.0028957741302040739 0 -0.025377862987610897 0.0028428719019960289 0 -0.025484086949099982 0.0027956295737900576 0 -0.025377862987610897 0.0028428719019960289 0 -0.025361169702286291 0.0028448135503758415 0 -0.025338187380918017 0.0028957741302040739 0 -0.025377862987610897 0.0028428719019960289 0 -0.025320028755690685 0.0028654140198978079 0 -0.025294236123428203 0.0028736857487748238 0 -0.025192625646285275 0.0029565183132804636 0 -0.025299356042680153 0.0028336338785902152 0 -0.025320028755690685 0.0028654140198978079 0 -0.025294236123428203 0.0028736857487748238 0 -0.025301734989160371 0.0028639212605585792 0 -0.025320028755690685 0.0028654140198978079 0 -0.025361169702286291 0.0028448135503758415 0 -0.025294236123428203 0.0028736857487748238 0 -0.025361169702286291 0.0028448135503758415 0 -0.025294236123428203 0.0028736857487748238 0 -0.025302783974069206 0.0028772133316702741 0 -0.025294236123428203 0.0028736857487748238 0 -0.025302783974069206 0.0028772133316702741 0 -0.025192625646285275 0.0029565183132804636 0 -0.025294236123428203 0.0028736857487748238 0 -0.025301734989160371 0.0028639212605585792 0 -0.025299356042680153 0.0028336338785902152 0 -0.024598149622086441 0.0024943920851578788 0 -0.024671792466042425 0.0030008235942524902 0 -0.025403379362804498 0.0028387126677404222 0 -0.025192625646285275 0.0029565183132804636 0 -0.025097350432409633 0.0030298584483141582 0 -0.023773683700560395 0.0022725484910810657 0 -0.024187967862305881 0.0028461151964195588 0 -0.023570842747510281 0.0027783198466281782 0 -0.025361169702286291 0.0028448135503758415 0 -0.025403379362804498 0.0028387126677404222 0 -0.025302783974069206 0.0028772133316702741 0 -0.025403379362804498 0.0028387126677404222 0 -0.025302783974069206 0.0028772133316702741 0 -0.025192625646285275 0.0029565183132804636 0 -0.024187967862305881 0.0028461151964195588 0 -0.024166819873547192 0.0031999687365636292 0 -0.024799914923138267 0.0034944787773992787 0 -0.024187967862305881 0.0028461151964195588 0 -0.023848511661023291 0.0029964654432134076 0 -0.023570842747510281 0.0027783198466281782 0 -0.024187967862305881 0.0028461151964195588 0 -0.024166819873547192 0.0031999687365636292 0 -0.023848511661023291 0.0029964654432134076 0 -0.024166819873547192 0.0031999687365636292 0 -0.023848511661023291 0.0029964654432134076 0 -0.023883841416901235 0.0032324654632222339 0 -0.023848511661023291 0.0029964654432134076 0 -0.023883841416901235 0.0032324654632222339 0 -0.023620762225071822 0.0031070430085318669 0 -0.025137300534606596 0.0029489042661562468 0 -0.025288617663468363 0.0030278984097426515 0 -0.025192625646285275 0.0029565183132804636 0 -0.025026257235948556 0.003207942062682973 0 -0.025143675538917287 0.0032034124827158539 0 -0.024671792466042425 0.0030008235942524902 0 -0.024819669624924125 0.0034726343878279269 0 -0.025097350432409633 0.0030298584483141582 0 -0.025026257235948556 0.003207942062682973 0 -0.024799914923138267 0.0034944787773992787 0 -0.025192625646285275 0.0029565183132804636 0 -0.025097350432409633 0.0030298584483141582 0 -0.025026257235948556 0.003207942062682973 0 -0.025026257235948556 0.003207942062682973 0 -0.024799914923138267 0.0034944787773992787 0 -0.025239556342867297 0.0034670286172090751 0 -0.024799914923138267 0.0034944787773992787 0 -0.024486400412779965 0.00378584788637364 0 -0.024180444997333496 0.0034541126455235635 0 -0.024799914923138267 0.0034944787773992787 0 -0.024486400412779965 0.00378584788637364 0 -0.024855951758255418 0.0037600959898742366 0 -0.024799914923138267 0.0034944787773992787 0 -0.025100934995841595 0.0037572864403111802 0 -0.024855951758255418 0.0037600959898742366 0 -0.02387786250740145 0.0034804780686922485 0 -0.023883841416901235 0.0032324654632222339 0 -0.024180444997333496 0.0034541126455235635 0 -0.02387786250740145 0.0034804780686922485 0 -0.023883841416901235 0.0032324654632222339 0 -0.023658983276307877 0.0033266996086622341 0 -0.024166819873547192 0.0031999687365636292 0 -0.023883841416901235 0.0032324654632222339 0 -0.024180444997333496 0.0034541126455235635 0 -0.024166819873547192 0.0031999687365636292 0 -0.024799914923138267 0.0034944787773992787 0 -0.024180444997333496 0.0034541126455235635 0 -0.024486400412779965 0.00378584788637364 0 -0.024180444997333496 0.0034541126455235635 0 -0.024048213840674137 0.0037130731389313377 0 -0.024048213840674137 0.0037130731389313377 0 -0.023789501473826323 0.0036497067234002303 0 -0.023612038285326913 0.0037529433792531366 0 -0.024048213840674137 0.0037130731389313377 0 -0.023612038285326913 0.0037529433792531366 0 -0.024070111654873775 0.0040092819766080019 0 -0.02387786250740145 0.0034804780686922485 0 -0.024180444997333496 0.0034541126455235635 0 -0.024048213840674137 0.0037130731389313377 0 -0.02387786250740145 0.0034804780686922485 0 -0.024048213840674137 0.0037130731389313377 0 -0.023789501473826323 0.0036497067234002303 0 -0.02387786250740145 0.0034804780686922485 0 -0.023789501473826323 0.0036497067234002303 0 -0.023646868377233326 0.0035209883454312401 0 -0.023612038285326913 0.0037529433792531366 0 -0.022950883030685116 0.0037845739574772497 0 -0.024070111654873775 0.0040092819766080019 0 -0.023612038285326913 0.0037529433792531366 0 -0.023512061938268981 0.0036160459869126493 0 -0.023303424938477431 0.0036569469374330035 0 -0.023789501473826323 0.0036497067234002303 0 -0.023512061938268981 0.0036160459869126493 0 -0.023646868377233326 0.0035209883454312401 0 -0.023789501473826323 0.0036497067234002303 0 -0.023612038285326913 0.0037529433792531366 0 -0.023512061938268981 0.0036160459869126493 0 -0.02387786250740145 0.0034804780686922485 0 -0.023646868377233326 0.0035209883454312401 0 -0.023658983276307877 0.0033266996086622341 0 -0.023646868377233326 0.0035209883454312401 0 -0.02348941141027985 0.0034434173210699821 0 -0.023658983276307877 0.0033266996086622341 0 -0.023512061938268981 0.0036160459869126493 0 -0.023646868377233326 0.0035209883454312401 0 -0.02348941141027985 0.0034434173210699821 0 -0.02348941141027985 0.0034434173210699821 0 -0.023392493779180949 0.0032904625394738658 0 -0.023297174068110982 0.0035178154117983793 0 -0.023512061938268981 0.0036160459869126493 0 -0.02348941141027985 0.0034434173210699821 0 -0.023297174068110982 0.0035178154117983793 0 -0.02348941141027985 0.0034434173210699821 0 -0.023392493779180949 0.0032904625394738658 0 -0.023658983276307877 0.0033266996086622341 0 -0.023392493779180949 0.0032904625394738658 0 -0.023297174068110982 0.0035178154117983793 0 -0.023114382992737822 0.0032262852870205611 0 -0.023297174068110982 0.0035178154117983793 0 -0.023008077762639974 0.0035104888141196549 0 -0.023114382992737822 0.0032262852870205611 0 -0.023140684704322852 0.0036236388660016629 0 -0.023303424938477431 0.0036569469374330035 0 -0.022950883030685116 0.0037845739574772497 0 -0.023140684704322852 0.0036236388660016629 0 -0.022950883030685116 0.0037845739574772497 0 -0.023008077762639974 0.0035104888141196549 0 -0.023612038285326913 0.0037529433792531366 0 -0.023303424938477431 0.0036569469374330035 0 -0.022950883030685116 0.0037845739574772497 0 -0.023297174068110982 0.0035178154117983793 0 -0.023140684704322852 0.0036236388660016629 0 -0.023008077762639974 0.0035104888141196549 0 -0.023512061938268981 0.0036160459869126493 0 -0.023297174068110982 0.0035178154117983793 0 -0.023303424938477431 0.0036569469374330035 0 -0.023297174068110982 0.0035178154117983793 0 -0.023140684704322852 0.0036236388660016629 0 -0.023303424938477431 0.0036569469374330035 0 -0.022950883030685116 0.0037845739574772497 0 -0.022702712066830121 0.0035350952104370183 0 -0.023008077762639974 0.0035104888141196549 0 -0.022702712066830121 0.0035350952104370183 0 -0.022909088444735985 0.0038284364177336677 0 -0.021925047996794379 0.0034748177023696219 0 -0.022950883030685116 0.0037845739574772497 0 -0.022702712066830121 0.0035350952104370183 0 -0.022909088444735985 0.0038284364177336677 0 -0.022702712066830121 0.0035350952104370183 0 -0.022490889456585453 0.0032767431522124882 0 -0.022823627544571876 0.0033400093327186991 0 -0.022702712066830121 0.0035350952104370183 0 -0.022823627544571876 0.0033400093327186991 0 -0.023008077762639974 0.0035104888141196549 0 -0.022823627544571876 0.0033400093327186991 0 -0.023008077762639974 0.0035104888141196549 0 -0.023114382992737822 0.0032262852870205611 0 -0.022782546523919943 0.0029757399088476653 0 -0.023197258640599308 0.002901858472544934 0 -0.023114382992737822 0.0032262852870205611 0 -0.022823627544571876 0.0033400093327186991 0 -0.022782546523919943 0.0029757399088476653 0 -0.023114382992737822 0.0032262852870205611 0 -0.022599259978674839 0.0026266596662883022 0 -0.022782546523919943 0.0029757399088476653 0 -0.022173911861279334 0.0030380756714495421 0 -0.022490889456585453 0.0032767431522124882 0 -0.022823627544571876 0.0033400093327186991 0 -0.022782546523919943 0.0029757399088476653 0 -0.023142822196297978 0.0024898142195339265 0 -0.022782546523919943 0.0029757399088476653 0 -0.023197258640599308 0.002901858472544934 0 -0.023197258640599308 0.002901858472544934 0 -0.023570842747510281 0.0027783198466281782 0 -0.023376560175253601 0.0030473920313407736 0 -0.023848511661023291 0.0029964654432134076 0 -0.023570842747510281 0.0027783198466281782 0 -0.023620762225071822 0.0031070430085318669 0 -0.023570842747510281 0.0027783198466281782 0 -0.023620762225071822 0.0031070430085318669 0 -0.023376560175253601 0.0030473920313407736 0 -0.023392493779180949 0.0032904625394738658 0 -0.023658983276307877 0.0033266996086622341 0 -0.023620762225071822 0.0031070430085318669 0 -0.023883841416901235 0.0032324654632222339 0 -0.023658983276307877 0.0033266996086622341 0 -0.023620762225071822 0.0031070430085318669 0 -0.023392493779180949 0.0032904625394738658 0 -0.023620762225071822 0.0031070430085318669 0 -0.023376560175253601 0.0030473920313407736 0 -0.023392493779180949 0.0032904625394738658 0 -0.023114382992737822 0.0032262852870205611 0 -0.023376560175253601 0.0030473920313407736 0 -0.023197258640599308 0.002901858472544934 0 -0.023114382992737822 0.0032262852870205611 0 -0.023376560175253601 0.0030473920313407736 0 -0.025351135188788572 0.0013812529799478689 0 -0.026413558507385072 0.0013405567084712907 0 -0.025805508825076533 -0.00043975217843261315 0 -0.025407203682482282 -0.00022670260810118045 0 -0.02556108917236511 0.00031898907414392325 0 -0.025351135188788572 0.0013812529799478689 0 -0.02322786066252467 0.0013354886340179407 0 -0.025805508825076533 -0.00043975217843261315 0 -0.025407203682482282 -0.00022670260810118045 0 -0.025341389770101554 -0.00060784264607513245 0 -0.025351135188788572 0.0013812529799478689 0 -0.025621343871506965 0.0023361179274773631 0 -0.025688660151130988 0.0011518595974811686 0 -0.02556108917236511 0.00031898907414392325 0 -0.026418143122316138 0.00063420930539118548 0 -0.025805508825076533 -0.00043975217843261315 0 -0.02556108917236511 0.00031898907414392325 0 -0.026418143122316138 0.00063420930539118548 0 -0.025688660151130988 0.0011518595974811686 0 -0.02556108917236511 0.00031898907414392325 0 -0.025056816745500057 0.00088498174776468564 0 -0.026305817859931396 0.0022790055239024208 0 -0.026327218859824413 0.0018617905820797116 0 -0.026668412608558567 0.0023822087960313283 0 -0.025989545511498496 0.0017377536887641823 0 -0.026305817859931396 0.0022790055239024208 0 -0.026327218859824413 0.0018617905820797116 0 -0.02457730822993217 0.0028004402735788856 0 -0.024842218419746726 0.002886067607581865 0 -0.024780108011685537 0.0026235248068713526 0 -0.024842218419746726 0.002886067607581865 0 -0.025017071770842766 0.0027316231089780036 0 -0.024780108011685537 0.0026235248068713526 0 -0.025621343871506965 0.0023361179274773631 0 -0.0260432685298237 0.002518933580762306 0 -0.024842218419746726 0.002886067607581865 0 -0.025229158855178093 0.0029507260283579582 0 -0.025017071770842766 0.0027316231089780036 0 -0.025234648202667506 0.0028202014194812514 0 -0.025229158855178093 0.0029507260283579582 0 -0.025017071770842766 0.0027316231089780036 0 -0.026327218859824413 0.0018617905820797116 0 -0.026668412608558567 0.0023822087960313283 0 -0.026871343410311239 0.002071864083307607 0 -0.026668412608558567 0.0023822087960313283 0 -0.026894496070181375 0.0023575665470595953 0 -0.026871343410311239 0.002071864083307607 0 -0.026315399696726569 0.0026776669327084413 0 -0.0260432685298237 0.002518933580762306 0 -0.027451144960187447 0.0024667957926995795 0 -0.026871343410311239 0.002071864083307607 0 -0.027100054256844103 0.0024049419842169157 0 -0.025338187380918017 0.0028957741302040739 0 -0.025320028755690685 0.0028654140198978079 0 -0.025229158855178093 0.0029507260283579582 0 -0.026894496070181375 0.0023575665470595953 0 -0.026871343410311239 0.002071864083307607 0 -0.027100054256844103 0.0024049419842169157 0 -0.025320028755690685 0.0028654140198978079 0 -0.025229158855178093 0.0029507260283579582 0 -0.025279858727971651 0.0028693277976353836 0 -0.025301734989160371 0.0028639212605585792 0 -0.025279858727971651 0.0028693277976353836 0 -0.025299356042680153 0.0028336338785902152 0 -0.025234648202667506 0.0028202014194812514 0 -0.025279858727971651 0.0028693277976353836 0 -0.025299356042680153 0.0028336338785902152 0 -0.025320028755690685 0.0028654140198978079 0 -0.025301734989160371 0.0028639212605585792 0 -0.025279858727971651 0.0028693277976353836 0 -0.025234648202667506 0.0028202014194812514 0 -0.025229158855178093 0.0029507260283579582 0 -0.025279858727971651 0.0028693277976353836 0 -0.025288617663468363 0.0030278984097426515 0 -0.02480977880315819 0.0031758551493367764 0 -0.025026257235948556 0.003207942062682973 0 -0.025143675538917287 0.0032034124827158539 0 -0.025239556342867297 0.0034670286172090751 0 -0.025143675538917287 0.0032034124827158539 0 -0.025239556342867297 0.0034670286172090751 0 -0.025309770694757865 0.0033882033748115197 0 -0.025234648202667506 0.0028202014194812514 0 -0.025299356042680153 0.0028336338785902152 0 -0.02522734795057837 0.0027924626574627612 0 -0.024799914923138267 0.0034944787773992787 0 -0.025239556342867297 0.0034670286172090751 0 -0.025100934995841595 0.0037572864403111802 0 -0.025239556342867297 0.0034670286172090751 0 -0.025254243431265828 0.0034569073179923472 0 -0.025309770694757865 0.0033882033748115197 0 -0.024143301837067692 0.00344451791619237 0 -0.02480977880315819 0.0031758551493367764 0 -0.025224679775318566 0.0026556577938882356 0 -0.02480977880315819 0.0031758551493367764 0 -0.025234648202667506 0.0028202014194812514 0 -0.025134693799575225 0.0024877215703890281 0 -0.025017071770842766 0.0027316231089780036 0 -0.025134693799575225 0.0024877215703890281 0 -0.024780108011685537 0.0026235248068713526 0 -0.024684014379946773 0.0022974953854491467 0 -0.025134693799575225 0.0024877215703890281 0 -0.025017071770842766 0.0027316231089780036 0 -0.024780108011685537 0.0026235248068713526 0 -0.022925072196547398 0.0028273635983400184 0 -0.023243391126446925 0.0037001348871915653 0 -0.02184457089113144 0.0031377914885150869 0 -0.02480977880315819 0.0031758551493367764 0 -0.022027170592210023 0.0023814997550361916 0 -0.02003520948495801 0.0018086928541553476 0 -0.020098760404332606 0.0018398603436838453 0 -0.020183235323904238 0.0017216747935419796 0 -0.020098760404332606 0.0018398603436838453 0 -0.020076494127058558 0.0019053899442775496 0 -0.020259901212047536 0.0017740110848850424 0 -0.022027170592210023 0.0023814997550361916 0 -0.020119131594102085 0.0017274160026573022 0 -0.020011908308626779 0.0018006967388731374 0 -0.020098760404332606 0.0018398603436838453 0 -0.020076494127058558 0.0019053899442775496 0 -0.02457730822993217 0.0028004402735788856 0 -0.024780108011685537 0.0026235248068713526 0 -0.024400776660307013 0.0027354230096373979 0 -0.024780108011685537 0.0026235248068713526 0 -0.024684014379946773 0.0022974953854491467 0 -0.024400776660307013 0.0027354230096373979 0 -0.022027170592210023 0.0023814997550361916 0 -0.02322786066252467 0.0013354886340179407 0 -0.02003520948495801 0.0018086928541553476 0 -0.020200562157906495 0.0015725680670073267 0 -0.020183235323904238 0.0017216747935419796 0 -0.014397930492558745 0.00046981691816156844 0 -0.014686715861590658 0.00070684074270166051 0 -0.015040226032222147 0.00060188642802711119 0 -0.013689007257009821 0.00056308998240722861 0 -0.016675924510763922 0.0012099446236178673 0 -0.013828078735115107 0.00084997108612884032 0 -0.014172389772863852 0.00084664815693596854 0 -0.013991015499091224 0.00074636892900969249 0 -0.014397930492558745 0.00046981691816156844 0 -0.014367029574916335 0.00075776715477551165 0 -0.014686715861590658 0.00070684074270166051 0 -0.014367029574916335 0.00075776715477551165 0 -0.014563795145234749 0.00097858690904588917 0 -0.014686715861590658 0.00070684074270166051 0 -0.022925072196547398 0.0028273635983400184 0 -0.02184457089113144 0.0031377914885150869 0 -0.022604007025277432 0.0019554359822062475 0 -0.014563795145234749 0.00097858690904588917 0 -0.014686715861590658 0.00070684074270166051 0 -0.015085257653541656 0.0007246850245437895 0 -0.022027170592210023 0.0023814997550361916 0 -0.019820675725077206 0.0022386114285159533 0 -0.020011908308626779 0.0018006967388731374 0 -0.020076494127058558 0.0019053899442775496 0 -0.019842099554009691 0.0020534415102491975 0 -0.017051839023182108 0.0014056761655918126 0 -0.019820675725077206 0.0022386114285159533 0 -0.016675924510763922 0.0012099446236178673 0 -0.019220428100918049 0.0021232907594318784 0 -0.017223184955178123 0.0017998310490610551 0 -0.01701806151299342 0.001223133998901162 0 -0.017885945769887984 0.0014624712787233386 0 -0.014686715861590658 0.00070684074270166051 0 -0.015085257653541656 0.0007246850245437895 0 -0.015040226032222147 0.00060188642802711119 0 -0.019820675725077206 0.0022386114285159533 0 -0.016675924510763922 0.0012099446236178673 0 -0.019820675725077206 0.0022386114285159533 0 -0.019220428100918049 0.0021232907594318784 0 -0.018816598182637562 0.0019823151743643625 0 -0.01895452239233212 0.0023880732375273247 0 -0.01860898584963561 0.002298545021616439 0 -0.013828078735115107 0.00084997108612884032 0 -0.014359234062932935 0.0010246308925231391 0 -0.014172389772863852 0.00084664815693596854 0 -0.017223184955178123 0.0017998310490610551 0 -0.017885945769887984 0.0014624712787233386 0 -0.017600652201554906 0.0018983836855863598 0 -0.016675924510763922 0.0012099446236178673 0 -0.015702102933174329 0.0011963626948406998 0 -0.014172389772863852 0.00084664815693596854 0 -0.014301272059661693 0.00088227850296253079 0 -0.014079927127029046 0.00064060185450135593 0 -0.014533234462764449 0.00089799931727826716 0 -0.015702102933174329 0.0011963626948406998 0 -0.014359234062932935 0.0010246308925231391 0 -0.014172389772863852 0.00084664815693596854 0 -0.014313478895721106 0.00088695475778479001 0 -0.015702102933174329 0.0011963626948406998 0 -0.018396960498575039 0.0021859801949326847 0 -0.016021146653073779 0.0020578712496417935 0 -0.016778784947848079 0.0020720896282649041 0 -0.016672096097520624 0.0022363297031686223 0 -0.019069454542549467 0.0030541886895841192 0 -0.019139657330377265 0.0030831910266873844 0 -0.01909009831698014 0.0030879495128762458 0 -0.018631849530653666 0.0022527172106547345 0 -0.018543290470180537 0.0020852084884246951 0 -0.018711204877318928 0.0021311588207994191 0 -0.018175027712751216 0.002374448455473997 0 -0.018396960498575039 0.0021859801949326847 0 -0.018175027712751216 0.002374448455473997 0 -0.019689950612017906 0.0026379225422005744 0 -0.019069454542549467 0.0030541886895841192 0 -0.019139657330377265 0.0030831910266873844 0 -0.019202531649138235 0.0030282750290046992 0 -0.019139657330377265 0.0030831910266873844 0 -0.019189542352343655 0.003092220515194955 0 -0.019202531649138235 0.0030282750290046992 0 -0.019117547737207016 0.0030957191747184335 0 -0.019139657330377265 0.0030831910266873844 0 -0.01909009831698014 0.0030879495128762458 0 -0.020380884577462913 0.0029591384482776633 0 -0.020162417825397468 0.0030537297939771759 0 -0.020380884577462913 0.0029591384482776633 0 -0.02067346193365251 0.0028877920246430338 0 -0.019122160116691954 0.0030905380717258157 0 -0.019139657330377265 0.0030831910266873844 0 -0.019189542352343655 0.003092220515194955 0 -0.023491109117661405 0.0037035916568026817 0 -0.02067346193365251 0.0028877920246430338 0 -0.022015419519332526 0.0034465480536524339 0 -0.022036063032068422 0.0035581331523325387 0 -0.021983459678646431 0.0034652469719968328 0 -0.025201982791032876 0.0034410335349658789 0 -0.025231245292415213 0.0034481982764017834 0 -0.025210272837790274 0.0034387917746294887 0 -0.021983584971282544 0.0029839061758851178 0 -0.021737847831336664 0.0025331966388706683 0 -0.021288012674724011 0.0027993394681602906 0 -0.02067346193365251 0.0028877920246430338 0 -0.02118821025418164 0.0025162154788732748 0 -0.023491109117661405 0.0037035916568026817 0 -0.02118821025418164 0.0025162154788732748 0 -0.019235035013925168 0.0024531795202041447 0 -0.019714556568900404 0.0024338817726031613 0 -0.019361786560791266 0.0026894261100203604 0 -0.019235035013925168 0.0024531795202041447 0 -0.019714556568900404 0.0024338817726031613 0 -0.019893315915522684 0.0020577357061526283 0 -0.020266304653920847 0.0031292437378062231 0 -0.020484541657924828 0.0029985756998162113 0 -0.020604529601921218 0.0032215733754477321 0 -0.02067346193365251 0.0028877920246430338 0 -0.019689950612017906 0.0026379225422005744 0 -0.019689950612017906 0.0026379225422005744 0 -0.018396960498575039 0.0021859801949326847 0 -0.019714556568900404 0.0024338817726031613 0 -0.019361786560791266 0.0026894261100203604 0 -0.019825291173312651 0.0028166989543189154 0 -0.020380884577462913 0.0029591384482776633 0 -0.019689950612017906 0.0026379225422005744 0 -0.018396960498575039 0.0021859801949326847 0 -0.019220428100918049 0.0021232907594318784 0 -0.019714556568900404 0.0024338817726031613 0 -0.019825291173312651 0.0028166989543189154 0 -0.020257506322928137 0.002152243678262682 0 -0.019220428100918049 0.0021232907594318784 0 -0.02118821025418164 0.0025162154788732748 0 -0.019820675725077206 0.0022386114285159533 0 -0.02118821025418164 0.0025162154788732748 0 -0.020145515027032157 0.0023415590230482907 0 -0.019907158333467227 0.0027117432793499268 0 -0.019647069025237007 0.0026442628628992487 0 -0.019714556568900404 0.0024338817726031613 0 -0.020257506322928137 0.002152243678262682 0 -0.019893315915522684 0.0020577357061526283 0 -0.025239556342867297 0.0034670286172090751 0 -0.025254243431265828 0.0034569073179923472 0 -0.025231245292415213 0.0034481982764017834 0 -0.025254243431265828 0.0034569073179923472 0 -0.025201982791032876 0.0034410335349658789 0 -0.025231245292415213 0.0034481982764017834 0 -0.024143301837067692 0.00344451791619237 0 -0.019820675725077206 0.0022386114285159533 0 -0.025606535210081636 0.0041670226216493165 0 -0.025100934995841595 0.0037572864403111802 0 -0.024972915348359138 0.0040232577592005294 0 -0.023491109117661405 0.0037035916568026817 0 -0.023793562255487604 0.0038859354031721177 0 -0.022036063032068422 0.0035581331523325387 0 -0.022489737361993438 0.0036803151712633368 0 -0.022499959216714421 0.0035934349116351016 0 -0.025789658846141907 0.0036761464039691419 0 -0.023491109117661405 0.0037035916568026817 0 -0.025239556342867297 0.0034670286172090751 0 -0.025606535210081636 0.0041670226216493165 0 -0.025100934995841595 0.0037572864403111802 0 -0.020380884577462913 0.0029591384482776633 0 -0.020974580377125636 0.0034466470115473756 0 -0.019122160116691954 0.0030905380717258157 0 -0.019248604661648024 0.0031267311332542538 0 -0.019347426609305614 0.0032002402886104832 0 -0.022015419519332526 0.0034465480536524339 0 -0.022036063032068422 0.0035581331523325387 0 -0.022499959216714421 0.0035934349116351016 0 -0.019248604661648024 0.0031267311332542538 0 -0.019347426609305614 0.0032002402886104832 0 -0.019333340251302913 0.0031067034181041339 0 -0.019122160116691954 0.0030905380717258157 0 -0.019248604661648024 0.0031267311332542538 0 -0.019189542352343655 0.003092220515194955 0 -0.019248604661648024 0.0031267311332542538 0 -0.019202531649138235 0.0030282750290046992 0 -0.019318074958797185 0.0029906671905106288 0 -0.019248604661648024 0.0031267311332542538 0 -0.019189542352343655 0.003092220515194955 0 -0.019202531649138235 0.0030282750290046992 0 -0.019248604661648024 0.0031267311332542538 0 -0.019318074958797185 0.0029906671905106288 0 -0.019333340251302913 0.0031067034181041339 0 -0.019202531649138235 0.0030282750290046992 0 -0.019318074958797185 0.0029906671905106288 0 -0.019237175087525954 0.0028254391773492142 0 -0.019318074958797185 0.0029906671905106288 0 -0.019237175087525954 0.0028254391773492142 0 -0.019395834578841822 0.0028553188919442554 0 -0.017159720182990976 0.0018748090682165917 0 -0.016845323432395361 0.001592369344003561 0 -0.017519415662040003 0.0013418189698538026 0 -0.018217480433957541 0.0023814138205996826 0 -0.018029723920560747 0.0022536676680989924 0 -0.016881789468181318 0.0018515055929310003 0 -0.016832941989141918 0.0015633176290151755 0 -0.016386773832240617 0.0017413553615272322 0 -0.017159720182990976 0.0018748090682165917 0 -0.016881789468181318 0.0018515055929310003 0 -0.016845323432395361 0.001592369344003561 0 -0.016548480169509997 0.0018704955367568744 0 -0.01587967302429007 0.0014235208558273577 0 -0.016796418876258084 0.0024546456548990504 0 -0.017159720182990976 0.0018748090682165917 0 -0.016881789468181318 0.0018515055929310003 0 -0.018175027712751216 0.002374448455473997 0 -0.018217480433957541 0.0023814138205996826 0 -0.016796418876258084 0.0024546456548990504 0 -0.016881789468181318 0.0018515055929310003 0 -0.016386773832240617 0.0017413553615272322 0 -0.019069454542549467 0.0030541886895841192 0 -0.019202531649138235 0.0030282750290046992 0 -0.019237175087525954 0.0028254391773492142 0 -0.016021146653073779 0.0020578712496417935 0 -0.016778784947848079 0.0020720896282649041 0 -0.015740190222974924 0.00019646175629560686 0 -0.015702102933174329 0.0011963626948406998 0 -0.014350689595326595 0.00050576577001340919 0 -0.018175027712751216 0.002374448455473997 0 -0.014931980887785854 0.00082331834971346237 0 -0.016021146653073779 0.0020578712496417935 0 -0.015740190222974924 0.00019646175629560686 0 -0.015400536367893368 0.00033218873542562374 0 -0.014301272059661693 0.00088227850296253079 0 -0.014103338211356606 0.00039856200150246919 0 -0.014079927127029046 0.00064060185450135593 0 -0.014375807857672184 0.00045612067667309274 0 -0.014112861124466284 0.00056063632027223971 0 -0.014179581027303158 0.00032533075495294459 0 -0.01587967302429007 0.0014235208558273577 0 -0.014931980887785854 0.00082331834971346237 0 -0.014020878482275368 0.00039394464680481004 0 -0.014112861124466284 0.00056063632027223971 0 -0.014179581027303158 0.00032533075495294459 0 -0.014143687646212098 0.00025511206272132053 0 -0.014931980887785854 0.00082331834971346237 0 -0.014020878482275368 0.00039394464680481004 0 -0.014117289320309135 0.00057103298696069033 0 -0.014032438109380268 0.00060411010904287709 0 -0.014931980887785854 0.00082331834971346237 0 -0.014350689595326595 0.00050576577001340919 0 -0.014350689595326595 0.00050576577001340919 0 -0.013919992052354651 0.00054638622642144046 0 -0.013992979034965472 0.00044365479091501434 0 -0.013839925738744156 0.00034222357738099702 0 -0.013889776827591127 0.00049244603568363585 0 -0.013992979034965472 0.00044365479091501434 0 -0.013839925738744156 0.00034222357738099702 0 -0.01388135620221519 0.00015055006824058858 0 -0.013839925738744156 0.00034222357738099702 0 -0.013781700522684133 0.00041831894513324217 0 -0.013889776827591127 0.00049244603568363585 0 -0.013889776827591127 0.00049244603568363585 0 -0.013887475482979006 0.00064963281434750602 0 -0.013659450711359987 0.00051504442356476343 0 -0.013828078735115107 0.00084997108612884032 0 -0.013887475482979006 0.00064963281434750602 0 -0.013659450711359987 0.00051504442356476343 0 -0.013889776827591127 0.00049244603568363585 0 -0.014079927127029046 0.00064060185450135593 0 -0.013887475482979006 0.00064963281434750602 0 -0.014103338211356606 0.00039856200150246919 0 -0.013889776827591127 0.00049244603568363585 0 -0.014079927127029046 0.00064060185450135593 0 -0.014079927127029046 0.00064060185450135593 0 -0.013991015499091224 0.00074636892900969249 0 -0.013887475482979006 0.00064963281434750602 0 -0.014172389772863852 0.00084664815693596854 0 -0.014079927127029046 0.00064060185450135593 0 -0.013991015499091224 0.00074636892900969249 0 -0.013828078735115107 0.00084997108612884032 0 -0.013991015499091224 0.00074636892900969249 0 -0.013887475482979006 0.00064963281434750602 0 -0.020004979420400998 0.0031187272661457369 0 -0.019756212564950137 0.0031136684823588391 0 -0.019778636509550987 0.0029757483994498611 0 -0.02001242296053786 0.0030565828884595056 0 -0.020004979420400998 0.0031187272661457369 0 -0.019778636509550987 0.0029757483994498611 0 -0.020066649312044136 0.0031194563322338707 0 -0.020829481940139137 0.0031281006306804891 0 -0.02001242296053786 0.0030565828884595056 0 -0.020124305358539457 0.0029290688625420057 0 -0.020280016591730711 0.0032500772636949783 0 -0.02001242296053786 0.0030565828884595056 0 -0.020004979420400998 0.0031187272661457369 0 -0.020280016591730711 0.0032500772636949783 0 -0.020004979420400998 0.0031187272661457369 0 -0.020710234553622087 0.003301165440461724 0 -0.021412603709463088 0.0029836417304149451 0 -0.020710234553622087 0.003301165440461724 0 -0.021138067367921082 0.0033284275542022671 0 -0.021412603709463088 0.0029836417304149451 0 -0.021138067367921082 0.0033284275542022671 0 -0.020864731112226375 0.0037252803532108469 0 -0.02153034117104069 0.0033411268997931387 0 -0.020710234553622087 0.003301165440461724 0 -0.021138067367921082 0.0033284275542022671 0 -0.020864731112226375 0.0037252803532108469 0 -0.022994633315874497 0.003792357433957391 0 -0.023432373899626789 0.0038736769420563678 0 -0.020864731112226375 0.0037252803532108469 0 -0.020177644826925242 0.0033646194146754599 0 -0.019723873987436347 0.0034687644694886346 0 -0.022950883030685116 0.0037845739574772497 0 -0.022909088444735985 0.0038284364177336677 0 -0.02289451808114621 0.0037378412270468418 0 -0.021863171996431764 0.0037334267783720337 0 -0.021309699993399579 0.0035955694837893088 0 -0.022950883030685116 0.0037845739574772497 0 -0.022872684200248575 0.0037784293187542502 0 -0.02289451808114621 0.0037378412270468418 0 -0.020004979420400998 0.0031187272661457369 0 -0.020710234553622087 0.003301165440461724 0 -0.020177644826925242 0.0033646194146754599 0 -0.020710234553622087 0.003301165440461724 0 -0.020864731112226375 0.0037252803532108469 0 -0.020177644826925242 0.0033646194146754599 0 -0.020004979420400998 0.0031187272661457369 0 -0.020177644826925242 0.0033646194146754599 0 -0.01978107773170008 0.0032563580539420644 0 -0.022872684200248575 0.0037784293187542502 0 -0.02289451808114621 0.0037378412270468418 0 -0.022499959216714421 0.0035934349116351016 0 -0.019584324616199484 0.0032728255321908483 0 -0.019723873987436347 0.0034687644694886346 0 -0.019347426609305614 0.0032002402886104832 0 -0.024486400412779965 0.00378584788637364 0 -0.024048213840674137 0.0037130731389313377 0 -0.024070111654873775 0.0040092819766080019 0 -0.019584324616199484 0.0032728255321908483 0 -0.019723873987436347 0.0034687644694886346 0 -0.01978107773170008 0.0032563580539420644 0 -0.020177644826925242 0.0033646194146754599 0 -0.019723873987436347 0.0034687644694886346 0 -0.01978107773170008 0.0032563580539420644 0 -0.023432373899626789 0.0038736769420563678 0 -0.023793562255487604 0.0038859354031721177 0 -0.024486400412779965 0.00378584788637364 0 -0.024070111654873775 0.0040092819766080019 0 -0.024972915348359138 0.0040232577592005294 0 -0.022872684200248575 0.0037784293187542502 0 -0.022489737361993438 0.0036803151712633368 0 -0.022499959216714421 0.0035934349116351016 0 -0.021309699993399579 0.0035955694837893088 0 -0.020974580377125636 0.0034466470115473756 0 -0.024486400412779965 0.00378584788637364 0 -0.024855951758255418 0.0037600959898742366 0 -0.024972915348359138 0.0040232577592005294 0 -0.025100934995841595 0.0037572864403111802 0 -0.024855951758255418 0.0037600959898742366 0 -0.024972915348359138 0.0040232577592005294 0 -0.019584324616199484 0.0032728255321908483 0 -0.019347426609305614 0.0032002402886104832 0 -0.019477699486966395 0.0031908690954691324 0 -0.019318074958797185 0.0029906671905106288 0 -0.019414654899702188 0.0030685697057536094 0 -0.019487788103333046 0.0029530833614093426 0 -0.019347426609305614 0.0032002402886104832 0 -0.019390371799436971 0.0031413609190926823 0 -0.019477699486966395 0.0031908690954691324 0 -0.019347426609305614 0.0032002402886104832 0 -0.019333340251302913 0.0031067034181041339 0 -0.019390371799436971 0.0031413609190926823 0 -0.019333340251302913 0.0031067034181041339 0 -0.019390371799436971 0.0031413609190926823 0 -0.019414654899702188 0.0030685697057536094 0 -0.019477699486966395 0.0031908690954691324 0 -0.019414654899702188 0.0030685697057536094 0 -0.019582319664007811 0.0030778650760231517 0 -0.019390371799436971 0.0031413609190926823 0 -0.019477699486966395 0.0031908690954691324 0 -0.019414654899702188 0.0030685697057536094 0 -0.019414654899702188 0.0030685697057536094 0 -0.019582319664007811 0.0030778650760231517 0 -0.019487788103333046 0.0029530833614093426 0 -0.019318074958797185 0.0029906671905106288 0 -0.019333340251302913 0.0031067034181041339 0 -0.019414654899702188 0.0030685697057536094 0 -0.020004979420400998 0.0031187272661457369 0 -0.01978107773170008 0.0032563580539420644 0 -0.019756212564950137 0.0031136684823588391 0 -0.01978107773170008 0.0032563580539420644 0 -0.019756212564950137 0.0031136684823588391 0 -0.019649410471319049 0.0031950517743397698 0 -0.019477699486966395 0.0031908690954691324 0 -0.019649410471319049 0.0031950517743397698 0 -0.019582319664007811 0.0030778650760231517 0 -0.019584324616199484 0.0032728255321908483 0 -0.01978107773170008 0.0032563580539420644 0 -0.019649410471319049 0.0031950517743397698 0 -0.019756212564950137 0.0031136684823588391 0 -0.019649410471319049 0.0031950517743397698 0 -0.019582319664007811 0.0030778650760231517 0 -0.019584324616199484 0.0032728255321908483 0 -0.019477699486966395 0.0031908690954691324 0 -0.019649410471319049 0.0031950517743397698 0 -0.019756212564950137 0.0031136684823588391 0 -0.019582319664007811 0.0030778650760231517 0 -0.019778636509550987 0.0029757483994498611 0 -0.019530679047833486 0.0028110742974919627 0 -0.019395834578841822 0.0028553188919442554 0 -0.019487788103333046 0.0029530833614093426 0 -0.019530679047833486 0.0028110742974919627 0 -0.019487788103333046 0.0029530833614093426 0 -0.019778636509550987 0.0029757483994498611 0 -0.019582319664007811 0.0030778650760231517 0 -0.019487788103333046 0.0029530833614093426 0 -0.019778636509550987 0.0029757483994498611 0 -0.019318074958797185 0.0029906671905106288 0 -0.019395834578841822 0.0028553188919442554 0 -0.019487788103333046 0.0029530833614093426 0 -0.019237175087525954 0.0028254391773492142 0 -0.019409057546897448 0.0027348244766466755 0 -0.019389517166208559 0.0027549915250519828 0 -0.019237175087525954 0.0028254391773492142 0 -0.019395834578841822 0.0028553188919442554 0 -0.019409057546897448 0.0027348244766466755 0 -0.019530679047833486 0.0028110742974919627 0 -0.019395834578841822 0.0028553188919442554 0 -0.019409057546897448 0.0027348244766466755 0 -0.019530679047833486 0.0028110742974919627 0 -0.019409057546897448 0.0027348244766466755 0 -0.019428759781916719 0.0026424263061406725 0 -0.019530679047833486 0.0028110742974919627 0 -0.019428759781916719 0.0026424263061406725 0 -0.019922052560387087 0.0026969267916292583 0 -0.019922052560387087 0.0026969267916292583 0 -0.019778636509550987 0.0029757483994498611 0 -0.020124305358539457 0.0029290688625420057 0 -0.019530679047833486 0.0028110742974919627 0 -0.019922052560387087 0.0026969267916292583 0 -0.019778636509550987 0.0029757483994498611 0 -0.02001242296053786 0.0030565828884595056 0 -0.019778636509550987 0.0029757483994498611 0 -0.020124305358539457 0.0029290688625420057 0 -0.019922052560387087 0.0026969267916292583 0 -0.020246676766051883 0.002752282798092945 0 -0.020399980857582361 0.0025068311509472358 0 -0.019922052560387087 0.0026969267916292583 0 -0.020124305358539457 0.0029290688625420057 0 -0.020246676766051883 0.002752282798092945 0 -0.020744049223321685 0.0025780088191295607 0 -0.020494538384006226 0.0028722922135509762 0 -0.020399980857582361 0.0025068311509472358 0 -0.020246676766051883 0.002752282798092945 0 -0.020494538384006226 0.0028722922135509762 0 -0.020399980857582361 0.0025068311509472358 0 -0.020744049223321685 0.0025780088191295607 0 -0.020494538384006226 0.0028722922135509762 0 -0.021038822284044256 0.002870474173834871 0 -0.020494538384006226 0.0028722922135509762 0 -0.020826784801377184 0.0032977728882087006 0 -0.021038822284044256 0.002870474173834871 0 -0.020124305358539457 0.0029290688625420057 0 -0.020494538384006226 0.0028722922135509762 0 -0.020280016591730711 0.0032500772636949783 0 -0.020124305358539457 0.0029290688625420057 0 -0.020246676766051883 0.002752282798092945 0 -0.020494538384006226 0.0028722922135509762 0 -0.020494538384006226 0.0028722922135509762 0 -0.020280016591730711 0.0032500772636949783 0 -0.020826784801377184 0.0032977728882087006 0 -0.020829481940139137 0.0031281006306804891 0 -0.021360807909364225 0.0032236833989801924 0 -0.021412603709463088 0.0029836417304149451 0 -0.021908956294301889 0.0031785676094363527 0 -0.02153034117104069 0.0033411268997931387 0 -0.021908956294301889 0.0031785676094363527 0 -0.021858131379483399 0.0032023583184645297 0 -0.021925047996794379 0.0034748177023696219 0 -0.021908956294301889 0.0031785676094363527 0 -0.02153034117104069 0.0033411268997931387 0 -0.021925047996794379 0.0034748177023696219 0 -0.020864731112226375 0.0037252803532108469 0 -0.02153034117104069 0.0033411268997931387 0 -0.021925047996794379 0.0034748177023696219 0 -0.021138067367921082 0.0033284275542022671 0 -0.021412603709463088 0.0029836417304149451 0 -0.02153034117104069 0.0033411268997931387 0 -0.021858131379483399 0.0032023583184645297 0 -0.02162572579872097 0.0032177111108108547 0 -0.021859288406442513 0.0031984508408835688 0 -0.021360807909364225 0.0032236833989801924 0 -0.021611837604943961 0.0032234734771563324 0 -0.021908956294301889 0.0031785676094363527 0 -0.021858131379483399 0.0032023583184645297 0 -0.02162572579872097 0.0032177111108108547 0 -0.020826784801377184 0.0032977728882087006 0 -0.02162572579872097 0.0032177111108108547 0 -0.021038822284044256 0.002870474173834871 0 -0.02162572579872097 0.0032177111108108547 0 -0.021426227492035592 0.0029325713673070222 0 -0.021038822284044256 0.002870474173834871 0 -0.02162572579872097 0.0032177111108108547 0 -0.021426227492035592 0.0029325713673070222 0 -0.021683005726943962 0.0030067658370391348 0 -0.021426227492035592 0.0029325713673070222 0 -0.021038822284044256 0.002870474173834871 0 -0.021221402300753801 0.0027607796828320553 0 -0.021426227492035592 0.0029325713673070222 0 -0.021221402300753801 0.0027607796828320553 0 -0.021455946060940433 0.0027997336384818256 0 -0.021038822284044256 0.002870474173834871 0 -0.02102355468232095 0.0026019665861327871 0 -0.021221402300753801 0.0027607796828320553 0 -0.020744049223321685 0.0025780088191295607 0 -0.021038822284044256 0.002870474173834871 0 -0.02102355468232095 0.0026019665861327871 0 -0.021221402300753801 0.0027607796828320553 0 -0.02124948057476244 0.0026210739894990047 0 -0.021455946060940433 0.0027997336384818256 0 -0.02102355468232095 0.0026019665861327871 0 -0.021221402300753801 0.0027607796828320553 0 -0.02124948057476244 0.0026210739894990047 0 -0.02124948057476244 0.0026210739894990047 0 -0.0214458378289425 0.0026091428436848486 0 -0.021455946060940433 0.0027997336384818256 0 -0.0214458378289425 0.0026091428436848486 0 -0.021455946060940433 0.0027997336384818256 0 -0.021656670780221928 0.0028003076393480881 0 -0.021557595461200032 0.0025258356111621466 0 -0.021222128141091118 0.0023843211993364488 0 -0.0214458378289425 0.0026091428436848486 0 -0.021656670780221928 0.0028003076393480881 0 -0.021747949584713724 0.0025558091843658061 0 -0.022766206589006695 0.0025184450925773358 0 -0.021222128141091118 0.0023843211993364488 0 -0.021656670780221928 0.0028003076393480881 0 -0.021922371317416978 0.0029665026862902969 0 -0.021747949584713724 0.0025558091843658061 0 -0.023332551663238846 0.0019151234111338792 0 -0.023281657504896025 0.0021214191234504355 0 -0.023436454318867216 0.002215926995045758 0 -0.023281657504896025 0.0021214191234504355 0 -0.023188398230951854 0.0022806073198011305 0 -0.023436454318867216 0.002215926995045758 0 -0.021656670780221928 0.0028003076393480881 0 -0.021922371317416978 0.0029665026862902969 0 -0.021683005726943962 0.0030067658370391348 0 -0.021922371317416978 0.0029665026862902969 0 -0.021683005726943962 0.0030067658370391348 0 -0.021824898011199582 0.0030674363530492714 0 -0.021426227492035592 0.0029325713673070222 0 -0.021455946060940433 0.0027997336384818256 0 -0.021683005726943962 0.0030067658370391348 0 -0.021455946060940433 0.0027997336384818256 0 -0.021656670780221928 0.0028003076393480881 0 -0.021683005726943962 0.0030067658370391348 0 -0.022797456665920746 0.0020290542513832326 0 -0.022982087332905944 0.0020575746263089786 0 -0.022867771878042065 0.0021870348845700826 0 -0.022982087332905944 0.0020575746263089786 0 -0.022867771878042065 0.0021870348845700826 0 -0.023024283208953951 0.0021953947935029546 0 -0.022982087332905944 0.0020575746263089786 0 -0.023024283208953951 0.0021953947935029546 0 -0.023167077903803634 0.0020765017351218242 0 -0.023332551663238846 0.0019151234111338792 0 -0.023167077903803634 0.0020765017351218242 0 -0.023281657504896025 0.0021214191234504355 0 -0.023024283208953951 0.0021953947935029546 0 -0.023167077903803634 0.0020765017351218242 0 -0.023188398230951854 0.0022806073198011305 0 -0.023167077903803634 0.0020765017351218242 0 -0.023281657504896025 0.0021214191234504355 0 -0.023188398230951854 0.0022806073198011305 0 -0.023332551663238846 0.0019151234111338792 0 -0.023167077903803634 0.0020765017351218242 0 -0.023148860777001519 0.0018270178094368357 0 -0.022982087332905944 0.0020575746263089786 0 -0.023148860777001519 0.0018270178094368357 0 -0.022952636917627361 0.0018694482351557249 0 -0.022982087332905944 0.0020575746263089786 0 -0.023167077903803634 0.0020765017351218242 0 -0.023148860777001519 0.0018270178094368357 0 -0.022797456665920746 0.0020290542513832326 0 -0.022982087332905944 0.0020575746263089786 0 -0.022952636917627361 0.0018694482351557249 0 -0.023148860777001519 0.0018270178094368357 0 -0.022952636917627361 0.0018694482351557249 0 -0.023059321935305369 0.001663921108028092 0 -0.023148860777001519 0.0018270178094368357 0 -0.023059321935305369 0.001663921108028092 0 -0.023150817848898969 0.0016918675247213845 0 -0.023059321935305369 0.001663921108028092 0 -0.023150817848898969 0.0016918675247213845 0 -0.023195354501078635 0.0016913390039125281 0 -0.022766206589006695 0.0025184450925773358 0 -0.022854918883533356 0.0021933282083766294 0 -0.023332551663238846 0.0019151234111338792 0 -0.023148860777001519 0.0018270178094368357 0 -0.02322031834091701 0.0016519254864813281 0 -0.023148860777001519 0.0018270178094368357 0 -0.023150817848898969 0.0016918675247213845 0 -0.023195190205056039 0.0016760495268238515 0 -0.023239419242158388 0.0016119435582009635 0 -0.022854918883533356 0.0021933282083766294 0 -0.023150817848898969 0.0016918675247213845 0 -0.023195190205056039 0.0016760495268238515 0 -0.023176317360338341 0.0016799316806248282 0 -0.023164854466709892 0.0016448724462842 0 -0.023173830378524343 0.001671214218755738 0 -0.023022409860610767 0.0018477585802392409 0 -0.023180575329867351 0.0017461809413037259 0 -0.023173830378524343 0.001671214218755738 0 -0.023022409860610767 0.0018477585802392409 0 -0.022854918883533356 0.0021933282083766294 0 -0.022440866042331573 0.0025800762415751893 0 -0.022854918883533356 0.0021933282083766294 0 -0.022853713847785638 0.0020889909163821804 0 -0.023180575329867351 0.0017461809413037259 0 -0.023237669533225907 0.0017864557129968687 0 -0.023199000076694922 0.0018629532023054082 0 -0.023180575329867351 0.0017461809413037259 0 -0.023195354501078635 0.0016913390039125281 0 -0.023237669533225907 0.0017864557129968687 0 -0.023150817848898969 0.0016918675247213845 0 -0.023176317360338341 0.0016799316806248282 0 -0.023195354501078635 0.0016913390039125281 0 -0.023180575329867351 0.0017461809413037259 0 -0.023181866714430208 0.0016973414097533198 0 -0.023173830378524343 0.001671214218755738 0 -0.023180575329867351 0.0017461809413037259 0 -0.023181866714430208 0.0016973414097533198 0 -0.023195354501078635 0.0016913390039125281 0 -0.023195190205056039 0.0016760495268238515 0 -0.023173830378524343 0.001671214218755738 0 -0.023176317360338341 0.0016799316806248282 0 -0.023181866714430208 0.0016973414097533198 0 -0.023173830378524343 0.001671214218755738 0 -0.023176317360338341 0.0016799316806248282 0 -0.023181866714430208 0.0016973414097533198 0 -0.023176317360338341 0.0016799316806248282 0 -0.023195354501078635 0.0016913390039125281 0 -0.023111672624897401 0.0016220683550153177 0 -0.023187397220973641 0.0016252528211448199 0 -0.023059321935305369 0.001663921108028092 0 -0.023195354501078635 0.0016913390039125281 0 -0.023261177280384897 0.0017264889222581472 0 -0.023059321935305369 0.001663921108028092 0 -0.023200911748365565 0.0012610177790102583 0 -0.023008361929989594 0.0013474754708526202 0 -0.023195354501078635 0.0016913390039125281 0 -0.023261177280384897 0.0017264889222581472 0 -0.023237669533225907 0.0017864557129968687 0 -0.02162572579872097 0.0032177111108108547 0 -0.021683005726943962 0.0030067658370391348 0 -0.021799076545160861 0.0031522444386636308 0 -0.021683005726943962 0.0030067658370391348 0 -0.021799076545160861 0.0031522444386636308 0 -0.021824898011199582 0.0030674363530492714 0 -0.021799076545160861 0.0031522444386636308 0 -0.021824898011199582 0.0030674363530492714 0 -0.021889063766483367 0.0031194406370743002 0 -0.021922371317416978 0.0029665026862902969 0 -0.021824898011199582 0.0030674363530492714 0 -0.021889063766483367 0.0031194406370743002 0 -0.021922371317416978 0.0029665026862902969 0 -0.021961182286569729 0.0031550957667464863 0 -0.021889063766483367 0.0031194406370743002 0 -0.021961182286569729 0.0031550957667464863 0 -0.021889063766483367 0.0031194406370743002 0 -0.021889094503206825 0.0031747178146828234 0 -0.021799076545160861 0.0031522444386636308 0 -0.021889063766483367 0.0031194406370743002 0 -0.021889094503206825 0.0031747178146828234 0 -0.021961182286569729 0.0031550957667464863 0 -0.021889094503206825 0.0031747178146828234 0 -0.021931244085050702 0.0031950464353477969 0 -0.021889094503206825 0.0031747178146828234 0 -0.021859288406442513 0.0031984508408835688 0 -0.021931244085050702 0.0031950464353477969 0 -0.021799076545160861 0.0031522444386636308 0 -0.021889094503206825 0.0031747178146828234 0 -0.021859288406442513 0.0031984508408835688 0 -0.02162572579872097 0.0032177111108108547 0 -0.021799076545160861 0.0031522444386636308 0 -0.021859288406442513 0.0031984508408835688 0 -0.021859288406442513 0.0031984508408835688 0 -0.021985005810044641 0.0031650647493135591 0 -0.021941744560278559 0.0031638680221064874 0 -0.021859288406442513 0.0031984508408835688 0 -0.021985005810044641 0.0031650647493135591 0 -0.021931244085050702 0.0031950464353477969 0 -0.022440866042331573 0.0025800762415751893 0 -0.022430282326995604 0.0027462234251213399 0 -0.023022409860610767 0.0018477585802392409 0 -0.022772290477756502 0.0023256392597098257 0 -0.023180541739101026 0.0020614440026647837 0 -0.021985005810044641 0.0031650647493135591 0 -0.021931244085050702 0.0031950464353477969 0 -0.022057705676404114 0.0031345499421040197 0 -0.022772290477756502 0.0023256392597098257 0 -0.023359013704429544 0.0023650297741555425 0 -0.023056638744198974 0.0026950700129811226 0 -0.021985005810044641 0.0031650647493135591 0 -0.022057705676404114 0.0031345499421040197 0 -0.022112635415218938 0.0031126090194175948 0 -0.023261177280384897 0.0017264889222581472 0 -0.023237669533225907 0.0017864557129968687 0 -0.023378752605982087 0.0019926341725845374 0 -0.023200911748365565 0.0012610177790102583 0 -0.023008361929989594 0.0013474754708526202 0 -0.023322000690918894 0.0008015042955967118 0 -0.023187397220973641 0.0016252528211448199 0 -0.024144011330198719 0.00093311026080095409 0 -0.024998254193633031 -0.00015812242332922805 0 -0.024144011330198719 0.00093311026080095409 0 -0.026767315332291999 -0.0012930059192720065 0 -0.026700139545712157 -0.00080771265545568369 0 -0.026084183564278472 -0.00056248843698981183 0 -0.026744042964085994 -0.00033490686907289031 0 -0.026700139545712157 -0.00080771265545568369 0 -0.026084183564278472 -0.00056248843698981183 0 -0.023378752605982087 0.0019926341725845374 0 -0.023199000076694922 0.0018629532023054082 0 -0.023180541739101026 0.0020614440026647837 0 -0.023237669533225907 0.0017864557129968687 0 -0.023378752605982087 0.0019926341725845374 0 -0.023199000076694922 0.0018629532023054082 0 -0.023180575329867351 0.0017461809413037259 0 -0.023022409860610767 0.0018477585802392409 0 -0.023199000076694922 0.0018629532023054082 0 -0.023022409860610767 0.0018477585802392409 0 -0.023199000076694922 0.0018629532023054082 0 -0.023180541739101026 0.0020614440026647837 0 -0.023613122772084685 0.0018589961617368664 0 -0.023359013704429544 0.0023650297741555425 0 -0.023457214761118658 0.0027715037488294137 0 -0.022772290477756502 0.0023256392597098257 0 -0.023180541739101026 0.0020614440026647837 0 -0.023359013704429544 0.0023650297741555425 0 -0.024144011330198719 0.00093311026080095409 0 -0.023165232477589958 0.0026450492650946984 0 -0.023378752605982087 0.0019926341725845374 0 -0.023180541739101026 0.0020614440026647837 0 -0.023359013704429544 0.0023650297741555425 0 -0.026084183564278472 -0.00056248843698981183 0 -0.026492390008637318 0.00020329341981829662 0 -0.025416298290089092 0.00065406083467917781 0 -0.026744042964085994 -0.00033490686907289031 0 -0.026084183564278472 -0.00056248843698981183 0 -0.026492390008637318 0.00020329341981829662 0 -0.024144011330198719 0.00093311026080095409 0 -0.024526687317391629 0.0016594614627325494 0 -0.026492390008637318 0.00020329341981829662 0 -0.026206444336547723 0.00084130985734873285 0 -0.025416298290089092 0.00065406083467917781 0 -0.026998583664254547 0.00077791740267971112 0 -0.026492390008637318 0.00020329341981829662 0 -0.026206444336547723 0.00084130985734873285 0 -0.026206444336547723 0.00084130985734873285 0 -0.025416298290089092 0.00065406083467917781 0 -0.025707521293819518 0.0014503023735642688 0 -0.023359013704429544 0.0023650297741555425 0 -0.023457214761118658 0.0027715037488294137 0 -0.023056638744198974 0.0026950700129811226 0 -0.023457214761118658 0.0027715037488294137 0 -0.023056638744198974 0.0026950700129811226 0 -0.023058342619362997 0.0031070136911429186 0 -0.023422087274725917 0.0035227673496367501 0 -0.023457214761118658 0.0027715037488294137 0 -0.023058342619362997 0.0031070136911429186 0 -0.023980389445886239 0.0030242807110220115 0 -0.024526687317391629 0.0016594614627325494 0 -0.024547498144530951 0.0023777499311589925 0 -0.025416298290089092 0.00065406083467917781 0 -0.025707521293819518 0.0014503023735642688 0 -0.024547498144530951 0.0023777499311589925 0 -0.025707521293819518 0.0014503023735642688 0 -0.025785702845918555 0.0021456666859681474 0 -0.026687447159714703 0.0025848957079588029 0 -0.025785702845918555 0.0021456666859681474 0 -0.026440339048987391 0.0014281877905162493 0 -0.025707521293819518 0.0014503023735642688 0 -0.025785702845918555 0.0021456666859681474 0 -0.026440339048987391 0.0014281877905162493 0 -0.026206444336547723 0.00084130985734873285 0 -0.025707521293819518 0.0014503023735642688 0 -0.026440339048987391 0.0014281877905162493 0 -0.022057705676404114 0.0031345499421040197 0 -0.022442637077399526 0.0030973026418447832 0 -0.022112635415218938 0.0031126090194175948 0 -0.022772290477756502 0.0023256392597098257 0 -0.022442637077399526 0.0030973026418447832 0 -0.023056638744198974 0.0026950700129811226 0 -0.022430282326995604 0.0027462234251213399 0 -0.022404713601333483 0.003083032680272383 0 -0.022442637077399526 0.0030973026418447832 0 -0.023056638744198974 0.0026950700129811226 0 -0.023058342619362997 0.0031070136911429186 0 -0.023422087274725917 0.0035227673496367501 0 -0.022825067436143986 0.0034500156119290177 0 -0.023058342619362997 0.0031070136911429186 0 -0.022442637077399526 0.0030973026418447832 0 -0.022825067436143986 0.0034500156119290177 0 -0.023058342619362997 0.0031070136911429186 0 -0.022442637077399526 0.0030973026418447832 0 -0.022825067436143986 0.0034500156119290177 0 -0.022326307796705368 0.0033882550745447386 0 -0.022442637077399526 0.0030973026418447832 0 -0.022326307796705368 0.0033882550745447386 0 -0.02207553471292683 0.0032202668590278101 0 -0.022037619104607845 0.0034568110882920978 0 -0.022326307796705368 0.0033882550745447386 0 -0.02207553471292683 0.0032202668590278101 0 -0.02207553471292683 0.0032202668590278101 0 -0.022112635415218938 0.0031126090194175948 0 -0.021960597512509519 0.0031279661649238674 0 -0.022442637077399526 0.0030973026418447832 0 -0.02207553471292683 0.0032202668590278101 0 -0.022112635415218938 0.0031126090194175948 0 -0.02207553471292683 0.0032202668590278101 0 -0.021909678415912123 0.0033453127299616059 0 -0.02189545102507397 0.0030645295417778234 0 -0.02207553471292683 0.0032202668590278101 0 -0.02189545102507397 0.0030645295417778234 0 -0.021960597512509519 0.0031279661649238674 0 -0.022037619104607845 0.0034568110882920978 0 -0.02207553471292683 0.0032202668590278101 0 -0.021909678415912123 0.0033453127299616059 0 -0.02179941642203748 0.0034395282765447609 0 -0.021909678415912123 0.0033453127299616059 0 -0.021771212135522553 0.0032518657861235816 0 -0.022031478870849643 0.0027656517813155058 0 -0.022039610513930132 0.0028745232768853366 0 -0.02179941642203748 0.0034395282765447609 0 -0.021710067422060355 0.0033665809741511964 0 -0.021771212135522553 0.0032518657861235816 0 -0.022778250640986729 0.0020331988302620726 0 -0.022599259978674839 0.0026266596662883022 0 -0.022172105689790323 0.0025445488210558646 0 -0.022599259978674839 0.0026266596662883022 0 -0.022172105689790323 0.0025445488210558646 0 -0.022173911861279334 0.0030380756714495421 0 -0.022039610513930132 0.0028745232768853366 0 -0.021897503309051554 0.0030301675873116826 0 -0.021909678415912123 0.0033453127299616059 0 -0.021771212135522553 0.0032518657861235816 0 -0.02189545102507397 0.0030645295417778234 0 -0.022172105689790323 0.0025445488210558646 0 -0.02189545102507397 0.0030645295417778234 0 -0.022173911861279334 0.0030380756714495421 0 -0.02189545102507397 0.0030645295417778234 0 -0.022173911861279334 0.0030380756714495421 0 -0.021869693984468447 0.0032222227185263273 0 -0.022490889456585453 0.0032767431522124882 0 -0.022782546523919943 0.0029757399088476653 0 -0.022173911861279334 0.0030380756714495421 0 -0.021863171996431764 0.0037334267783720337 0 -0.021894610460413588 0.0035327730525183602 0 -0.022490889456585453 0.0032767431522124882 0 -0.022173911861279334 0.0030380756714495421 0 -0.021925047996794379 0.0034748177023696219 0 -0.022702712066830121 0.0035350952104370183 0 -0.022490889456585453 0.0032767431522124882 0 -0.021925047996794379 0.0034748177023696219 0 -0.022173911861279334 0.0030380756714495421 0 -0.021925047996794379 0.0034748177023696219 0 -0.021869693984468447 0.0032222227185263273 0 -0.021858131379483399 0.0032023583184645297 0 -0.021925047996794379 0.0034748177023696219 0 -0.021869693984468447 0.0032222227185263273 0 -0.021858131379483399 0.0032023583184645297 0 -0.021869693984468447 0.0032222227185263273 0 -0.021941744560278559 0.0031638680221064874 0 -0.021858131379483399 0.0032023583184645297 0 -0.021859288406442513 0.0031984508408835688 0 -0.021941744560278559 0.0031638680221064874 0 -0.021985005810044641 0.0031650647493135591 0 -0.021941744560278559 0.0031638680221064874 0 -0.022112635415218938 0.0031126090194175948 0 -0.021941744560278559 0.0031638680221064874 0 -0.022112635415218938 0.0031126090194175948 0 -0.021960597512509519 0.0031279661649238674 0 -0.021869693984468447 0.0032222227185263273 0 -0.021941744560278559 0.0031638680221064874 0 -0.021960597512509519 0.0031279661649238674 0 -0.02189545102507397 0.0030645295417778234 0 -0.021869693984468447 0.0032222227185263273 0 -0.021960597512509519 0.0031279661649238674 0 -0.027179238073910889 -1.1349383618560385e-06 0 -0.02899172600420543 -0.00017792835056150118 0 -0.031593611910188009 -8.9103424817103415e-05 0 -0.027179238073910889 -1.1349383618560385e-06 0 -0.025424798863319473 -0.0002732002740894583 0 -0.026936677758986158 -0.00022262499930909656 0 -0.028221942296712675 -0.00053499184351734599 0 -0.028472567610936288 -0.00073332083612784066 0 -0.026879009595375439 -0.00083720836770683252 0 -0.029376345636011127 -0.00060285811840110766 0 -0.029443447238425076 -0.00070108975596444752 0 -0.028472567610936288 -0.00073332083612784066 0 -0.028221942296712675 -0.00053499184351734599 0 -0.029376345636011127 -0.00060285811840110766 0 -0.028472567610936288 -0.00073332083612784066 0 -0.028221942296712675 -0.00053499184351734599 0 -0.029376345636011127 -0.00060285811840110766 0 -0.030039935315463829 -0.0004333298366166073 0 -0.026797199016570895 -0.00049688834684735728 0 -0.028485201297849885 -0.0003227603262134464 0 -0.029376345636011127 -0.00060285811840110766 0 -0.030039935315463829 -0.0004333298366166073 0 -0.030525261273390596 -0.0006964522972226939 0 -0.029376345636011127 -0.00060285811840110766 0 -0.030525261273390596 -0.0006964522972226939 0 -0.02998358942445117 -0.00073690624606515117 0 -0.029376345636011127 -0.00060285811840110766 0 -0.02998358942445117 -0.00073690624606515117 0 -0.029443447238425076 -0.00070108975596444752 0 -0.02998358942445117 -0.00073690624606515117 0 -0.029924062773201535 -0.00077967199756967726 0 -0.029443447238425076 -0.00070108975596444752 0 -0.02998358942445117 -0.00073690624606515117 0 -0.030450173687682592 -0.00085093880621725754 0 -0.030083612114789011 -0.0008781667454404496 0 -0.02998358942445117 -0.00073690624606515117 0 -0.030083612114789011 -0.0008781667454404496 0 -0.029924062773201535 -0.00077967199756967726 0 -0.030525261273390596 -0.0006964522972226939 0 -0.02998358942445117 -0.00073690624606515117 0 -0.030450173687682592 -0.00085093880621725754 0 -0.030525261273390596 -0.0006964522972226939 0 -0.030450173687682592 -0.00085093880621725754 0 -0.031660694844545097 -0.00097475522416671807 0 -0.030525261273390596 -0.0006964522972226939 0 -0.031486792375280785 -0.00090665320233264694 0 -0.031660694844545097 -0.00097475522416671807 0 -0.027179238073910889 -1.1349383618560385e-06 0 -0.026936677758986158 -0.00022262499930909656 0 -0.02899172600420543 -0.00017792835056150118 0 -0.030039935315463829 -0.0004333298366166073 0 -0.030525261273390596 -0.0006964522972226939 0 -0.031486792375280785 -0.00090665320233264694 0 -0.028485201297849885 -0.0003227603262134464 0 -0.030224460595517113 -0.00045689992908882956 0 -0.027179238073910889 -1.1349383618560385e-06 0 -0.031593611910188009 -8.9103424817103415e-05 0 -0.034999650616340153 -1.9196304067369834e-07 0 -0.030224460595517113 -0.00045689992908882956 0 -0.031334994857058429 -0.00011846670321873444 0 -0.031486792375280785 -0.00090665320233264694 0 -0.031660694844545097 -0.00097475522416671807 0 -0.031593611910188009 -8.9103424817103415e-05 0 -0.031660694844545097 -0.00097475522416671807 0 -0.031593611910188009 -8.9103424817103415e-05 0 -0.032577007350585677 -0.00015192050540607837 0 -0.031593611910188009 -8.9103424817103415e-05 0 -0.032577007350585677 -0.00015192050540607837 0 -0.033584988935121872 0.00010214730144658858 0 -0.031593611910188009 -8.9103424817103415e-05 0 -0.034999650616340153 -1.9196304067369834e-07 0 -0.033584988935121872 0.00010214730144658858 0 -0.034999650616340153 -1.9196304067369834e-07 0 -0.033584988935121872 0.00010214730144658858 0 -0.034995929728734478 2.6590435569443545e-07 0 -0.035000082322035754 -2.5108345461155411e-08 0 -0.034991058694661251 2.1103368286736927e-05 0 -0.034999845016142589 7.3216438206574117e-08 0 -0.034991058694661251 2.1103368286736927e-05 0 -0.034982171363790941 2.5745179120516466e-05 0 -0.034999845016142589 7.3216438206574117e-08 0 -0.033584988935121872 0.00010214730144658858 0 -0.034995929728734478 2.6590435569443545e-07 0 -0.03371847552306699 0.00013326949512019955 0 -0.03499951684155516 2.7576669793629727e-07 0 -0.034590337703774607 0.00010548369437630043 0 -0.033584988935121872 0.00010214730144658858 0 -0.03371847552306699 0.00013326949512019955 0 -0.033314852582852952 -2.5642269508344017e-05 0 -0.034991058694661251 2.1103368286736927e-05 0 -0.034962676933508616 2.8755705531422234e-05 0 -0.034982171363790941 2.5745179120516466e-05 0 -0.034590337703774607 0.00010548369437630043 0 -0.032416691278352366 -0.00038700384155133325 0 -0.03371847552306699 0.00013326949512019955 0 -0.033628464591966695 -0.00018920928420549407 0 -0.033314852582852952 -2.5642269508344017e-05 0 -0.033628464591966695 -0.00018920928420549407 0 -0.033314852582852952 -2.5642269508344017e-05 0 -0.03314731823705399 -0.00052843787708350314 0 -0.032577007350585677 -0.00015192050540607837 0 -0.033314852582852952 -2.5642269508344017e-05 0 -0.03314731823705399 -0.00052843787708350314 0 -0.032577007350585677 -0.00015192050540607837 0 -0.033584988935121872 0.00010214730144658858 0 -0.033314852582852952 -2.5642269508344017e-05 0 -0.031660694844545097 -0.00097475522416671807 0 -0.032577007350585677 -0.00015192050540607837 0 -0.03314731823705399 -0.00052843787708350314 0 -0.030450173687682592 -0.00085093880621725754 0 -0.031660694844545097 -0.00097475522416671807 0 -0.030343045859427507 -0.0011968882977755767 0 -0.031762261525864498 -0.00088425350870029141 0 -0.031700441831128905 -0.00087316376517419998 0 -0.030093021130876894 -0.0010039209778079572 0 -0.030343045859427507 -0.0011968882977755767 0 -0.030083612114789011 -0.0008781667454404496 0 -0.030093021130876894 -0.0010039209778079572 0 -0.030083612114789011 -0.0008781667454404496 0 -0.030044457840444745 -0.00072989754823384869 0 -0.032416691278352366 -0.00038700384155133325 0 -0.030545615528856887 -0.0002916488231442531 0 -0.032416691278352366 -0.00038700384155133325 0 -0.031700441831128905 -0.00087316376517419998 0 -0.030450173687682592 -0.00085093880621725754 0 -0.030343045859427507 -0.0011968882977755767 0 -0.030083612114789011 -0.0008781667454404496 0 -0.030083612114789011 -0.0008781667454404496 0 -0.030044457840444745 -0.00072989754823384869 0 -0.029924062773201535 -0.00077967199756967726 0 -0.030044457840444745 -0.00072989754823384869 0 -0.030407871928053384 -0.00062537716088480774 0 -0.029924062773201535 -0.00077967199756967726 0 -0.030044457840444745 -0.00072989754823384869 0 -0.030407871928053384 -0.00062537716088480774 0 -0.030531026269397663 -0.00020135304459517083 0 -0.029814290646361923 -0.00015399708739170624 0 -0.030044457840444745 -0.00072989754823384869 0 -0.030531026269397663 -0.00020135304459517083 0 -0.030407871928053384 -0.00062537716088480774 0 -0.031380127152048951 -0.00030598310214762176 0 -0.030776186817192235 -0.0005936453251297602 0 -0.030407871928053384 -0.00062537716088480774 0 -0.031380127152048951 -0.00030598310214762176 0 -0.030531026269397663 -0.00020135304459517083 0 -0.031380127152048951 -0.00030598310214762176 0 -0.030531026269397663 -0.00020135304459517083 0 -0.030917348846252714 0.00039303028760926615 0 -0.031380127152048951 -0.00030598310214762176 0 -0.030917348846252714 0.00039303028760926615 0 -0.032405548812548639 0.0001609762753219515 0 -0.032416691278352366 -0.00038700384155133325 0 -0.032953734404896406 0.00023565922979167754 0 -0.029814290646361923 -0.00015399708739170624 0 -0.030531026269397663 -0.00020135304459517083 0 -0.030917348846252714 0.00039303028760926615 0 -0.034962676933508616 2.8755705531422234e-05 0 -0.034973349810756824 3.262881604390421e-05 0 -0.034982171363790941 2.5745179120516466e-05 0 -0.034973349810756824 3.262881604390421e-05 0 -0.034982171363790941 2.5745179120516466e-05 0 -0.034987032691495334 2.8718813519119204e-05 0 -0.032953734404896406 0.00023565922979167754 0 -0.03368686962293236 0.00031105437510666357 0 -0.030917348846252714 0.00039303028760926615 0 -0.032429638859457342 0.00077597549204878327 0 -0.032405548812548639 0.0001609762753219515 0 -0.034973349810756824 3.262881604390421e-05 0 -0.034987032691495334 2.8718813519119204e-05 0 -0.034951168918803371 7.1354828399926572e-05 0 -0.035000450518676271 -1.6747856566038704e-07 0 -0.034987032691495334 2.8718813519119204e-05 0 -0.034951168918803371 7.1354828399926572e-05 0 -0.035000450518676271 -1.6747856566038704e-07 0 -0.034987032691495334 2.8718813519119204e-05 0 -0.034999845016142589 7.3216438206574117e-08 0 -0.034982171363790941 2.5745179120516466e-05 0 -0.034987032691495334 2.8718813519119204e-05 0 -0.034999845016142589 7.3216438206574117e-08 0 -0.034147940422122013 0.0002783175825251834 0 -0.034827998819413605 0.00013104889717247391 0 -0.033561962350474837 0.00038183345502627663 0 -0.034147940422122013 0.0002783175825251834 0 -0.034827998819413605 0.00013104889717247391 0 -0.034382825492323695 0.00022451234468310973 0 -0.034827998819413605 0.00013104889717247391 0 -0.034998258930268603 7.3218967295157902e-07 0 -0.034382825492323695 0.00022451234468310973 0 -0.034827998819413605 0.00013104889717247391 0 -0.032429638859457342 0.00077597549204878327 0 -0.033561962350474837 0.00038183345502627663 0 -0.035000450518676271 -1.6747856566038704e-07 0 -0.034827998819413605 0.00013104889717247391 0 -0.034998258930268603 7.3218967295157902e-07 0 -0.034559782535119349 0.00020097249348121517 0 -0.03368686962293236 0.00031105437510666357 0 -0.035000450518676271 -1.6747856566038704e-07 0 -0.034827998819413605 0.00013104889717247391 0 -0.034951168918803371 7.1354828399926572e-05 0 -0.032429638859457342 0.00077597549204878327 0 -0.033561962350474837 0.00038183345502627663 0 -0.032405548812548639 0.0001609762753219515 0 -0.033561962350474837 0.00038183345502627663 0 -0.03353420809985877 0.00021240068900924984 0 -0.032405548812548639 0.0001609762753219515 0 -0.034147940422122013 0.0002783175825251834 0 -0.033561962350474837 0.00038183345502627663 0 -0.03353420809985877 0.00021240068900924984 0 -0.034147940422122013 0.0002783175825251834 0 -0.03353420809985877 0.00021240068900924984 0 -0.034382825492323695 0.00022451234468310973 0 -0.03353420809985877 0.00021240068900924984 0 -0.032774927752520867 -4.3968953283443059e-05 0 -0.032405548812548639 0.0001609762753219515 0 -0.03353420809985877 0.00021240068900924984 0 -0.032774927752520867 -4.3968953283443059e-05 0 -0.033839220742478478 0.00016339744689370679 0 -0.031380127152048951 -0.00030598310214762176 0 -0.032774927752520867 -4.3968953283443059e-05 0 -0.032405548812548639 0.0001609762753219515 0 -0.031380127152048951 -0.00030598310214762176 0 -0.032027772831649239 -0.00040271818420959635 0 -0.030776186817192235 -0.0005936453251297602 0 -0.031380127152048951 -0.00030598310214762176 0 -0.032774927752520867 -4.3968953283443059e-05 0 -0.032027772831649239 -0.00040271818420959635 0 -0.032774927752520867 -4.3968953283443059e-05 0 -0.032027772831649239 -0.00040271818420959635 0 -0.033375483157710134 -3.9964580007974746e-05 0 -0.032027772831649239 -0.00040271818420959635 0 -0.031486446602390819 -0.00073809300886036892 0 -0.030800826851360482 -0.0006897887939269616 0 -0.032027772831649239 -0.00040271818420959635 0 -0.031486446602390819 -0.00073809300886036892 0 -0.032397031047785262 -0.00065064098961576972 0 -0.031486446602390819 -0.00073809300886036892 0 -0.030745960036860233 -0.001022673156343711 0 -0.031907176829847082 -0.0010805025732358593 0 -0.031486446602390819 -0.00073809300886036892 0 -0.030800826851360482 -0.0006897887939269616 0 -0.030745960036860233 -0.001022673156343711 0 -0.030800826851360482 -0.0006897887939269616 0 -0.029529446981355106 -0.00085009902690633197 0 -0.030745960036860233 -0.001022673156343711 0 -0.032027772831649239 -0.00040271818420959635 0 -0.030800826851360482 -0.0006897887939269616 0 -0.030776186817192235 -0.0005936453251297602 0 -0.030407871928053384 -0.00062537716088480774 0 -0.030776186817192235 -0.0005936453251297602 0 -0.030078794478148999 -0.00070347676573388447 0 -0.030776186817192235 -0.0005936453251297602 0 -0.030078794478148999 -0.00070347676573388447 0 -0.030028981119440728 -0.00073271985086812677 0 -0.030800826851360482 -0.0006897887939269616 0 -0.030776186817192235 -0.0005936453251297602 0 -0.030028981119440728 -0.00073271985086812677 0 -0.029924062773201535 -0.00077967199756967726 0 -0.030078794478148999 -0.00070347676573388447 0 -0.029443447238425076 -0.00070108975596444752 0 -0.030407871928053384 -0.00062537716088480774 0 -0.029924062773201535 -0.00077967199756967726 0 -0.030078794478148999 -0.00070347676573388447 0 -0.030078794478148999 -0.00070347676573388447 0 -0.029443447238425076 -0.00070108975596444752 0 -0.030028981119440728 -0.00073271985086812677 0 -0.030800826851360482 -0.0006897887939269616 0 -0.030028981119440728 -0.00073271985086812677 0 -0.029529446981355106 -0.00085009902690633197 0 -0.029443447238425076 -0.00070108975596444752 0 -0.030028981119440728 -0.00073271985086812677 0 -0.029529446981355106 -0.00085009902690633197 0 -0.029443447238425076 -0.00070108975596444752 0 -0.029529446981355106 -0.00085009902690633197 0 -0.028472567610936288 -0.00073332083612784066 0 -0.028472567610936288 -0.00073332083612784066 0 -0.028483495065623116 -0.00099211478969923536 0 -0.026879009595375439 -0.00083720836770683252 0 -0.029529446981355106 -0.00085009902690633197 0 -0.028472567610936288 -0.00073332083612784066 0 -0.028483495065623116 -0.00099211478969923536 0 -0.029529446981355106 -0.00085009902690633197 0 -0.028483495065623116 -0.00099211478969923536 0 -0.029751668663858213 -0.0014915107840124454 0 -0.029751668663858213 -0.0014915107840124454 0 -0.030745960036860233 -0.001022673156343711 0 -0.031730574659198721 -0.0017465351571000877 0 -0.029930759651948476 -0.0015444036858307034 0 -0.030897196904985512 -0.0014846840213511936 0 -0.029751668663858213 -0.0014915107840124454 0 -0.030064982474492793 -0.00132967439650635 0 -0.030001859451564101 -0.0017487548346014031 0 -0.030745960036860233 -0.001022673156343711 0 -0.031907176829847082 -0.0010805025732358593 0 -0.031730574659198721 -0.0017465351571000877 0 -0.029529446981355106 -0.00085009902690633197 0 -0.029751668663858213 -0.0014915107840124454 0 -0.030745960036860233 -0.001022673156343711 0 -0.033073009321564019 -0.0015100139946355713 0 -0.031907176829847082 -0.0010805025732358593 0 -0.033230254211174204 -0.0007762583481379005 0 -0.033073009321564019 -0.0015100139946355713 0 -0.031907176829847082 -0.0010805025732358593 0 -0.031730574659198721 -0.0017465351571000877 0 -0.031839754367729546 -0.0012696485253321124 0 -0.030897196904985512 -0.0014846840213511936 0 -0.030593824199453636 -0.0010657665439446568 0 -0.030064982474492793 -0.00132967439650635 0 -0.030284184757347319 -0.0015135170384887298 0 -0.030064982474492793 -0.00132967439650635 0 -0.030284184757347319 -0.0015135170384887298 0 -0.030001859451564101 -0.0017487548346014031 0 -0.030593824199453636 -0.0010657665439446568 0 -0.030590448937387014 -0.0015647466533868402 0 -0.030871418628819508 -0.0014661392839009763 0 -0.030593824199453636 -0.0010657665439446568 0 -0.030284184757347319 -0.0015135170384887298 0 -0.030590448937387014 -0.0015647466533868402 0 -0.030590448937387014 -0.0015647466533868402 0 -0.030871418628819508 -0.0014661392839009763 0 -0.030735218058132664 -0.0017310685217647745 0 -0.030593824199453636 -0.0010657665439446568 0 -0.030871418628819508 -0.0014661392839009763 0 -0.031059343164409114 -0.0012221157004392417 0 -0.030871418628819508 -0.0014661392839009763 0 -0.031066465272225001 -0.0014501081119309724 0 -0.031045157008654262 -0.0017299994951498151 0 -0.030871418628819508 -0.0014661392839009763 0 -0.031066465272225001 -0.0014501081119309724 0 -0.031059343164409114 -0.0012221157004392417 0 -0.031252308221331931 -0.0013774859015263832 0 -0.031515751100101283 -0.0013960099862402936 0 -0.031045157008654262 -0.0017299994951498151 0 -0.029365141681529452 -0.0014500793273940933 0 -0.030109457321007244 -0.0024471111142509668 0 -0.029225105321933183 -0.0028191503241716404 0 -0.029133843949460406 -0.0030117704836322015 0 -0.028896606400859642 -0.0031089534321063136 0 -0.029365141681529452 -0.0014500793273940933 0 -0.026346634296777697 -0.0021790607677150812 0 -0.031066465272225001 -0.0014501081119309724 0 -0.031252308221331931 -0.0013774859015263832 0 -0.031045157008654262 -0.0017299994951498151 0 -0.031066465272225001 -0.0014501081119309724 0 -0.031252308221331931 -0.0013774859015263832 0 -0.031059343164409114 -0.0012221157004392417 0 -0.031252308221331931 -0.0013774859015263832 0 -0.031395586627069295 -0.001064987534745323 0 -0.031515751100101283 -0.0013960099862402936 0 -0.031395586627069295 -0.001064987534745323 0 -0.031059343164409114 -0.0012221157004392417 0 -0.031117790478752641 -0.00082362175833192381 0 -0.031252308221331931 -0.0013774859015263832 0 -0.031395586627069295 -0.001064987534745323 0 -0.031059343164409114 -0.0012221157004392417 0 -0.030593824199453636 -0.0010657665439446568 0 -0.031059343164409114 -0.0012221157004392417 0 -0.031117790478752641 -0.00082362175833192381 0 -0.031839754367729546 -0.0012696485253321124 0 -0.032503406832927455 -0.0010174950444925227 0 -0.033073009321564019 -0.0015100139946355713 0 -0.033951818552044093 -0.0011402357388603976 0 -0.033230254211174204 -0.0007762583481379005 0 -0.033951818552044093 -0.0011402357388603976 0 -0.034011330231321538 -0.00057975607979030572 0 -0.033230254211174204 -0.0007762583481379005 0 -0.032503406832927455 -0.0010174950444925227 0 -0.033139953748546294 -0.00038669238660781353 0 -0.031395586627069295 -0.001064987534745323 0 -0.031117790478752641 -0.00082362175833192381 0 -0.031636858930955941 -0.00057922415893461973 0 -0.033951818552044093 -0.0011402357388603976 0 -0.034011330231321538 -0.00057975607979030572 0 -0.034540539668429057 -0.00081600497399217191 0 -0.034011330231321538 -0.00057975607979030572 0 -0.034318420693682745 -0.00012781183753798363 0 -0.034540539668429057 -0.00081600497399217191 0 -0.034011330231321538 -0.00057975607979030572 0 -0.033230254211174204 -0.0007762583481379005 0 -0.033722430752132618 -0.00025554488689107693 0 -0.034011330231321538 -0.00057975607979030572 0 -0.033722430752132618 -0.00025554488689107693 0 -0.034318420693682745 -0.00012781183753798363 0 -0.033230254211174204 -0.0007762583481379005 0 -0.033046470819013601 -0.00034054069943729195 0 -0.033722430752132618 -0.00025554488689107693 0 -0.033230254211174204 -0.0007762583481379005 0 -0.032397031047785262 -0.00065064098961576972 0 -0.033046470819013601 -0.00034054069943729195 0 -0.031486446602390819 -0.00073809300886036892 0 -0.031907176829847082 -0.0010805025732358593 0 -0.032397031047785262 -0.00065064098961576972 0 -0.031907176829847082 -0.0010805025732358593 0 -0.033230254211174204 -0.0007762583481379005 0 -0.032397031047785262 -0.00065064098961576972 0 -0.032027772831649239 -0.00040271818420959635 0 -0.032397031047785262 -0.00065064098961576972 0 -0.033046470819013601 -0.00034054069943729195 0 -0.032027772831649239 -0.00040271818420959635 0 -0.033046470819013601 -0.00034054069943729195 0 -0.033375483157710134 -3.9964580007974746e-05 0 -0.033375483157710134 -3.9964580007974746e-05 0 -0.034042115581901081 2.8574380938772173e-05 0 -0.033722430752132618 -0.00025554488689107693 0 -0.033046470819013601 -0.00034054069943729195 0 -0.033375483157710134 -3.9964580007974746e-05 0 -0.033722430752132618 -0.00025554488689107693 0 -0.033375483157710134 -3.9964580007974746e-05 0 -0.034240744446253357 0.00017971613232877135 0 -0.034042115581901081 2.8574380938772173e-05 0 -0.033375483157710134 -3.9964580007974746e-05 0 -0.033839220742478478 0.00016339744689370679 0 -0.034240744446253357 0.00017971613232877135 0 -0.032774927752520867 -4.3968953283443059e-05 0 -0.033375483157710134 -3.9964580007974746e-05 0 -0.033839220742478478 0.00016339744689370679 0 -0.03353420809985877 0.00021240068900924984 0 -0.033839220742478478 0.00016339744689370679 0 -0.034382825492323695 0.00022451234468310973 0 -0.033839220742478478 0.00016339744689370679 0 -0.034240744446253357 0.00017971613232877135 0 -0.034382825492323695 0.00022451234468310973 0 -0.034240744446253357 0.00017971613232877135 0 -0.034999267546836459 1.632604282698889e-07 0 -0.034998884477296266 1.5990587425011024e-07 0 -0.034998258930268603 7.3218967295157902e-07 0 -0.034999267546836459 1.632604282698889e-07 0 -0.034382825492323695 0.00022451234468310973 0 -0.034240744446253357 0.00017971613232877135 0 -0.034999267546836459 1.632604282698889e-07 0 -0.034382825492323695 0.00022451234468310973 0 -0.035000022825256071 5.1167320775697282e-09 0 -0.035001363369205826 2.4328671537850259e-05 0 -0.034999990636188687 1.7949935011859435e-08 0 -0.034999879042119222 7.7480701139440183e-08 0 -0.034644210101198829 0.00012687356111347486 0 -0.034240744446253357 0.00017971613232877135 0 -0.034998884477296266 1.5990587425011024e-07 0 -0.034335253593008909 0.00016093680514473987 0 -0.034644210101198829 0.00012687356111347486 0 -0.03488976915372892 -8.1733068069911143e-05 0 -0.034335253593008909 0.00016093680514473987 0 -0.034042115581901081 2.8574380938772173e-05 0 -0.034318420693682745 -0.00012781183753798363 0 -0.034240744446253357 0.00017971613232877135 0 -0.034335253593008909 0.00016093680514473987 0 -0.034042115581901081 2.8574380938772173e-05 0 -0.034042115581901081 2.8574380938772173e-05 0 -0.033722430752132618 -0.00025554488689107693 0 -0.034318420693682745 -0.00012781183753798363 0 -0.034979289029859882 5.3956716925851113e-05 0 -0.034959279599314774 5.8152305045181838e-05 0 -0.034946776434922597 6.4130149923329892e-05 0 -0.034979289029859882 5.3956716925851113e-05 0 -0.034959279599314774 5.8152305045181838e-05 0 -0.03497717835042248 4.3894020005432278e-05 0 -0.034959279599314774 5.8152305045181838e-05 0 -0.03497717835042248 4.3894020005432278e-05 0 -0.034965196446077797 5.8720728612379747e-05 0 -0.03497717835042248 4.3894020005432278e-05 0 -0.034965196446077797 5.8720728612379747e-05 0 -0.034985142759807873 2.2355299872178608e-05 0 -0.035001363369205826 2.4328671537850259e-05 0 -0.034979289029859882 5.3956716925851113e-05 0 -0.03497717835042248 4.3894020005432278e-05 0 -0.035001363369205826 2.4328671537850259e-05 0 -0.03499140610148372 2.0500428893123663e-05 0 -0.034999990636188687 1.7949935011859435e-08 0 -0.035001363369205826 2.4328671537850259e-05 0 -0.03497717835042248 4.3894020005432278e-05 0 -0.03499140610148372 2.0500428893123663e-05 0 -0.03497717835042248 4.3894020005432278e-05 0 -0.03499140610148372 2.0500428893123663e-05 0 -0.034985142759807873 2.2355299872178608e-05 0 -0.034985142759807873 2.2355299872178608e-05 0 -0.034999990636188687 1.7949935011859435e-08 0 -0.034999949654291859 -2.0768463069171744e-08 0 -0.03499140610148372 2.0500428893123663e-05 0 -0.034985142759807873 2.2355299872178608e-05 0 -0.034999990636188687 1.7949935011859435e-08 0 -0.03499993161592576 1.1760128537907587e-08 0 -0.034999949654291859 -2.0768463069171744e-08 0 -0.034946608767659239 -1.8303818941632662e-05 0 -0.034999949654291859 -2.0768463069171744e-08 0 -0.034970683738260296 1.8272116811496925e-05 0 -0.034946608767659239 -1.8303818941632662e-05 0 -0.034985142759807873 2.2355299872178608e-05 0 -0.034999949654291859 -2.0768463069171744e-08 0 -0.034970683738260296 1.8272116811496925e-05 0 -0.034985142759807873 2.2355299872178608e-05 0 -0.034970683738260296 1.8272116811496925e-05 0 -0.034959786595213101 7.8677637857937915e-05 0 -0.034970683738260296 1.8272116811496925e-05 0 -0.034946608767659239 -1.8303818941632662e-05 0 -0.034864577141288974 6.3282920541446938e-05 0 -0.034970683738260296 1.8272116811496925e-05 0 -0.034864577141288974 6.3282920541446938e-05 0 -0.034959786595213101 7.8677637857937915e-05 0 -0.034863052976353857 0.00015562819981273645 0 -0.034959786595213101 7.8677637857937915e-05 0 -0.034967973319161141 0.00022184841833090965 0 -0.034797856954470713 0.00012943501537875579 0 -0.034864577141288974 6.3282920541446938e-05 0 -0.034863052976353857 0.00015562819981273645 0 -0.034864577141288974 6.3282920541446938e-05 0 -0.034863052976353857 0.00015562819981273645 0 -0.034959786595213101 7.8677637857937915e-05 0 -0.034965196446077797 5.8720728612379747e-05 0 -0.034985142759807873 2.2355299872178608e-05 0 -0.034959786595213101 7.8677637857937915e-05 0 -0.034951346696813539 8.8129634106683607e-05 0 -0.03488254475080068 0.00015382972239595783 0 -0.034965196446077797 5.8720728612379747e-05 0 -0.034959786595213101 7.8677637857937915e-05 0 -0.034956487507653601 6.1456802551039394e-05 0 -0.034959279599314774 5.8152305045181838e-05 0 -0.034965196446077797 5.8720728612379747e-05 0 -0.034956487507653601 6.1456802551039394e-05 0 -0.034967973319161141 0.00022184841833090965 0 -0.034842427922944147 0.00027132545095828964 0 -0.034972303720840488 0.00033042223751298159 0 -0.034959279599314774 5.8152305045181838e-05 0 -0.034956487507653601 6.1456802551039394e-05 0 -0.034945415311767217 6.3094484914516584e-05 0 -0.03488254475080068 0.00015382972239595783 0 -0.032903364076815211 0.00065195946570196139 0 -0.034863052976353857 0.00015562819981273645 0 -0.034967973319161141 0.00022184841833090965 0 -0.034842427922944147 0.00027132545095828964 0 -0.034760705433523768 0.00019778514887931682 0 -0.034863052976353857 0.00015562819981273645 0 -0.034842427922944147 0.00027132545095828964 0 -0.030212369932361493 0.001718809356644429 0 -0.030103713067558182 0.0017176200360861009 0 -0.030160942767725536 0.0017665125064820076 0 -0.030103713067558182 0.0017176200360861009 0 -0.030056181182097571 0.0016065625086247701 0 -0.02994733218658642 0.001728438621842596 0 -0.030114339916357567 0.0018377454136492438 0 -0.030103713067558182 0.0017176200360861009 0 -0.02994733218658642 0.001728438621842596 0 -0.032365411932905867 0.0010775028722255131 0 -0.032903364076815211 0.00065195946570196139 0 -0.030212369932361493 0.001718809356644429 0 -0.030103713067558182 0.0017176200360861009 0 -0.030056181182097571 0.0016065625086247701 0 -0.0302251996533008 0.0017922583720530667 0 -0.030114339916357567 0.0018377454136492438 0 -0.030160942767725536 0.0017665125064820076 0 -0.028080672318614362 0.0026353693599102863 0 -0.027195343414117838 0.0018673934530658725 0 -0.030114339916357567 0.0018377454136492438 0 -0.030103713067558182 0.0017176200360861009 0 -0.030160942767725536 0.0017665125064820076 0 -0.030157336226548325 0.0016947484067702434 0 -0.029750550742968968 0.0014214574158558921 0 -0.024935964202839153 0.0026839800895230989 0 -0.025422291938857242 0.0023796823944904717 0 -0.024800568364828753 0.0018937992455866435 0 -0.030212369932361493 0.001718809356644429 0 -0.029371541181366995 0.0012284267297540063 0 -0.029435645687042818 0.0010711324634732943 0 -0.025577901060638491 0.0029330013270182052 0 -0.024935964202839153 0.0026839800895230989 0 -0.025422291938857242 0.0023796823944904717 0 -0.029371541181366995 0.0012284267297540063 0 -0.029435645687042818 0.0010711324634732943 0 -0.028412689027583267 0.00062144625339918347 0 -0.029750550742968968 0.0014214574158558921 0 -0.028917644607560113 0.0011158067275072719 0 -0.032903364076815211 0.00065195946570196139 0 -0.028917644607560113 0.0011158067275072719 0 -0.027195343414117838 0.0018673934530658725 0 -0.026209299579209016 0.0011881658008364734 0 -0.030056181182097571 0.0016065625086247701 0 -0.02994733218658642 0.001728438621842596 0 -0.029879920571675003 0.0014744962612241194 0 -0.029435645687042818 0.0010711324634732943 0 -0.028342096512169446 0.00033704587730903728 0 -0.028412689027583267 0.00062144625339918347 0 -0.032903364076815211 0.00065195946570196139 0 -0.033131875782979471 0.00031149291158782163 0 -0.034959279599314774 5.8152305045181838e-05 0 -0.034945415311767217 6.3094484914516584e-05 0 -0.034946776434922597 6.4130149923329892e-05 0 -0.034979289029859882 5.3956716925851113e-05 0 -0.034946776434922597 6.4130149923329892e-05 0 -0.034949647222019785 6.5187816265255025e-05 0 -0.03488976915372892 -8.1733068069911143e-05 0 -0.033139953748546294 -0.00038669238660781353 0 -0.033139953748546294 -0.00038669238660781353 0 -0.030473628181461914 -0.00041255643699838649 0 -0.030853692942071579 0.00033140872566126084 0 -0.030961360591811298 -6.3714335574826777e-05 0 -0.030993263588347014 -9.0967172233987839e-06 0 -0.033131875782979471 0.00031149291158782163 0 -0.033139953748546294 -0.00038669238660781353 0 -0.031234513957063875 0.00051888857791429987 0 -0.030853692942071579 0.00033140872566126084 0 -0.031129895734017456 0.00023271219419042409 0 -0.030853692942071579 0.00033140872566126084 0 -0.031129895734017456 0.00023271219419042409 0 -0.030993263588347014 -9.0967172233987839e-06 0 -0.031628948879148452 0.0007050274161323341 0 -0.031234513957063875 0.00051888857791429987 0 -0.03146432849260105 5.4475077781528569e-05 0 -0.031234513957063875 0.00051888857791429987 0 -0.031129895734017456 0.00023271219419042409 0 -0.03146432849260105 5.4475077781528569e-05 0 -0.031129895734017456 0.00023271219419042409 0 -0.030993263588347014 -9.0967172233987839e-06 0 -0.03146432849260105 5.4475077781528569e-05 0 -0.02848539033350906 -0.00033566892944964671 0 -0.028917644607560113 0.0011158067275072719 0 -0.027703509204389798 0.00087091572492311502 0 -0.026569868627578017 0.00040168778800821583 0 -0.026658224102701789 0.00011730359440927878 0 -0.030993263588347014 -9.0967172233987839e-06 0 -0.031012437167865434 -0.00025956467707194186 0 -0.03146432849260105 5.4475077781528569e-05 0 -0.027703509204389798 0.00087091572492311502 0 -0.026569868627578017 0.00040168778800821583 0 -0.027790126710901933 0.0012568564852679924 0 -0.026209299579209016 0.0011881658008364734 0 -0.028917644607560113 0.0011158067275072719 0 -0.026209299579209016 0.0011881658008364734 0 -0.025306717123275625 0.00083906704800416248 0 -0.026209299579209016 0.0011881658008364734 0 -0.024026200389208295 0.0013988103836022805 0 -0.030473628181461914 -0.00041255643699838649 0 -0.029365141681529452 -0.0014500793273940933 0 -0.031395586627069295 -0.001064987534745323 0 -0.031755059826934544 -0.00098659811750505711 0 -0.031515751100101283 -0.0013960099862402936 0 -0.031395586627069295 -0.001064987534745323 0 -0.031636858930955941 -0.00057922415893461973 0 -0.031755059826934544 -0.00098659811750505711 0 -0.029746586320264033 -0.00041926024864811552 0 -0.029871867917905911 -0.00081894151448082611 0 -0.029277164605876486 -0.0012401034549502916 0 -0.030473628181461914 -0.00041255643699838649 0 -0.030555520609897011 -0.00030245692043449587 0 -0.030473628181461914 -0.00041255643699838649 0 -0.02848539033350906 -0.00033566892944964671 0 -0.030958597349680244 -6.4620683757517526e-05 0 -0.030993263588347014 -9.0967172233987839e-06 0 -0.031012437167865434 -0.00025956467707194186 0 -0.027039205307325644 -0.00085048771169364849 0 -0.028038946842156662 -0.00053048227848175402 0 -0.026632652459227992 -0.0015687379612330042 0 -0.023179961258231248 0.0012464047421839031 0 -0.023009381886332388 0.00061523227222833998 0 -0.022384756261034259 0.00067514098026832427 0 -0.025306717123275625 0.00083906704800416248 0 -0.026346634296777697 -0.0021790607677150812 0 -0.02848539033350906 -0.00033566892944964671 0 -0.029365141681529452 -0.0014500793273940933 0 -0.027937974746206296 -0.0002077525842828943 0 -0.027039205307325644 -0.00085048771169364849 0 -0.028038946842156662 -0.00053048227848175402 0 -0.02848539033350906 -0.00033566892944964671 0 -0.025306717123275625 0.00083906704800416248 0 -0.023934729845629586 0.0019594023491538485 0 -0.023187744694070651 0.0014356993389271981 0 -0.023764072624487348 0.001270361971307805 0 -0.023187744694070651 0.0014356993389271981 0 -0.023764072624487348 0.001270361971307805 0 -0.023786527989889346 0.00078442733890763837 0 -0.023764072624487348 0.001270361971307805 0 -0.024308572222957792 0.00080359244243079447 0 -0.023786527989889346 0.00078442733890763837 0 -0.023764072624487348 0.001270361971307805 0 -0.024411845113019144 0.0014034251857452577 0 -0.024308572222957792 0.00080359244243079447 0 -0.024411845113019144 0.0014034251857452577 0 -0.025056816745500057 0.00088498174776468564 0 -0.024308572222957792 0.00080359244243079447 0 -0.023933753481416891 0.0019681835889740294 0 -0.023764072624487348 0.001270361971307805 0 -0.024411845113019144 0.0014034251857452577 0 -0.024411845113019144 0.0014034251857452577 0 -0.025056816745500057 0.00088498174776468564 0 -0.025164683695510927 0.0014819155186161634 0 -0.025688660151130988 0.0011518595974811686 0 -0.025056816745500057 0.00088498174776468564 0 -0.025164683695510927 0.0014819155186161634 0 -0.024411845113019144 0.0014034251857452577 0 -0.025164683695510927 0.0014819155186161634 0 -0.024800568364828753 0.0018937992455866435 0 -0.025605831648656503 0.0018592301807390814 0 -0.025164683695510927 0.0014819155186161634 0 -0.024800568364828753 0.0018937992455866435 0 -0.025605831648656503 0.0018592301807390814 0 -0.025422291938857242 0.0023796823944904717 0 -0.024800568364828753 0.0018937992455866435 0 -0.023933753481416891 0.0019681835889740294 0 -0.024411845113019144 0.0014034251857452577 0 -0.024800568364828753 0.0018937992455866435 0 -0.024935964202839153 0.0026839800895230989 0 -0.023933753481416891 0.0019681835889740294 0 -0.024800568364828753 0.0018937992455866435 0 -0.024649904763572109 -0.00028488268389648412 0 -0.024746404615894745 0.00032989843163337018 0 -0.024149740325504623 0.0002225942840304881 0 -0.023897161909531756 -0.00041072122140880092 0 -0.024649904763572109 -0.00028488268389648412 0 -0.024149740325504623 0.0002225942840304881 0 -0.023897161909531756 -0.00041072122140880092 0 -0.024649904763572109 -0.00028488268389648412 0 -0.024619743679517744 -0.00087160025315120772 0 -0.024649904763572109 -0.00028488268389648412 0 -0.025208967307577195 -0.00040762185411609978 0 -0.024619743679517744 -0.00087160025315120772 0 -0.025407203682482282 -0.00022670260810118045 0 -0.025341389770101554 -0.00060784264607513245 0 -0.025208967307577195 -0.00040762185411609978 0 -0.02322786066252467 0.0013354886340179407 0 -0.024236224165343337 7.4481929438390652e-05 0 -0.025407203682482282 -0.00022670260810118045 0 -0.025208967307577195 -0.00040762185411609978 0 -0.025121810991830505 -5.3786764923924174e-06 0 -0.025407203682482282 -0.00022670260810118045 0 -0.02556108917236511 0.00031898907414392325 0 -0.025121810991830505 -5.3786764923924174e-06 0 -0.024649904763572109 -0.00028488268389648412 0 -0.025121810991830505 -5.3786764923924174e-06 0 -0.024746404615894745 0.00032989843163337018 0 -0.024649904763572109 -0.00028488268389648412 0 -0.025208967307577195 -0.00040762185411609978 0 -0.025121810991830505 -5.3786764923924174e-06 0 -0.025121810991830505 -5.3786764923924174e-06 0 -0.024746404615894745 0.00032989843163337018 0 -0.025121520900148509 0.0003820039166603685 0 -0.025056816745500057 0.00088498174776468564 0 -0.024746404615894745 0.00032989843163337018 0 -0.024308572222957792 0.00080359244243079447 0 -0.02556108917236511 0.00031898907414392325 0 -0.025121810991830505 -5.3786764923924174e-06 0 -0.025121520900148509 0.0003820039166603685 0 -0.02556108917236511 0.00031898907414392325 0 -0.025056816745500057 0.00088498174776468564 0 -0.025121520900148509 0.0003820039166603685 0 -0.025056816745500057 0.00088498174776468564 0 -0.024746404615894745 0.00032989843163337018 0 -0.025121520900148509 0.0003820039166603685 0 -0.024746404615894745 0.00032989843163337018 0 -0.024149740325504623 0.0002225942840304881 0 -0.024308572222957792 0.00080359244243079447 0 -0.024149740325504623 0.0002225942840304881 0 -0.024308572222957792 0.00080359244243079447 0 -0.023786527989889346 0.00078442733890763837 0 -0.023179961258231248 0.0012464047421839031 0 -0.023522417426408222 0.00019511447121032594 0 -0.023009381886332388 0.00061523227222833998 0 -0.025306717123275625 0.00083906704800416248 0 -0.022924460244996118 0.00056491192000477958 0 -0.023187744694070651 0.0014356993389271981 0 -0.023786527989889346 0.00078442733890763837 0 -0.023522417426408222 0.00019511447121032594 0 -0.024149740325504623 0.0002225942840304881 0 -0.023786527989889346 0.00078442733890763837 0 -0.023522417426408222 0.00019511447121032594 0 -0.023522417426408222 0.00019511447121032594 0 -0.023009381886332388 0.00061523227222833998 0 -0.022806379900650438 0.0001385566409915522 0 -0.023009381886332388 0.00061523227222833998 0 -0.022806379900650438 0.0001385566409915522 0 -0.022384756261034259 0.00067514098026832427 0 -0.023522417426408222 0.00019511447121032594 0 -0.022806379900650438 0.0001385566409915522 0 -0.023106368911572611 -0.00026996661139702915 0 -0.022806379900650438 0.0001385566409915522 0 -0.022618293173542754 -0.00025701001627439362 0 -0.022385817847133425 -4.3601189862622089e-05 0 -0.022806379900650438 0.0001385566409915522 0 -0.022618293173542754 -0.00025701001627439362 0 -0.023106368911572611 -0.00026996661139702915 0 -0.023106368911572611 -0.00026996661139702915 0 -0.023290703791349444 -0.00074900107868751289 0 -0.022693941785956594 -0.0007030462560410881 0 -0.022618293173542754 -0.00025701001627439362 0 -0.022693941785956594 -0.0007030462560410881 0 -0.022304699701598558 -0.00047111989339925636 0 -0.022618293173542754 -0.00025701001627439362 0 -0.023106368911572611 -0.00026996661139702915 0 -0.022693941785956594 -0.0007030462560410881 0 -0.023897161909531756 -0.00041072122140880092 0 -0.023106368911572611 -0.00026996661139702915 0 -0.023290703791349444 -0.00074900107868751289 0 -0.023897161909531756 -0.00041072122140880092 0 -0.023522417426408222 0.00019511447121032594 0 -0.023106368911572611 -0.00026996661139702915 0 -0.023897161909531756 -0.00041072122140880092 0 -0.024149740325504623 0.0002225942840304881 0 -0.023522417426408222 0.00019511447121032594 0 -0.018060980331691259 -0.00021940429509037824 0 -0.019728998415836377 0.0004189873444569783 0 -0.024354612854997078 -0.0014919109754462597 0 -0.019728998415836377 0.0004189873444569783 0 -0.023290703791349444 -0.00074900107868751289 0 -0.022761010629317367 -0.0014076799294772632 0 -0.02374735868006821 -0.001030623000362801 0 -0.023897161909531756 -0.00041072122140880092 0 -0.023290703791349444 -0.00074900107868751289 0 -0.023895476247611083 -0.0011257029946662839 0 -0.023290703791349444 -0.00074900107868751289 0 -0.022693941785956594 -0.0007030462560410881 0 -0.022761010629317367 -0.0014076799294772632 0 -0.022693941785956594 -0.0007030462560410881 0 -0.022761010629317367 -0.0014076799294772632 0 -0.022075125821154749 -0.0010194681104639164 0 -0.013386692988221467 0.0010596996315207529 0 -0.013530586342985719 0.0009690650409030022 0 -0.013305145300577706 0.00083945412619732495 0 -0.013386692988221467 0.0010596996315207529 0 -0.013530586342985719 0.0009690650409030022 0 -0.013779051193224447 0.0012892095996755505 0 -0.013530586342985719 0.0009690650409030022 0 -0.013779051193224447 0.0012892095996755505 0 -0.013769293898895541 0.00095415713363523099 0 -0.013779051193224447 0.0012892095996755505 0 -0.014115617463361927 0.0011572909416941639 0 -0.013769293898895541 0.00095415713363523099 0 -0.019728998415836377 0.0004189873444569783 0 -0.016734625044178771 0.0017097507570811672 0 -0.020429618895989838 0.0016551615755616836 0 -0.02031702559369887 0.001619001822754546 0 -0.020259901212047536 0.0017740110848850424 0 -0.019728998415836377 0.0004189873444569783 0 -0.022664836723870381 0.00050233754727460589 0 -0.023897161909531756 -0.00041072122140880092 0 -0.023895476247611083 -0.0011257029946662839 0 -0.024619743679517744 -0.00087160025315120772 0 -0.02031702559369887 0.001619001822754546 0 -0.020183235323904238 0.0017216747935419796 0 -0.020259901212047536 0.0017740110848850424 0 -0.020200562157906495 0.0015725680670073267 0 -0.02031702559369887 0.001619001822754546 0 -0.020183235323904238 0.0017216747935419796 0 -0.025336895610836595 -0.00060818907319024724 0 -0.025208967307577195 -0.00040762185411609978 0 -0.024619743679517744 -0.00087160025315120772 0 -0.02322786066252467 0.0013354886340179407 0 -0.022664836723870381 0.00050233754727460589 0 -0.020098760404332606 0.0018398603436838453 0 -0.020183235323904238 0.0017216747935419796 0 -0.020259901212047536 0.0017740110848850424 0 -0.017051839023182108 0.0014056761655918126 0 -0.016734625044178771 0.0017097507570811672 0 -0.014367029574916335 0.00075776715477551165 0 -0.014115617463361927 0.0011572909416941639 0 -0.014027740456450439 0.0007603923584343223 0 -0.014367029574916335 0.00075776715477551165 0 -0.014563795145234749 0.00097858690904588917 0 -0.014115617463361927 0.0011572909416941639 0 -0.014115617463361927 0.0011572909416941639 0 -0.014027740456450439 0.0007603923584343223 0 -0.013769293898895541 0.00095415713363523099 0 -0.014027740456450439 0.0007603923584343223 0 -0.013769293898895541 0.00095415713363523099 0 -0.013729471678255429 0.00073274638596811396 0 -0.013729471678255429 0.00073274638596811396 0 -0.013843471368745495 0.00040613048918029207 0 -0.013490059585935623 0.00061310440086166911 0 -0.014027740456450439 0.0007603923584343223 0 -0.013729471678255429 0.00073274638596811396 0 -0.013843471368745495 0.00040613048918029207 0 -0.013689007257009821 0.00056308998240722861 0 -0.01374037736520591 0.00057557331032171647 0 -0.014397930492558745 0.00046981691816156844 0 -0.014027740456450439 0.0007603923584343223 0 -0.013843471368745495 0.00040613048918029207 0 -0.014397930492558745 0.00046981691816156844 0 -0.014367029574916335 0.00075776715477551165 0 -0.014027740456450439 0.0007603923584343223 0 -0.013828078735115107 0.00084997108612884032 0 -0.013659450711359987 0.00051504442356476343 0 -0.01342314490550058 0.00068409102083790937 0 -0.013659450711359987 0.00051504442356476343 0 -0.01342314490550058 0.00068409102083790937 0 -0.013390832524786105 0.00048375979000918437 0 -0.01342314490550058 0.00068409102083790937 0 -0.013390832524786105 0.00048375979000918437 0 -0.013188555961108284 0.00047426431488180971 0 -0.013659450711359987 0.00051504442356476343 0 -0.013390832524786105 0.00048375979000918437 0 -0.013445493952956003 0.00028209654881602547 0 -0.013390832524786105 0.00048375979000918437 0 -0.013188555961108284 0.00047426431488180971 0 -0.013445493952956003 0.00028209654881602547 0 -0.013704134301288974 0.00035113254668943486 0 -0.013717240481683502 0.00024591984113512687 0 -0.013445493952956003 0.00028209654881602547 0 -0.013659450711359987 0.00051504442356476343 0 -0.013704134301288974 0.00035113254668943486 0 -0.013445493952956003 0.00028209654881602547 0 -0.013839925738744156 0.00034222357738099702 0 -0.013704134301288974 0.00035113254668943486 0 -0.013717240481683502 0.00024591984113512687 0 -0.013839925738744156 0.00034222357738099702 0 -0.013781700522684133 0.00041831894513324217 0 -0.013704134301288974 0.00035113254668943486 0 -0.013781700522684133 0.00041831894513324217 0 -0.013659450711359987 0.00051504442356476343 0 -0.013704134301288974 0.00035113254668943486 0 -0.013781700522684133 0.00041831894513324217 0 -0.013889776827591127 0.00049244603568363585 0 -0.013659450711359987 0.00051504442356476343 0 -0.013118542477968806 0.00051515768722026813 0 -0.013185162683466606 0.00049889376384654313 0 -0.013169849748942888 0.0005300695930584282 0 -0.013118542477968806 0.00051515768722026813 0 -0.013109280694886304 0.00051764167339720161 0 -0.013014988914346626 0.00058871601681726566 0 -0.013118542477968806 0.00051515768722026813 0 -0.013109280694886304 0.00051764167339720161 0 -0.013185162683466606 0.00049889376384654313 0 -0.013168656261368683 0.00046926838301851459 0 -0.013143667440604915 0.00043216697979131492 0 -0.013109280694886304 0.00051764167339720161 0 -0.013188555961108284 0.00047426431488180971 0 -0.012839443831526579 0.00055571624859933224 0 -0.013109280694886304 0.00051764167339720161 0 -0.013188555961108284 0.00047426431488180971 0 -0.013185162683466606 0.00049889376384654313 0 -0.01374037736520591 0.00057557331032171647 0 -0.013243299093543551 0.00047826418320873264 0 -0.013843471368745495 0.00040613048918029207 0 -0.013240542907863964 0.00048621468512602574 0 -0.013490059585935623 0.00061310440086166911 0 -0.01342314490550058 0.00068409102083790937 0 -0.013188555961108284 0.00047426431488180971 0 -0.013240542907863964 0.00048621468512602574 0 -0.013188555961108284 0.00047426431488180971 0 -0.013240542907863964 0.00048621468512602574 0 -0.013185162683466606 0.00049889376384654313 0 -0.013240542907863964 0.00048621468512602574 0 -0.013227389131084854 0.00054501258375769257 0 -0.013300762874698209 0.00062020059187559531 0 -0.013240542907863964 0.00048621468512602574 0 -0.013185162683466606 0.00049889376384654313 0 -0.013227389131084854 0.00054501258375769257 0 -0.013185162683466606 0.00049889376384654313 0 -0.013227389131084854 0.00054501258375769257 0 -0.013169849748942888 0.0005300695930584282 0 -0.013227389131084854 0.00054501258375769257 0 -0.013300762874698209 0.00062020059187559531 0 -0.013206758918353694 0.00064371425979108197 0 -0.013300762874698209 0.00062020059187559531 0 -0.013461046035409253 0.00077436646931856022 0 -0.01328667146088165 0.00071555481759985259 0 -0.013300762874698209 0.00062020059187559531 0 -0.01328667146088165 0.00071555481759985259 0 -0.013206758918353694 0.00064371425979108197 0 -0.013729471678255429 0.00073274638596811396 0 -0.013490059585935623 0.00061310440086166911 0 -0.013461046035409253 0.00077436646931856022 0 -0.013240542907863964 0.00048621468512602574 0 -0.013300762874698209 0.00062020059187559531 0 -0.013490059585935623 0.00061310440086166911 0 -0.013300762874698209 0.00062020059187559531 0 -0.013490059585935623 0.00061310440086166911 0 -0.013461046035409253 0.00077436646931856022 0 -0.013530586342985719 0.0009690650409030022 0 -0.013769293898895541 0.00095415713363523099 0 -0.013461046035409253 0.00077436646931856022 0 -0.013769293898895541 0.00095415713363523099 0 -0.013729471678255429 0.00073274638596811396 0 -0.013461046035409253 0.00077436646931856022 0 -0.013530586342985719 0.0009690650409030022 0 -0.013461046035409253 0.00077436646931856022 0 -0.013305145300577706 0.00083945412619732495 0 -0.013461046035409253 0.00077436646931856022 0 -0.01328667146088165 0.00071555481759985259 0 -0.013305145300577706 0.00083945412619732495 0 -0.013305145300577706 0.00083945412619732495 0 -0.013203485556546036 0.00074055015288545156 0 -0.013175059272943513 0.00082476223125864574 0 -0.01328667146088165 0.00071555481759985259 0 -0.013305145300577706 0.00083945412619732495 0 -0.013203485556546036 0.00074055015288545156 0 -0.013147360742819681 0.00069847955556625707 0 -0.013137206043603189 0.0007113076194750484 0 -0.013175059272943513 0.00082476223125864574 0 -0.013203485556546036 0.00074055015288545156 0 -0.013147360742819681 0.00069847955556625707 0 -0.013175059272943513 0.00082476223125864574 0 -0.021770562169146711 -0.0021975870775065363 0 -0.016547955934982084 -0.00041100707872023667 0 -0.013147360742819681 0.00069847955556625707 0 -0.013148029879140695 0.00058743293260104959 0 -0.013105995873947451 0.00061714770477414233 0 -0.013147360742819681 0.00069847955556625707 0 -0.013206758918353694 0.00064371425979108197 0 -0.013148029879140695 0.00058743293260104959 0 -0.013203485556546036 0.00074055015288545156 0 -0.013147360742819681 0.00069847955556625707 0 -0.013206758918353694 0.00064371425979108197 0 -0.01328667146088165 0.00071555481759985259 0 -0.013203485556546036 0.00074055015288545156 0 -0.013206758918353694 0.00064371425979108197 0 -0.013206758918353694 0.00064371425979108197 0 -0.013169849748942888 0.0005300695930584282 0 -0.013148029879140695 0.00058743293260104959 0 -0.013227389131084854 0.00054501258375769257 0 -0.013206758918353694 0.00064371425979108197 0 -0.013169849748942888 0.0005300695930584282 0 -0.013169849748942888 0.0005300695930584282 0 -0.013148029879140695 0.00058743293260104959 0 -0.013115311616373762 0.00051365471787483282 0 -0.013148029879140695 0.00058743293260104959 0 -0.013115311616373762 0.00051365471787483282 0 -0.013105995873947451 0.00061714770477414233 0 -0.013383718592551316 -0.00013519877192150122 0 -0.012339678772611983 9.5332989442047637e-05 0 -0.013118542477968806 0.00051515768722026813 0 -0.013169849748942888 0.0005300695930584282 0 -0.013115311616373762 0.00051365471787483282 0 -0.014649760636709424 -0.00043719521815070516 0 -0.014833762185334833 -0.0012199015190324637 0 -0.01598714554317357 1.9857510998033658e-05 0 -0.013297579053801778 -0.00044628941042004056 0 -0.01401667593499349 -0.00074896975713104389 0 -0.014078261881500258 -3.4235660749298144e-05 0 -0.014649760636709424 -0.00043719521815070516 0 -0.01401667593499349 -0.00074896975713104389 0 -0.014078261881500258 -3.4235660749298144e-05 0 -0.014649760636709424 -0.00043719521815070516 0 -0.01401667593499349 -0.00074896975713104389 0 -0.014417161198367681 -0.0011641314058002978 0 -0.01401667593499349 -0.00074896975713104389 0 -0.014417161198367681 -0.0011641314058002978 0 -0.013757100016039919 -0.0015672406193121468 0 -0.013297579053801778 -0.00044628941042004056 0 -0.01401667593499349 -0.00074896975713104389 0 -0.013757100016039919 -0.0015672406193121468 0 -0.014417161198367681 -0.0011641314058002978 0 -0.014484274547018668 -0.0015429786369684504 0 -0.013757100016039919 -0.0015672406193121468 0 -0.014677882816664605 -0.0014576148485947453 0 -0.014417161198367681 -0.0011641314058002978 0 -0.014833762185334833 -0.0012199015190324637 0 -0.014677882816664605 -0.0014576148485947453 0 -0.014417161198367681 -0.0011641314058002978 0 -0.014484274547018668 -0.0015429786369684504 0 -0.014649760636709424 -0.00043719521815070516 0 -0.014417161198367681 -0.0011641314058002978 0 -0.014833762185334833 -0.0012199015190324637 0 -0.017831982471991185 -0.00033595955631083701 0 -0.01984856233486082 -0.0013670807844892504 0 -0.014677882816664605 -0.0014576148485947453 0 -0.014833762185334833 -0.0012199015190324637 0 -0.014983428873679375 -0.0013773052872120945 0 -0.01984856233486082 -0.0013670807844892504 0 -0.021336247977726618 -0.0027501696689685227 0 -0.028315605778265928 -0.0030799622610462938 0 -0.028242447624828176 -0.0032749956108895869 0 -0.028409718177381946 -0.0033528386176921287 0 -0.014677882816664605 -0.0014576148485947453 0 -0.014983428873679375 -0.0013773052872120945 0 -0.014656178544529611 -0.001994896209468966 0 -0.014677882816664605 -0.0014576148485947453 0 -0.014484274547018668 -0.0015429786369684504 0 -0.014656178544529611 -0.001994896209468966 0 -0.028242447624828176 -0.0032749956108895869 0 -0.028409718177381946 -0.0033528386176921287 0 -0.028373373134960723 -0.0034294010034972388 0 -0.014484274547018668 -0.0015429786369684504 0 -0.014656178544529611 -0.001994896209468966 0 -0.013757100016039919 -0.0015672406193121468 0 -0.012339678772611983 9.5332989442047637e-05 0 -0.021770562169146711 -0.0021975870775065363 0 -0.014656178544529611 -0.001994896209468966 0 -0.013757100016039919 -0.0015672406193121468 0 -0.014324675647852022 -0.0026483955506027977 0 -0.013147360742819681 0.00069847955556625707 0 -0.013105995873947451 0.00061714770477414233 0 -0.013137206043603189 0.0007113076194750484 0 -0.028409718177381946 -0.0033528386176921287 0 -0.028373373134960723 -0.0034294010034972388 0 -0.028543095742288568 -0.0035008670857664495 0 -0.021336247977726618 -0.0027501696689685227 0 -0.021770562169146711 -0.0021975870775065363 0 -0.028242447624828176 -0.0032749956108895869 0 -0.028027939983454955 -0.0035340331265673254 0 -0.028373373134960723 -0.0034294010034972388 0 -0.021770562169146711 -0.0021975870775065363 0 -0.029475530827112441 -0.0024206589009782022 0 -0.028404768115523785 -0.0034180580384952151 0 -0.028420213434798041 -0.0034324018874937706 0 -0.028461184709683483 -0.0034263366304157321 0 -0.028404768115523785 -0.0034180580384952151 0 -0.028373373134960723 -0.0034294010034972388 0 -0.028420213434798041 -0.0034324018874937706 0 -0.028373373134960723 -0.0034294010034972388 0 -0.028476173758307154 -0.0034551240530412142 0 -0.028543095742288568 -0.0035008670857664495 0 -0.028420213434798041 -0.0034324018874937706 0 -0.028476173758307154 -0.0034551240530412142 0 -0.028461184709683483 -0.0034263366304157321 0 -0.028373373134960723 -0.0034294010034972388 0 -0.028420213434798041 -0.0034324018874937706 0 -0.028476173758307154 -0.0034551240530412142 0 -0.028461184709683483 -0.0034263366304157321 0 -0.02845657410003927 -0.0034549111348505901 0 -0.028607476584863935 -0.0034039707547211481 0 -0.028476173758307154 -0.0034551240530412142 0 -0.028461184709683483 -0.0034263366304157321 0 -0.028607476584863935 -0.0034039707547211481 0 -0.028404768115523785 -0.0034180580384952151 0 -0.028461184709683483 -0.0034263366304157321 0 -0.02845657410003927 -0.0034549111348505901 0 -0.02801699067615665 -0.002598255747189629 0 -0.02845657410003927 -0.0034549111348505901 0 -0.028063742229573033 -0.0031407583410623472 0 -0.021770562169146711 -0.0021975870775065363 0 -0.030350695412869694 -0.004176559599038389 0 -0.028452565324003254 -0.0035610775029594477 0 -0.028465343938108463 -0.0035839802515463025 0 -0.0285972727286085 -0.0034773117511993357 0 -0.02845657410003927 -0.0034549111348505901 0 -0.028452565324003254 -0.0035610775029594477 0 -0.028607476584863935 -0.0034039707547211481 0 -0.028452565324003254 -0.0035610775029594477 0 -0.028465343938108463 -0.0035839802515463025 0 -0.028819558551177991 -0.0033713159969775901 0 -0.02845657410003927 -0.0034549111348505901 0 -0.028244922383707943 -0.0034728497776358568 0 -0.028063742229573033 -0.0031407583410623472 0 -0.02845657410003927 -0.0034549111348505901 0 -0.028244922383707943 -0.0034728497776358568 0 -0.028452565324003254 -0.0035610775029594477 0 -0.028244922383707943 -0.0034728497776358568 0 -0.028452565324003254 -0.0035610775029594477 0 -0.028010875472293278 -0.0035496530121302636 0 -0.028452565324003254 -0.0035610775029594477 0 -0.028010875472293278 -0.0035496530121302636 0 -0.027897263198266124 -0.0039063307701932897 0 -0.028010875472293278 -0.0035496530121302636 0 -0.027678262856855301 -0.0033251451689379876 0 -0.027897263198266124 -0.0039063307701932897 0 -0.028244922383707943 -0.0034728497776358568 0 -0.028010875472293278 -0.0035496530121302636 0 -0.028063742229573033 -0.0031407583410623472 0 -0.028010875472293278 -0.0035496530121302636 0 -0.028063742229573033 -0.0031407583410623472 0 -0.027678262856855301 -0.0033251451689379876 0 -0.02801699067615665 -0.002598255747189629 0 -0.028063742229573033 -0.0031407583410623472 0 -0.027678262856855301 -0.0033251451689379876 0 -0.021770562169146711 -0.0021975870775065363 0 -0.024886170566740161 -0.0021773222669838185 0 -0.020793418857440803 -0.0021162287744301489 0 -0.02173657121050928 -0.0017674711617469774 0 -0.021291933102497711 -0.001234790744573114 0 -0.02173657121050928 -0.0017674711617469774 0 -0.022075125821154749 -0.0010194681104639164 0 -0.021291933102497711 -0.001234790744573114 0 -0.018060980331691259 -0.00021940429509037824 0 -0.016547955934982084 -0.00041100707872023667 0 -0.013386692988221467 0.0010596996315207529 0 -0.013305145300577706 0.00083945412619732495 0 -0.013175059272943513 0.00082476223125864574 0 -0.022761010629317367 -0.0014076799294772632 0 -0.02173657121050928 -0.0017674711617469774 0 -0.022075125821154749 -0.0010194681104639164 0 -0.022693941785956594 -0.0007030462560410881 0 -0.022075125821154749 -0.0010194681104639164 0 -0.022304699701598558 -0.00047111989339925636 0 -0.027678262856855301 -0.0033251451689379876 0 -0.027351323653324652 -0.0039142987451550506 0 -0.027897263198266124 -0.0039063307701932897 0 -0.022075125821154749 -0.0010194681104639164 0 -0.021291933102497711 -0.001234790744573114 0 -0.021817966095015226 -0.00030131140441328976 0 -0.024886170566740161 -0.0021773222669838185 0 -0.024313546623033696 -0.0021455414085470052 0 -0.028308495001452931 -0.0037456898922850219 0 -0.028234675413255233 -0.0036870872234667242 0 -0.027351323653324652 -0.0039142987451550506 0 -0.027442042243993419 -0.0041474279076725087 0 -0.027897263198266124 -0.0039063307701932897 0 -0.022075125821154749 -0.0010194681104639164 0 -0.021817966095015226 -0.00030131140441328976 0 -0.022304699701598558 -0.00047111989339925636 0 -0.021817966095015226 -0.00030131140441328976 0 -0.022304699701598558 -0.00047111989339925636 0 -0.022385817847133425 -4.3601189862622089e-05 0 -0.022618293173542754 -0.00025701001627439362 0 -0.022304699701598558 -0.00047111989339925636 0 -0.022385817847133425 -4.3601189862622089e-05 0 -0.027351323653324652 -0.0039142987451550506 0 -0.027072674474056178 -0.0043690062706012115 0 -0.027442042243993419 -0.0041474279076725087 0 -0.024313546623033696 -0.0021455414085470052 0 -0.026346634296777697 -0.0021790607677150812 0 -0.022806379900650438 0.0001385566409915522 0 -0.022385817847133425 -4.3601189862622089e-05 0 -0.022384756261034259 0.00067514098026832427 0 -0.021817966095015226 -0.00030131140441328976 0 -0.022385817847133425 -4.3601189862622089e-05 0 -0.022384756261034259 0.00067514098026832427 0 -0.026346634296777697 -0.0021790607677150812 0 -0.028308495001452931 -0.0037456898922850219 0 -0.029133843949460406 -0.0030117704836322015 0 -0.028851468774425751 -0.0032641507504222655 0 -0.028896606400859642 -0.0031089534321063136 0 -0.031045157008654262 -0.0017299994951498151 0 -0.030735218058132664 -0.0017310685217647745 0 -0.030603093321559006 -0.0020781786402848429 0 -0.030109457321007244 -0.0024471111142509668 0 -0.029585219907365085 -0.0027433645611405202 0 -0.028851468774425751 -0.0032641507504222655 0 -0.028896606400859642 -0.0031089534321063136 0 -0.028600471306774507 -0.0033840491095114933 0 -0.030871418628819508 -0.0014661392839009763 0 -0.031045157008654262 -0.0017299994951498151 0 -0.030735218058132664 -0.0017310685217647745 0 -0.030590448937387014 -0.0015647466533868402 0 -0.030735218058132664 -0.0017310685217647745 0 -0.030564501934193734 -0.0018210452349262953 0 -0.030735218058132664 -0.0017310685217647745 0 -0.030564501934193734 -0.0018210452349262953 0 -0.030603093321559006 -0.0020781786402848429 0 -0.030564501934193734 -0.0018210452349262953 0 -0.030405141883124223 -0.001944093498225606 0 -0.030603093321559006 -0.0020781786402848429 0 -0.030564501934193734 -0.0018210452349262953 0 -0.030405141883124223 -0.001944093498225606 0 -0.03036260248437039 -0.0017607640713447898 0 -0.030284184757347319 -0.0015135170384887298 0 -0.030590448937387014 -0.0015647466533868402 0 -0.03036260248437039 -0.0017607640713447898 0 -0.030590448937387014 -0.0015647466533868402 0 -0.030564501934193734 -0.0018210452349262953 0 -0.03036260248437039 -0.0017607640713447898 0 -0.030284184757347319 -0.0015135170384887298 0 -0.03036260248437039 -0.0017607640713447898 0 -0.030001859451564101 -0.0017487548346014031 0 -0.030001859451564101 -0.0017487548346014031 0 -0.030183461274626375 -0.0019388366652427131 0 -0.02986437459958844 -0.0021113014260994286 0 -0.03036260248437039 -0.0017607640713447898 0 -0.030001859451564101 -0.0017487548346014031 0 -0.030183461274626375 -0.0019388366652427131 0 -0.030405141883124223 -0.001944093498225606 0 -0.03036260248437039 -0.0017607640713447898 0 -0.030183461274626375 -0.0019388366652427131 0 -0.030405141883124223 -0.001944093498225606 0 -0.030183461274626375 -0.0019388366652427131 0 -0.030250203631066251 -0.002159890044049477 0 -0.030084666603932969 -0.002626414501819795 0 -0.030250203631066251 -0.002159890044049477 0 -0.030603093321559006 -0.0020781786402848429 0 -0.030183461274626375 -0.0019388366652427131 0 -0.030250203631066251 -0.002159890044049477 0 -0.02986437459958844 -0.0021113014260994286 0 -0.030084666603932969 -0.002626414501819795 0 -0.030250203631066251 -0.002159890044049477 0 -0.02986437459958844 -0.0021113014260994286 0 -0.029261629266553596 -0.0030919825980603799 0 -0.029585219907365085 -0.0027433645611405202 0 -0.028465343938108463 -0.0035839802515463025 0 -0.0285972727286085 -0.0034773117511993357 0 -0.028600471306774507 -0.0033840491095114933 0 -0.028851468774425751 -0.0032641507504222655 0 -0.0285972727286085 -0.0034773117511993357 0 -0.028600471306774507 -0.0033840491095114933 0 -0.028441797913706674 -0.0035657622527567774 0 -0.028234675413255233 -0.0036870872234667242 0 -0.030405141883124223 -0.001944093498225606 0 -0.030250203631066251 -0.002159890044049477 0 -0.030603093321559006 -0.0020781786402848429 0 -0.029320803299805083 -0.0026116471879704542 0 -0.029195240717816952 -0.0021603355366756911 0 -0.028428531237507181 -0.0029021885603758464 0 -0.029195240717816952 -0.0021603355366756911 0 -0.028097984683964461 -0.0015726560233019322 0 -0.028428531237507181 -0.0029021885603758464 0 -0.02986437459958844 -0.0021113014260994286 0 -0.029195240717816952 -0.0021603355366756911 0 -0.029693639314231489 -0.0018514198153732951 0 -0.02986437459958844 -0.0021113014260994286 0 -0.029320803299805083 -0.0026116471879704542 0 -0.029195240717816952 -0.0021603355366756911 0 -0.030084666603932969 -0.002626414501819795 0 -0.02986437459958844 -0.0021113014260994286 0 -0.029320803299805083 -0.0026116471879704542 0 -0.029751668663858213 -0.0014915107840124454 0 -0.029195240717816952 -0.0021603355366756911 0 -0.029693639314231489 -0.0018514198153732951 0 -0.029751668663858213 -0.0014915107840124454 0 -0.030001859451564101 -0.0017487548346014031 0 -0.029693639314231489 -0.0018514198153732951 0 -0.030001859451564101 -0.0017487548346014031 0 -0.02986437459958844 -0.0021113014260994286 0 -0.029693639314231489 -0.0018514198153732951 0 -0.029751668663858213 -0.0014915107840124454 0 -0.029195240717816952 -0.0021603355366756911 0 -0.028097984683964461 -0.0015726560233019322 0 -0.028483495065623116 -0.00099211478969923536 0 -0.029751668663858213 -0.0014915107840124454 0 -0.028097984683964461 -0.0015726560233019322 0 -0.028483495065623116 -0.00099211478969923536 0 -0.028097984683964461 -0.0015726560233019322 0 -0.026879009595375439 -0.00083720836770683252 0 -0.028097984683964461 -0.0015726560233019322 0 -0.026879009595375439 -0.00083720836770683252 0 -0.025104947199639654 -0.0017516366416486795 0 -0.026879009595375439 -0.00083720836770683252 0 -0.025104947199639654 -0.0017516366416486795 0 -0.025094129884849249 -0.0010434085059042328 0 -0.028097984683964461 -0.0015726560233019322 0 -0.027213985839077727 -0.0023661149401551693 0 -0.028428531237507181 -0.0029021885603758464 0 -0.028097984683964461 -0.0015726560233019322 0 -0.025104947199639654 -0.0017516366416486795 0 -0.027213985839077727 -0.0023661149401551693 0 -0.027213985839077727 -0.0023661149401551693 0 -0.02751669601580042 -0.0034738943787220567 0 -0.028428531237507181 -0.0029021885603758464 0 -0.025104947199639654 -0.0017516366416486795 0 -0.027213985839077727 -0.0023661149401551693 0 -0.02751669601580042 -0.0034738943787220567 0 -0.020986690156645088 -0.0014854956965674891 0 -0.023268923490517724 -0.0014335009758053457 0 -0.022633312967575332 -0.00097989998346085377 0 -0.024762501709613163 -0.001741244072074568 0 -0.024232335439149155 -0.0022985649274836232 0 -0.025104947199639654 -0.0017516366416486795 0 -0.020986690156645088 -0.0014854956965674891 0 -0.023268923490517724 -0.0014335009758053457 0 -0.025104947199639654 -0.0017516366416486795 0 -0.023268923490517724 -0.0014335009758053457 0 -0.023852524819877059 -0.0012007501704119549 0 -0.020986690156645088 -0.0014854956965674891 0 -0.020336119875931816 -0.00046408849022932879 0 -0.022633312967575332 -0.00097989998346085377 0 -0.020986690156645088 -0.0014854956965674891 0 -0.018837366525097529 -0.0010381157241793196 0 -0.020336119875931816 -0.00046408849022932879 0 -0.024232335439149155 -0.0022985649274836232 0 -0.023520285688902336 -0.0022605090367132917 0 -0.028427506659632142 -0.003734580849709567 0 -0.028428531237507181 -0.0029021885603758464 0 -0.028819558551177991 -0.0033713159969775901 0 -0.029320803299805083 -0.0026116471879704542 0 -0.028428531237507181 -0.0029021885603758464 0 -0.028819558551177991 -0.0033713159969775901 0 -0.02751669601580042 -0.0034738943787220567 0 -0.028427506659632142 -0.003734580849709567 0 -0.028428531237507181 -0.0029021885603758464 0 -0.028452565324003254 -0.0035610775029594477 0 -0.028819558551177991 -0.0033713159969775901 0 -0.028607476584863935 -0.0034039707547211481 0 -0.030084666603932969 -0.002626414501819795 0 -0.029320803299805083 -0.0026116471879704542 0 -0.028819558551177991 -0.0033713159969775901 0 -0.029261629266553596 -0.0030919825980603799 0 -0.028864348145172618 -0.0033554412031599062 0 -0.028819558551177991 -0.0033713159969775901 0 -0.028607476584863935 -0.0034039707547211481 0 -0.028543095742288568 -0.0035008670857664495 0 -0.028427506659632142 -0.003734580849709567 0 -0.028819558551177991 -0.0033713159969775901 0 -0.028543095742288568 -0.0035008670857664495 0 -0.028476173758307154 -0.0034551240530412142 0 -0.028607476584863935 -0.0034039707547211481 0 -0.028543095742288568 -0.0035008670857664495 0 -0.028427506659632142 -0.003734580849709567 0 -0.028543095742288568 -0.0035008670857664495 0 -0.02853458136055298 -0.0033914572301796857 0 -0.028409718177381946 -0.0033528386176921287 0 -0.028543095742288568 -0.0035008670857664495 0 -0.02853458136055298 -0.0033914572301796857 0 -0.023520285688902336 -0.0022605090367132917 0 -0.023336729841803561 -0.002129656466099538 0 -0.018837366525097529 -0.0010381157241793196 0 -0.018175398210610486 -0.00030543558401010314 0 -0.017373120752066758 -0.00052922994355802748 0 -0.018175398210610486 -0.00030543558401010314 0 -0.017140273742320793 -0.0002149832211894809 0 -0.017104860683401047 -9.4896257023984745e-05 0 -0.018175398210610486 -0.00030543558401010314 0 -0.017140273742320793 -0.0002149832211894809 0 -0.017373120752066758 -0.00052922994355802748 0 -0.016794592654029588 -0.00013868141416450305 0 -0.017140273742320793 -0.0002149832211894809 0 -0.017373120752066758 -0.00052922994355802748 0 -0.01984856233486082 -0.0013670807844892504 0 -0.023336729841803561 -0.002129656466099538 0 -0.028315605778265928 -0.0030799622610462938 0 -0.028409718177381946 -0.0033528386176921287 0 -0.02853458136055298 -0.0033914572301796857 0 -0.016794592654029588 -0.00013868141416450305 0 -0.017140273742320793 -0.0002149832211894809 0 -0.017104860683401047 -9.4896257023984745e-05 0 -0.014833762185334833 -0.0012199015190324637 0 -0.015039994215157334 -0.0014662205123593987 0 -0.01598714554317357 1.9857510998033658e-05 0 -0.016794592654029588 -0.00013868141416450305 0 -0.017104860683401047 -9.4896257023984745e-05 0 -0.01598714554317357 1.9857510998033658e-05 0 -0.017104860683401047 -9.4896257023984745e-05 0 -0.01598714554317357 1.9857510998033658e-05 0 -0.016992691560845201 0.00012008017457032865 0 -0.01984856233486082 -0.0013670807844892504 0 -0.014807221890536479 -2.0463900467680428e-05 0 -0.017551802179222906 0.00015060651832142158 0 -0.016992691560845201 0.00012008017457032865 0 -0.018586271464776209 -6.1770138986329254e-05 0 -0.017104860683401047 -9.4896257023984745e-05 0 -0.016992691560845201 0.00012008017457032865 0 -0.018586271464776209 -6.1770138986329254e-05 0 -0.018175398210610486 -0.00030543558401010314 0 -0.017104860683401047 -9.4896257023984745e-05 0 -0.018586271464776209 -6.1770138986329254e-05 0 -0.018586271464776209 -6.1770138986329254e-05 0 -0.020336119875931816 -0.00046408849022932879 0 -0.019482911551609406 -8.5259643874642844e-05 0 -0.018175398210610486 -0.00030543558401010314 0 -0.018586271464776209 -6.1770138986329254e-05 0 -0.020336119875931816 -0.00046408849022932879 0 -0.018837366525097529 -0.0010381157241793196 0 -0.018175398210610486 -0.00030543558401010314 0 -0.020336119875931816 -0.00046408849022932879 0 -0.020336119875931816 -0.00046408849022932879 0 -0.021359091428428904 -0.00044739497031022783 0 -0.019482911551609406 -8.5259643874642844e-05 0 -0.017551802179222906 0.00015060651832142158 0 -0.018586271464776209 -6.1770138986329254e-05 0 -0.019482911551609406 -8.5259643874642844e-05 0 -0.017551802179222906 0.00015060651832142158 0 -0.019482911551609406 -8.5259643874642844e-05 0 -0.017716642337224264 0.00011632543991718415 0 -0.019482911551609406 -8.5259643874642844e-05 0 -0.017716642337224264 0.00011632543991718415 0 -0.01987243433755928 -1.9868169351347482e-07 0 -0.017716642337224264 0.00011632543991718415 0 -0.01987243433755928 -1.9868169351347482e-07 0 -0.017405553146523998 9.9431289976261851e-05 0 -0.01987243433755928 -1.9868169351347482e-07 0 -0.016021976437827334 2.7288051153046124e-05 0 -0.017405553146523998 9.9431289976261851e-05 0 -0.021359091428428904 -0.00044739497031022783 0 -0.01987243433755928 -1.9868169351347482e-07 0 -0.023523227564632439 -0.00052074407981290505 0 -0.021359091428428904 -0.00044739497031022783 0 -0.019482911551609406 -8.5259643874642844e-05 0 -0.01987243433755928 -1.9868169351347482e-07 0 -0.027179238073910889 -1.1349383618560385e-06 0 -0.01987243433755928 -1.9868169351347482e-07 0 -0.023523227564632439 -0.00052074407981290505 0 -0.021359091428428904 -0.00044739497031022783 0 -0.022633312967575332 -0.00097989998346085377 0 -0.023523227564632439 -0.00052074407981290505 0 -0.020336119875931816 -0.00046408849022932879 0 -0.021359091428428904 -0.00044739497031022783 0 -0.022633312967575332 -0.00097989998346085377 0 -0.022633312967575332 -0.00097989998346085377 0 -0.023852524819877059 -0.0012007501704119549 0 -0.023523227564632439 -0.00052074407981290505 0 -0.023268923490517724 -0.0014335009758053457 0 -0.022633312967575332 -0.00097989998346085377 0 -0.023852524819877059 -0.0012007501704119549 0 -0.025424798863319473 -0.0002732002740894583 0 -0.023523227564632439 -0.00052074407981290505 0 -0.025094129884849249 -0.0010434085059042328 0 -0.023852524819877059 -0.0012007501704119549 0 -0.023523227564632439 -0.00052074407981290505 0 -0.025094129884849249 -0.0010434085059042328 0 -0.025104947199639654 -0.0017516366416486795 0 -0.023852524819877059 -0.0012007501704119549 0 -0.025094129884849249 -0.0010434085059042328 0 -0.028221942296712675 -0.00053499184351734599 0 -0.026879009595375439 -0.00083720836770683252 0 -0.025094129884849249 -0.0010434085059042328 0 -0.026797199016570895 -0.00049688834684735728 0 -0.025440897732071397 -0.0010096765296299926 0 -0.027179238073910889 -1.1349383618560385e-06 0 -0.025424798863319473 -0.0002732002740894583 0 -0.023523227564632439 -0.00052074407981290505 0 -0.010993637283817902 0.00069487985242318708 0 -0.011367039033031526 0.00046256444861919458 0 -0.0096715188202325872 0.00046084859990057429 0 -0.010348766500305704 3.0011429648122546e-06 0 -0.011367039033031526 0.00046256444861919458 0 -0.0096715188202325872 0.00046084859990057429 0 -0.010993637283817902 0.00069487985242318708 0 -0.011792873279360207 0.00085437248303609609 0 -0.011240750088468154 0.00092879006600940809 0 -0.011792873279360207 0.00085437248303609609 0 -0.012020955725045817 0.00079642836309862469 0 -0.012617727769533574 0.00085939337007296659 0 -0.010993637283817902 0.00069487985242318708 0 -0.012020955725045817 0.00079642836309862469 0 -0.011367039033031526 0.00046256444861919458 0 -0.010993637283817902 0.00069487985242318708 0 -0.011792873279360207 0.00085437248303609609 0 -0.012020955725045817 0.00079642836309862469 0 -0.012256711025003909 0.00072114450733095075 0 -0.0132144624165578 0.00052078269779600632 0 -0.012020955725045817 0.00079642836309862469 0 -0.013796511001386312 0.00078956636803812744 0 -0.01426758319889867 0.00076817028076670544 0 -0.012020955725045817 0.00079642836309862469 0 -0.013796511001386312 0.00078956636803812744 0 -0.012617727769533574 0.00085939337007296659 0 -0.013796511001386312 0.00078956636803812744 0 -0.01426758319889867 0.00076817028076670544 0 -0.014899503205550647 0.00049116913885049302 0 -0.010348766500305704 3.0011429648122546e-06 0 -0.011367039033031526 0.00046256444861919458 0 -0.014389074275690585 -2.7330409234100637e-07 0 -0.012146924469454581 0.00038775393477658449 0 -0.011367039033031526 0.00046256444861919458 0 -0.014389074275690585 -2.7330409234100637e-07 0 -0.012020955725045817 0.00079642836309862469 0 -0.012146924469454581 0.00038775393477658449 0 -0.011367039033031526 0.00046256444861919458 0 -0.01987243433755928 -1.9868169351347482e-07 0 -0.014389074275690585 -2.7330409234100637e-07 0 -0.016021976437827334 2.7288051153046124e-05 0 -0.0132144624165578 0.00052078269779600632 0 -0.014626641675046315 0.00022093622483831246 0 -0.012146924469454581 0.00038775393477658449 0 -0.013601921323569606 1.1065932473061538e-05 0 -0.014389074275690585 -2.7330409234100637e-07 0 -0.01426758319889867 0.00076817028076670544 0 -0.015623199339267294 0.00028689016790315903 0 -0.014899503205550647 0.00049116913885049302 0 -0.015623199339267294 0.00028689016790315903 0 -0.016021976437827334 2.7288051153046124e-05 0 -0.016209104314391643 0.00016109476159928039 0 -0.014626641675046315 0.00022093622483831246 0 -0.015743641285851179 7.3014377571594923e-05 0 -0.013601921323569606 1.1065932473061538e-05 0 -0.014389074275690585 -2.7330409234100637e-07 0 -0.016021976437827334 2.7288051153046124e-05 0 -0.016021976437827334 2.7288051153046124e-05 0 -0.017405553146523998 9.9431289976261851e-05 0 -0.016209104314391643 0.00016109476159928039 0 -0.017716642337224264 0.00011632543991718415 0 -0.016781343365187985 0.00021600350665831945 0 -0.016209104314391643 0.00016109476159928039 0 -0.017551802179222906 0.00015060651832142158 0 -0.017716642337224264 0.00011632543991718415 0 -0.016781343365187985 0.00021600350665831945 0 -0.017716642337224264 0.00011632543991718415 0 -0.017405553146523998 9.9431289976261851e-05 0 -0.016209104314391643 0.00016109476159928039 0 -0.016781343365187985 0.00021600350665831945 0 -0.016209104314391643 0.00016109476159928039 0 -0.015785581334176808 0.00030953595030512615 0 -0.016209104314391643 0.00016109476159928039 0 -0.0150286203356675 0.00045142639088059921 0 -0.015785581334176808 0.00030953595030512615 0 -0.015623199339267294 0.00028689016790315903 0 -0.016209104314391643 0.00016109476159928039 0 -0.014899503205550647 0.00049116913885049302 0 -0.016209104314391643 0.00016109476159928039 0 -0.0150286203356675 0.00045142639088059921 0 -0.014899503205550647 0.00049116913885049302 0 -0.013796511001386312 0.00078956636803812744 0 -0.0150286203356675 0.00045142639088059921 0 -0.014899503205550647 0.00049116913885049302 0 -0.013796511001386312 0.00078956636803812744 0 -0.0150286203356675 0.00045142639088059921 0 -0.014456700705574846 0.00060362784159624292 0 -0.014149755286653529 0.00096555866565507017 0 -0.015200206852668312 0.00065494074984851912 0 -0.014546599410392319 0.0012155690843367636 0 -0.015498022824684978 0.0008386725508951658 0 -0.014786490157229371 0.00099804916540038912 0 -0.014456700705574846 0.00060362784159624292 0 -0.013708661500430649 0.00072821359190403708 0 -0.014847168095321191 0.00041665870317832035 0 -0.014456700705574846 0.00060362784159624292 0 -0.014847168095321191 0.00041665870317832035 0 -0.015785581334176808 0.00030953595030512615 0 -0.0150286203356675 0.00045142639088059921 0 -0.014456700705574846 0.00060362784159624292 0 -0.015785581334176808 0.00030953595030512615 0 -0.014847168095321191 0.00041665870317832035 0 -0.015785581334176808 0.00030953595030512615 0 -0.016338730744710289 0.00033355040717357497 0 -0.016781343365187985 0.00021600350665831945 0 -0.015785581334176808 0.00030953595030512615 0 -0.016338730744710289 0.00033355040717357497 0 -0.015200206852668312 0.00065494074984851912 0 -0.01610897079221852 0.00035854667842751513 0 -0.015498022824684978 0.0008386725508951658 0 -0.016338730744710289 0.00033355040717357497 0 -0.015432510159090571 0.0005515442620028587 0 -0.016992691560845201 0.00012008017457032865 0 -0.016338730744710289 0.00033355040717357497 0 -0.015432510159090571 0.0005515442620028587 0 -0.017551802179222906 0.00015060651832142158 0 -0.016992691560845201 0.00012008017457032865 0 -0.016338730744710289 0.00033355040717357497 0 -0.017551802179222906 0.00015060651832142158 0 -0.016781343365187985 0.00021600350665831945 0 -0.016338730744710289 0.00033355040717357497 0 -0.01598714554317357 1.9857510998033658e-05 0 -0.015432510159090571 0.0005515442620028587 0 -0.014852224966766249 0.0003460120164667071 0 -0.014649760636709424 -0.00043719521815070516 0 -0.01598714554317357 1.9857510998033658e-05 0 -0.014852224966766249 0.0003460120164667071 0 -0.01598714554317357 1.9857510998033658e-05 0 -0.016992691560845201 0.00012008017457032865 0 -0.015432510159090571 0.0005515442620028587 0 -0.015432510159090571 0.0005515442620028587 0 -0.014505391665131357 0.00071796596175245284 0 -0.014852224966766249 0.0003460120164667071 0 -0.015432510159090571 0.0005515442620028587 0 -0.014505391665131357 0.00071796596175245284 0 -0.01437471777790021 0.00096554259492940804 0 -0.015432510159090571 0.0005515442620028587 0 -0.01437471777790021 0.00096554259492940804 0 -0.014786490157229371 0.00099804916540038912 0 -0.015498022824684978 0.0008386725508951658 0 -0.015432510159090571 0.0005515442620028587 0 -0.014786490157229371 0.00099804916540038912 0 -0.01437471777790021 0.00096554259492940804 0 -0.014786490157229371 0.00099804916540038912 0 -0.014045543982745101 0.001186368902408852 0 -0.014546599410392319 0.0012155690843367636 0 -0.014786490157229371 0.00099804916540038912 0 -0.014045543982745101 0.001186368902408852 0 -0.01437471777790021 0.00096554259492940804 0 -0.014045543982745101 0.001186368902408852 0 -0.01377670149249241 0.0011300330254905315 0 -0.014045543982745101 0.001186368902408852 0 -0.013336002509420007 0.0012877690549859323 0 -0.01377670149249241 0.0011300330254905315 0 -0.014045543982745101 0.001186368902408852 0 -0.013336002509420007 0.0012877690549859323 0 -0.013696116300663894 0.0013046855197969478 0 -0.013336002509420007 0.0012877690549859323 0 -0.013696116300663894 0.0013046855197969478 0 -0.013065110018777045 0.0013472102068412192 0 -0.013602733361895677 0.0013691542029937672 0 -0.013696116300663894 0.0013046855197969478 0 -0.013065110018777045 0.0013472102068412192 0 -0.014546599410392319 0.0012155690843367636 0 -0.013602733361895677 0.0013691542029937672 0 -0.013696116300663894 0.0013046855197969478 0 -0.014546599410392319 0.0012155690843367636 0 -0.014045543982745101 0.001186368902408852 0 -0.013696116300663894 0.0013046855197969478 0 -0.014149755286653529 0.00096555866565507017 0 -0.013356766595964612 0.0011422752574701282 0 -0.014456700705574846 0.00060362784159624292 0 -0.013708661500430649 0.00072821359190403708 0 -0.013522011544155596 0.00080299238665254536 0 -0.013708661500430649 0.00072821359190403708 0 -0.013109558532661665 0.00096262005990540591 0 -0.013522011544155596 0.00080299238665254536 0 -0.013796511001386312 0.00078956636803812744 0 -0.013522011544155596 0.00080299238665254536 0 -0.012617727769533574 0.00085939337007296659 0 -0.013796511001386312 0.00078956636803812744 0 -0.014456700705574846 0.00060362784159624292 0 -0.013522011544155596 0.00080299238665254536 0 -0.013522011544155596 0.00080299238665254536 0 -0.012617727769533574 0.00085939337007296659 0 -0.011967811367633571 0.00090316883804883084 0 -0.013109558532661665 0.00096262005990540591 0 -0.013522011544155596 0.00080299238665254536 0 -0.013120480001073138 0.0011744559330842321 0 -0.013355404246729263 0.00084558882519406269 0 -0.012574000415935635 0.0010707665058149786 0 -0.012617727769533574 0.00085939337007296659 0 -0.011967811367633571 0.00090316883804883084 0 -0.011927340132852498 0.00093663223630209504 0 -0.011967811367633571 0.00090316883804883084 0 -0.011927340132852498 0.00093663223630209504 0 -0.011564501437834241 0.001007343050521874 0 -0.011792873279360207 0.00085437248303609609 0 -0.012617727769533574 0.00085939337007296659 0 -0.011927340132852498 0.00093663223630209504 0 -0.011240750088468154 0.00092879006600940809 0 -0.011564501437834241 0.001007343050521874 0 -0.011118369568201187 0.0010770543173247876 0 -0.011792873279360207 0.00085437248303609609 0 -0.011927340132852498 0.00093663223630209504 0 -0.011240750088468154 0.00092879006600940809 0 -0.011927340132852498 0.00093663223630209504 0 -0.011240750088468154 0.00092879006600940809 0 -0.011564501437834241 0.001007343050521874 0 -0.013120480001073138 0.0011744559330842321 0 -0.012698309529749662 0.0013074766221538379 0 -0.012369468219371529 0.0013476183906748678 0 -0.011967811367633571 0.00090316883804883084 0 -0.011564501437834241 0.001007343050521874 0 -0.011265752422271473 0.0010975187761302148 0 -0.012574000415935635 0.0010707665058149786 0 -0.011825797099724681 0.0011856955030117927 0 -0.012698309529749662 0.0013074766221538379 0 -0.012113219357589956 0.0013159369651180679 0 -0.012369468219371529 0.0013476183906748678 0 -0.012698309529749662 0.0013074766221538379 0 -0.012482163184564197 0.0013195452409360986 0 -0.012113219357589956 0.0013159369651180679 0 -0.012698309529749662 0.0013074766221538379 0 -0.012482163184564197 0.0013195452409360986 0 -0.013065110018777045 0.0013472102068412192 0 -0.013356766595964612 0.0011422752574701282 0 -0.012827355737054994 0.0012878191981659218 0 -0.013602733361895677 0.0013691542029937672 0 -0.012698309529749662 0.0013074766221538379 0 -0.013065110018777045 0.0013472102068412192 0 -0.013109558532661665 0.00096262005990540591 0 -0.013120480001073138 0.0011744559330842321 0 -0.012698309529749662 0.0013074766221538379 0 -0.012589358963326726 0.0012496662316999277 0 -0.01266740484778984 0.0013069736329612048 0 -0.012252546433121273 0.001251955494000179 0 -0.012482163184564197 0.0013195452409360986 0 -0.013065110018777045 0.0013472102068412192 0 -0.01266740484778984 0.0013069736329612048 0 -0.012482163184564197 0.0013195452409360986 0 -0.01266740484778984 0.0013069736329612048 0 -0.012252069914283818 0.0012795151731142354 0 -0.012482163184564197 0.0013195452409360986 0 -0.012252069914283818 0.0012795151731142354 0 -0.012066687553426752 0.0012783148551141342 0 -0.01266740484778984 0.0013069736329612048 0 -0.012252069914283818 0.0012795151731142354 0 -0.012252546433121273 0.001251955494000179 0 -0.012252069914283818 0.0012795151731142354 0 -0.012252546433121273 0.001251955494000179 0 -0.011934926543369065 0.0012140444968833301 0 -0.012252546433121273 0.001251955494000179 0 -0.01196899221438593 0.0012035045681672433 0 -0.012363221596772661 0.0012187654183120876 0 -0.012252546433121273 0.001251955494000179 0 -0.01196899221438593 0.0012035045681672433 0 -0.011934926543369065 0.0012140444968833301 0 -0.01196899221438593 0.0012035045681672433 0 -0.012363221596772661 0.0012187654183120876 0 -0.012058204881934619 0.0012009865330402708 0 -0.012363221596772661 0.0012187654183120876 0 -0.01235273293305115 0.0011569800024497268 0 -0.012058204881934619 0.0012009865330402708 0 -0.012589358963326726 0.0012496662316999277 0 -0.012252546433121273 0.001251955494000179 0 -0.012363221596772661 0.0012187654183120876 0 -0.012589358963326726 0.0012496662316999277 0 -0.012363221596772661 0.0012187654183120876 0 -0.012684166695930942 0.0011501940969767485 0 -0.012363221596772661 0.0012187654183120876 0 -0.012684166695930942 0.0011501940969767485 0 -0.01235273293305115 0.0011569800024497268 0 -0.012684166695930942 0.0011501940969767485 0 -0.01235273293305115 0.0011569800024497268 0 -0.012517043637084935 0.0010317476813598164 0 -0.012684166695930942 0.0011501940969767485 0 -0.012783919855268623 0.0010276068739210182 0 -0.012517043637084935 0.0010317476813598164 0 -0.012783919855268623 0.0010276068739210182 0 -0.012779957737998818 0.00095548398867896197 0 -0.012517043637084935 0.0010317476813598164 0 -0.012684166695930942 0.0011501940969767485 0 -0.013022023706668315 0.0010803613344464069 0 -0.012950072863653201 0.0012262025548066798 0 -0.012684166695930942 0.0011501940969767485 0 -0.012783919855268623 0.0010276068739210182 0 -0.013022023706668315 0.0010803613344464069 0 -0.013022023706668315 0.0010803613344464069 0 -0.013354001458150069 0.0011407126892690111 0 -0.012950072863653201 0.0012262025548066798 0 -0.012589358963326726 0.0012496662316999277 0 -0.01266740484778984 0.0013069736329612048 0 -0.012950072863653201 0.0012262025548066798 0 -0.012589358963326726 0.0012496662316999277 0 -0.012684166695930942 0.0011501940969767485 0 -0.012950072863653201 0.0012262025548066798 0 -0.013336002509420007 0.0012877690549859323 0 -0.01266740484778984 0.0013069736329612048 0 -0.012950072863653201 0.0012262025548066798 0 -0.013336002509420007 0.0012877690549859323 0 -0.013065110018777045 0.0013472102068412192 0 -0.01266740484778984 0.0013069736329612048 0 -0.013336002509420007 0.0012877690549859323 0 -0.013354001458150069 0.0011407126892690111 0 -0.012950072863653201 0.0012262025548066798 0 -0.013336002509420007 0.0012877690549859323 0 -0.013354001458150069 0.0011407126892690111 0 -0.01377670149249241 0.0011300330254905315 0 -0.01437471777790021 0.00096554259492940804 0 -0.01377670149249241 0.0011300330254905315 0 -0.013883487941150323 0.0009514121120798826 0 -0.013354001458150069 0.0011407126892690111 0 -0.01377670149249241 0.0011300330254905315 0 -0.013883487941150323 0.0009514121120798826 0 -0.013354001458150069 0.0011407126892690111 0 -0.013402301626493078 0.00090602738835191703 0 -0.013883487941150323 0.0009514121120798826 0 -0.013022023706668315 0.0010803613344464069 0 -0.013354001458150069 0.0011407126892690111 0 -0.013402301626493078 0.00090602738835191703 0 -0.013402301626493078 0.00090602738835191703 0 -0.013883487941150323 0.0009514121120798826 0 -0.01404844150094018 0.0006589361090090166 0 -0.014505391665131357 0.00071796596175245284 0 -0.01437471777790021 0.00096554259492940804 0 -0.013883487941150323 0.0009514121120798826 0 -0.014505391665131357 0.00071796596175245284 0 -0.013883487941150323 0.0009514121120798826 0 -0.01404844150094018 0.0006589361090090166 0 -0.014505391665131357 0.00071796596175245284 0 -0.01404844150094018 0.0006589361090090166 0 -0.014852224966766249 0.0003460120164667071 0 -0.013402301626493078 0.00090602738835191703 0 -0.01404844150094018 0.0006589361090090166 0 -0.013558285803491346 0.00043273496450177011 0 -0.013297579053801778 -0.00044628941042004056 0 -0.014078261881500258 -3.4235660749298144e-05 0 -0.013558285803491346 0.00043273496450177011 0 -0.01404844150094018 0.0006589361090090166 0 -0.014078261881500258 -3.4235660749298144e-05 0 -0.013558285803491346 0.00043273496450177011 0 -0.01404844150094018 0.0006589361090090166 0 -0.014078261881500258 -3.4235660749298144e-05 0 -0.014852224966766249 0.0003460120164667071 0 -0.014649760636709424 -0.00043719521815070516 0 -0.014078261881500258 -3.4235660749298144e-05 0 -0.014852224966766249 0.0003460120164667071 0 -0.013118542477968806 0.00051515768722026813 0 -0.013115311616373762 0.00051365471787483282 0 -0.013065229040205734 0.00047896545620037265 0 -0.013297579053801778 -0.00044628941042004056 0 -0.013065229040205734 0.00047896545620037265 0 -0.013558285803491346 0.00043273496450177011 0 -0.013383718592551316 -0.00013519877192150122 0 -0.013015286649982171 0.0005166118043079598 0 -0.013402301626493078 0.00090602738835191703 0 -0.01315848163091536 0.00072016632285534484 0 -0.013558285803491346 0.00043273496450177011 0 -0.013065229040205734 0.00047896545620037265 0 -0.01315848163091536 0.00072016632285534484 0 -0.013558285803491346 0.00043273496450177011 0 -0.013065229040205734 0.00047896545620037265 0 -0.01315848163091536 0.00072016632285534484 0 -0.012952937277351403 0.00073990244754520399 0 -0.013065229040205734 0.00047896545620037265 0 -0.012952937277351403 0.00073990244754520399 0 -0.012991044752948433 0.00061803898605434528 0 -0.01315848163091536 0.00072016632285534484 0 -0.012952937277351403 0.00073990244754520399 0 -0.012977534952282103 0.00091804481373547247 0 -0.012952937277351403 0.00073990244754520399 0 -0.012977534952282103 0.00091804481373547247 0 -0.012779957737998818 0.00095548398867896197 0 -0.013402301626493078 0.00090602738835191703 0 -0.01315848163091536 0.00072016632285534484 0 -0.012977534952282103 0.00091804481373547247 0 -0.013022023706668315 0.0010803613344464069 0 -0.013402301626493078 0.00090602738835191703 0 -0.012977534952282103 0.00091804481373547247 0 -0.012783919855268623 0.0010276068739210182 0 -0.013022023706668315 0.0010803613344464069 0 -0.012977534952282103 0.00091804481373547247 0 -0.012783919855268623 0.0010276068739210182 0 -0.012977534952282103 0.00091804481373547247 0 -0.012779957737998818 0.00095548398867896197 0 -0.012779957737998818 0.00095548398867896197 0 -0.012734011092721719 0.00097301734358835185 0 -0.012677467493860433 0.0010059591621247909 0 -0.012734011092721719 0.00097301734358835185 0 -0.012751050034486499 0.00094257230839941335 0 -0.012728706789081088 0.00097223719902290388 0 -0.012779957737998818 0.00095548398867896197 0 -0.012734011092721719 0.00097301734358835185 0 -0.012788029703985361 0.00089979723071043625 0 -0.012734011092721719 0.00097301734358835185 0 -0.012788029703985361 0.00089979723071043625 0 -0.012751050034486499 0.00094257230839941335 0 -0.012779957737998818 0.00095548398867896197 0 -0.012788029703985361 0.00089979723071043625 0 -0.012878525650815282 0.00076167484119801896 0 -0.012788029703985361 0.00089979723071043625 0 -0.012795581135410827 0.00084550119167473372 0 -0.012751050034486499 0.00094257230839941335 0 -0.012788029703985361 0.00089979723071043625 0 -0.012878525650815282 0.00076167484119801896 0 -0.012795581135410827 0.00084550119167473372 0 -0.012952937277351403 0.00073990244754520399 0 -0.012779957737998818 0.00095548398867896197 0 -0.012878525650815282 0.00076167484119801896 0 -0.012952937277351403 0.00073990244754520399 0 -0.012991044752948433 0.00061803898605434528 0 -0.012878525650815282 0.00076167484119801896 0 -0.012991044752948433 0.00061803898605434528 0 -0.012878525650815282 0.00076167484119801896 0 -0.012883114376626094 0.00070465227971066278 0 -0.012878525650815282 0.00076167484119801896 0 -0.012883114376626094 0.00070465227971066278 0 -0.012795581135410827 0.00084550119167473372 0 -0.012991044752948433 0.00061803898605434528 0 -0.012883114376626094 0.00070465227971066278 0 -0.013014988914346626 0.00058871601681726566 0 -0.012883114376626094 0.00070465227971066278 0 -0.013014988914346626 0.00058871601681726566 0 -0.012839443831526579 0.00055571624859933224 0 -0.013109280694886304 0.00051764167339720161 0 -0.013014988914346626 0.00058871601681726566 0 -0.012839443831526579 0.00055571624859933224 0 -0.013118542477968806 0.00051515768722026813 0 -0.013065229040205734 0.00047896545620037265 0 -0.012991044752948433 0.00061803898605434528 0 -0.013118542477968806 0.00051515768722026813 0 -0.012991044752948433 0.00061803898605434528 0 -0.013014988914346626 0.00058871601681726566 0 -0.013143667440604915 0.00043216697979131492 0 -0.013196569181569331 0.00041149158459126455 0 -0.013717240481683502 0.00024591984113512687 0 -0.013445493952956003 0.00028209654881602547 0 -0.013703820030909702 0.00010823312773813026 0 -0.013717240481683502 0.00024591984113512687 0 -0.013703820030909702 0.00010823312773813026 0 -0.01388135620221519 0.00015055006824058858 0 -0.012883114376626094 0.00070465227971066278 0 -0.012839443831526579 0.00055571624859933224 0 -0.01276134728397579 0.00075496012146798318 0 -0.012839443831526579 0.00055571624859933224 0 -0.01276134728397579 0.00075496012146798318 0 -0.012661549884202018 0.00071742805622548812 0 -0.012883114376626094 0.00070465227971066278 0 -0.01276134728397579 0.00075496012146798318 0 -0.012795581135410827 0.00084550119167473372 0 -0.01276134728397579 0.00075496012146798318 0 -0.012694563484773628 0.00084429839299440237 0 -0.012753169692215025 0.00086982980602335258 0 -0.01276134728397579 0.00075496012146798318 0 -0.012795581135410827 0.00084550119167473372 0 -0.012753169692215025 0.00086982980602335258 0 -0.01276134728397579 0.00075496012146798318 0 -0.012689336065390262 0.00078310422005688598 0 -0.012694563484773628 0.00084429839299440237 0 -0.01276134728397579 0.00075496012146798318 0 -0.012689336065390262 0.00078310422005688598 0 -0.012661549884202018 0.00071742805622548812 0 -0.012689336065390262 0.00078310422005688598 0 -0.012661549884202018 0.00071742805622548812 0 -0.012648648644713904 0.00081836319901037449 0 -0.012689336065390262 0.00078310422005688598 0 -0.012694563484773628 0.00084429839299440237 0 -0.012648648644713904 0.00081836319901037449 0 -0.012694563484773628 0.00084429839299440237 0 -0.012731247368046929 0.00096361071491994632 0 -0.012471415536829743 0.0012056658110802126 0 -0.01270320358517946 0.00087319895818132654 0 -0.012510110274208652 0.00098028058145048524 0 -0.012694563484773628 0.00084429839299440237 0 -0.012648648644713904 0.00081836319901037449 0 -0.012628534475528775 0.00089668826738297403 0 -0.012694563484773628 0.00084429839299440237 0 -0.012731247368046929 0.00096361071491994632 0 -0.012753169692215025 0.00086982980602335258 0 -0.012795581135410827 0.00084550119167473372 0 -0.012753169692215025 0.00086982980602335258 0 -0.012748809193970492 0.00092824622104030236 0 -0.012731247368046929 0.00096361071491994632 0 -0.012753169692215025 0.00086982980602335258 0 -0.012748809193970492 0.00092824622104030236 0 -0.012731247368046929 0.00096361071491994632 0 -0.012748809193970492 0.00092824622104030236 0 -0.012731612502163625 0.00096124839863239245 0 -0.012795581135410827 0.00084550119167473372 0 -0.012748809193970492 0.00092824622104030236 0 -0.012751050034486499 0.00094257230839941335 0 -0.012731612502163625 0.00096124839863239245 0 -0.012728706789081088 0.00097223719902290388 0 -0.012724271337365346 0.00097397800383119211 0 -0.012748809193970492 0.00092824622104030236 0 -0.012751050034486499 0.00094257230839941335 0 -0.012731612502163625 0.00096124839863239245 0 -0.012751050034486499 0.00094257230839941335 0 -0.012731612502163625 0.00096124839863239245 0 -0.012728706789081088 0.00097223719902290388 0 -0.012731247368046929 0.00096361071491994632 0 -0.012731612502163625 0.00096124839863239245 0 -0.012724271337365346 0.00097397800383119211 0 -0.012731247368046929 0.00096361071491994632 0 -0.012657920937478721 0.001449278593387353 0 -0.012471415536829743 0.0012056658110802126 0 -0.012730599721128864 0.00098265248156984572 0 -0.012681657647293581 0.0011995776585045121 0 -0.012657920937478721 0.001449278593387353 0 -0.012454852781609781 0.0014825712979747766 0 -0.012534597226066257 0.0015591656334882089 0 -0.012724271337365346 0.00097397800383119211 0 -0.012722497366485282 0.00095780869245051207 0 -0.012717209933638783 0.00096034158267313909 0 -0.012681657647293581 0.0011995776585045121 0 -0.012607524920459086 0.0011935424856293641 0 -0.012717209933638783 0.00096034158267313909 0 -0.012715415678486443 0.00097968804683122297 0 -0.012685929733309302 0.00093875709438515987 0 -0.012728706789081088 0.00097223719902290388 0 -0.012724271337365346 0.00097397800383119211 0 -0.012715415678486443 0.00097968804683122297 0 -0.012724271337365346 0.00097397800383119211 0 -0.012717209933638783 0.00096034158267313909 0 -0.012715415678486443 0.00097968804683122297 0 -0.012734011092721719 0.00097301734358835185 0 -0.012728706789081088 0.00097223719902290388 0 -0.012715415678486443 0.00097968804683122297 0 -0.012734011092721719 0.00097301734358835185 0 -0.012715415678486443 0.00097968804683122297 0 -0.012677467493860433 0.0010059591621247909 0 -0.012779957737998818 0.00095548398867896197 0 -0.012677467493860433 0.0010059591621247909 0 -0.012517043637084935 0.0010317476813598164 0 -0.012677467493860433 0.0010059591621247909 0 -0.012517043637084935 0.0010317476813598164 0 -0.012685929733309302 0.00093875709438515987 0 -0.012485123046492649 0.0010261457134486569 0 -0.012357168277194366 0.0010434623021843554 0 -0.01235273293305115 0.0011569800024497268 0 -0.012517043637084935 0.0010317476813598164 0 -0.012020122512091818 0.0011207065594942929 0 -0.012715415678486443 0.00097968804683122297 0 -0.012677467493860433 0.0010059591621247909 0 -0.012685929733309302 0.00093875709438515987 0 -0.012020122512091818 0.0011207065594942929 0 -0.011903365654173907 0.0011665236473629669 0 -0.011942330450864911 0.0011853606121489692 0 -0.012020122512091818 0.0011207065594942929 0 -0.012058204881934619 0.0012009865330402708 0 -0.011903365654173907 0.0011665236473629669 0 -0.01235273293305115 0.0011569800024497268 0 -0.012020122512091818 0.0011207065594942929 0 -0.012058204881934619 0.0012009865330402708 0 -0.012058204881934619 0.0012009865330402708 0 -0.011903365654173907 0.0011665236473629669 0 -0.011769499515166015 0.001129022030480124 0 -0.01196899221438593 0.0012035045681672433 0 -0.012058204881934619 0.0012009865330402708 0 -0.011769499515166015 0.001129022030480124 0 -0.011903365654173907 0.0011665236473629669 0 -0.011837916941319261 0.0010644038829294769 0 -0.011769499515166015 0.001129022030480124 0 -0.011936787953700212 0.0010760285799065181 0 -0.012070345793459926 0.0010492687238617051 0 -0.011942330450864911 0.0011853606121489692 0 -0.011903365654173907 0.0011665236473629669 0 -0.011936787953700212 0.0010760285799065181 0 -0.011942330450864911 0.0011853606121489692 0 -0.011903365654173907 0.0011665236473629669 0 -0.011936787953700212 0.0010760285799065181 0 -0.011837916941319261 0.0010644038829294769 0 -0.012070345793459926 0.0010492687238617051 0 -0.01219427778926954 0.0011083493741035522 0 -0.011942330450864911 0.0011853606121489692 0 -0.012427492342697195 0.0010513163106657779 0 -0.012341576330209584 0.0010587742084672517 0 -0.012070345793459926 0.0010492687238617051 0 -0.012254491630508494 0.00097714342074320284 0 -0.01219427778926954 0.0011083493741035522 0 -0.012356131210977891 0.0010370717185026026 0 -0.012427492342697195 0.0010513163106657779 0 -0.012722497366485282 0.00095780869245051207 0 -0.012717705511093347 0.00094819847144282166 0 -0.012713332913876538 0.00094844667206131234 0 -0.012607524920459086 0.0011935424856293641 0 -0.012427492342697195 0.0010513163106657779 0 -0.012454852781609781 0.0014825712979747766 0 -0.012365240936439736 0.0010623332238385611 0 -0.012501228098880737 0.0011788462998664462 0 -0.012357168277194366 0.0010434623021843554 0 -0.012341576330209584 0.0010587742084672517 0 -0.012722497366485282 0.00095780869245051207 0 -0.012717209933638783 0.00096034158267313909 0 -0.012713332913876538 0.00094844667206131234 0 -0.012717209933638783 0.00096034158267313909 0 -0.012685929733309302 0.00093875709438515987 0 -0.012713332913876538 0.00094844667206131234 0 -0.011889367189085408 0.00080259147429281928 0 -0.01193356738694624 0.00093402045433169025 0 -0.011729372707138194 0.00097444812644526359 0 -0.011889367189085408 0.00080259147429281928 0 -0.012075771346200501 0.00078331801704099077 0 -0.01193356738694624 0.00093402045433169025 0 -0.011889367189085408 0.00080259147429281928 0 -0.011729372707138194 0.00097444812644526359 0 -0.011580351790050245 0.00084284607126748244 0 -0.012607970993968943 0.00070072118906083357 0 -0.0099791481213797554 0.00042855141556207742 0 -0.012075771346200501 0.00078331801704099077 0 -0.012155447269597514 0.00011615030168112293 0 -0.012414954426694205 0.00044615130949749913 0 -0.011889367189085408 0.00080259147429281928 0 -0.012075771346200501 0.00078331801704099077 0 -0.012024372380763624 0.00064359158531560805 0 -0.012075771346200501 0.00078331801704099077 0 -0.012106544881585031 0.0009119970752360702 0 -0.01193356738694624 0.00093402045433169025 0 -0.012075771346200501 0.00078331801704099077 0 -0.012106544881585031 0.0009119970752360702 0 -0.012414503880858081 0.00071549274597774103 0 -0.012070345793459926 0.0010492687238617051 0 -0.012254491630508494 0.00097714342074320284 0 -0.012106544881585031 0.0009119970752360702 0 -0.012254491630508494 0.00097714342074320284 0 -0.012106544881585031 0.0009119970752360702 0 -0.012389048908819578 0.00086989788886283849 0 -0.011936787953700212 0.0010760285799065181 0 -0.012070345793459926 0.0010492687238617051 0 -0.012106544881585031 0.0009119970752360702 0 -0.011936787953700212 0.0010760285799065181 0 -0.012106544881585031 0.0009119970752360702 0 -0.01193356738694624 0.00093402045433169025 0 -0.01193356738694624 0.00093402045433169025 0 -0.011837916941319261 0.0010644038829294769 0 -0.011729372707138194 0.00097444812644526359 0 -0.011936787953700212 0.0010760285799065181 0 -0.01193356738694624 0.00093402045433169025 0 -0.011837916941319261 0.0010644038829294769 0 -0.011837916941319261 0.0010644038829294769 0 -0.011769499515166015 0.001129022030480124 0 -0.011729372707138194 0.00097444812644526359 0 -0.011769499515166015 0.001129022030480124 0 -0.011478222168451943 0.00098463770404433239 0 -0.011684963195281726 0.0011305944081966069 0 -0.011478222168451943 0.00098463770404433239 0 -0.011729372707138194 0.00097444812644526359 0 -0.011580351790050245 0.00084284607126748244 0 -0.011769499515166015 0.001129022030480124 0 -0.011478222168451943 0.00098463770404433239 0 -0.011729372707138194 0.00097444812644526359 0 -0.011478222168451943 0.00098463770404433239 0 -0.011137098581448523 0.00068464064905980463 0 -0.011580351790050245 0.00084284607126748244 0 -0.011137098581448523 0.00068464064905980463 0 -0.011580351790050245 0.00084284607126748244 0 -0.011811584273733477 0.00060524703178775163 0 -0.011068867678492002 0.0005964683241010901 0 -0.010850927959734134 0.00040421640623700735 0 -0.011137098581448523 0.00068464064905980463 0 -0.011271053823123751 0.00094391875384681123 0 -0.011125027231576283 0.0011216119430078504 0 -0.011478222168451943 0.00098463770404433239 0 -0.011271053823123751 0.00094391875384681123 0 -0.011463820870275265 0.0010738009169801008 0 -0.011478222168451943 0.00098463770404433239 0 -0.011137098581448523 0.00068464064905980463 0 -0.011271053823123751 0.00094391875384681123 0 -0.011137098581448523 0.00068464064905980463 0 -0.010888322992174149 0.0012580552552450674 0 -0.011125027231576283 0.0011216119430078504 0 -0.011137098581448523 0.00068464064905980463 0 -0.009851736679066048 0.00089411269679573252 0 -0.010504964655252351 0.0011976625130708325 0 -0.011137098581448523 0.00068464064905980463 0 -0.010504964655252351 0.0011976625130708325 0 -0.010888322992174149 0.0012580552552450674 0 -0.011137098581448523 0.00068464064905980463 0 -0.009851736679066048 0.00089411269679573252 0 -0.0098242001207449955 0.00013397628391358549 0 -0.009851736679066048 0.00089411269679573252 0 -0.0089942637202648432 0.00071065639713377546 0 -0.0089779618647357756 0.0013954772100381637 0 -0.009851736679066048 0.00089411269679573252 0 -0.0098242001207449955 0.00013397628391358549 0 -0.0089942637202648432 0.00071065639713377546 0 -0.011889367189085408 0.00080259147429281928 0 -0.011811584273733477 0.00060524703178775163 0 -0.012024372380763624 0.00064359158531560805 0 -0.011889367189085408 0.00080259147429281928 0 -0.011580351790050245 0.00084284607126748244 0 -0.011811584273733477 0.00060524703178775163 0 -0.010850927959734134 0.00040421640623700735 0 -0.0099791481213797554 0.00042855141556207742 0 -0.0085090354398749974 -4.2568455821137423e-05 0 -0.0089942637202648432 0.00071065639713377546 0 -0.0082296648263408684 0.0012841652206958916 0 -0.0099791481213797554 0.00042855141556207742 0 -0.007207134808130922 0.0016441789059225608 0 -0.0098242001207449955 0.00013397628391358549 0 -0.0085090354398749974 -4.2568455821137423e-05 0 -0.0089942637202648432 0.00071065639713377546 0 -0.0089942637202648432 0.00071065639713377546 0 -0.0082296648263408684 0.0012841652206958916 0 -0.0089779618647357756 0.0013954772100381637 0 -0.0082296648263408684 0.0012841652206958916 0 -0.0083284837749271201 0.0017453058845883118 0 -0.0078494060005193256 0.002171924145772529 0 -0.0082296648263408684 0.0012841652206958916 0 -0.0089779618647357756 0.0013954772100381637 0 -0.0083284837749271201 0.0017453058845883118 0 -0.007207134808130922 0.0016441789059225608 0 -0.0067294976654193499 0.0020596970527479745 0 -0.0089779618647357756 0.0013954772100381637 0 -0.0083284837749271201 0.0017453058845883118 0 -0.0083403534290695143 0.0020195936283422694 0 -0.0089089156158859602 0.001324260570724262 0 -0.0095407615232706421 0.001870646405341306 0 -0.0089779618647357756 0.0013954772100381637 0 -0.010056213595830275 0.0014113651761396364 0 -0.010279241593347409 0.0017316317165483991 0 -0.009851736679066048 0.00089411269679573252 0 -0.010056213595830275 0.0014113651761396364 0 -0.010504964655252351 0.0011976625130708325 0 -0.009851736679066048 0.00089411269679573252 0 -0.0089779618647357756 0.0013954772100381637 0 -0.010056213595830275 0.0014113651761396364 0 -0.010056213595830275 0.0014113651761396364 0 -0.010279241593347409 0.0017316317165483991 0 -0.010485719175728813 0.0015108136961345597 0 -0.0089779618647357756 0.0013954772100381637 0 -0.0084410148640637409 0.002196255706296597 0 -0.0083403534290695143 0.0020195936283422694 0 -0.0084410148640637409 0.002196255706296597 0 -0.0083403534290695143 0.0020195936283422694 0 -0.0080777929136911491 0.0024592485183944145 0 -0.0083403534290695143 0.0020195936283422694 0 -0.0080777929136911491 0.0024592485183944145 0 -0.0078494060005193256 0.002171924145772529 0 -0.0083284837749271201 0.0017453058845883118 0 -0.0083403534290695143 0.0020195936283422694 0 -0.0078494060005193256 0.002171924145772529 0 -0.0075563336564349439 0.0027158955599609746 0 -0.0080777929136911491 0.0024592485183944145 0 -0.0079307702875825517 0.002952031750460553 0 -0.0075563336564349439 0.0027158955599609746 0 -0.0080777929136911491 0.0024592485183944145 0 -0.0078494060005193256 0.002171924145772529 0 -0.0071334886749063664 0.0026100256397596638 0 -0.0067294976654193499 0.0020596970527479745 0 -0.0095407615232706421 0.001870646405341306 0 -0.007625792351392548 0.002705349858063727 0 -0.0082501487595015507 0.0025856326461174625 0 -0.0079307702875825517 0.002952031750460553 0 -0.0085580008645165014 0.0027795304469794219 0 -0.0084410148640637409 0.002196255706296597 0 -0.0080777929136911491 0.0024592485183944145 0 -0.0082501487595015507 0.0025856326461174625 0 -0.0084410148640637409 0.002196255706296597 0 -0.0082501487595015507 0.0025856326461174625 0 -0.0085580008645165014 0.0027795304469794219 0 -0.0080777929136911491 0.0024592485183944145 0 -0.0082501487595015507 0.0025856326461174625 0 -0.0079307702875825517 0.002952031750460553 0 -0.0079307702875825517 0.002952031750460553 0 -0.0085580008645165014 0.0027795304469794219 0 -0.0079441055425136346 0.003511551264746901 0 -0.0079307702875825517 0.002952031750460553 0 -0.007088435333631531 0.003467936192493839 0 -0.0079441055425136346 0.003511551264746901 0 -0.0075563336564349439 0.0027158955599609746 0 -0.0079307702875825517 0.002952031750460553 0 -0.007088435333631531 0.003467936192493839 0 -0.0071334886749063664 0.0026100256397596638 0 -0.0071366495107108739 0.0034503318497265938 0 -0.006662898487625012 0.0024796557720952977 0 -0.0062094523255666325 0.0030403301979449503 0 -0.007088435333631531 0.003467936192493839 0 -0.010648623985107479 0.0011213710105051518 0 -0.010737042108676535 0.001392305373859514 0 -0.0106733846773037 0.001354716465991529 0 -0.010648623985107479 0.0011213710105051518 0 -0.010737042108676535 0.001392305373859514 0 -0.01073160992169285 0.00093665534159861452 0 -0.010648623985107479 0.0011213710105051518 0 -0.0106733846773037 0.001354716465991529 0 -0.010627070012104358 0.0012204309535741235 0 -0.007625792351392548 0.002705349858063727 0 -0.0068376101373590625 0.0023946379721763314 0 -0.007625792351392548 0.002705349858063727 0 -0.0055644868435133551 0.0041022188025067099 0 -0.0085580008645165014 0.0027795304469794219 0 -0.0084397869060884919 0.00399099974655482 0 -0.0079441055425136346 0.003511551264746901 0 -0.010682725833104001 0.0014448755588441957 0 -0.010737042108676535 0.001392305373859514 0 -0.0106733846773037 0.001354716465991529 0 -0.010279241593347409 0.0017316317165483991 0 -0.010731918790776779 0.0014434085132365884 0 -0.010670090192733413 0.0014831128220324863 0 -0.010279241593347409 0.0017316317165483991 0 -0.010670090192733413 0.0014831128220324863 0 -0.010665624837661416 0.0015105520709131313 0 -0.007625792351392548 0.002705349858063727 0 -0.0080625149590089363 0.0021765270089366437 0 -0.010682725833104001 0.0014448755588441957 0 -0.010737042108676535 0.001392305373859514 0 -0.010670090192733413 0.0014831128220324863 0 -0.010682725833104001 0.0014448755588441957 0 -0.010665624837661416 0.0015105520709131313 0 -0.0106733846773037 0.001354716465991529 0 -0.010682725833104001 0.0014448755588441957 0 -0.010670090192733413 0.0014831128220324863 0 -0.010665624837661416 0.0015105520709131313 0 -0.0106733846773037 0.001354716465991529 0 -0.010727795914401523 0.0014257413282021522 0 -0.010627070012104358 0.0012204309535741235 0 -0.010665624837661416 0.0015105520709131313 0 -0.0106733846773037 0.001354716465991529 0 -0.010727795914401523 0.0014257413282021522 0 -0.010665624837661416 0.0015105520709131313 0 -0.010727795914401523 0.0014257413282021522 0 -0.010709619282908528 0.001471432095618327 0 -0.010727795914401523 0.0014257413282021522 0 -0.010709619282908528 0.001471432095618327 0 -0.010829762218396948 0.0013891425700158948 0 -0.010279241593347409 0.0017316317165483991 0 -0.010665624837661416 0.0015105520709131313 0 -0.010485719175728813 0.0015108136961345597 0 -0.010665624837661416 0.0015105520709131313 0 -0.010709619282908528 0.001471432095618327 0 -0.010485719175728813 0.0015108136961345597 0 -0.010709619282908528 0.001471432095618327 0 -0.010485719175728813 0.0015108136961345597 0 -0.010888322992174149 0.0012580552552450674 0 -0.010485719175728813 0.0015108136961345597 0 -0.010504964655252351 0.0011976625130708325 0 -0.010888322992174149 0.0012580552552450674 0 -0.010056213595830275 0.0014113651761396364 0 -0.010485719175728813 0.0015108136961345597 0 -0.010504964655252351 0.0011976625130708325 0 -0.010709619282908528 0.001471432095618327 0 -0.010829762218396948 0.0013891425700158948 0 -0.010888322992174149 0.0012580552552450674 0 -0.010829762218396948 0.0013891425700158948 0 -0.010888322992174149 0.0012580552552450674 0 -0.010951244027992935 0.0012916344661943822 0 -0.010888322992174149 0.0012580552552450674 0 -0.010951244027992935 0.0012916344661943822 0 -0.011125027231576283 0.0011216119430078504 0 -0.010951244027992935 0.0012916344661943822 0 -0.010955404271367597 0.0013063116737199018 0 -0.010811652772111657 0.0013982021635000487 0 -0.010829762218396948 0.0013891425700158948 0 -0.010951244027992935 0.0012916344661943822 0 -0.010811652772111657 0.0013982021635000487 0 -0.010955404271367597 0.0013063116737199018 0 -0.010659938352629125 0.0014545898916948716 0 -0.010811652772111657 0.0013982021635000487 0 -0.010955404271367597 0.0013063116737199018 0 -0.010659938352629125 0.0014545898916948716 0 -0.010677168363063509 0.0014059800927767408 0 -0.010659938352629125 0.0014545898916948716 0 -0.010644935713154408 0.0013709981821104053 0 -0.010394821227742055 0.001358629780387086 0 -0.010659938352629125 0.0014545898916948716 0 -0.010394821227742055 0.001358629780387086 0 -0.01033797683408047 0.0015870471502703049 0 -0.010659938352629125 0.0014545898916948716 0 -0.010811652772111657 0.0013982021635000487 0 -0.010644935713154408 0.0013709981821104053 0 -0.010727795914401523 0.0014257413282021522 0 -0.010811652772111657 0.0013982021635000487 0 -0.010644935713154408 0.0013709981821104053 0 -0.010727795914401523 0.0014257413282021522 0 -0.010829762218396948 0.0013891425700158948 0 -0.010811652772111657 0.0013982021635000487 0 -0.010727795914401523 0.0014257413282021522 0 -0.010644935713154408 0.0013709981821104053 0 -0.010627070012104358 0.0012204309535741235 0 -0.010644935713154408 0.0013709981821104053 0 -0.010627070012104358 0.0012204309535741235 0 -0.010492103090676082 0.001064959506688966 0 -0.010644935713154408 0.0013709981821104053 0 -0.010394821227742055 0.001358629780387086 0 -0.010492103090676082 0.001064959506688966 0 -0.010492103090676082 0.001064959506688966 0 -0.010210798481522693 0.00064954585138849948 0 -0.0104704678942275 0.0008278852052429756 0 -0.010394821227742055 0.001358629780387086 0 -0.010492103090676082 0.001064959506688966 0 -0.010210798481522693 0.00064954585138849948 0 -0.010648623985107479 0.0011213710105051518 0 -0.010627070012104358 0.0012204309535741235 0 -0.0104704678942275 0.0008278852052429756 0 -0.010627070012104358 0.0012204309535741235 0 -0.010492103090676082 0.001064959506688966 0 -0.0104704678942275 0.0008278852052429756 0 -0.0097226005953602295 0.0013712175261316165 0 -0.0073272416454741116 0.0018251890708898845 0 -0.0087465862627977981 4.5332789807080115e-05 0 -0.010210798481522693 0.00064954585138849948 0 -0.0097226005953602295 0.0013712175261316165 0 -0.0087465862627977981 4.5332789807080115e-05 0 -0.010394821227742055 0.001358629780387086 0 -0.010210798481522693 0.00064954585138849948 0 -0.0097226005953602295 0.0013712175261316165 0 -0.010394821227742055 0.001358629780387086 0 -0.0097226005953602295 0.0013712175261316165 0 -0.01033797683408047 0.0015870471502703049 0 -0.0097226005953602295 0.0013712175261316165 0 -0.010069400958209226 0.0018646580736946599 0 -0.0073272416454741116 0.0018251890708898845 0 -0.010069400958209226 0.0018646580736946599 0 -0.01033797683408047 0.0015870471502703049 0 -0.010677168363063509 0.0014059800927767408 0 -0.0097226005953602295 0.0013712175261316165 0 -0.010069400958209226 0.0018646580736946599 0 -0.01033797683408047 0.0015870471502703049 0 -0.010659938352629125 0.0014545898916948716 0 -0.01033797683408047 0.0015870471502703049 0 -0.010677168363063509 0.0014059800927767408 0 -0.010069400958209226 0.0018646580736946599 0 -0.01090542468851852 0.0011196225610831231 0 -0.010870268644364712 0.0010479729989296672 0 -0.010069400958209226 0.0018646580736946599 0 -0.010677168363063509 0.0014059800927767408 0 -0.01090542468851852 0.0011196225610831231 0 -0.01090542468851852 0.0011196225610831231 0 -0.011378201031725146 0.0010703476776498494 0 -0.011219144778783417 0.0011592905144684135 0 -0.01090542468851852 0.0011196225610831231 0 -0.011378201031725146 0.0010703476776498494 0 -0.011113126484269029 0.00090613273037930579 0 -0.011219144778783417 0.0011592905144684135 0 -0.011621578118910266 0.0011578552401938739 0 -0.011684843172272433 0.0011781602586466455 0 -0.011378201031725146 0.0010703476776498494 0 -0.011219144778783417 0.0011592905144684135 0 -0.011684843172272433 0.0011781602586466455 0 -0.010677168363063509 0.0014059800927767408 0 -0.01090542468851852 0.0011196225610831231 0 -0.011219144778783417 0.0011592905144684135 0 -0.010955404271367597 0.0013063116737199018 0 -0.011219144778783417 0.0011592905144684135 0 -0.011287538412640076 0.0011188059862634518 0 -0.010955404271367597 0.0013063116737199018 0 -0.010677168363063509 0.0014059800927767408 0 -0.011219144778783417 0.0011592905144684135 0 -0.010955404271367597 0.0013063116737199018 0 -0.011125027231576283 0.0011216119430078504 0 -0.011287538412640076 0.0011188059862634518 0 -0.010951244027992935 0.0012916344661943822 0 -0.010955404271367597 0.0013063116737199018 0 -0.011125027231576283 0.0011216119430078504 0 -0.011271053823123751 0.00094391875384681123 0 -0.011287538412640076 0.0011188059862634518 0 -0.011463820870275265 0.0010738009169801008 0 -0.011271053823123751 0.00094391875384681123 0 -0.011125027231576283 0.0011216119430078504 0 -0.011287538412640076 0.0011188059862634518 0 -0.011287538412640076 0.0011188059862634518 0 -0.011621578118910266 0.0011578552401938739 0 -0.011463820870275265 0.0010738009169801008 0 -0.011219144778783417 0.0011592905144684135 0 -0.011287538412640076 0.0011188059862634518 0 -0.011621578118910266 0.0011578552401938739 0 -0.011478222168451943 0.00098463770404433239 0 -0.011463820870275265 0.0010738009169801008 0 -0.011684963195281726 0.0011305944081966069 0 -0.011621578118910266 0.0011578552401938739 0 -0.011463820870275265 0.0010738009169801008 0 -0.011684963195281726 0.0011305944081966069 0 -0.01196899221438593 0.0012035045681672433 0 -0.011769499515166015 0.001129022030480124 0 -0.011684963195281726 0.0011305944081966069 0 -0.01196899221438593 0.0012035045681672433 0 -0.011684963195281726 0.0011305944081966069 0 -0.011934926543369065 0.0012140444968833301 0 -0.011621578118910266 0.0011578552401938739 0 -0.011934926543369065 0.0012140444968833301 0 -0.011928251598834802 0.0012293843171154297 0 -0.011621578118910266 0.0011578552401938739 0 -0.011684963195281726 0.0011305944081966069 0 -0.011934926543369065 0.0012140444968833301 0 -0.012252069914283818 0.0012795151731142354 0 -0.011934926543369065 0.0012140444968833301 0 -0.011928251598834802 0.0012293843171154297 0 -0.011928251598834802 0.0012293843171154297 0 -0.012066687553426752 0.0012783148551141342 0 -0.011684843172272433 0.0011781602586466455 0 -0.012252069914283818 0.0012795151731142354 0 -0.011928251598834802 0.0012293843171154297 0 -0.012066687553426752 0.0012783148551141342 0 -0.011378201031725146 0.0010703476776498494 0 -0.011684843172272433 0.0011781602586466455 0 -0.011747588664957528 0.0012122762146678184 0 -0.012066687553426752 0.0012783148551141342 0 -0.011684843172272433 0.0011781602586466455 0 -0.011747588664957528 0.0012122762146678184 0 -0.011621578118910266 0.0011578552401938739 0 -0.011928251598834802 0.0012293843171154297 0 -0.011684843172272433 0.0011781602586466455 0 -0.011340714098916465 0.0011211932292179373 0 -0.011747588664957528 0.0012122762146678184 0 -0.012113219357589956 0.0013159369651180679 0 -0.011378201031725146 0.0010703476776498494 0 -0.011340714098916465 0.0011211932292179373 0 -0.011747588664957528 0.0012122762146678184 0 -0.012066687553426752 0.0012783148551141342 0 -0.011747588664957528 0.0012122762146678184 0 -0.012113219357589956 0.0013159369651180679 0 -0.012482163184564197 0.0013195452409360986 0 -0.012066687553426752 0.0012783148551141342 0 -0.012113219357589956 0.0013159369651180679 0 -0.011340714098916465 0.0011211932292179373 0 -0.012113219357589956 0.0013159369651180679 0 -0.012369468219371529 0.0013476183906748678 0 -0.011431238375371876 0.0010884347109610234 0 -0.011825797099724681 0.0011856955030117927 0 -0.011340714098916465 0.0011211932292179373 0 -0.011265752422271473 0.0010975187761302148 0 -0.011118369568201187 0.0010770543173247876 0 -0.011564501437834241 0.001007343050521874 0 -0.011265752422271473 0.0010975187761302148 0 -0.011118369568201187 0.0010770543173247876 0 -0.011340714098916465 0.0011211932292179373 0 -0.011118369568201187 0.0010770543173247876 0 -0.010568806163053269 0.00098408942799222744 0 -0.011240750088468154 0.00092879006600940809 0 -0.011118369568201187 0.0010770543173247876 0 -0.010568806163053269 0.00098408942799222744 0 -0.011340714098916465 0.0011211932292179373 0 -0.010605999324293089 0.00088000340295232556 0 -0.010814712153364599 0.00072290926674125299 0 -0.011340714098916465 0.0011211932292179373 0 -0.010568806163053269 0.00098408942799222744 0 -0.010605999324293089 0.00088000340295232556 0 -0.010568806163053269 0.00098408942799222744 0 -0.010605999324293089 0.00088000340295232556 0 -0.010055815362023402 0.0008335267518563889 0 -0.010055815362023402 0.0008335267518563889 0 -0.010147033776116825 0.00053304161520327433 0 -0.0093763424036441365 0.00056233972599489931 0 -0.010605999324293089 0.00088000340295232556 0 -0.010055815362023402 0.0008335267518563889 0 -0.010147033776116825 0.00053304161520327433 0 -0.010605999324293089 0.00088000340295232556 0 -0.010147033776116825 0.00053304161520327433 0 -0.010814712153364599 0.00072290926674125299 0 -0.011340714098916465 0.0011211932292179373 0 -0.010814712153364599 0.00072290926674125299 0 -0.011113126484269029 0.00090613273037930579 0 -0.011378201031725146 0.0010703476776498494 0 -0.011340714098916465 0.0011211932292179373 0 -0.011113126484269029 0.00090613273037930579 0 -0.011113126484269029 0.00090613273037930579 0 -0.010870268644364712 0.0010479729989296672 0 -0.010959087536889409 0.000704976793305568 0 -0.01090542468851852 0.0011196225610831231 0 -0.011113126484269029 0.00090613273037930579 0 -0.010870268644364712 0.0010479729989296672 0 -0.010814712153364599 0.00072290926674125299 0 -0.010959087536889409 0.000704976793305568 0 -0.010640821022534776 0.00035881499386850344 0 -0.010814712153364599 0.00072290926674125299 0 -0.011113126484269029 0.00090613273037930579 0 -0.010959087536889409 0.000704976793305568 0 -0.010959087536889409 0.000704976793305568 0 -0.010741905331300202 0.00021485688314816615 0 -0.011051976072517195 0.00061136750372313984 0 -0.010741905331300202 0.00021485688314816615 0 -0.011051976072517195 0.00061136750372313984 0 -0.010473208783868348 -0.00071868965865508794 0 -0.010959087536889409 0.000704976793305568 0 -0.010741905331300202 0.00021485688314816615 0 -0.010640821022534776 0.00035881499386850344 0 -0.010870268644364712 0.0010479729989296672 0 -0.010959087536889409 0.000704976793305568 0 -0.011051976072517195 0.00061136750372313984 0 -0.010069400958209226 0.0018646580736946599 0 -0.0062052168200959794 0.0030513784573456995 0 -0.0073272416454741116 0.0018251890708898845 0 -0.0098070806348703986 0.0018754645930480055 0 -0.0084055204357952017 0.0017037175142781175 0 -0.010069400958209226 0.0018646580736946599 0 -0.010870268644364712 0.0010479729989296672 0 -0.011051976072517195 0.00061136750372313984 0 -0.0062052168200959794 0.0030513784573456995 0 -0.0073272416454741116 0.0018251890708898845 0 -0.0049193480264021136 0.0017294208459155353 0 -0.0073272416454741116 0.0018251890708898845 0 -0.0049193480264021136 0.0017294208459155353 0 -0.0060969983559914691 0.00097280730882113567 0 -0.0049193480264021136 0.0017294208459155353 0 -0.0034860283224061699 0.00096358789623607159 0 -0.0028772325626919421 0.0028092654344676533 0 -0.0062052168200959794 0.0030513784573456995 0 -0.0049193480264021136 0.0017294208459155353 0 -0.0028772325626919421 0.0028092654344676533 0 -0.0084055204357952017 0.0017037175142781175 0 -0.0070738973056457093 0.0010565542761127517 0 -0.0049193480264021136 0.0017294208459155353 0 -0.0034860283224061699 0.00096358789623607159 0 -0.0052132108398371488 0.00037516358914498456 0 -0.0049193480264021136 0.0017294208459155353 0 -0.0060969983559914691 0.00097280730882113567 0 -0.0052132108398371488 0.00037516358914498456 0 -0.0073272416454741116 0.0018251890708898845 0 -0.0060969983559914691 0.00097280730882113567 0 -0.0064743911610964881 0.00021361521114647756 0 -0.0060969983559914691 0.00097280730882113567 0 -0.0052132108398371488 0.00037516358914498456 0 -0.0064743911610964881 0.00021361521114647756 0 -0.007306538079991964 0.0017708215931846185 0 -0.0074937977073925395 0.00033443148219394498 0 -0.0013615763983325442 0.0018947332328670568 0 -0.0021601401744193419 0.0012566896719144235 0 -0.0010191278060766936 0.00057055818379874682 0 -0.0013615763983325442 0.0018947332328670568 0 -0.0002229633023542968 0.0010335674173613293 0 -0.0010191278060766936 0.00057055818379874682 0 -0.0013615763983325442 0.0018947332328670568 0 -0.0002229633023542968 0.0010335674173613293 0 -0.00012182456060832324 0.0019235074312822697 0 -0.0021601401744193419 0.0012566896719144235 0 -0.0021203610453810339 0.00030415611987440801 0 -0.0010191278060766936 0.00057055818379874682 0 -0.0034860283224061699 0.00096358789623607159 0 -0.0021601401744193419 0.0012566896719144235 0 -0.0028772325626919421 0.0028092654344676533 0 -0.0034860283224061699 0.00096358789623607159 0 -0.0021601401744193419 0.0012566896719144235 0 -0.0021203610453810339 0.00030415611987440801 0 -0.0013615763983325442 0.0018947332328670568 0 -0.0021601401744193419 0.0012566896719144235 0 -0.0028772325626919421 0.0028092654344676533 0 -0.0070738973056457093 0.0010565542761127517 0 -0.0023287854091476839 0.00058623836906394249 0 -0.0092012383509232527 -0.0017714472791253754 0 -0.0096617271765840843 -0.0004738771559123504 0 -0.0090514938849322445 -0.00097403172404031478 0 -0.0013615763983325442 0.0018947332328670568 0 -0.0028772325626919421 0.0028092654344676533 0 -8.3898983219953685e-05 0.0021440241492650864 0 -0.010473208783868348 -0.00071868965865508794 0 -0.0092012383509232527 -0.0017714472791253754 0 -0.0096617271765840843 -0.0004738771559123504 0 -0.00066744995197474098 0.0016293000287526296 0 -0.0023287854091476839 0.00058623836906394249 0 -0.0096617271765840843 -0.0004738771559123504 0 -0.0090567624668713709 -0.00011711343407093041 0 -0.0090514938849322445 -0.00097403172404031478 0 -0.0096617271765840843 -0.0004738771559123504 0 -0.010009383709020677 6.0422442505298441e-05 0 -0.0090567624668713709 -0.00011711343407093041 0 -0.0096617271765840843 -0.0004738771559123504 0 -0.010321317033815504 -8.5362708232067773e-05 0 -0.010009383709020677 6.0422442505298441e-05 0 -0.010473208783868348 -0.00071868965865508794 0 -0.0096617271765840843 -0.0004738771559123504 0 -0.010321317033815504 -8.5362708232067773e-05 0 -0.010321317033815504 -8.5362708232067773e-05 0 -0.010640821022534776 0.00035881499386850344 0 -0.010009383709020677 6.0422442505298441e-05 0 -0.010741905331300202 0.00021485688314816615 0 -0.010473208783868348 -0.00071868965865508794 0 -0.010321317033815504 -8.5362708232067773e-05 0 -0.010741905331300202 0.00021485688314816615 0 -0.010321317033815504 -8.5362708232067773e-05 0 -0.010640821022534776 0.00035881499386850344 0 -0.010147033776116825 0.00053304161520327433 0 -0.010814712153364599 0.00072290926674125299 0 -0.010640821022534776 0.00035881499386850344 0 -0.010147033776116825 0.00053304161520327433 0 -0.010640821022534776 0.00035881499386850344 0 -0.010009383709020677 6.0422442505298441e-05 0 -0.010147033776116825 0.00053304161520327433 0 -0.010009383709020677 6.0422442505298441e-05 0 -0.0090567624668713709 -0.00011711343407093041 0 -0.010147033776116825 0.00053304161520327433 0 -0.0090567624668713709 -0.00011711343407093041 0 -0.0093763424036441365 0.00056233972599489931 0 -0.0090567624668713709 -0.00011711343407093041 0 -0.0079172033034095451 0.00017028715005008505 0 -0.0093763424036441365 0.00056233972599489931 0 -0.0079172033034095451 0.00017028715005008505 0 -0.007701997482088733 -0.00050984547040027286 0 -0.0065747004451891383 -0.00036969788187263811 0 -0.0090567624668713709 -0.00011711343407093041 0 -0.0079172033034095451 0.00017028715005008505 0 -0.007701997482088733 -0.00050984547040027286 0 -0.0079576264401508539 -0.00083801421346634019 0 -0.0055665837581340997 -0.0006445241264114315 0 -0.007701997482088733 -0.00050984547040027286 0 -0.0082314868391285389 -0.00082234249555362385 0 -0.0063700841833967898 -0.0014910661487786507 0 -0.0090567624668713709 -0.00011711343407093041 0 -0.0082314868391285389 -0.00082234249555362385 0 -0.0090514938849322445 -0.00097403172404031478 0 -0.0090567624668713709 -0.00011711343407093041 0 -0.007701997482088733 -0.00050984547040027286 0 -0.0082314868391285389 -0.00082234249555362385 0 -0.0082314868391285389 -0.00082234249555362385 0 -0.0090514938849322445 -0.00097403172404031478 0 -0.0072764677944104393 -0.0019625727651705438 0 -0.0023287854091476839 0.00058623836906394249 0 -0.0031619642629437655 -0.0010832965965975833 0 -0.0092012383509232527 -0.0017714472791253754 0 -0.0090514938849322445 -0.00097403172404031478 0 -0.0072764677944104393 -0.0019625727651705438 0 -0.0031619642629437655 -0.0010832965965975833 0 -0.0018266927073435249 -0.00068515308947345781 0 -0.0082314868391285389 -0.00082234249555362385 0 -0.0072764677944104393 -0.0019625727651705438 0 -0.004648357711695101 9.7313229664286539e-05 0 0.0014511867549433387 -1.7331913734276014e-05 0 0.0013369198718315171 0.00048306409715471283 0 0.00092672718031258259 0.00018299403606192652 0 0.0013369198718315171 0.00048306409715471283 0 0.00092672718031258259 0.00018299403606192652 0 0.0013002311155395703 0.0003073923181889225 0 0.0013369198718315171 0.00048306409715471283 0 0.0013002311155395703 0.0003073923181889225 0 0.0012277158037648651 0.00025453923200538802 0 0.0013369198718315171 0.00048306409715471283 0 0.00060185411961462059 0.00074217434889487855 0 0.0012277158037648651 0.00025453923200538802 0 0.0021426327833766164 0.0001073025628706669 0 0.0014511867549433387 -1.7331913734276014e-05 0 0.0013369198718315171 0.00048306409715471283 0 -0.0023287854091476839 0.00058623836906394249 0 0.002592901833547562 0.00049870949986934325 0 -0.00012182456060832324 0.0019235074312822697 0 0.0013369198718315171 0.00048306409715471283 0 0.00060185411961462059 0.00074217434889487855 0 -0.0002229633023542968 0.0010335674173613293 0 0.00060185411961462059 0.00074217434889487855 0 0.00047672697640385145 0.00021084032403305343 0 -0.0002229633023542968 0.0010335674173613293 0 -0.00012182456060832324 0.0019235074312822697 0 0.00060185411961462059 0.00074217434889487855 0 -8.6292786665542664e-05 9.0361369529623912e-05 0 -0.0018981357133796956 -2.01923248250504e-06 0 0.00014597859074311879 1.1456290973523679e-06 0 -8.6292786665542664e-05 9.0361369529623912e-05 0 0.00068043055779792026 0.00018343840588947125 0 0.00014597859074311879 1.1456290973523679e-06 0 0.00068043055779792026 0.00018343840588947125 0 0.00092672718031258259 0.00018299403606192652 0 0.0013002311155395703 0.0003073923181889225 0 -8.6292786665542664e-05 9.0361369529623912e-05 0 0.00068043055779792026 0.00018343840588947125 0 0.00092672718031258259 0.00018299403606192652 0 -0.0072764677944104393 -0.0019625727651705438 0 -0.0041446059455347226 -0.0010596487584471862 0 -0.004648357711695101 9.7313229664286539e-05 0 0.0014511867549433387 -1.7331913734276014e-05 0 0.00092672718031258259 0.00018299403606192652 0 0.00054789051214555848 -0.00048975123759458362 0 -8.6292786665542664e-05 9.0361369529623912e-05 0 0.00092672718031258259 0.00018299403606192652 0 0.00054789051214555848 -0.00048975123759458362 0 -0.0018266927073435249 -0.00068515308947345781 0 -0.0019011318955261855 -3.7743775558699799e-07 0 -0.0041446059455347226 -0.0010596487584471862 0 -0.0019076578418631138 -5.4192504169299554e-06 0 -0.0026920050252344152 4.9995780940168e-06 0 -8.6292786665542664e-05 9.0361369529623912e-05 0 0.00054789051214555848 -0.00048975123759458362 0 -0.0018981357133796956 -2.01923248250504e-06 0 -0.0026987262220525389 -2.6720609327669145e-07 0 -0.0055665837581340997 -0.0006445241264114315 0 -0.0041446059455347226 -0.0010596487584471862 0 -0.0026920050252344152 4.9995780940168e-06 0 -0.004648357711695101 9.7313229664286539e-05 0 -0.0027005918689228829 -3.2086156652327943e-06 0 -0.0063700841833967898 -0.0014910661487786507 0 -0.0049059083455952092 -0.00016992217919447827 0 -0.0063700841833967898 -0.0014910661487786507 0 -0.0065747004451891383 -0.00036969788187263811 0 -0.0049059083455952092 -0.00016992217919447827 0 -0.007701997482088733 -0.00050984547040027286 0 -0.0063700841833967898 -0.0014910661487786507 0 -0.0065747004451891383 -0.00036969788187263811 0 -0.0079172033034095451 0.00017028715005008505 0 -0.0065747004451891383 -0.00036969788187263811 0 -0.005647467354542318 0.00022002836072184886 0 -0.0065747004451891383 -0.00036969788187263811 0 -0.005647467354542318 0.00022002836072184886 0 -0.0049059083455952092 -0.00016992217919447827 0 -0.0027005918689228829 -3.2086156652327943e-06 0 -0.0039384648755830384 4.9698618008076482e-07 0 -0.0049059083455952092 -0.00016992217919447827 0 -0.005647467354542318 0.00022002836072184886 0 -0.0039384648755830384 4.9698618008076482e-07 0 -0.0049059083455952092 -0.00016992217919447827 0 -0.010348766500305704 3.0011429648122546e-06 0 -0.0051832665408400001 -2.2224526089804198e-06 0 -0.0096715188202325872 0.00046084859990057429 0 -0.005647467354542318 0.00022002836072184886 0 -0.0039384648755830384 4.9698618008076482e-07 0 -0.0051749242212158746 2.1684922235234316e-06 0 -0.005647467354542318 0.00022002836072184886 0 -0.0051749242212158746 2.1684922235234316e-06 0 -0.006628988843497041 0.0011348953152667764 0 -0.0051778267450328305 1.4419243329601679e-07 0 -0.0074696242896648019 0.00043390171309779549 0 -0.0051832665408400001 -2.2224526089804198e-06 0 -0.0082185091787597038 -0.00031306710505949619 0 -0.0092335863453441788 0.00042364183615468178 0 -0.0079172033034095451 0.00017028715005008505 0 -0.005647467354542318 0.00022002836072184886 0 -0.006628988843497041 0.0011348953152667764 0 -0.0079172033034095451 0.00017028715005008505 0 -0.006628988843497041 0.0011348953152667764 0 -0.0094482737733396147 0.00087105198914696189 0 -0.0079172033034095451 0.00017028715005008505 0 -0.0093763424036441365 0.00056233972599489931 0 -0.0094482737733396147 0.00087105198914696189 0 -0.010055815362023402 0.0008335267518563889 0 -0.0093763424036441365 0.00056233972599489931 0 -0.0094482737733396147 0.00087105198914696189 0 -0.010568806163053269 0.00098408942799222744 0 -0.010055815362023402 0.0008335267518563889 0 -0.0094482737733396147 0.00087105198914696189 0 -0.0082185091787597038 -0.00031306710505949619 0 -0.0094482737733396147 0.00087105198914696189 0 -0.0092335863453441788 0.00042364183615468178 0 -0.0074696242896648019 0.00043390171309779549 0 -0.0091787133269209606 0.00082153681966581514 0 -0.0094482737733396147 0.00087105198914696189 0 -0.010232267135990986 0.0007086167446039265 0 -0.0092335863453441788 0.00042364183615468178 0 -0.010568806163053269 0.00098408942799222744 0 -0.0094482737733396147 0.00087105198914696189 0 -0.010232267135990986 0.0007086167446039265 0 -0.011240750088468154 0.00092879006600940809 0 -0.010568806163053269 0.00098408942799222744 0 -0.010232267135990986 0.0007086167446039265 0 -0.010993637283817902 0.00069487985242318708 0 -0.011240750088468154 0.00092879006600940809 0 -0.010232267135990986 0.0007086167446039265 0 -0.010993637283817902 0.00069487985242318708 0 -0.010232267135990986 0.0007086167446039265 0 -0.0096715188202325872 0.00046084859990057429 0 -0.010232267135990986 0.0007086167446039265 0 -0.0096715188202325872 0.00046084859990057429 0 -0.0092335863453441788 0.00042364183615468178 0 -0.0051832665408400001 -2.2224526089804198e-06 0 -0.0096715188202325872 0.00046084859990057429 0 -0.0092335863453441788 0.00042364183615468178 0 -0.0050576477745481021 0.0033305261114558627 0 -0.0049808873148307273 0.0035570136458203923 0 -0.0047854978709450597 0.0033609748274335211 0 -0.0050576477745481021 0.0033305261114558627 0 -0.0047854978709450597 0.0033609748274335211 0 -0.0047704004944720364 0.0031840538939200266 0 -0.0042139054877832517 0.002452459134438134 0 -0.0044310433809352468 0.0025848411287610882 0 -0.0042972244432300417 0.0025279435254337446 0 -0.0044310433809352468 0.0025848411287610882 0 -0.0042972244432300417 0.0025279435254337446 0 -0.0043524739133642418 0.002575449182893695 0 -0.0042139054877832517 0.002452459134438134 0 -0.0044310433809352468 0.0025848411287610882 0 -0.0045582952618700044 0.0027743223327286568 0 -0.0042139054877832517 0.002452459134438134 0 -0.0045582952618700044 0.0027743223327286568 0 -0.0046875030730797749 0.0031499313722575736 0 -0.0045582952618700044 0.0027743223327286568 0 -0.0046875030730797749 0.0031499313722575736 0 -0.006078026429562281 0.0034477323073760641 0 -0.0044749164202214677 0.0028483233007621949 0 -0.0063101342635099138 0.0034637478243924212 0 -0.0044310433809352468 0.0025848411287610882 0 -0.0045582952618700044 0.0027743223327286568 0 -0.0043274670778009443 0.0024520539719986604 0 -0.0063101342635099138 0.0034637478243924212 0 -0.0054469807803172584 0.0033683806746169394 0 -0.005042630499101231 0.0037594476637575871 0 -0.0049808873148307273 0.0035570136458203923 0 -0.0047162499970583366 0.0035592168033894847 0 -0.0053306398636300493 0.0037835976461148548 0 -0.005042630499101231 0.0037594476637575871 0 -0.0049808873148307273 0.0035570136458203923 0 -0.0063101342635099138 0.0034637478243924212 0 -0.012988920077709609 0.0030691109138030474 0 -0.0050576477745481021 0.0033305261114558627 0 -0.0053306398636300493 0.0037835976461148548 0 -0.0049808873148307273 0.0035570136458203923 0 -0.012676196459906653 0.0021620457515063992 0 -0.013097567552114499 0.0021751175433381248 0 -0.013076339221945683 0.0023620996892739303 0 -0.012988920077709609 0.0030691109138030474 0 -0.0079720065146246574 0.0025594114805506602 0 -0.012988920077709609 0.0030691109138030474 0 -0.016694248687207248 0.0022155834866606334 0 -0.02050977307339848 0.002169691005183967 0 -0.019436880584629158 0.0021462947905853767 0 -0.019806900878859536 0.0024805686634172259 0 -0.013097567552114499 0.0021751175433381248 0 -0.013076339221945683 0.0023620996892739303 0 -0.013532308152146457 0.0022034357861333031 0 -0.013076339221945683 0.0023620996892739303 0 -0.013532308152146457 0.0022034357861333031 0 -0.013489473299885094 0.002585282026262624 0 -0.019436880584629158 0.0021462947905853767 0 -0.01859252750520593 0.002255063094899075 0 -0.019038536239397139 0.0025670603066953639 0 -0.016694248687207248 0.0022155834866606334 0 -0.017101579441176462 0.00196753763524376 0 -0.018684976070821535 0.0023579179205150671 0 -0.01860237663278163 0.0026118375239537498 0 -0.018307427521540496 0.0026393639670853107 0 -0.017101579441176462 0.00196753763524376 0 -0.017596275432107879 0.0023442394673129489 0 -0.01859252750520593 0.002255063094899075 0 -0.01860237663278163 0.0026118375239537498 0 -0.019038536239397139 0.0025670603066953639 0 -0.018217424931870944 0.0023702390511038691 0 -0.018261909535992792 0.001847245995143555 0 -0.017836459947739091 0.002096250991754717 0 -0.017101579441176462 0.00196753763524376 0 -0.011583856998352524 0.0024038935652913786 0 -0.0044809802920665904 0.0033861583465481814 0 -0.0046385242548079818 0.0032256676418455916 0 -0.0045561190509670986 0.0031282011037539821 0 -0.0079720065146246574 0.0025594114805506602 0 -0.011583856998352524 0.0024038935652913786 0 -0.0044809802920665904 0.0033861583465481814 0 -0.0046524950825375215 0.0033817970856532802 0 -0.0046385242548079818 0.0032256676418455916 0 -0.0047162499970583366 0.0035592168033894847 0 -0.0044809802920665904 0.0033861583465481814 0 -0.0046524950825375215 0.0033817970856532802 0 -0.0049808873148307273 0.0035570136458203923 0 -0.0047162499970583366 0.0035592168033894847 0 -0.0047854978709450597 0.0033609748274335211 0 -0.0047162499970583366 0.0035592168033894847 0 -0.0047854978709450597 0.0033609748274335211 0 -0.0046524950825375215 0.0033817970856532802 0 -0.0047854978709450597 0.0033609748274335211 0 -0.0046524950825375215 0.0033817970856532802 0 -0.0046385242548079818 0.0032256676418455916 0 -0.0047854978709450597 0.0033609748274335211 0 -0.0047704004944720364 0.0031840538939200266 0 -0.0046385242548079818 0.0032256676418455916 0 -0.0047704004944720364 0.0031840538939200266 0 -0.0046385242548079818 0.0032256676418455916 0 -0.0046271432079064137 0.0030666378582867027 0 -0.0046385242548079818 0.0032256676418455916 0 -0.0046271432079064137 0.0030666378582867027 0 -0.0045561190509670986 0.0031282011037539821 0 -0.0046271432079064137 0.0030666378582867027 0 -0.0045561190509670986 0.0031282011037539821 0 -0.0045348437682226793 0.0030018525366892839 0 -0.0047704004944720364 0.0031840538939200266 0 -0.0046271432079064137 0.0030666378582867027 0 -0.0047460872050163654 0.0029984631347394447 0 -0.0044809802920665904 0.0033861583465481814 0 -0.0045561190509670986 0.0031282011037539821 0 -0.0044753646897395657 0.0030058938283684081 0 -0.0094803601406019001 0.0012496426972507281 0 -0.0093986846156999988 0.0023880344616342849 0 -0.0099577812872839507 0.002141876669054475 0 -0.011583856998352524 0.0024038935652913786 0 -0.0063740796806731831 0.0026206098860576529 0 -0.0045561190509670986 0.0031282011037539821 0 -0.0044753646897395657 0.0030058938283684081 0 -0.0045348437682226793 0.0030018525366892839 0 -0.0093986846156999988 0.0023880344616342849 0 -0.0096048356578287038 0.002658035431490827 0 -0.0094513644745173129 0.0028713543922075399 0 -0.0044753646897395657 0.0030058938283684081 0 -0.0044878437089420466 0.0029591960404328024 0 -0.0044939319055806752 0.0029627328458783288 0 -0.0063740796806731831 0.0026206098860576529 0 -0.0062569983418129353 0.0033652762658399702 0 -0.0093986846156999988 0.0023880344616342849 0 -0.0096048356578287038 0.002658035431490827 0 -0.0099577812872839507 0.002141876669054475 0 -0.0044753646897395657 0.0030058938283684081 0 -0.0044878437089420466 0.0029591960404328024 0 -0.0045348437682226793 0.0030018525366892839 0 -0.0045819784029133793 0.0029790804282609626 0 -0.0047460872050163654 0.0029984631347394447 0 -0.0043693525595687082 0.0029350420035862673 0 -0.004491320503877105 0.0027844223101813718 0 -0.0043948306461531854 0.0029176917020456469 0 -0.0045819784029133793 0.0029790804282609626 0 -0.0045050297631244124 0.0029577187064309513 0 -0.0043693525595687082 0.0029350420035862673 0 -0.0046271432079064137 0.0030666378582867027 0 -0.0045819784029133793 0.0029790804282609626 0 -0.0047460872050163654 0.0029984631347394447 0 -0.0045819784029133793 0.0029790804282609626 0 -0.0045348437682226793 0.0030018525366892839 0 -0.0045050297631244124 0.0029577187064309513 0 -0.0046271432079064137 0.0030666378582867027 0 -0.0045819784029133793 0.0029790804282609626 0 -0.0045348437682226793 0.0030018525366892839 0 -0.0044878437089420466 0.0029591960404328024 0 -0.0045348437682226793 0.0030018525366892839 0 -0.0045050297631244124 0.0029577187064309513 0 -0.0044878437089420466 0.0029591960404328024 0 -0.0045050297631244124 0.0029577187064309513 0 -0.0044651003677975585 0.0029510494034335009 0 -0.0041916046746412151 0.0024878378606991206 0 -0.0041522178144904089 0.0024800310785896549 0 -0.0039446478750855066 0.002769475837318131 0 -0.0041916046746412151 0.0024878378606991206 0 -0.0039446478750855066 0.002769475837318131 0 -0.0043693525595687082 0.0029350420035862673 0 -0.0042139054877832517 0.002452459134438134 0 -0.0041522178144904089 0.0024800310785896549 0 -0.0042972244432300417 0.0025279435254337446 0 -0.0050576477745481021 0.0033305261114558627 0 -0.0047704004944720364 0.0031840538939200266 0 -0.0047460872050163654 0.0029984631347394447 0 -0.0042139054877832517 0.002452459134438134 0 -0.0041916046746412151 0.0024878378606991206 0 -0.0041522178144904089 0.0024800310785896549 0 -0.0044749164202214677 0.0028483233007621949 0 -0.004491320503877105 0.0027844223101813718 0 -0.0041522178144904089 0.0024800310785896549 0 -0.0042972244432300417 0.0025279435254337446 0 -0.0043374965585859602 0.0026429923006970105 0 -0.0041522178144904089 0.0024800310785896549 0 -0.0034564292092743448 0.0025689816292879361 0 -0.0039446478750855066 0.002769475837318131 0 -0.0034564292092743448 0.0025689816292879361 0 -0.0039446478750855066 0.002769475837318131 0 -0.0035482363551053941 0.0028656389199313453 0 -0.0041339406721075823 0.0024954325684915604 0 -0.0038947008427369072 0.0026134824012254425 0 -0.0034564292092743448 0.0025689816292879361 0 -0.0032871892672889794 0.0028443379757199889 0 -0.0035482363551053941 0.0028656389199313453 0 -0.0038947008427369072 0.0026134824012254425 0 -0.0035632004832178805 0.0028268292435951964 0 -0.0034564292092743448 0.0025689816292879361 0 -0.0031110915750489688 0.0028155335599230717 0 -0.0032871892672889794 0.0028443379757199889 0 -0.0043374965585859602 0.0026429923006970105 0 -0.0040055650590649101 0.0028622038009270263 0 -0.0041483763895000629 0.0025830821178951069 0 -0.0042972244432300417 0.0025279435254337446 0 -0.0043374965585859602 0.0026429923006970105 0 -0.0043524739133642418 0.002575449182893695 0 -0.0043374965585859602 0.0026429923006970105 0 -0.0043524739133642418 0.002575449182893695 0 -0.0041483763895000629 0.0025830821178951069 0 -0.003383004916911406 0.002903699162935969 0 -0.0035632004832178805 0.0028268292435951964 0 -0.0033699480244639719 0.0029100126516441085 0 -0.0031110915750489688 0.0028155335599230717 0 -0.0031893478452721035 0.0028853962170156101 0 -0.0033699480244639719 0.0029100126516441085 0 -0.0040055650590649101 0.0028622038009270263 0 -0.0039025060652363992 0.0026666841651035575 0 -0.0040055650590649101 0.0028622038009270263 0 -0.0039025060652363992 0.0026666841651035575 0 -0.0041483763895000629 0.0025830821178951069 0 -0.0039025060652363992 0.0026666841651035575 0 -0.0036210966117190702 0.0026518010389789586 0 -0.0038274411675924148 0.0024938362452651456 0 -0.0033699480244639719 0.0029100126516441085 0 -0.0039025060652363992 0.0026666841651035575 0 -0.0036210966117190702 0.0026518010389789586 0 -0.0033762177031831223 0.002641630321852858 0 -0.0036210966117190702 0.0026518010389789586 0 -0.0036081278968209899 0.0025352367875845008 0 -0.0036210966117190702 0.0026518010389789586 0 -0.0036081278968209899 0.0025352367875845008 0 -0.0038274411675924148 0.0024938362452651456 0 -0.0036081278968209899 0.0025352367875845008 0 -0.0038274411675924148 0.0024938362452651456 0 -0.0036398667711516333 0.0023493952280562178 0 -0.0039025060652363992 0.0026666841651035575 0 -0.0038274411675924148 0.0024938362452651456 0 -0.0041483763895000629 0.0025830821178951069 0 -0.0038274411675924148 0.0024938362452651456 0 -0.0040161459018421726 0.0023572896752664702 0 -0.0041483763895000629 0.0025830821178951069 0 -0.0038274411675924148 0.0024938362452651456 0 -0.0040161459018421726 0.0023572896752664702 0 -0.0036398667711516333 0.0023493952280562178 0 -0.0060390912590932719 0.0022915879584480625 0 -0.0092351674189106083 0.0026815758585296257 0 -0.0089087685860207814 0.0022450937553036522 0 -0.0094856521845000565 0.0032534961780262329 0 -0.0077012739468983685 0.0034846359706271661 0 -0.0089087685860207814 0.0022450937553036522 0 -0.0094856521845000565 0.0032534961780262329 0 -0.010412767723477255 0.0026024663245908818 0 -0.0089087685860207814 0.0022450937553036522 0 -0.010412767723477255 0.0026024663245908818 0 -0.010850976192838147 0.0022293059993661593 0 -0.0094856521845000565 0.0032534961780262329 0 -0.010412767723477255 0.0026024663245908818 0 -0.010563412347455831 0.0033739721403248301 0 -0.010412767723477255 0.0026024663245908818 0 -0.010563412347455831 0.0033739721403248301 0 -0.011067147106417567 0.002970145142811889 0 -0.011350600622435156 0.0034830447285104675 0 -0.010563412347455831 0.0033739721403248301 0 -0.011067147106417567 0.002970145142811889 0 -0.010412767723477255 0.0026024663245908818 0 -0.011067147106417567 0.002970145142811889 0 -0.010850812968743448 0.0022902270193722856 0 -0.010109708279274141 0.0022597840878032099 0 -0.0092351674189106083 0.0026815758585296257 0 -0.0043524739133642418 0.002575449182893695 0 -0.0041483763895000629 0.0025830821178951069 0 -0.0043274670778009443 0.0024520539719986604 0 -0.0044310433809352468 0.0025848411287610882 0 -0.0043524739133642418 0.002575449182893695 0 -0.0043274670778009443 0.0024520539719986604 0 -0.0040161459018421726 0.0023572896752664702 0 -0.0041483763895000629 0.0025830821178951069 0 -0.0043274670778009443 0.0024520539719986604 0 -0.0089087685860207814 0.0022450937553036522 0 -0.006733464372030532 0.0023203741318104376 0 -0.0077012739468983685 0.0034846359706271661 0 -0.0060390912590932719 0.0022915879584480625 0 -0.005598510180777911 0.0024247743474542388 0 -0.006733464372030532 0.0023203741318104376 0 -0.006078026429562281 0.0034477323073760641 0 -0.0077012739468983685 0.0034846359706271661 0 -0.00459110270778002 0.0026931917999299519 0 -0.005598510180777911 0.0024247743474542388 0 -0.0045582952618700044 0.0027743223327286568 0 -0.006733464372030532 0.0023203741318104376 0 -0.006078026429562281 0.0034477323073760641 0 -0.0079062908549600262 0.0056705259004120809 0 -0.011711962986674474 0.0045061762684598609 0 -0.006078026429562281 0.0034477323073760641 0 -0.0068369692117322784 0.0041314940849642521 0 -0.0077012739468983685 0.0034846359706271661 0 -0.0068369692117322784 0.0041314940849642521 0 -0.0068182470066902763 0.0051267098605917681 0 -0.0050664032863989329 0.0041484744342540798 0 -0.006078026429562281 0.0034477323073760641 0 -0.0068369692117322784 0.0041314940849642521 0 -0.0050664032863989329 0.0041484744342540798 0 -0.0068369692117322784 0.0041314940849642521 0 -0.0077012739468983685 0.0034846359706271661 0 -0.0077890226075835196 0.0045868176301983744 0 -0.0077012739468983685 0.0034846359706271661 0 -0.0077890226075835196 0.0045868176301983744 0 -0.0088521949264592364 0.0041843497245865708 0 -0.0068369692117322784 0.0041314940849642521 0 -0.0077890226075835196 0.0045868176301983744 0 -0.0068182470066902763 0.0051267098605917681 0 -0.010286686957684943 0.0065951277934148018 0 -0.010242845842093347 0.0066192079625517772 0 -0.010231466294672573 0.0065696824837179922 0 -0.0096628244455644781 0.0063883603830646816 0 -0.0079062908549600262 0.0056705259004120809 0 -0.0077890226075835196 0.0045868176301983744 0 -0.0087466840507662933 0.0060863536795525237 0 -0.0068182470066902763 0.0051267098605917681 0 -0.0077890226075835196 0.0045868176301983744 0 -0.0087466840507662933 0.0060863536795525237 0 -0.0088521949264592364 0.0041843497245865708 0 -0.010242845842093347 0.0066192079625517772 0 -0.01023360343199693 0.0065925852517824323 0 -0.010232473599261497 0.0066073245923500799 0 -0.010242845842093347 0.0066192079625517772 0 -0.01023360343199693 0.0065925852517824323 0 -0.010231466294672573 0.0065696824837179922 0 -0.010235409241594126 0.0065711768235407692 0 -0.010231466294672573 0.0065696824837179922 0 -0.01024241100487552 0.0065329316947138408 0 -0.01023360343199693 0.0065925852517824323 0 -0.010235409241594126 0.0065711768235407692 0 -0.010232473599261497 0.0066073245923500799 0 -0.015630646898960671 0.0047680670518494075 0 -0.017170952407360975 0.0027986661913014586 0 -0.01023360343199693 0.0065925852517824323 0 -0.010235409241594126 0.0065711768235407692 0 -0.010231466294672573 0.0065696824837179922 0 -0.011350600622435156 0.0034830447285104675 0 -0.010563412347455831 0.0033739721403248301 0 -0.011005251954322963 0.0042449313244113029 0 -0.0094856521845000565 0.0032534961780262329 0 -0.010563412347455831 0.0033739721403248301 0 -0.010090817155365094 0.0040096583712922055 0 -0.010563412347455831 0.0033739721403248301 0 -0.011005251954322963 0.0042449313244113029 0 -0.010090817155365094 0.0040096583712922055 0 -0.011005251954322963 0.0042449313244113029 0 -0.010090817155365094 0.0040096583712922055 0 -0.010224201429839578 0.0051636029311791795 0 -0.0094856521845000565 0.0032534961780262329 0 -0.0077012739468983685 0.0034846359706271661 0 -0.0088521949264592364 0.0041843497245865708 0 -0.010090817155365094 0.0040096583712922055 0 -0.0088521949264592364 0.0041843497245865708 0 -0.010224201429839578 0.0051636029311791795 0 -0.0089836518725207783 0.0042539217608934332 0 -0.010548843848658767 0.0053244503517760246 0 -0.0094856521845000565 0.0032534961780262329 0 -0.010090817155365094 0.0040096583712922055 0 -0.0088521949264592364 0.0041843497245865708 0 -0.0087466840507662933 0.0060863536795525237 0 -0.0088521949264592364 0.0041843497245865708 0 -0.010830903234757768 0.0054523810843504416 0 -0.0087466840507662933 0.0060863536795525237 0 -0.010830903234757768 0.0054523810843504416 0 -0.010825484438476678 0.0068483390866596163 0 -0.012164756618845305 0.0064719093752895517 0 -0.010830903234757768 0.0054523810843504416 0 -0.011298166598589067 0.0065255025983906806 0 -0.010830903234757768 0.0054523810843504416 0 -0.011298166598589067 0.0065255025983906806 0 -0.010825484438476678 0.0068483390866596163 0 -0.011450374979330352 0.0063964403585025304 0 -0.010548843848658767 0.0053244503517760246 0 -0.011908994895847392 0.0051137771909945265 0 -0.011005251954322963 0.0042449313244113029 0 -0.010224201429839578 0.0051636029311791795 0 -0.011384447691178759 0.0072128474872514784 0 -0.010825484438476678 0.0068483390866596163 0 -0.010299765503766828 0.00682779000777125 0 -0.012164756618845305 0.0064719093752895517 0 -0.011384447691178759 0.0072128474872514784 0 -0.011298166598589067 0.0065255025983906806 0 -0.011384447691178759 0.0072128474872514784 0 -0.011298166598589067 0.0065255025983906806 0 -0.010825484438476678 0.0068483390866596163 0 -0.0096628244455644781 0.0063883603830646816 0 -0.01063051358468145 0.0068004496350094106 0 -0.016630642030798448 0.0046121231919114122 0 -0.014008245744107362 0.0044577913533827649 0 -0.021046085996579728 0.0020676715528817218 0 -0.019194127700256264 0.0018483365998576713 0 -0.020050333287988123 0.0024501647101779957 0 -0.010286686957684943 0.0065951277934148018 0 -0.010825484438476678 0.0068483390866596163 0 -0.010299765503766828 0.00682779000777125 0 -0.019194127700256264 0.0018483365998576713 0 -0.020050333287988123 0.0024501647101779957 0 -0.018969844102834175 0.0025844493601826168 0 -0.019612461675870881 0.0030428601139683362 0 -0.020050333287988123 0.0024501647101779957 0 -0.018969844102834175 0.0025844493601826168 0 -0.023024283208953951 0.0021953947935029546 0 -0.023188398230951854 0.0022806073198011305 0 -0.022895696503872527 0.002375933980787536 0 -0.021310095363184667 0.0026996865950413172 0 -0.021998261159695085 0.0025324844475734997 0 -0.019612461675870881 0.0030428601139683362 0 -0.020050333287988123 0.0024501647101779957 0 -0.021066109006023691 0.0027205929672866791 0 -0.022867771878042065 0.0021870348845700826 0 -0.023024283208953951 0.0021953947935029546 0 -0.022895696503872527 0.002375933980787536 0 -0.021046085996579728 0.0020676715528817218 0 -0.020050333287988123 0.0024501647101779957 0 -0.021066109006023691 0.0027205929672866791 0 -0.021300829634786699 0.002215608444496748 0 -0.021248219942746553 0.0024391024984124275 0 -0.020965173180011332 0.0022236715860769196 0 -0.020823487580182536 0.0023025157817452568 0 -0.020785385836050736 0.0021938854917967409 0 -0.020965173180011332 0.0022236715860769196 0 -0.017170952407360975 0.0027986661913014586 0 -0.021828433101186408 0.0025413851495532463 0 -0.010242845842093347 0.0066192079625517772 0 -0.010299765503766828 0.00682779000777125 0 -0.010232473599261497 0.0066073245923500799 0 -0.014008245744107362 0.0044577913533827649 0 -0.017170952407360975 0.0027986661913014586 0 -0.019194127700256264 0.0018483365998576713 0 -0.017456307354939235 0.0016372979889536263 0 -0.018400021135973353 0.0023307840884612026 0 -0.010286686957684943 0.0065951277934148018 0 -0.010242845842093347 0.0066192079625517772 0 -0.010299765503766828 0.00682779000777125 0 -0.019194127700256264 0.0018483365998576713 0 -0.018400021135973353 0.0023307840884612026 0 -0.018969844102834175 0.0025844493601826168 0 -0.017456307354939235 0.0016372979889536263 0 -0.018400021135973353 0.0023307840884612026 0 -0.018208210683707083 0.0033194033339340361 0 -0.021310095363184667 0.0026996865950413172 0 -0.021222128141091118 0.0023843211993364488 0 -0.019612461675870881 0.0030428601139683362 0 -0.018969844102834175 0.0025844493601826168 0 -0.018208210683707083 0.0033194033339340361 0 -0.018400021135973353 0.0023307840884612026 0 -0.018969844102834175 0.0025844493601826168 0 -0.018208210683707083 0.0033194033339340361 0 -0.021300829634786699 0.002215608444496748 0 -0.021582265175129706 0.002586011874326668 0 -0.021248219942746553 0.0024391024984124275 0 -0.017170952407360975 0.0027986661913014586 0 -0.021222128141091118 0.0023843211993364488 0 -0.0214458378289425 0.0026091428436848486 0 -0.021582265175129706 0.002586011874326668 0 -0.021248219942746553 0.0024391024984124275 0 -0.02124948057476244 0.0026210739894990047 0 -0.0214458378289425 0.0026091428436848486 0 -0.021248219942746553 0.0024391024984124275 0 -0.02124948057476244 0.0026210739894990047 0 -0.021248219942746553 0.0024391024984124275 0 -0.021081464952014496 0.0024748447173403528 0 -0.02102355468232095 0.0026019665861327871 0 -0.02124948057476244 0.0026210739894990047 0 -0.021081464952014496 0.0024748447173403528 0 -0.021248219942746553 0.0024391024984124275 0 -0.021081464952014496 0.0024748447173403528 0 -0.020963502932547128 0.002337107444182807 0 -0.020744049223321685 0.0025780088191295607 0 -0.02102355468232095 0.0026019665861327871 0 -0.020899701935397308 0.0024402213272970144 0 -0.02102355468232095 0.0026019665861327871 0 -0.021081464952014496 0.0024748447173403528 0 -0.020899701935397308 0.0024402213272970144 0 -0.021081464952014496 0.0024748447173403528 0 -0.020899701935397308 0.0024402213272970144 0 -0.020963502932547128 0.002337107444182807 0 -0.020899701935397308 0.0024402213272970144 0 -0.0208175547693333 0.0023048135906564974 0 -0.020677717198127506 0.0023074461209752453 0 -0.0208175547693333 0.0023048135906564974 0 -0.020850605806517646 0.002256777669081997 0 -0.020963502932547128 0.002337107444182807 0 -0.020899701935397308 0.0024402213272970144 0 -0.0208175547693333 0.0023048135906564974 0 -0.020963502932547128 0.002337107444182807 0 -0.0208175547693333 0.0023048135906564974 0 -0.020850605806517646 0.002256777669081997 0 -0.020753871445285264 0.0022371342909255562 0 -0.021248219942746553 0.0024391024984124275 0 -0.020963502932547128 0.002337107444182807 0 -0.020965173180011332 0.0022236715860769196 0 -0.020850605806517646 0.002256777669081997 0 -0.020963502932547128 0.002337107444182807 0 -0.020965173180011332 0.0022236715860769196 0 -0.020850605806517646 0.002256777669081997 0 -0.020965173180011332 0.0022236715860769196 0 -0.020852782055513209 0.0022594721638270632 0 -0.020823487580182536 0.0023025157817452568 0 -0.020965173180011332 0.0022236715860769196 0 -0.020852782055513209 0.0022594721638270632 0 -0.020823487580182536 0.0023025157817452568 0 -0.020780144899286378 0.0022870827557014495 0 -0.020852782055513209 0.0022594721638270632 0 -0.020823487580182536 0.0023025157817452568 0 -0.020780144899286378 0.0022870827557014495 0 -0.02076819667926549 0.0022866909975257257 0 -0.020780144899286378 0.0022870827557014495 0 -0.020729524764951768 0.0022511098556434574 0 -0.02069827671827594 0.0022913145504009965 0 -0.020780144899286378 0.0022870827557014495 0 -0.020852782055513209 0.0022594721638270632 0 -0.020729524764951768 0.0022511098556434574 0 -0.020850605806517646 0.002256777669081997 0 -0.020753871445285264 0.0022371342909255562 0 -0.020729524764951768 0.0022511098556434574 0 -0.020753871445285264 0.0022371342909255562 0 -0.020729524764951768 0.0022511098556434574 0 -0.020686462655556407 0.0021736947473657291 0 -0.020850605806517646 0.002256777669081997 0 -0.020852782055513209 0.0022594721638270632 0 -0.020729524764951768 0.0022511098556434574 0 -0.020729524764951768 0.0022511098556434574 0 -0.020571656989718301 0.002320042504828374 0 -0.020686462655556407 0.0021736947473657291 0 -0.020729524764951768 0.0022511098556434574 0 -0.020571656989718301 0.002320042504828374 0 -0.02069827671827594 0.0022913145504009965 0 -0.02050977307339848 0.002169691005183967 0 -0.020571656989718301 0.002320042504828374 0 -0.02076819667926549 0.0022866909975257257 0 -0.02050977307339848 0.002169691005183967 0 -0.020571656989718301 0.002320042504828374 0 -0.019806900878859536 0.0024805686634172259 0 -0.012988920077709609 0.0030691109138030474 0 -0.011711962986674474 0.0045061762684598609 0 -0.020571656989718301 0.002320042504828374 0 -0.02076819667926549 0.0022866909975257257 0 -0.02069827671827594 0.0022913145504009965 0 -0.010416800002880599 0.0036095612302990106 0 -0.011417895454190405 0.0036843327473156111 0 -0.01015567871372839 0.003013315774580359 0 -0.004731901996564555 0.0033507888004058422 0 -0.006078026429562281 0.0034477323073760641 0 -0.0050664032863989329 0.0041484744342540798 0 -0.0063101342635099138 0.0034637478243924212 0 -0.011711962986674474 0.0045061762684598609 0 -0.015630646898960671 0.0047680670518494075 0 -0.011711962986674474 0.0045061762684598609 0 -0.020780144899286378 0.0022870827557014495 0 -0.02076819667926549 0.0022866909975257257 0 -0.02069827671827594 0.0022913145504009965 0 -0.018780551775552396 0.0031546580002358095 0 -0.019038536239397139 0.0025670603066953639 0 -0.019293205776024412 0.0033628394849676249 0 -0.018780551775552396 0.0031546580002358095 0 -0.018600676729553647 0.0029337431681832893 0 -0.019038536239397139 0.0025670603066953639 0 -0.018600676729553647 0.0029337431681832893 0 -0.018306201520369124 0.0029096180888280991 0 -0.018381187779521087 0.0032546570102989169 0 -0.018780551775552396 0.0031546580002358095 0 -0.018600676729553647 0.0029337431681832893 0 -0.018381187779521087 0.0032546570102989169 0 -0.018600676729553647 0.0029337431681832893 0 -0.01860237663278163 0.0026118375239537498 0 -0.018306201520369124 0.0029096180888280991 0 -0.018600676729553647 0.0029337431681832893 0 -0.01860237663278163 0.0026118375239537498 0 -0.019038536239397139 0.0025670603066953639 0 -0.020571656989718301 0.002320042504828374 0 -0.019806900878859536 0.0024805686634172259 0 -0.019293205776024412 0.0033628394849676249 0 -0.020530830890694008 0.0023535118333008285 0 -0.019988528572153628 0.0027321623957697371 0 -0.019038536239397139 0.0025670603066953639 0 -0.019806900878859536 0.0024805686634172259 0 -0.019293205776024412 0.0033628394849676249 0 -0.019436880584629158 0.0021462947905853767 0 -0.019038536239397139 0.0025670603066953639 0 -0.019806900878859536 0.0024805686634172259 0 -0.020753871445285264 0.0022371342909255562 0 -0.020686462655556407 0.0021736947473657291 0 -0.020677717198127506 0.0023074461209752453 0 -0.018780551775552396 0.0031546580002358095 0 -0.018425028722997634 0.0034976501184125256 0 -0.018381187779521087 0.0032546570102989169 0 -0.019988528572153628 0.0027321623957697371 0 -0.019440141118207927 0.0028326784813316715 0 -0.018780551775552396 0.0031546580002358095 0 -0.019293205776024412 0.0033628394849676249 0 -0.018425028722997634 0.0034976501184125256 0 -0.020403619903143381 0.0021927830786761158 0 -0.020677717198127506 0.0023074461209752453 0 -0.020399980857582361 0.0025068311509472358 0 -0.020686462655556407 0.0021736947473657291 0 -0.020403619903143381 0.0021927830786761158 0 -0.020677717198127506 0.0023074461209752453 0 -0.0208175547693333 0.0023048135906564974 0 -0.020753871445285264 0.0022371342909255562 0 -0.020677717198127506 0.0023074461209752453 0 -0.020744049223321685 0.0025780088191295607 0 -0.020899701935397308 0.0024402213272970144 0 -0.020677717198127506 0.0023074461209752453 0 -0.020744049223321685 0.0025780088191295607 0 -0.020677717198127506 0.0023074461209752453 0 -0.020399980857582361 0.0025068311509472358 0 -0.020403619903143381 0.0021927830786761158 0 -0.020399980857582361 0.0025068311509472358 0 -0.020002004673605182 0.0023340868909515352 0 -0.019922052560387087 0.0026969267916292583 0 -0.020399980857582361 0.0025068311509472358 0 -0.020002004673605182 0.0023340868909515352 0 -0.018425028722997634 0.0034976501184125256 0 -0.018405201456687482 0.0033823473079495018 0 -0.018554876617452681 0.0029694744484459832 0 -0.019440141118207927 0.0028326784813316715 0 -0.019296481916425155 0.002681188673889977 0 -0.018405201456687482 0.0033823473079495018 0 -0.018946963643179909 0.003067849352079286 0 -0.018751153136449414 0.003344234608547362 0 -0.018405201456687482 0.0033823473079495018 0 -0.018946963643179909 0.003067849352079286 0 -0.018554876617452681 0.0029694744484459832 0 -0.019384481016147273 0.0026474266445049568 0 -0.019296481916425155 0.002681188673889977 0 -0.019428759781916719 0.0026424263061406725 0 -0.019922052560387087 0.0026969267916292583 0 -0.020002004673605182 0.0023340868909515352 0 -0.019428759781916719 0.0026424263061406725 0 -0.018946963643179909 0.003067849352079286 0 -0.018554876617452681 0.0029694744484459832 0 -0.019409057546897448 0.0027348244766466755 0 -0.019428759781916719 0.0026424263061406725 0 -0.019313861923777625 0.0028975729882619989 0 -0.019428759781916719 0.0026424263061406725 0 -0.018946963643179909 0.003067849352079286 0 -0.019313861923777625 0.0028975729882619989 0 -0.019737495220571982 0.0027572634064357304 0 -0.018029723920560747 0.0022536676680989924 0 -0.019409057546897448 0.0027348244766466755 0 -0.019313861923777625 0.0028975729882619989 0 -0.019389517166208559 0.0027549915250519828 0 -0.016117220822988176 0.0019465069360392441 0 -0.016279292451271236 0.0017064702302974737 0 -0.015969379945474267 0.001779530302076938 0 -0.018029723920560747 0.0022536676680989924 0 -0.017862374204958315 0.0024465259723825028 0 -0.019313861923777625 0.0028975729882619989 0 -0.019681996146632959 0.0027363592736496154 0 -0.019334732840238865 0.0032464673915774773 0 -0.018946963643179909 0.003067849352079286 0 -0.019313861923777625 0.0028975729882619989 0 -0.019334732840238865 0.0032464673915774773 0 -0.018946963643179909 0.003067849352079286 0 -0.019334732840238865 0.0032464673915774773 0 -0.018751153136449414 0.003344234608547362 0 -0.016279292451271236 0.0017064702302974737 0 -0.016167783651160422 0.0013743988567477253 0 -0.016447995745620288 0.0014614840048807966 0 -0.017862374204958315 0.0024465259723825028 0 -0.017128248321699156 0.0027570455370515908 0 -0.019334732840238865 0.0032464673915774773 0 -0.018849324569907708 0.0037942406961878014 0 -0.018751153136449414 0.003344234608547362 0 -0.016279292451271236 0.0017064702302974737 0 -0.016167783651160422 0.0013743988567477253 0 -0.015963466661517278 0.0015660697648029001 0 -0.01548820086590522 0.0022917298649564703 0 -0.017128248321699156 0.0027570455370515908 0 -0.014960265536489105 0.0032545349614401522 0 -0.016388485417869993 0.0037809342691080294 0 -0.015625604668800277 0.0027859221071733051 0 -0.016388485417869993 0.0037809342691080294 0 -0.016367416077919184 0.0029600320211491849 0 -0.015625604668800277 0.0027859221071733051 0 -0.017128248321699156 0.0027570455370515908 0 -0.018445165643476643 0.0036339483828192382 0 -0.016895696194514875 0.0033274517634907996 0 -0.017497910962383879 0.003051973868963487 0 -0.017185590470851806 0.0027203171731751893 0 -0.016388485417869993 0.0037809342691080294 0 -0.016367416077919184 0.0029600320211491849 0 -0.017185590470851806 0.0027203171731751893 0 -0.017128248321699156 0.0027570455370515908 0 -0.01696711614175081 0.0030532689106568577 0 -0.016895696194514875 0.0033274517634907996 0 -0.017497910962383879 0.003051973868963487 0 -0.018175151062439294 0.0034615705325618789 0 -0.017497910962383879 0.003051973868963487 0 -0.017673752807011344 0.0028065944327762583 0 -0.018029320494692726 0.003086556324657974 0 -0.017497910962383879 0.003051973868963487 0 -0.017185590470851806 0.0027203171731751893 0 -0.01743730081790398 0.0027332921085840498 0 -0.017497910962383879 0.003051973868963487 0 -0.017673752807011344 0.0028065944327762583 0 -0.01743730081790398 0.0027332921085840498 0 -0.017673752807011344 0.0028065944327762583 0 -0.018012958178869665 0.0027797658644470192 0 -0.017837038712030094 0.0025258098820782077 0 -0.018012958178869665 0.0027797658644470192 0 -0.018306201520369124 0.0029096180888280991 0 -0.018029320494692726 0.003086556324657974 0 -0.017673752807011344 0.0028065944327762583 0 -0.018012958178869665 0.0027797658644470192 0 -0.018029320494692726 0.003086556324657974 0 -0.01860237663278163 0.0026118375239537498 0 -0.018306201520369124 0.0029096180888280991 0 -0.018307427521540496 0.0026393639670853107 0 -0.018012958178869665 0.0027797658644470192 0 -0.018306201520369124 0.0029096180888280991 0 -0.018307427521540496 0.0026393639670853107 0 -0.018306201520369124 0.0029096180888280991 0 -0.018381187779521087 0.0032546570102989169 0 -0.018029320494692726 0.003086556324657974 0 -0.017497910962383879 0.003051973868963487 0 -0.018029320494692726 0.003086556324657974 0 -0.018175151062439294 0.0034615705325618789 0 -0.018381187779521087 0.0032546570102989169 0 -0.018029320494692726 0.003086556324657974 0 -0.018175151062439294 0.0034615705325618789 0 -0.018425028722997634 0.0034976501184125256 0 -0.018405201456687482 0.0033823473079495018 0 -0.018381187779521087 0.0032546570102989169 0 -0.018405201456687482 0.0033823473079495018 0 -0.018381187779521087 0.0032546570102989169 0 -0.018175151062439294 0.0034615705325618789 0 -0.018405201456687482 0.0033823473079495018 0 -0.018175151062439294 0.0034615705325618789 0 -0.018751153136449414 0.003344234608547362 0 -0.018849324569907708 0.0037942406961878014 0 -0.018175151062439294 0.0034615705325618789 0 -0.018751153136449414 0.003344234608547362 0 -0.013196569181569331 0.00041149158459126455 0 -0.013195645935089559 0.000331167821365098 0 -0.012661549884202018 0.00071742805622548812 0 -0.012648648644713904 0.00081836319901037449 0 -0.012608077182021017 0.00082907825327319432 0 -0.013703820030909702 0.00010823312773813026 0 -0.01388135620221519 0.00015055006824058858 0 -0.013957073555438758 -9.1210651461826341e-05 0 -0.01388135620221519 0.00015055006824058858 0 -0.014090624307568347 0.00017678959504898508 0 -0.013957073555438758 -9.1210651461826341e-05 0 -0.014350689595326595 0.00050576577001340919 0 -0.013796563728916588 0.00015787793494487034 0 -0.013839925738744156 0.00034222357738099702 0 -0.013717240481683502 0.00024591984113512687 0 -0.01388135620221519 0.00015055006824058858 0 -0.014020878482275368 0.00039394464680481004 0 -0.014032438109380268 0.00060411010904287709 0 -0.01388135620221519 0.00015055006824058858 0 -0.014020878482275368 0.00039394464680481004 0 -0.01388135620221519 0.00015055006824058858 0 -0.014090624307568347 0.00017678959504898508 0 -0.014090624307568347 0.00017678959504898508 0 -0.014179581027303158 0.00032533075495294459 0 -0.014286999045752135 5.3611009288345001e-05 0 -0.014020878482275368 0.00039394464680481004 0 -0.014090624307568347 0.00017678959504898508 0 -0.014179581027303158 0.00032533075495294459 0 -0.014090624307568347 0.00017678959504898508 0 -0.014286999045752135 5.3611009288345001e-05 0 -0.013957073555438758 -9.1210651461826341e-05 0 -0.015745891630858776 0.0017650195938186065 0 -0.015969379945474267 0.001779530302076938 0 -0.015963466661517278 0.0015660697648029001 0 -0.01587967302429007 0.0014235208558273577 0 -0.015014300586686834 0.00082510948621964894 0 -0.014375807857672184 0.00045612067667309274 0 -0.014179581027303158 0.00032533075495294459 0 -0.014286999045752135 5.3611009288345001e-05 0 -0.01580243633676803 0.0020611179654449331 0 -0.015745891630858776 0.0017650195938186065 0 -0.015969379945474267 0.001779530302076938 0 -0.01580243633676803 0.0020611179654449331 0 -0.016117220822988176 0.0019465069360392441 0 -0.015969379945474267 0.001779530302076938 0 -0.01587967302429007 0.0014235208558273577 0 -0.018029723920560747 0.0022536676680989924 0 -0.016279292451271236 0.0017064702302974737 0 -0.015969379945474267 0.001779530302076938 0 -0.015963466661517278 0.0015660697648029001 0 -0.016167783651160422 0.0013743988567477253 0 -0.015963466661517278 0.0015660697648029001 0 -0.01588656557641652 0.0012924830219376321 0 -0.01548820086590522 0.0022917298649564703 0 -0.014539079948426964 0.0021296468736452167 0 -0.01413323420813321 0.00082768857802337193 0 -0.014539079948426964 0.0021296468736452167 0 -0.015963466661517278 0.0015660697648029001 0 -0.015685256164717127 0.0014681415072337655 0 -0.01588656557641652 0.0012924830219376321 0 -0.013839134407622035 0.0015628959239614127 0 -0.013823585668630369 0.0014979180631351696 0 -0.013896403931364329 0.0015191923969013396 0 -0.015745891630858776 0.0017650195938186065 0 -0.015963466661517278 0.0015660697648029001 0 -0.015685256164717127 0.0014681415072337655 0 -0.015014300586686834 0.00082510948621964894 0 -0.01413323420813321 0.00082768857802337193 0 -0.014286999045752135 5.3611009288345001e-05 0 -0.014216942519455626 -0.00030329381047920875 0 -0.013957073555438758 -9.1210651461826341e-05 0 -0.01413323420813321 0.00082768857802337193 0 -0.013195645935089559 0.000331167821365098 0 -0.012569190359503766 0.00088535779257415239 0 -0.012628534475528775 0.00089668826738297403 0 -0.012608077182021017 0.00082907825327319432 0 -0.012589772724568979 0.0009236590246495687 0 -0.012628534475528775 0.00089668826738297403 0 -0.01257971615960001 0.00095596049921742559 0 -0.012569190359503766 0.00088535779257415239 0 -0.012589772724568979 0.0009236590246495687 0 -0.012628534475528775 0.00089668826738297403 0 -0.012510110274208652 0.00098028058145048524 0 -0.012822909772166156 0.0017203043563120766 0 -0.01413323420813321 0.00082768857802337193 0 -0.012822909772166156 0.0017203043563120766 0 -0.012569190359503766 0.00088535779257415239 0 -0.012589772724568979 0.0009236590246495687 0 -0.01257971615960001 0.00095596049921742559 0 -0.012648648644713904 0.00081836319901037449 0 -0.012628534475528775 0.00089668826738297403 0 -0.012608077182021017 0.00082907825327319432 0 -0.012454852781609781 0.0014825712979747766 0 -0.012575874468418877 0.0015016134246897711 0 -0.012534597226066257 0.0015591656334882089 0 -0.012454852781609781 0.0014825712979747766 0 -0.012575874468418877 0.0015016134246897711 0 -0.012605407203385651 0.0013314961873740463 0 -0.012575874468418877 0.0015016134246897711 0 -0.012784550232678386 0.0015859148350332952 0 -0.012605407203385651 0.0013314961873740463 0 -0.012575874468418877 0.0015016134246897711 0 -0.012534597226066257 0.0015591656334882089 0 -0.012678167122902491 0.0016023740752241307 0 -0.012657920937478721 0.001449278593387353 0 -0.012471415536829743 0.0012056658110802126 0 -0.012534597226066257 0.0015591656334882089 0 -0.012471415536829743 0.0012056658110802126 0 -0.012534597226066257 0.0015591656334882089 0 -0.012262043684672957 0.0014817059692629993 0 -0.012534597226066257 0.0015591656334882089 0 -0.012741845113260776 0.001676754260065332 0 -0.012678167122902491 0.0016023740752241307 0 -0.012418328906683677 0.0015327587622540172 0 -0.012822909772166156 0.0017203043563120766 0 -0.012741845113260776 0.001676754260065332 0 -0.012678167122902491 0.0016023740752241307 0 -0.012784550232678386 0.0015859148350332952 0 -0.012822909772166156 0.0017203043563120766 0 -0.012790517397740736 0.0016966369983853369 0 -0.012575874468418877 0.0015016134246897711 0 -0.012678167122902491 0.0016023740752241307 0 -0.012784550232678386 0.0015859148350332952 0 -0.012878897134408686 0.0022233313916986499 0 -0.012784550232678386 0.0015859148350332952 0 -0.013447895965102563 0.0017315741191707612 0 -0.012784550232678386 0.0015859148350332952 0 -0.013447895965102563 0.0017315741191707612 0 -0.013311417647413754 0.0013067219347474201 0 -0.012814953967358123 0.0026304075449387061 0 -0.013524238997527624 0.0019035985558004743 0 -0.013351132756711015 0.0024444948235960366 0 -0.012822909772166156 0.0017203043563120766 0 -0.014539079948426964 0.0021296468736452167 0 -0.012822909772166156 0.0017203043563120766 0 -0.01346433994400909 0.0019185144415691136 0 -0.012814953967358123 0.0026304075449387061 0 -0.013351132756711015 0.0024444948235960366 0 -0.013700058497496777 0.0028908259137117504 0 -0.014960265536489105 0.0032545349614401522 0 -0.013802882272479364 0.0028883824411459745 0 -0.014574535153014186 0.0021957059462931684 0 -0.013351132756711015 0.0024444948235960366 0 -0.013700058497496777 0.0028908259137117504 0 -0.014337398995393059 0.0023472993633784234 0 -0.014539079948426964 0.0021296468736452167 0 -0.014310784971698614 0.0024061966687303296 0 -0.013524238997527624 0.0019035985558004743 0 -0.014190828687178103 0.001230307448744582 0 -0.014420170384165053 0.001729341750515692 0 -0.013524238997527624 0.0019035985558004743 0 -0.013351132756711015 0.0024444948235960366 0 -0.014337398995393059 0.0023472993633784234 0 -0.013524238997527624 0.0019035985558004743 0 -0.014337398995393059 0.0023472993633784234 0 -0.014420170384165053 0.001729341750515692 0 -0.014190828687178103 0.001230307448744582 0 -0.013630799692918711 0.00097528769069118841 0 -0.013311417647413754 0.0013067219347474201 0 -0.013447895965102563 0.0017315741191707612 0 -0.014190828687178103 0.001230307448744582 0 -0.013311417647413754 0.0013067219347474201 0 -0.01346433994400909 0.0019185144415691136 0 -0.01416590715475626 0.0012212977182260961 0 -0.014190828687178103 0.001230307448744582 0 -0.014005029283535479 0.00080827779084576077 0 -0.014418006910108964 0.00065042452959070292 0 -0.014190828687178103 0.001230307448744582 0 -0.014005029283535479 0.00080827779084576077 0 -0.013630799692918711 0.00097528769069118841 0 -0.014005029283535479 0.00080827779084576077 0 -0.014066942518297182 0.00055517901713753731 0 -0.013737106049522496 0.00066424155185264809 0 -0.014005029283535479 0.00080827779084576077 0 -0.014066942518297182 0.00055517901713753731 0 -0.014418006910108964 0.00065042452959070292 0 -0.014005029283535479 0.00080827779084576077 0 -0.013737106049522496 0.00066424155185264809 0 -0.013630799692918711 0.00097528769069118841 0 -0.013630799692918711 0.00097528769069118841 0 -0.013396725088730903 0.0007804483124077893 0 -0.013191673875993045 0.0010403155327962524 0 -0.013737106049522496 0.00066424155185264809 0 -0.013630799692918711 0.00097528769069118841 0 -0.013396725088730903 0.0007804483124077893 0 -0.013737106049522496 0.00066424155185264809 0 -0.013396725088730903 0.0007804483124077893 0 -0.013444920737516589 0.00049758489447541043 0 -0.013396725088730903 0.0007804483124077893 0 -0.01302628545439566 0.00083510436767545587 0 -0.01321802459283101 0.00062737045626625387 0 -0.013396725088730903 0.0007804483124077893 0 -0.013191673875993045 0.0010403155327962524 0 -0.01302628545439566 0.00083510436767545587 0 -0.013191673875993045 0.0010403155327962524 0 -0.013311417647413754 0.0013067219347474201 0 -0.012891395534261002 0.0012316451989871822 0 -0.013630799692918711 0.00097528769069118841 0 -0.013191673875993045 0.0010403155327962524 0 -0.013311417647413754 0.0013067219347474201 0 -0.012784550232678386 0.0015859148350332952 0 -0.012891395534261002 0.0012316451989871822 0 -0.012605407203385651 0.0013314961873740463 0 -0.012784550232678386 0.0015859148350332952 0 -0.013311417647413754 0.0013067219347474201 0 -0.012891395534261002 0.0012316451989871822 0 -0.012891395534261002 0.0012316451989871822 0 -0.012696147802756392 0.0011304882168957802 0 -0.012605407203385651 0.0013314961873740463 0 -0.012891395534261002 0.0012316451989871822 0 -0.012933756646467676 0.0010357352818557608 0 -0.012696147802756392 0.0011304882168957802 0 -0.013191673875993045 0.0010403155327962524 0 -0.012891395534261002 0.0012316451989871822 0 -0.012933756646467676 0.0010357352818557608 0 -0.013191673875993045 0.0010403155327962524 0 -0.012933756646467676 0.0010357352818557608 0 -0.01302628545439566 0.00083510436767545587 0 -0.012933756646467676 0.0010357352818557608 0 -0.01302628545439566 0.00083510436767545587 0 -0.012762491655810986 0.0009566479101663206 0 -0.01302628545439566 0.00083510436767545587 0 -0.012762491655810986 0.0009566479101663206 0 -0.012813833990661889 0.00077478607469624069 0 -0.012762491655810986 0.0009566479101663206 0 -0.012578373906891854 0.00084262847513462836 0 -0.012813833990661889 0.00077478607469624069 0 -0.012933756646467676 0.0010357352818557608 0 -0.012762491655810986 0.0009566479101663206 0 -0.012696147802756392 0.0011304882168957802 0 -0.012762491655810986 0.0009566479101663206 0 -0.012696147802756392 0.0011304882168957802 0 -0.012552586582169706 0.0010354967086461081 0 -0.012696147802756392 0.0011304882168957802 0 -0.012552586582169706 0.0010354967086461081 0 -0.012501228098880737 0.0011788462998664462 0 -0.012762491655810986 0.0009566479101663206 0 -0.012552586582169706 0.0010354967086461081 0 -0.012578373906891854 0.00084262847513462836 0 -0.012552586582169706 0.0010354967086461081 0 -0.012414830622024984 0.0010015059581968636 0 -0.012578373906891854 0.00084262847513462836 0 -0.012254491630508494 0.00097714342074320284 0 -0.012414830622024984 0.0010015059581968636 0 -0.012389048908819578 0.00086989788886283849 0 -0.012552586582169706 0.0010354967086461081 0 -0.012414830622024984 0.0010015059581968636 0 -0.012453639603390203 0.0010675349493753006 0 -0.012427492342697195 0.0010513163106657779 0 -0.012392805882758437 0.0010526192846675067 0 -0.012365240936439736 0.0010623332238385611 0 -0.012414830622024984 0.0010015059581968636 0 -0.012453639603390203 0.0010675349493753006 0 -0.012254491630508494 0.00097714342074320284 0 -0.012235466818803541 0.001140207381050497 0 -0.012414830622024984 0.0010015059581968636 0 -0.012365240936439736 0.0010623332238385611 0 -0.012453639603390203 0.0010675349493753006 0 -0.012501228098880737 0.0011788462998664462 0 -0.012552586582169706 0.0010354967086461081 0 -0.012453639603390203 0.0010675349493753006 0 -0.012501228098880737 0.0011788462998664462 0 -0.012454852781609781 0.0014825712979747766 0 -0.012501228098880737 0.0011788462998664462 0 -0.012605407203385651 0.0013314961873740463 0 -0.012696147802756392 0.0011304882168957802 0 -0.012501228098880737 0.0011788462998664462 0 -0.012605407203385651 0.0013314961873740463 0 -0.017524453736612534 0.0018213339341111819 0 -0.016696243520281356 0.0015809339483268459 0 -0.017292322219753499 0.001224239983989532 0 -0.017524453736612534 0.0018213339341111819 0 -0.01742162076230035 0.002352599511830001 0 -0.016696243520281356 0.0015809339483268459 0 -0.018261909535992792 0.001847245995143555 0 -0.017524453736612534 0.0018213339341111819 0 -0.017292322219753499 0.001224239983989532 0 -0.018261909535992792 0.001847245995143555 0 -0.017524453736612534 0.0018213339341111819 0 -0.017836459947739091 0.002096250991754717 0 -0.011583856998352524 0.0024038935652913786 0 -0.014274861190691251 0.0015070829243516539 0 -0.018684976070821535 0.0023579179205150671 0 -0.018307427521540496 0.0026393639670853107 0 -0.017837038712030094 0.0025258098820782077 0 -0.017524453736612534 0.0018213339341111819 0 -0.017836459947739091 0.002096250991754717 0 -0.01742162076230035 0.002352599511830001 0 -0.017101579441176462 0.00196753763524376 0 -0.018046775140018304 0.002445625371352721 0 -0.018684976070821535 0.0023579179205150671 0 -0.017837038712030094 0.0025258098820782077 0 -0.01742162076230035 0.002352599511830001 0 -0.018217424931870944 0.0023702390511038691 0 -0.017836459947739091 0.002096250991754717 0 -0.01742162076230035 0.002352599511830001 0 -0.018012958178869665 0.0027797658644470192 0 -0.018307427521540496 0.0026393639670853107 0 -0.017837038712030094 0.0025258098820782077 0 -0.017673752807011344 0.0028065944327762583 0 -0.017837038712030094 0.0025258098820782077 0 -0.017534835727801217 0.0025976691284054615 0 -0.01713870478246024 0.0025663141682515911 0 -0.01651094369635717 0.0015876855066529886 0 -0.017260872289458537 0.0025711390784546001 0 -0.01742162076230035 0.002352599511830001 0 -0.016696243520281356 0.0015809339483268459 0 -0.017260872289458537 0.0025711390784546001 0 -0.016553265164227452 0.002414564346515363 0 -0.015948813974207332 0.0015881441794635682 0 -0.017673752807011344 0.0028065944327762583 0 -0.017534835727801217 0.0025976691284054615 0 -0.01743730081790398 0.0027332921085840498 0 -0.017534835727801217 0.0025976691284054615 0 -0.01743730081790398 0.0027332921085840498 0 -0.017260872289458537 0.0025711390784546001 0 -0.017185590470851806 0.0027203171731751893 0 -0.01743730081790398 0.0027332921085840498 0 -0.017260872289458537 0.0025711390784546001 0 -0.017837038712030094 0.0025258098820782077 0 -0.017534835727801217 0.0025976691284054615 0 -0.01742162076230035 0.002352599511830001 0 -0.017534835727801217 0.0025976691284054615 0 -0.017260872289458537 0.0025711390784546001 0 -0.01742162076230035 0.002352599511830001 0 -0.017185590470851806 0.0027203171731751893 0 -0.017260872289458537 0.0025711390784546001 0 -0.016553265164227452 0.002414564346515363 0 -0.016367416077919184 0.0029600320211491849 0 -0.017185590470851806 0.0027203171731751893 0 -0.016553265164227452 0.002414564346515363 0 -0.016367416077919184 0.0029600320211491849 0 -0.015625604668800277 0.0027859221071733051 0 -0.015929871647473382 0.0023029372425209991 0 -0.016553265164227452 0.002414564346515363 0 -0.015929871647473382 0.0023029372425209991 0 -0.015948813974207332 0.0015881441794635682 0 -0.016367416077919184 0.0029600320211491849 0 -0.016553265164227452 0.002414564346515363 0 -0.015929871647473382 0.0023029372425209991 0 -0.015929871647473382 0.0023029372425209991 0 -0.015261916554806075 0.0022188026383642956 0 -0.015576255059046182 0.0019333305228519872 0 -0.015625604668800277 0.0027859221071733051 0 -0.015929871647473382 0.0023029372425209991 0 -0.015261916554806075 0.0022188026383642956 0 -0.014960265536489105 0.0032545349614401522 0 -0.015625604668800277 0.0027859221071733051 0 -0.015261916554806075 0.0022188026383642956 0 -0.014960265536489105 0.0032545349614401522 0 -0.014574535153014186 0.0021957059462931684 0 -0.015261916554806075 0.0022188026383642956 0 -0.014310784971698614 0.0024061966687303296 0 -0.015170246790998008 0.0016483531976221916 0 -0.014337398995393059 0.0023472993633784234 0 -0.015177859797065457 0.001649171778895605 0 -0.014420170384165053 0.001729341750515692 0 -0.014574535153014186 0.0021957059462931684 0 -0.015261916554806075 0.0022188026383642956 0 -0.015177859797065457 0.001649171778895605 0 -0.015177859797065457 0.001649171778895605 0 -0.014420170384165053 0.001729341750515692 0 -0.014848696704661591 0.0012275457655870508 0 -0.015177859797065457 0.001649171778895605 0 -0.015948813974207332 0.0015881441794635682 0 -0.014848696704661591 0.0012275457655870508 0 -0.015929871647473382 0.0023029372425209991 0 -0.015576255059046182 0.0019333305228519872 0 -0.015948813974207332 0.0015881441794635682 0 -0.015261916554806075 0.0022188026383642956 0 -0.015177859797065457 0.001649171778895605 0 -0.015576255059046182 0.0019333305228519872 0 -0.015177859797065457 0.001649171778895605 0 -0.015576255059046182 0.0019333305228519872 0 -0.015948813974207332 0.0015881441794635682 0 -0.01651094369635717 0.0015876855066529886 0 -0.014436889220226847 0.0010905917427234356 0 -0.014436889220226847 0.0010905917427234356 0 -0.014274861190691251 0.0015070829243516539 0 -0.011735267356652297 0.0024067024973618866 0 -0.010981927674724236 0.0024301539747688685 0 -0.010571971088294742 0.0018131237823436458 0 -0.015948813974207332 0.0015881441794635682 0 -0.014848696704661591 0.0012275457655870508 0 -0.015062904061904244 0.00078547710572926359 0 -0.016696243520281356 0.0015809339483268459 0 -0.016134411296475845 0.00058170167052045004 0 -0.017292322219753499 0.001224239983989532 0 -0.014190828687178103 0.001230307448744582 0 -0.014848696704661591 0.0012275457655870508 0 -0.014418006910108964 0.00065042452959070292 0 -0.014190828687178103 0.001230307448744582 0 -0.014420170384165053 0.001729341750515692 0 -0.014848696704661591 0.0012275457655870508 0 -0.014418006910108964 0.00065042452959070292 0 -0.014763247540108658 0.00084214197506671262 0 -0.014407899745533363 0.00025144600015277493 0 -0.014848696704661591 0.0012275457655870508 0 -0.014418006910108964 0.00065042452959070292 0 -0.015062904061904244 0.00078547710572926359 0 -0.014436889220226847 0.0010905917427234356 0 -0.012223875272147421 0.0017653054475975088 0 -0.014553124745184443 0.00077628797563605574 0 -0.014436889220226847 0.0010905917427234356 0 -0.014066942518297182 0.00055517901713753731 0 -0.014418006910108964 0.00065042452959070292 0 -0.014407899745533363 0.00025144600015277493 0 -0.011735267356652297 0.0024067024973618866 0 -0.010981927674724236 0.0024301539747688685 0 -0.010909284617319295 0.0030115943492292252 0 -0.011735267356652297 0.0024067024973618866 0 -0.010909284617319295 0.0030115943492292252 0 -0.012196522101034585 0.0032835698889288672 0 -0.010434400663984593 0.002417995151836794 0 -0.010981927674724236 0.0024301539747688685 0 -0.010909284617319295 0.0030115943492292252 0 -0.010434400663984593 0.002417995151836794 0 -0.010981927674724236 0.0024301539747688685 0 -0.010571971088294742 0.0018131237823436458 0 -0.0094803601406019001 0.0012496426972507281 0 -0.010571971088294742 0.0018131237823436458 0 -0.0099577812872839507 0.002141876669054475 0 -0.010434400663984593 0.002417995151836794 0 -0.010571971088294742 0.0018131237823436458 0 -0.0099577812872839507 0.002141876669054475 0 -0.009740065761120742 0.0026363030195561245 0 -0.010082362310910772 0.0030369390646080769 0 -0.0096048356578287038 0.002658035431490827 0 -0.010434400663984593 0.002417995151836794 0 -0.010909284617319295 0.0030115943492292252 0 -0.0096048356578287038 0.002658035431490827 0 -0.010434400663984593 0.002417995151836794 0 -0.0099577812872839507 0.002141876669054475 0 -0.0046046105765859989 0.0032302878571454615 0 -0.0045143896132871014 0.0032567031180316662 0 -0.0044465649220653018 0.003200351905947519 0 -0.0096048356578287038 0.002658035431490827 0 -0.0097033508264654095 0.0028090894433778673 0 -0.0094513644745173129 0.0028713543922075399 0 -0.0096048356578287038 0.002658035431490827 0 -0.0097033508264654095 0.0028090894433778673 0 -0.0097757595994170058 0.0027511870067193126 0 -0.0073888512426418954 0.0030004984993879497 0 -0.0062569983418129353 0.0033652762658399702 0 -0.0046046105765859989 0.0032302878571454615 0 -0.0045200818944332198 0.003338876256354986 0 -0.0046639712650126631 0.003328577731922723 0 -0.0046046105765859989 0.0032302878571454615 0 -0.0045143896132871014 0.0032567031180316662 0 -0.0045200818944332198 0.003338876256354986 0 -0.0045200818944332198 0.003338876256354986 0 -0.0046639712650126631 0.003328577731922723 0 -0.0046353747036276313 0.0034313209737620357 0 -0.0097033508264654095 0.0028090894433778673 0 -0.0097757595994170058 0.0027511870067193126 0 -0.0098093930540244807 0.0027922649721048368 0 -0.0046046105765859989 0.0032302878571454615 0 -0.0046639712650126631 0.003328577731922723 0 -0.004733376250280045 0.0032628818990524315 0 -0.0073888512426418954 0.0030004984993879497 0 -0.0067142805869384158 0.0031370029345952214 0 -0.0097757595994170058 0.0027511870067193126 0 -0.0098093930540244807 0.0027922649721048368 0 -0.0098956192706356489 0.0027547067054023884 0 -0.010082362310910772 0.0030369390646080769 0 -0.012223875272147421 0.0017653054475975088 0 -0.0067142805869384158 0.0031370029345952214 0 -0.010068572113079164 0.0013290172888742048 0 -0.0098093930540244807 0.0027922649721048368 0 -0.0098956192706356489 0.0027547067054023884 0 -0.0099118402827933494 0.0027826719105705161 0 -0.012223875272147421 0.0017653054475975088 0 -0.010068572113079164 0.0013290172888742048 0 -0.004733376250280045 0.0032628818990524315 0 -0.0048702718579287877 0.0032534427615656214 0 -0.0047677521816498489 0.0033359617721408648 0 -0.0048702718579287877 0.0032534427615656214 0 -0.0047677521816498489 0.0033359617721408648 0 -0.0048335235040056308 0.0033601724559667798 0 -0.0046639712650126631 0.003328577731922723 0 -0.004733376250280045 0.0032628818990524315 0 -0.0047677521816498489 0.0033359617721408648 0 -0.0046639712650126631 0.003328577731922723 0 -0.0047677521816498489 0.0033359617721408648 0 -0.0047216301536037886 0.0034269196102899567 0 -0.0047677521816498489 0.0033359617721408648 0 -0.0047216301536037886 0.0034269196102899567 0 -0.004755825438824887 0.0034301498794254977 0 -0.0047216301536037886 0.0034269196102899567 0 -0.004755825438824887 0.0034301498794254977 0 -0.0047028340686044523 0.0033913550310328846 0 -0.0048335235040056308 0.0033601724559667798 0 -0.004755825438824887 0.0034301498794254977 0 -0.0049853659846166602 0.0034396424412704053 0 -0.0047677521816498489 0.0033359617721408648 0 -0.0048335235040056308 0.0033601724559667798 0 -0.004755825438824887 0.0034301498794254977 0 -0.004755825438824887 0.0034301498794254977 0 -0.0047028340686044523 0.0033913550310328846 0 -0.0046645834727818049 0.0033888844598443327 0 -0.0047028340686044523 0.0033913550310328846 0 -0.0046645834727818049 0.0033888844598443327 0 -0.0045898162311554516 0.0032624217511630941 0 -0.0047028340686044523 0.0033913550310328846 0 -0.0046945964396963181 0.0034968557405764232 0 -0.0047197476924018805 0.003685482108962539 0 -0.0047216301536037886 0.0034269196102899567 0 -0.0047028340686044523 0.0033913550310328846 0 -0.0046945964396963181 0.0034968557405764232 0 -0.0046945964396963181 0.0034968557405764232 0 -0.0045784059099483812 0.0035977488530279556 0 -0.0046353747036276313 0.0034313209737620357 0 -0.0046945964396963181 0.0034968557405764232 0 -0.0045784059099483812 0.0035977488530279556 0 -0.0047197476924018805 0.003685482108962539 0 -0.0044899093179185112 0.0034979971217650565 0 -0.0045784059099483812 0.0035977488530279556 0 -0.004380437510045283 0.0037622716066475865 0 -0.0044899093179185112 0.0034979971217650565 0 -0.0045784059099483812 0.0035977488530279556 0 -0.0046353747036276313 0.0034313209737620357 0 -0.0045200818944332198 0.003338876256354986 0 -0.0044899093179185112 0.0034979971217650565 0 -0.0046353747036276313 0.0034313209737620357 0 -0.0046639712650126631 0.003328577731922723 0 -0.0047216301536037886 0.0034269196102899567 0 -0.0046353747036276313 0.0034313209737620357 0 -0.0047216301536037886 0.0034269196102899567 0 -0.0046945964396963181 0.0034968557405764232 0 -0.0046353747036276313 0.0034313209737620357 0 -0.012414954426694205 0.00044615130949749913 0 -0.012570214991429787 0.00054183770670037182 0 -0.01260219202971365 0.00040383313876540876 0 -0.012414954426694205 0.00044615130949749913 0 -0.012570214991429787 0.00054183770670037182 0 -0.012414503880858081 0.00071549274597774103 0 -0.012075771346200501 0.00078331801704099077 0 -0.012414954426694205 0.00044615130949749913 0 -0.012414503880858081 0.00071549274597774103 0 -0.012106544881585031 0.0009119970752360702 0 -0.012414503880858081 0.00071549274597774103 0 -0.012389048908819578 0.00086989788886283849 0 -0.012414830622024984 0.0010015059581968636 0 -0.012389048908819578 0.00086989788886283849 0 -0.012578373906891854 0.00084262847513462836 0 -0.012414503880858081 0.00071549274597774103 0 -0.012578373906891854 0.00084262847513462836 0 -0.012731209062528677 0.00058427329059296154 0 -0.012414503880858081 0.00071549274597774103 0 -0.012389048908819578 0.00086989788886283849 0 -0.012578373906891854 0.00084262847513462836 0 -0.012570214991429787 0.00054183770670037182 0 -0.012414503880858081 0.00071549274597774103 0 -0.012731209062528677 0.00058427329059296154 0 -0.012578373906891854 0.00084262847513462836 0 -0.012731209062528677 0.00058427329059296154 0 -0.012813833990661889 0.00077478607469624069 0 -0.012731209062528677 0.00058427329059296154 0 -0.012813833990661889 0.00077478607469624069 0 -0.012995919255791105 0.0006434281956698521 0 -0.01302628545439566 0.00083510436767545587 0 -0.012813833990661889 0.00077478607469624069 0 -0.012995919255791105 0.0006434281956698521 0 -0.012731209062528677 0.00058427329059296154 0 -0.012995919255791105 0.0006434281956698521 0 -0.013153914508656708 0.00040117778921120985 0 -0.012731209062528677 0.00058427329059296154 0 -0.013092507744684012 0.00011420587549460725 0 -0.013153914508656708 0.00040117778921120985 0 -0.012570214991429787 0.00054183770670037182 0 -0.012731209062528677 0.00058427329059296154 0 -0.012762998356966759 0.00044510106254018526 0 -0.012670111329772674 0.00067904787584868915 0 -0.013173885370133642 -4.6160538856082163e-05 0 -0.012570214991429787 0.00054183770670037182 0 -0.01260219202971365 0.00040383313876540876 0 -0.012762998356966759 0.00044510106254018526 0 -0.013092507744684012 0.00011420587549460725 0 -0.013290333761280828 0.00011889416312286984 0 -0.01327705671453649 0.00020915742700391759 0 -0.01327705671453649 0.00020915742700391759 0 -0.013392646244250137 0.00025569413234956593 0 -0.013343755251966851 0.00025066480344691268 0 -0.013290333761280828 0.00011889416312286984 0 -0.01327705671453649 0.00020915742700391759 0 -0.013343755251966851 0.00025066480344691268 0 -0.013092507744684012 0.00011420587549460725 0 -0.01327705671453649 0.00020915742700391759 0 -0.013153914508656708 0.00040117778921120985 0 -0.012995919255791105 0.0006434281956698521 0 -0.013153914508656708 0.00040117778921120985 0 -0.01321802459283101 0.00062737045626625387 0 -0.013153914508656708 0.00040117778921120985 0 -0.01321802459283101 0.00062737045626625387 0 -0.013444920737516589 0.00049758489447541043 0 -0.01302628545439566 0.00083510436767545587 0 -0.012995919255791105 0.0006434281956698521 0 -0.01321802459283101 0.00062737045626625387 0 -0.013396725088730903 0.0007804483124077893 0 -0.01321802459283101 0.00062737045626625387 0 -0.013444920737516589 0.00049758489447541043 0 -0.013153914508656708 0.00040117778921120985 0 -0.013444920737516589 0.00049758489447541043 0 -0.013392646244250137 0.00025569413234956593 0 -0.01327705671453649 0.00020915742700391759 0 -0.013153914508656708 0.00040117778921120985 0 -0.013392646244250137 0.00025569413234956593 0 -0.012223875272147421 0.0017653054475975088 0 -0.013998611969789077 -2.0907707799090912e-05 0 -0.014407899745533363 0.00025144600015277493 0 -0.013392646244250137 0.00025569413234956593 0 -0.013809084271738131 0.00044135283686602651 0 -0.013194802408994049 0.00018740891671961297 0 -0.013234043076023154 0.00025162161040667729 0 -0.013392646244250137 0.00025569413234956593 0 -0.013737106049522496 0.00066424155185264809 0 -0.013444920737516589 0.00049758489447541043 0 -0.013809084271738131 0.00044135283686602651 0 -0.013444920737516589 0.00049758489447541043 0 -0.013392646244250137 0.00025569413234956593 0 -0.013809084271738131 0.00044135283686602651 0 -0.014066942518297182 0.00055517901713753731 0 -0.013737106049522496 0.00066424155185264809 0 -0.013809084271738131 0.00044135283686602651 0 -0.014066942518297182 0.00055517901713753731 0 -0.014407899745533363 0.00025144600015277493 0 -0.013809084271738131 0.00044135283686602651 0 -0.0048702718579287877 0.0032534427615656214 0 -0.0048335235040056308 0.0033601724559667798 0 -0.0049853659846166602 0.0034396424412704053 0 -0.013451271623888959 0.0002747662323552652 0 -0.013290333761280828 0.00011889416312286984 0 -0.01332558382458774 2.1662323391417195e-05 0 -0.010068572113079164 0.0013290172888742048 0 -0.014108559104355723 0.00059098337680604644 0 -0.013234043076023154 0.00025162161040667729 0 -0.013392646244250137 0.00025569413234956593 0 -0.013343755251966851 0.00025066480344691268 0 -0.013451271623888959 0.0002747662323552652 0 -0.013290333761280828 0.00011889416312286984 0 -0.013343755251966851 0.00025066480344691268 0 -0.010068572113079164 0.0013290172888742048 0 -0.0074991538172840466 0.0025665044363002115 0 -0.0038081839335421144 0.0034425186185566077 0 -0.0074991538172840466 0.0025665044363002115 0 -0.004755825438824887 0.0034301498794254977 0 -0.0046309592826894834 0.0034389404195928103 0 -0.0046645834727818049 0.0033888844598443327 0 -0.0074991538172840466 0.0025665044363002115 0 -0.0057935580208150067 0.0024629953969345373 0 -0.0046645834727818049 0.0033888844598443327 0 -0.0046026987271903051 0.0033933158216283349 0 -0.0045898162311554516 0.0032624217511630941 0 -0.0057935580208150067 0.0024629953969345373 0 -0.0045052627387169109 0.0030474348591044008 0 -0.0046309592826894834 0.0034389404195928103 0 -0.0046645834727818049 0.0033888844598443327 0 -0.0046026987271903051 0.0033933158216283349 0 -0.0057935580208150067 0.0024629953969345373 0 -0.0052598592632069367 0.0020514098375798381 0 -0.0053299206316304937 0.0014017580533441179 0 -0.0057018632142955931 0.0014697626007986345 0 -0.0055342534887858549 0.0018785516765351992 0 -0.0053299206316304937 0.0014017580533441179 0 -0.0054746062985463768 0.0011851167469329666 0 -0.0057018632142955931 0.0014697626007986345 0 -0.0072280700098696976 0.0017790806437667675 0 -0.0075830158627064569 0.0024694052290822944 0 -0.0080073009912356406 0.0018170811992374871 0 -0.0074991538172840466 0.0025665044363002115 0 -0.0099558805071557205 0.00093386972935909595 0 -0.0057935580208150067 0.0024629953969345373 0 -0.0099558805071557205 0.00093386972935909595 0 -0.013092507744684012 0.00011420587549460725 0 -0.013290333761280828 0.00011889416312286984 0 -0.013216189958855594 1.6288468873161632e-06 0 -0.013290333761280828 0.00011889416312286984 0 -0.01332558382458774 2.1662323391417195e-05 0 -0.013216189958855594 1.6288468873161632e-06 0 -0.013173885370133642 -4.6160538856082163e-05 0 -0.0099558805071557205 0.00093386972935909595 0 -0.0054746062985463768 0.0011851167469329666 0 -0.0059853729492534069 0.0011894042326492311 0 -0.0057018632142955931 0.0014697626007986345 0 -0.01260219202971365 0.00040383313876540876 0 -0.012762998356966759 0.00044510106254018526 0 -0.0125885112583218 0.00020430091043928804 0 -0.012762998356966759 0.00044510106254018526 0 -0.01285446712484316 0.00024978386776968012 0 -0.0125885112583218 0.00020430091043928804 0 -0.0099558805071557205 0.00093386972935909595 0 -0.009008697955928029 0.00068592706126340182 0 -0.0057018632142955931 0.0014697626007986345 0 -0.0059423865856935553 0.0017024044387357342 0 -0.0055342534887858549 0.0018785516765351992 0 -0.0057018632142955931 0.0014697626007986345 0 -0.0059569780702768606 0.0014508270065132457 0 -0.0059423865856935553 0.0017024044387357342 0 -0.0059853729492534069 0.0011894042326492311 0 -0.0057018632142955931 0.0014697626007986345 0 -0.0059569780702768606 0.0014508270065132457 0 -0.0065154652838130865 0.0017965830269244401 0 -0.006231680828100614 0.001435324955649793 0 -0.0063490007924265623 0.0019085883772446243 0 -0.0059853729492534069 0.0011894042326492311 0 -0.0059569780702768606 0.0014508270065132457 0 -0.006231680828100614 0.001435324955649793 0 -0.006231680828100614 0.001435324955649793 0 -0.0062435804559315992 0.0018533632594568989 0 -0.0059423865856935553 0.0017024044387357342 0 -0.0062301462026850829 0.0014685186359461634 0 -0.0062968745780103315 0.0018989053563303075 0 -0.0065990893675440809 0.0011916516182867358 0 -0.0065154652838130865 0.0017965830269244401 0 -0.006231680828100614 0.001435324955649793 0 -0.0059569780702768606 0.0014508270065132457 0 -0.006231680828100614 0.001435324955649793 0 -0.0059423865856935553 0.0017024044387357342 0 -0.0099791481213797554 0.00042855141556207742 0 -0.009008697955928029 0.00068592706126340182 0 -0.012155447269597514 0.00011615030168112293 0 -0.012414954426694205 0.00044615130949749913 0 -0.0125885112583218 0.00020430091043928804 0 -0.0065990893675440809 0.0011916516182867358 0 -0.0059853729492534069 0.0011894042326492311 0 -0.006231680828100614 0.001435324955649793 0 -0.012414954426694205 0.00044615130949749913 0 -0.01260219202971365 0.00040383313876540876 0 -0.0125885112583218 0.00020430091043928804 0 -0.0062908578876535604 0.0022679654541618039 0 -0.0059268123702320655 0.0020575210796985599 0 -0.0059731881216965122 0.0025261106536640554 0 -0.0062908578876535604 0.0022679654541618039 0 -0.0062435804559315992 0.0018533632594568989 0 -0.0059268123702320655 0.0020575210796985599 0 -0.0065154652838130865 0.0017965830269244401 0 -0.0064452077630940217 0.0023569496383255518 0 -0.0063490007924265623 0.0019085883772446243 0 -0.0067294976654193499 0.0020596970527479745 0 -0.0062968745780103315 0.0018989053563303075 0 -0.0062435804559315992 0.0018533632594568989 0 -0.0059268123702320655 0.0020575210796985599 0 -0.0059423865856935553 0.0017024044387357342 0 -0.0059268123702320655 0.0020575210796985599 0 -0.0059423865856935553 0.0017024044387357342 0 -0.0055342534887858549 0.0018785516765351992 0 -0.0059268123702320655 0.0020575210796985599 0 -0.0057010798705587461 0.0023642425775325794 0 -0.0055342534887858549 0.0018785516765351992 0 -0.0055791715903809229 0.0026404381685823691 0 -0.0052598592632069367 0.0020514098375798381 0 -0.0059268123702320655 0.0020575210796985599 0 -0.0057010798705587461 0.0023642425775325794 0 -0.0059731881216965122 0.0025261106536640554 0 -0.0053815876465304622 0.0028075615324194918 0 -0.0051927748945432787 0.0025297549662085255 0 -0.0049892535817148394 0.0029464450418649596 0 -0.0050218275482120612 0.0022016192999064414 0 -0.0051927748945432787 0.0025297549662085255 0 -0.0047671213827840389 0.0026046859220954467 0 -0.0051927748945432787 0.0025297549662085255 0 -0.0047671213827840389 0.0026046859220954467 0 -0.0049892535817148394 0.0029464450418649596 0 -0.0047671213827840389 0.0026046859220954467 0 -0.0049892535817148394 0.0029464450418649596 0 -0.0045378823237771128 0.0031226358570710174 0 -0.0049892535817148394 0.0029464450418649596 0 -0.005025803186565001 0.003278571642396508 0 -0.0047027338740302628 0.0033054581594779212 0 -0.0049892535817148394 0.0029464450418649596 0 -0.0045378823237771128 0.0031226358570710174 0 -0.0047027338740302628 0.0033054581594779212 0 -0.005025803186565001 0.003278571642396508 0 -0.0047027338740302628 0.0033054581594779212 0 -0.0049584903298481638 0.0036872120166902907 0 -0.005025803186565001 0.003278571642396508 0 -0.0053093436660216018 0.0030454224675538987 0 -0.0053148976832611697 0.0034953551875421601 0 -0.0053815876465304622 0.0028075615324194918 0 -0.0049892535817148394 0.0029464450418649596 0 -0.0053093436660216018 0.0030454224675538987 0 -0.0049892535817148394 0.0029464450418649596 0 -0.005025803186565001 0.003278571642396508 0 -0.0053093436660216018 0.0030454224675538987 0 -0.0055791715903809229 0.0026404381685823691 0 -0.0057761607033696514 0.0029819363767788864 0 -0.0057010798705587461 0.0023642425775325794 0 -0.0057938922959847065 0.0029963431732211807 0 -0.0059731881216965122 0.0025261106536640554 0 -0.0053815876465304622 0.0028075615324194918 0 -0.0053093436660216018 0.0030454224675538987 0 -0.0057938922959847065 0.0029963431732211807 0 -0.0053093436660216018 0.0030454224675538987 0 -0.0057938922959847065 0.0029963431732211807 0 -0.0053148976832611697 0.0034953551875421601 0 -0.0057938922959847065 0.0029963431732211807 0 -0.005726125682413429 0.0034101322806869019 0 -0.0053148976832611697 0.0034953551875421601 0 -0.0057938922959847065 0.0029963431732211807 0 -0.005726125682413429 0.0034101322806869019 0 -0.0062094523255666325 0.0030403301979449503 0 -0.005726125682413429 0.0034101322806869019 0 -0.0062094523255666325 0.0030403301979449503 0 -0.0062599808447735194 0.0035625514116588218 0 -0.0062094523255666325 0.0030403301979449503 0 -0.0062599808447735194 0.0035625514116588218 0 -0.007088435333631531 0.003467936192493839 0 -0.0067294976654193499 0.0020596970527479745 0 -0.0061186110607296309 0.0028924824341988857 0 -0.006662898487625012 0.0024796557720952977 0 -0.0064471256789508605 0.0013594190395973562 0 -0.0062094523255666325 0.0030403301979449503 0 -0.0062908578876535604 0.0022679654541618039 0 -0.0062094523255666325 0.0030403301979449503 0 -0.0059731881216965122 0.0025261106536640554 0 -0.0057938922959847065 0.0029963431732211807 0 -0.0062094523255666325 0.0030403301979449503 0 -0.0059731881216965122 0.0025261106536640554 0 -0.0046853399968298619 0.0035398716524711001 0 -0.00457572692990955 0.0034702813818183751 0 -0.0044503280362022087 0.0032010035682948465 0 -0.0043440929282215074 0.0031687060268310494 0 -0.0045618252875994116 0.0031780585088116552 0 -0.0044503280362022087 0.0032010035682948465 0 -0.0045618252875994116 0.0031780585088116552 0 -0.0045441644730630556 0.0031840943594567774 0 -0.0045531676761659387 0.0039951908691841119 0 -0.0045182474493688984 0.0037874346080341249 0 -0.0043454603012327946 0.003970903179474604 0 -0.0045784059099483812 0.0035977488530279556 0 -0.0045182474493688984 0.0037874346080341249 0 -0.004380437510045283 0.0037622716066475865 0 -0.0045182474493688984 0.0037874346080341249 0 -0.0043454603012327946 0.003970903179474604 0 -0.004380437510045283 0.0037622716066475865 0 -0.0045531676761659387 0.0039951908691841119 0 -0.0045182474493688984 0.0037874346080341249 0 -0.0047197476924018805 0.003685482108962539 0 -0.0045784059099483812 0.0035977488530279556 0 -0.0045182474493688984 0.0037874346080341249 0 -0.0047197476924018805 0.003685482108962539 0 -0.0046947866557200003 0.0033983257938007393 0 -0.00457572692990955 0.0034702813818183751 0 -0.0047028340686044523 0.0033913550310328846 0 -0.0045618252875994116 0.0031780585088116552 0 -0.0046091281078698334 0.0032326072295067901 0 -0.0045618252875994116 0.0031780585088116552 0 -0.0046091281078698334 0.0032326072295067901 0 -0.0045441644730630556 0.0031840943594567774 0 -0.0047028340686044523 0.0033913550310328846 0 -0.0045898162311554516 0.0032624217511630941 0 -0.0046091281078698334 0.0032326072295067901 0 -0.0045898162311554516 0.0032624217511630941 0 -0.0046091281078698334 0.0032326072295067901 0 -0.0045378823237771128 0.0031226358570710174 0 -0.0045052627387169109 0.0030474348591044008 0 -0.0046153357388769474 0.0030469192657360373 0 -0.0046091281078698334 0.0032326072295067901 0 -0.0045441644730630556 0.0031840943594567774 0 -0.0045378823237771128 0.0031226358570710174 0 -0.0044503280362022087 0.0032010035682948465 0 -0.0045441644730630556 0.0031840943594567774 0 -0.0044559751672955993 0.0032307160622255466 0 -0.0045441644730630556 0.0031840943594567774 0 -0.0044559751672955993 0.0032307160622255466 0 -0.0045378823237771128 0.0031226358570710174 0 -0.0044559751672955993 0.0032307160622255466 0 -0.0045378823237771128 0.0031226358570710174 0 -0.004524970537700004 0.0032955004289026276 0 -0.0045378823237771128 0.0031226358570710174 0 -0.0047027338740302628 0.0033054581594779212 0 -0.004524970537700004 0.0032955004289026276 0 -0.0047027338740302628 0.0033054581594779212 0 -0.004524970537700004 0.0032955004289026276 0 -0.0044920228544429557 0.0034782164735793915 0 -0.0044559751672955993 0.0032307160622255466 0 -0.004524970537700004 0.0032955004289026276 0 -0.004408388381566924 0.0034015632674803246 0 -0.004524970537700004 0.0032955004289026276 0 -0.004408388381566924 0.0034015632674803246 0 -0.0044920228544429557 0.0034782164735793915 0 -0.0045345271577254855 0.0033436416205827515 0 -0.0020671678597800969 0.0034464370488070943 0 -0.0044559751672955993 0.0032307160622255466 0 -0.004408388381566924 0.0034015632674803246 0 -0.0043232031073238229 0.0033143104394848925 0 -0.004408388381566924 0.0034015632674803246 0 -0.0043232031073238229 0.0033143104394848925 0 -0.0042440216043582264 0.0035500724256393784 0 -0.0044503280362022087 0.0032010035682948465 0 -0.0043871328875950124 0.0033897300806591223 0 -0.0042913077192593668 0.0033013456330097854 0 -0.0044023465793736382 0.0032238081460741466 0 -0.0045345271577254855 0.0033436416205827515 0 -0.0044503280362022087 0.0032010035682948465 0 -0.0044559751672955993 0.0032307160622255466 0 -0.0043232031073238229 0.0033143104394848925 0 -0.0043440929282215074 0.0031687060268310494 0 -0.0042913077192593668 0.0033013456330097854 0 -0.0041333132723520259 0.0032911379482826065 0 -0.0042913077192593668 0.0033013456330097854 0 -0.0042507442054754083 0.0034309230616493655 0 -0.0041333132723520259 0.0032911379482826065 0 -0.0046853399968298619 0.0035398716524711001 0 -0.0026494469598478641 0.0034827848187363717 0 -0.0044503280362022087 0.0032010035682948465 0 -0.0043440929282215074 0.0031687060268310494 0 -0.0042913077192593668 0.0033013456330097854 0 -0.0043871328875950124 0.0033897300806591223 0 -0.0042507442054754083 0.0034309230616493655 0 -0.0043333187501620749 0.0035545913006834779 0 -0.0043871328875950124 0.0033897300806591223 0 -0.0042913077192593668 0.0033013456330097854 0 -0.0042507442054754083 0.0034309230616493655 0 0.0019934726982494678 0.003744989913357932 0 0.0020873810905798424 0.0036989579683970966 0 0.001962035878816124 0.0035857650085242428 0 -0.00092303453234498676 0.0034585251277356242 0 -0.0026494469598478641 0.0034827848187363717 0 0.0018821359951694697 0.0037189794800757876 0 0.0019934726982494678 0.003744989913357932 0 0.001962035878816124 0.0035857650085242428 0 0.0019934726982494678 0.003744989913357932 0 0.0020873810905798424 0.0036989579683970966 0 0.0020492332828554146 0.0038398645707493012 0 0.0021400982177027391 0.0037052447569592192 0 0.0020873810905798424 0.0036989579683970966 0 0.0020492332828554146 0.0038398645707493012 0 0.0021456038259285697 0.003703525448312575 0 0.0020873810905798424 0.0036989579683970966 0 0.001962035878816124 0.0035857650085242428 0 0.010565498189115858 0.0056333705958650799 0 0.010328490736887699 0.0053839318690204222 0 0.01054712009942152 0.0053066275020911312 0 0.0028897483887520112 0.0045029602181858638 0 0.0022426804945159455 0.0042082145985397872 0 -0.0039636568074675879 0.004448622819768289 0 -0.0040771368821258067 0.0042875281446908978 0 -0.0042260390893264126 0.0042778430499443984 0 0.0028897483887520112 0.0045029602181858638 0 -0.0026494469598478641 0.0034827848187363717 0 -0.0039636568074675879 0.004448622819768289 0 -0.0040771368821258067 0.0042875281446908978 0 -0.0039661045955577115 0.0042839170467980194 0 -0.0040771368821258067 0.0042875281446908978 0 -0.0039661045955577115 0.0042839170467980194 0 -0.0041504121096288754 0.0041200441426017939 0 -0.0040771368821258067 0.0042875281446908978 0 -0.0042260390893264126 0.0042778430499443984 0 -0.0041504121096288754 0.0041200441426017939 0 -0.0026494469598478641 0.0034827848187363717 0 -0.0043690886588595027 0.0045473193089037665 0 0.0042622596349014864 0.0059727067166325315 0 0.0037825615060451518 0.0054234444228078117 0 0.0050905408129523913 0.0051889929443470319 0 0.0028897483887520112 0.0045029602181858638 0 0.0078829239677194081 0.0061210353463535443 0 0.0028327729908649273 0.0058456841229600157 0 0.0042622596349014864 0.0059727067166325315 0 0.0037825615060451518 0.0054234444228078117 0 0.010565498189115858 0.0056333705958650799 0 0.0099054114092886492 0.0059323473502280689 0 0.010328490736887699 0.0053839318690204222 0 0.0028327729908649273 0.0058456841229600157 0 0.0037825615060451518 0.0054234444228078117 0 0.0037156626375354947 0.0046133841271349977 0 -0.0039636568074675879 0.004448622819768289 0 -0.0039661045955577115 0.0042839170467980194 0 -0.0038227886945817312 0.0042210706772388756 0 0.0028897483887520112 0.0045029602181858638 0 -0.0010265811609855816 0.0046213918910761745 0 0.0037825615060451518 0.0054234444228078117 0 0.0037156626375354947 0.0046133841271349977 0 0.0050905408129523913 0.0051889929443470319 0 -0.0039787489612063687 0.0046070384904028988 0 -0.0034914434207597676 0.0044619410151932647 0 -0.0033139577887077937 0.0049167510251394734 0 -0.0010265811609855816 0.0046213918910761745 0 0.0010904580825828345 0.0050990196480907276 0 -0.0039787489612063687 0.0046070384904028988 0 -0.0034914434207597676 0.0044619410151932647 0 -0.0036949732593953223 0.0041707677324619918 0 -0.0034914434207597676 0.0044619410151932647 0 -0.0036949732593953223 0.0041707677324619918 0 -0.003423991594262832 0.0041293050500899788 0 -0.0010265811609855816 0.0046213918910761745 0 -0.0039902951547782541 0.0046104529526407754 0 -0.0039661045955577115 0.0042839170467980194 0 -0.0038227886945817312 0.0042210706772388756 0 -0.0039873479550345623 0.0040645375553799148 0 -0.0038227886945817312 0.0042210706772388756 0 -0.0036949732593953223 0.0041707677324619918 0 -0.0038534809894488729 0.004053569794708221 0 -0.0038227886945817312 0.0042210706772388756 0 -0.0038534809894488729 0.004053569794708221 0 -0.0039873479550345623 0.0040645375553799148 0 -0.0038534809894488729 0.004053569794708221 0 -0.0040140360418498252 0.0038295489986148903 0 -0.0039873479550345623 0.0040645375553799148 0 -0.0038534809894488729 0.004053569794708221 0 -0.0040140360418498252 0.0038295489986148903 0 -0.0037165667659271998 0.0038431825994372846 0 -0.0036949732593953223 0.0041707677324619918 0 -0.0038534809894488729 0.004053569794708221 0 -0.0037165667659271998 0.0038431825994372846 0 -0.0036949732593953223 0.0041707677324619918 0 -0.0037165667659271998 0.0038431825994372846 0 -0.003423991594262832 0.0041293050500899788 0 -0.0037165667659271998 0.0038431825994372846 0 -0.003423991594262832 0.0041293050500899788 0 -0.0033677757912688846 0.0038958967101309955 0 -0.0042849698535990036 0.0042649048076385003 0 -0.0043454603012327946 0.003970903179474604 0 -0.0041504121096288754 0.0041200441426017939 0 -0.0045531676761659387 0.0039951908691841119 0 -0.0042849698535990036 0.0042649048076385003 0 -0.0043454603012327946 0.003970903179474604 0 -0.0043454603012327946 0.003970903179474604 0 -0.0041504121096288754 0.0041200441426017939 0 -0.0041827662971861586 0.003913545114769006 0 -0.0039661045955577115 0.0042839170467980194 0 -0.0041504121096288754 0.0041200441426017939 0 -0.0039873479550345623 0.0040645375553799148 0 -0.0041504121096288754 0.0041200441426017939 0 -0.0039873479550345623 0.0040645375553799148 0 -0.0041827662971861586 0.003913545114769006 0 -0.0040140360418498252 0.0038295489986148903 0 -0.0041827662971861586 0.003913545114769006 0 -0.0042426808817999833 0.0036268482433991066 0 -0.0040140360418498252 0.0038295489986148903 0 -0.0039873479550345623 0.0040645375553799148 0 -0.0041827662971861586 0.003913545114769006 0 -0.0041827662971861586 0.003913545114769006 0 -0.004380437510045283 0.0037622716066475865 0 -0.0042426808817999833 0.0036268482433991066 0 -0.0043454603012327946 0.003970903179474604 0 -0.0041827662971861586 0.003913545114769006 0 -0.004380437510045283 0.0037622716066475865 0 -0.0044899093179185112 0.0034979971217650565 0 -0.004380437510045283 0.0037622716066475865 0 -0.0042426808817999833 0.0036268482433991066 0 -0.0044899093179185112 0.0034979971217650565 0 -0.0043797329021494401 0.0034230141524751578 0 -0.0042426808817999833 0.0036268482433991066 0 -0.0045200818944332198 0.003338876256354986 0 -0.0044899093179185112 0.0034979971217650565 0 -0.0043797329021494401 0.0034230141524751578 0 -0.0043797329021494401 0.0034230141524751578 0 -0.0041431538854402594 0.0033683796192352589 0 -0.004271652693325587 0.0031650787285442466 0 -0.0043797329021494401 0.0034230141524751578 0 -0.0041431538854402594 0.0033683796192352589 0 -0.0042426808817999833 0.0036268482433991066 0 -0.0040140360418498252 0.0038295489986148903 0 -0.0042426808817999833 0.0036268482433991066 0 -0.0039699104253844821 0.0035786148294855162 0 -0.0041431538854402594 0.0033683796192352589 0 -0.0042426808817999833 0.0036268482433991066 0 -0.0039699104253844821 0.0035786148294855162 0 -0.0040140360418498252 0.0038295489986148903 0 -0.0037165667659271998 0.0038431825994372846 0 -0.0039699104253844821 0.0035786148294855162 0 -0.0037165667659271998 0.0038431825994372846 0 -0.0039699104253844821 0.0035786148294855162 0 -0.0036701332065697725 0.0035533838914364418 0 -0.0037165667659271998 0.0038431825994372846 0 -0.0034990438598463277 0.0036979708012600276 0 -0.0033677757912688846 0.0038958967101309955 0 -0.0037165667659271998 0.0038431825994372846 0 -0.0036701332065697725 0.0035533838914364418 0 -0.0034990438598463277 0.0036979708012600276 0 -0.0036701332065697725 0.0035533838914364418 0 -0.0034990438598463277 0.0036979708012600276 0 -0.0033494986378927037 0.0035536256176865243 0 -0.0036701332065697725 0.0035533838914364418 0 -0.0038589059800106617 0.0033951853977209289 0 -0.0036712042270173328 0.0032561124400917346 0 -0.0036701332065697725 0.0035533838914364418 0 -0.0036712042270173328 0.0032561124400917346 0 -0.0034009578043967094 0.003295052498359873 0 -0.0039699104253844821 0.0035786148294855162 0 -0.0036701332065697725 0.0035533838914364418 0 -0.0038589059800106617 0.0033951853977209289 0 -0.0041431538854402594 0.0033683796192352589 0 -0.0039699104253844821 0.0035786148294855162 0 -0.0038589059800106617 0.0033951853977209289 0 -0.0038589059800106617 0.0033951853977209289 0 -0.0039771879191587665 0.0032291105098820987 0 -0.0036712042270173328 0.0032561124400917346 0 -0.0041431538854402594 0.0033683796192352589 0 -0.0038589059800106617 0.0033951853977209289 0 -0.0039771879191587665 0.0032291105098820987 0 -0.0039771879191587665 0.0032291105098820987 0 -0.0040721246423253326 0.0030339621570471555 0 -0.004271652693325587 0.0031650787285442466 0 -0.0039771879191587665 0.0032291105098820987 0 -0.0040721246423253326 0.0030339621570471555 0 -0.0037752498869295069 0.0030391002967649836 0 -0.0036712042270173328 0.0032561124400917346 0 -0.0037752498869295069 0.0030391002967649836 0 -0.0034410781642281699 0.0030570796238193294 0 -0.0039771879191587665 0.0032291105098820987 0 -0.0036712042270173328 0.0032561124400917346 0 -0.0037752498869295069 0.0030391002967649836 0 -0.0037752498869295069 0.0030391002967649836 0 -0.0035482363551053941 0.0028656389199313453 0 -0.0034410781642281699 0.0030570796238193294 0 -0.0037752498869295069 0.0030391002967649836 0 -0.0039446478750855066 0.002769475837318131 0 -0.0035482363551053941 0.0028656389199313453 0 -0.0040721246423253326 0.0030339621570471555 0 -0.0039446478750855066 0.002769475837318131 0 -0.0043693525595687082 0.0029350420035862673 0 -0.0040721246423253326 0.0030339621570471555 0 -0.0037752498869295069 0.0030391002967649836 0 -0.0039446478750855066 0.002769475837318131 0 -0.0043693525595687082 0.0029350420035862673 0 -0.0044937244117765913 0.0029758863422405619 0 -0.004271652693325587 0.0031650787285442466 0 -0.0043693525595687082 0.0029350420035862673 0 -0.0044651003677975585 0.0029510494034335009 0 -0.0044937244117765913 0.0029758863422405619 0 -0.0045050297631244124 0.0029577187064309513 0 -0.0043693525595687082 0.0029350420035862673 0 -0.0044651003677975585 0.0029510494034335009 0 -0.0044878437089420466 0.0029591960404328024 0 -0.0044939319055806752 0.0029627328458783288 0 -0.0044937244117765913 0.0029758863422405619 0 -0.0044878437089420466 0.0029591960404328024 0 -0.0044651003677975585 0.0029510494034335009 0 -0.0044937244117765913 0.0029758863422405619 0 -0.0045143896132871014 0.0032567031180316662 0 -0.0044465649220653018 0.003200351905947519 0 -0.0044379809281396175 0.0032422104884470026 0 -0.0062569983418129353 0.0033652762658399702 0 -0.0050615303909977124 0.0031705886070837633 0 -0.004245723096598846 0.0033859211871979183 0 -0.0050615303909977124 0.0031705886070837633 0 -0.0043797329021494401 0.0034230141524751578 0 -0.0044937244117765913 0.0029758863422405619 0 -0.004271652693325587 0.0031650787285442466 0 -0.0045200818944332198 0.003338876256354986 0 -0.0043797329021494401 0.0034230141524751578 0 -0.0044379809281396175 0.0032422104884470026 0 -0.0045143896132871014 0.0032567031180316662 0 -0.0045200818944332198 0.003338876256354986 0 -0.0044379809281396175 0.0032422104884470026 0 -0.0041431538854402594 0.0033683796192352589 0 -0.0039771879191587665 0.0032291105098820987 0 -0.004271652693325587 0.0031650787285442466 0 -0.0040721246423253326 0.0030339621570471555 0 -0.0043693525595687082 0.0029350420035862673 0 -0.004271652693325587 0.0031650787285442466 0 -0.0030132399396128281 0.0030200491055470948 0 -0.0031620725776058374 0.0028891547098142756 0 -0.003089984698750737 0.002920978239555581 0 -0.0026518911370464878 0.0029647103088258847 0 -0.0028150684140173863 0.0031167799109779702 0 -0.0030132399396128281 0.0030200491055470948 0 -0.0031620725776058374 0.0028891547098142756 0 -0.002877356469771223 0.0031539564193870705 0 -0.0031620725776058374 0.0028891547098142756 0 -0.0031893478452721035 0.0028853962170156101 0 -0.003089984698750737 0.002920978239555581 0 -0.0032842513033600204 0.0028937096839220201 0 -0.0031620725776058374 0.0028891547098142756 0 -0.0031893478452721035 0.0028853962170156101 0 -0.0032842513033600204 0.0028937096839220201 0 -0.0033699480244639719 0.0029100126516441085 0 -0.0031893478452721035 0.0028853962170156101 0 -0.0031110915750489688 0.0028155335599230717 0 -0.0031893478452721035 0.0028853962170156101 0 -0.003089984698750737 0.002920978239555581 0 -0.003089984698750737 0.002920978239555581 0 -0.0032871892672889794 0.0028443379757199889 0 -0.0032143666146389042 0.0029907855003403357 0 -0.0031110915750489688 0.0028155335599230717 0 -0.003089984698750737 0.002920978239555581 0 -0.0032871892672889794 0.0028443379757199889 0 -0.0032871892672889794 0.0028443379757199889 0 -0.0035482363551053941 0.0028656389199313453 0 -0.0034410781642281699 0.0030570796238193294 0 -0.0032871892672889794 0.0028443379757199889 0 -0.0034410781642281699 0.0030570796238193294 0 -0.0032143666146389042 0.0029907855003403357 0 -0.0034410781642281699 0.0030570796238193294 0 -0.0032143666146389042 0.0029907855003403357 0 -0.0031760843850377105 0.0031717654099433648 0 -0.0034410781642281699 0.0030570796238193294 0 -0.0031760843850377105 0.0031717654099433648 0 -0.0034009578043967094 0.003295052498359873 0 -0.0036712042270173328 0.0032561124400917346 0 -0.0034410781642281699 0.0030570796238193294 0 -0.0034009578043967094 0.003295052498359873 0 -0.0030132399396128281 0.0030200491055470948 0 -0.003089984698750737 0.002920978239555581 0 -0.0032143666146389042 0.0029907855003403357 0 -0.0030132399396128281 0.0030200491055470948 0 -0.0032143666146389042 0.0029907855003403357 0 -0.0031760843850377105 0.0031717654099433648 0 -0.0030132399396128281 0.0030200491055470948 0 -0.0031760843850377105 0.0031717654099433648 0 -0.002877356469771223 0.0031539564193870705 0 -0.0031760843850377105 0.0031717654099433648 0 -0.0030182003589399853 0.003402222060707069 0 -0.002877356469771223 0.0031539564193870705 0 -0.0030182003589399853 0.003402222060707069 0 -0.003225576303768705 0.0033803064880845134 0 -0.0031688078875388229 0.003576811746531398 0 -0.0031760843850377105 0.0031717654099433648 0 -0.0030182003589399853 0.003402222060707069 0 -0.003225576303768705 0.0033803064880845134 0 -0.0036701332065697725 0.0035533838914364418 0 -0.0034009578043967094 0.003295052498359873 0 -0.0033494986378927037 0.0035536256176865243 0 -0.0031760843850377105 0.0031717654099433648 0 -0.0034009578043967094 0.003295052498359873 0 -0.003225576303768705 0.0033803064880845134 0 -0.0034009578043967094 0.003295052498359873 0 -0.003225576303768705 0.0033803064880845134 0 -0.0033494986378927037 0.0035536256176865243 0 -0.003225576303768705 0.0033803064880845134 0 -0.0033494986378927037 0.0035536256176865243 0 -0.0031688078875388229 0.003576811746531398 0 -0.0034990438598463277 0.0036979708012600276 0 -0.0033494986378927037 0.0035536256176865243 0 -0.0032177210119113254 0.0037711272958785838 0 -0.0033494986378927037 0.0035536256176865243 0 -0.0032177210119113254 0.0037711272958785838 0 -0.0031688078875388229 0.003576811746531398 0 -0.0034990438598463277 0.0036979708012600276 0 -0.0032177210119113254 0.0037711272958785838 0 -0.0033677757912688846 0.0038958967101309955 0 -0.0030182003589399853 0.003402222060707069 0 -0.0029570864636485005 0.0037966011681094436 0 -0.0021973560721451181 0.0041394514855554367 0 -0.0030182003589399853 0.003402222060707069 0 -0.0031688078875388229 0.003576811746531398 0 -0.0029570864636485005 0.0037966011681094436 0 -0.0032177210119113254 0.0037711272958785838 0 -0.0031688078875388229 0.003576811746531398 0 -0.0029570864636485005 0.0037966011681094436 0 -0.0032177210119113254 0.0037711272958785838 0 -0.0029570864636485005 0.0037966011681094436 0 -0.003032574845091957 0.0040232483985825863 0 -0.0029257732537279059 0.0034269051092043167 0 -0.0019706789079347331 0.0036699769890045381 0 -0.001560721111895508 0.0036178415597264237 0 -0.0021973560721451181 0.0041394514855554367 0 -0.0010941439770677946 0.0048484423680907971 0 -0.0030182003589399853 0.003402222060707069 0 -0.001560721111895508 0.0036178415597264237 0 -0.0021973560721451181 0.0041394514855554367 0 -0.0030182003589399853 0.003402222060707069 0 -0.0023609022222466037 0.0037213552052496094 0 -0.002877356469771223 0.0031539564193870705 0 -0.0017557025846508109 0.0028786223368435981 0 -0.0023609022222466037 0.0037213552052496094 0 -0.002877356469771223 0.0031539564193870705 0 -0.0015360003416919562 0.0033592743042924781 0 -0.0017557025846508109 0.0028786223368435981 0 -0.0023609022222466037 0.0037213552052496094 0 -0.00017597310169884182 0.0040659068361531426 0 -0.001560721111895508 0.0036178415597264237 0 -0.0010941439770677946 0.0048484423680907971 0 -0.00091020147212522121 0.0040011354839162737 0 -0.0019706789079347331 0.0036699769890045381 0 -0.0015360003416919562 0.0033592743042924781 0 -0.0016105152827482409 0.0039023204353670769 0 -0.0023609022222466037 0.0037213552052496094 0 -0.0021973560721451181 0.0041394514855554367 0 -0.0010941439770677946 0.0048484423680907971 0 -0.002336849240422244 0.0052138632527849752 0 -0.0024077629131423455 0.0047150457809192279 0 -0.0022438424399856952 0.0056363461511408234 0 -0.0025611900118647645 0.004177516540846719 0 -0.0027177176473638554 0.0046785232974515057 0 -0.0020984507560991628 0.0048292600422062265 0 -0.002336849240422244 0.0052138632527849752 0 -0.00091895421536919582 0.0058412797512937134 0 -0.0017005976927983769 0.0064969709479714196 0 -0.0010941439770677946 0.0048484423680907971 0 -0.002336849240422244 0.0052138632527849752 0 -0.00091895421536919582 0.0058412797512937134 0 -4.8188275820026968e-05 0.0056126081573739826 0 -0.0010941439770677946 0.0048484423680907971 0 -0.00091895421536919582 0.0058412797512937134 0 -0.003423991594262832 0.0041293050500899788 0 -0.0033677757912688846 0.0038958967101309955 0 -0.003032574845091957 0.0040232483985825863 0 -0.003423991594262832 0.0041293050500899788 0 -0.003032574845091957 0.0040232483985825863 0 -0.0031267949509160972 0.004382719438373703 0 -0.0032177210119113254 0.0037711272958785838 0 -0.0033677757912688846 0.0038958967101309955 0 -0.003032574845091957 0.0040232483985825863 0 -0.0029570864636485005 0.0037966011681094436 0 -0.0021973560721451181 0.0041394514855554367 0 -0.002336849240422244 0.0052138632527849752 0 -0.0029188803361148816 0.0038472163078310481 0 -0.0024077629131423455 0.0047150457809192279 0 -0.0025611900118647645 0.004177516540846719 0 -0.003032574845091957 0.0040232483985825863 0 -0.0031267949509160972 0.004382719438373703 0 -0.0029570864636485005 0.0037966011681094436 0 -0.0025611900118647645 0.004177516540846719 0 -0.003032574845091957 0.0040232483985825863 0 -0.0025611900118647645 0.004177516540846719 0 -0.0031267949509160972 0.004382719438373703 0 -0.0027177176473638554 0.0046785232974515057 0 -0.0034914434207597676 0.0044619410151932647 0 -0.0031267949509160972 0.004382719438373703 0 -0.0033139577887077937 0.0049167510251394734 0 -0.0034914434207597676 0.0044619410151932647 0 -0.003423991594262832 0.0041293050500899788 0 -0.0031267949509160972 0.004382719438373703 0 0.0010904580825828345 0.0050990196480907276 0 0.0016156126136326165 0.0054813724740116112 0 -0.0031267949509160972 0.004382719438373703 0 -0.0033139577887077937 0.0049167510251394734 0 -0.0027177176473638554 0.0046785232974515057 0 -0.0033139577887077937 0.0049167510251394734 0 -0.0027177176473638554 0.0046785232974515057 0 -0.0026133607260061262 0.0052860322894832685 0 0.0061739392486497326 0.0057762316793539522 0 0.0056256107461571461 0.006042350107896409 0 0.0063567963977876375 0.00597426852399713 0 0.0067373498989509312 0.0060708041124819066 0 0.0064793754983785345 0.0060143325611953357 0 0.0042622596349014864 0.0059727067166325315 0 0.0050905408129523913 0.0051889929443470319 0 0.0056256107461571461 0.006042350107896409 0 0.0050905408129523913 0.0051889929443470319 0 0.0061739392486497326 0.0057762316793539522 0 0.0056256107461571461 0.006042350107896409 0 0.0099054114092886492 0.0059323473502280689 0 0.0082945027430642859 0.0062225298103465833 0 0.0090663417185319582 0.0052604412538219264 0 0.0078829239677194081 0.0061210353463535443 0 0.0067373498989509312 0.0060708041124819066 0 -0.00091895421536919582 0.0058412797512937134 0 -0.00070554209608610823 0.0066958327933708912 0 -0.0017005976927983769 0.0064969709479714196 0 -0.00070554209608610823 0.0066958327933708912 0 -0.0017005976927983769 0.0064969709479714196 0 -0.0010965500806236731 0.0077542616987779029 0 -0.0027177176473638554 0.0046785232974515057 0 -0.0026133607260061262 0.0052860322894832685 0 -0.0020984507560991628 0.0048292600422062265 0 -0.0026133607260061262 0.0052860322894832685 0 -0.0020984507560991628 0.0048292600422062265 0 -0.0020276931270111565 0.0053544172127728976 0 -0.0026133607260061262 0.0052860322894832685 0 -0.0020276931270111565 0.0053544172127728976 0 -0.0017342670045910516 0.0056710717747500425 0 0.0016156126136326165 0.0054813724740116112 0 0.002771660393342896 0.0060119243270076849 0 0.0061739392486497326 0.0057762316793539522 0 0.0063567963977876375 0.00597426852399713 0 0.0062770332275438609 0.0061065070926866914 0 -0.0020984507560991628 0.0048292600422062265 0 -0.0020276931270111565 0.0053544172127728976 0 -0.0016579256299362822 0.00563289444193353 0 0.003584272215126587 0.0059128964438237199 0 0.0045148574716759246 0.0061521193610133036 0 0.0042881241822837826 0.0059593931554086698 0 -0.0022438424399856952 0.0056363461511408234 0 0.0016575882210855552 0.006218295956085554 0 -0.0020276931270111565 0.0053544172127728976 0 -0.0017342670045910516 0.0056710717747500425 0 -0.0016579256299362822 0.00563289444193353 0 0.0027224736270066562 0.0063779666451184939 0 0.0016575882210855552 0.006218295956085554 0 0.0023016331554838185 0.0060042098387304834 0 0.0018557257123079109 0.0058246751924786186 0 0.0021593327143111934 0.0056811393842668787 0 0.0027224736270066562 0.0063779666451184939 0 0.002771660393342896 0.0060119243270076849 0 0.002771660393342896 0.0060119243270076849 0 0.0016575882210855552 0.006218295956085554 0 0.0044735648271924233 0.0060465240046314135 0 0.0045148574716759246 0.0061521193610133036 0 0.0042881241822837826 0.0059593931554086698 0 0.0027224736270066562 0.0063779666451184939 0 0.0033965878859085049 0.0064846556083779702 0 0.0046972467355494785 0.0051895375085163273 0 0.0053092358199873842 0.0045711767665716236 0 0.0033142103572424745 0.0052941012505095929 0 0.0042881241822837826 0.0059593931554086698 0 0.0042216478972147238 0.0056019107601784947 0 0.0038678532926513854 0.0057781824613941414 0 0.0042881241822837826 0.0059593931554086698 0 0.0045091850785808976 0.0058749634669283506 0 0.0042216478972147238 0.0056019107601784947 0 0.0046066947390630917 0.0061134440002997125 0 0.0042881241822837826 0.0059593931554086698 0 0.0045091850785808976 0.0058749634669283506 0 0.0027224736270066562 0.0063779666451184939 0 0.0029710278881496456 0.0064176166023893668 0 0.0045091850785808976 0.0058749634669283506 0 0.0042216478972147238 0.0056019107601784947 0 0.0047418496941478254 0.0055675238560223021 0 0.0042216478972147238 0.0056019107601784947 0 0.0046972467355494785 0.0051895375085163273 0 0.0047418496941478254 0.0055675238560223021 0 0.0046972467355494785 0.0051895375085163273 0 0.0054996702711526367 0.0054301202133404634 0 0.0053092358199873842 0.0045711767665716236 0 0.0046972467355494785 0.0051895375085163273 0 0.0047418496941478254 0.0055675238560223021 0 0.0054996702711526367 0.0054301202133404634 0 0.0047418496941478254 0.0055675238560223021 0 0.0049235307323078382 0.0058718322347771634 0 0.0054996702711526367 0.0054301202133404634 0 0.0048927330636893557 0.0063154123016538888 0 0.0049235307323078382 0.0058718322347771634 0 0.0054996702711526367 0.0054301202133404634 0 0.0045091850785808976 0.0058749634669283506 0 0.0047418496941478254 0.0055675238560223021 0 0.0049235307323078382 0.0058718322347771634 0 0.0046396124833495787 0.0062047350327659265 0 0.0045091850785808976 0.0058749634669283506 0 0.0049235307323078382 0.0058718322347771634 0 0.0046396124833495787 0.0062047350327659265 0 0.0048927330636893557 0.0063154123016538888 0 0.0049235307323078382 0.0058718322347771634 0 0.002771660393342896 0.0060119243270076849 0 0.0075159403982411315 0.0053263450719573764 0 0.0048927330636893557 0.0063154123016538888 0 0.0066483897990763955 0.0055164875830122518 0 0.0054996702711526367 0.0054301202133404634 0 0.0063567963977876375 0.00597426852399713 0 0.0062770332275438609 0.0061065070926866914 0 0.0066483897990763955 0.0055164875830122518 0 0.0066483897990763955 0.0055164875830122518 0 0.0053092358199873842 0.0045711767665716236 0 0.0078737220055787281 0.0042837233951194716 0 0.0066483897990763955 0.0055164875830122518 0 0.0054996702711526367 0.0054301202133404634 0 0.0053092358199873842 0.0045711767665716236 0 0.010323773164583223 0.005454237684638959 0 0.01067467049374058 0.0047111972921575042 0 0.010615434588601185 0.004707220793402014 0 0.010323773164583223 0.005454237684638959 0 0.010615434588601185 0.004707220793402014 0 0.0097750681474227576 0.0048433128361793287 0 0.0077722954171305396 0.0050340283095305707 0 0.009238532034449895 0.004537340423607491 0 0.010323773164583223 0.005454237684638959 0 0.0090067246786724696 0.0052495017555038107 0 0.0097750681474227576 0.0048433128361793287 0 0.010323773164583223 0.005454237684638959 0 0.0090067246786724696 0.0052495017555038107 0 0.0072066594227342051 0.0063243022661060811 0 0.0077722954171305396 0.0050340283095305707 0 0.0052754691007009524 0.0057407372578380678 0 0.0082945027430642859 0.0062225298103465833 0 0.0090663417185319582 0.0052604412538219264 0 0.0079890292242073627 0.0053288257418311596 0 0.0090663417185319582 0.0052604412538219264 0 0.0079890292242073627 0.0053288257418311596 0 0.0078737220055787281 0.0042837233951194716 0 0.0082945027430642859 0.0062225298103465833 0 0.0066483897990763955 0.0055164875830122518 0 0.0079890292242073627 0.0053288257418311596 0 0.0082945027430642859 0.0062225298103465833 0 0.0063567963977876375 0.00597426852399713 0 0.0066483897990763955 0.0055164875830122518 0 0.0066483897990763955 0.0055164875830122518 0 0.0079890292242073627 0.0053288257418311596 0 0.0078737220055787281 0.0042837233951194716 0 0.01067467049374058 0.0047111972921575042 0 0.010569090380313237 0.0046370640786608857 0 0.010615434588601185 0.004707220793402014 0 0.01067467049374058 0.0047111972921575042 0 0.010569090380313237 0.0046370640786608857 0 0.010071927595800495 0.0044838456973540705 0 0.009238532034449895 0.004537340423607491 0 0.0099997581960815009 0.0044697347615700444 0 0.0090663417185319582 0.0052604412538219264 0 0.0078737220055787281 0.0042837233951194716 0 0.010071927595800495 0.0044838456973540705 0 0.010427548996092974 0.0045738523325730409 0 0.010569090380313237 0.0046370640786608857 0 0.010071927595800495 0.0044838456973540705 0 0.010427548996092974 0.0045738523325730409 0 0.010644566721467234 0.0045079911112408666 0 0.010496274683080691 0.0045275817294196585 0 0.010427548996092974 0.0045738523325730409 0 0.010569090380313237 0.0046370640786608857 0 0.010644566721467234 0.0045079911112408666 0 0.010615434588601185 0.004707220793402014 0 0.010663539453815688 0.0044707416442077976 0 0.010644566721467234 0.0045079911112408666 0 0.010569090380313237 0.0046370640786608857 0 0.010615434588601185 0.004707220793402014 0 0.010644566721467234 0.0045079911112408666 0 0.010663539453815688 0.0044707416442077976 0 0.010755675918283624 0.0043252679985815081 0 0.011065512456708495 0.0040154530996950929 0 0.010663539453815688 0.0044707416442077976 0 0.010755675918283624 0.0043252679985815081 0 0.010644566721467234 0.0045079911112408666 0 0.010595177654818721 0.004471691984836183 0 0.010647215739876328 0.0044579198042899179 0 0.010414348307325476 0.004536389124091828 0 0.010755675918283624 0.0043252679985815081 0 0.010644566721467234 0.0045079911112408666 0 0.010663780330702834 0.004417470309598384 0 0.010644566721467234 0.0045079911112408666 0 0.010663780330702834 0.004417470309598384 0 0.010595177654818721 0.004471691984836183 0 0.010644566721467234 0.0045079911112408666 0 0.010595177654818721 0.004471691984836183 0 0.010496274683080691 0.0045275817294196585 0 0.0097750681474227576 0.0048433128361793287 0 0.010331691634959698 0.0044633664186788978 0 0.0093599330187295951 0.0045574748235507447 0 0.010615434588601185 0.004707220793402014 0 0.010663539453815688 0.0044707416442077976 0 0.010331691634959698 0.0044633664186788978 0 0.010615434588601185 0.004707220793402014 0 0.0097750681474227576 0.0048433128361793287 0 0.010331691634959698 0.0044633664186788978 0 0.010663539453815688 0.0044707416442077976 0 0.010331691634959698 0.0044633664186788978 0 0.011065512456708495 0.0040154530996950929 0 0.010331691634959698 0.0044633664186788978 0 0.01007004877592076 0.0040009681422473846 0 0.0093599330187295951 0.0045574748235507447 0 0.010331691634959698 0.0044633664186788978 0 0.01007004877592076 0.0040009681422473846 0 0.011065512456708495 0.0040154530996950929 0 0.01007004877592076 0.0040009681422473846 0 0.010257842292155801 0.0032457922025730807 0 0.011065512456708495 0.0040154530996950929 0 0.010257842292155801 0.0032457922025730807 0 0.011371247756552816 0.0027128269762680605 0 0.010727192973027115 0.0018812871617160715 0 0.010257842292155801 0.0032457922025730807 0 0.011371247756552816 0.0027128269762680605 0 0.011065512456708495 0.0040154530996950929 0 0.011371247756552816 0.0027128269762680605 0 0.011065512456708495 0.0040154530996950929 0 0.01219235374797535 0.0028752350295989529 0 0.011371247756552816 0.0027128269762680605 0 0.01219235374797535 0.0028752350295989529 0 0.012219596845073007 0.0022944506252686641 0 0.010755675918283624 0.0043252679985815081 0 0.011065512456708495 0.0040154530996950929 0 0.010718847595293599 0.0044721757746051345 0 0.010755675918283624 0.0043252679985815081 0 0.010677389104393788 0.0044239333513875602 0 0.010718847595293599 0.0044721757746051345 0 0.010663780330702834 0.004417470309598384 0 0.010595177654818721 0.004471691984836183 0 0.010647215739876328 0.0044579198042899179 0 0.010663780330702834 0.004417470309598384 0 0.010677389104393788 0.0044239333513875602 0 0.010647215739876328 0.0044579198042899179 0 0.010755675918283624 0.0043252679985815081 0 0.010663780330702834 0.004417470309598384 0 0.010677389104393788 0.0044239333513875602 0 0.011133534027915198 0.0045650733622349749 0 0.012458462310386262 0.0033692125255877811 0 0.010677389104393788 0.0044239333513875602 0 0.01065514073049738 0.0044264496576693763 0 0.010718847595293599 0.0044721757746051345 0 0.01082739389141902 0.004551677673128157 0 0.011133534027915198 0.0045650733622349749 0 0.014003730085100313 0.0025634567694556147 0 0.014357864211870358 0.0020844927010331906 0 0.014826190874887518 0.0021155560371076596 0 0.012458462310386262 0.0033692125255877811 0 0.013820453773579299 0.0025745657913946074 0 0.012012398919938385 0.0038197388751515602 0 0.011767593273332438 0.0034738520669061138 0 0.012356592153463774 0.0035745487215543682 0 0.014003730085100313 0.0025634567694556147 0 0.014357864211870358 0.0020844927010331906 0 0.014015083351110548 0.0021798570583405064 0 0.013650931165937097 0.0032848802412699649 0 0.01219235374797535 0.0028752350295989529 0 0.012864463176122269 0.002295539047359429 0 0.011065512456708495 0.0040154530996950929 0 0.013650931165937097 0.0032848802412699649 0 0.01219235374797535 0.0028752350295989529 0 0.010997646527577046 0.0042040562516010779 0 0.012458462310386262 0.0033692125255877811 0 0.012458462310386262 0.0033692125255877811 0 0.01323173416909443 0.0022763614048657097 0 0.014003730085100313 0.0025634567694556147 0 0.013611479084079085 0.0021664217978102107 0 0.014015083351110548 0.0021798570583405064 0 0.01219235374797535 0.0028752350295989529 0 0.012864463176122269 0.002295539047359429 0 0.012219596845073007 0.0022944506252686641 0 0.012864463176122269 0.002295539047359429 0 0.012219596845073007 0.0022944506252686641 0 0.012802314931921672 0.0015645619676312771 0 0.013888313196649399 0.0019136448598701997 0 0.013611479084079085 0.0021664217978102107 0 0.014015083351110548 0.0021798570583405064 0 0.013888313196649399 0.0019136448598701997 0 0.013611479084079085 0.0021664217978102107 0 0.013688679861929934 0.0014330147715258966 0 0.013888313196649399 0.0019136448598701997 0 0.014196121933918773 0.001851803698145521 0 0.013688679861929934 0.0014330147715258966 0 0.01323173416909443 0.0022763614048657097 0 0.012803319352226306 0.0015963316718039194 0 0.013611479084079085 0.0021664217978102107 0 0.013688679861929934 0.0014330147715258966 0 0.012802314931921672 0.0015645619676312771 0 0.013598320737329563 0.0014375553857264879 0 0.014790767931352878 0.00120365606511516 0 0.014196121933918773 0.001851803698145521 0 0.013688679861929934 0.0014330147715258966 0 0.01471271201348366 0.0017414546951838102 0 0.013888313196649399 0.0019136448598701997 0 0.014015083351110548 0.0021798570583405064 0 0.014196121933918773 0.001851803698145521 0 0.014357864211870358 0.0020844927010331906 0 0.014015083351110548 0.0021798570583405064 0 0.014196121933918773 0.001851803698145521 0 0.014357864211870358 0.0020844927010331906 0 0.014196121933918773 0.001851803698145521 0 0.01471271201348366 0.0017414546951838102 0 0.014244975774898484 0.00087385391668256813 0 0.013688679861929934 0.0014330147715258966 0 0.014490414920982395 0.00091208723236023263 0 0.014244975774898484 0.00087385391668256813 0 0.013921166257983782 0.00085580053202630136 0 0.014349117259537568 0.00055137078567847771 0 0.013688679861929934 0.0014330147715258966 0 0.01341318999414259 0.0010354256824781206 0 0.012802314931921672 0.0015645619676312771 0 0.014244975774898484 0.00087385391668256813 0 0.013688679861929934 0.0014330147715258966 0 0.013921166257983782 0.00085580053202630136 0 0.013688679861929934 0.0014330147715258966 0 0.013921166257983782 0.00085580053202630136 0 0.01341318999414259 0.0010354256824781206 0 0.013921166257983782 0.00085580053202630136 0 0.01341318999414259 0.0010354256824781206 0 0.013667118501116805 0.00056003011612131167 0 0.01341318999414259 0.0010354256824781206 0 0.012036001311610367 0.0010814485073904806 0 0.012802314931921672 0.0015645619676312771 0 0.01341318999414259 0.0010354256824781206 0 0.012036001311610367 0.0010814485073904806 0 0.013667118501116805 0.00056003011612131167 0 0.012036001311610367 0.0010814485073904806 0 0.012802314931921672 0.0015645619676312771 0 0.011817238520502057 0.0018868988116109377 0 0.012036001311610367 0.0010814485073904806 0 0.011924586701987219 -0.00010289687541167777 0 0.0099015106502669467 0.00051722175735568695 0 0.012036001311610367 0.0010814485073904806 0 0.010727192973027115 0.0018812871617160715 0 0.0099015106502669467 0.00051722175735568695 0 0.012036001311610367 0.0010814485073904806 0 0.010727192973027115 0.0018812871617160715 0 0.011817238520502057 0.0018868988116109377 0 0.011371247756552816 0.0027128269762680605 0 0.010727192973027115 0.0018812871617160715 0 0.011817238520502057 0.0018868988116109377 0 0.011371247756552816 0.0027128269762680605 0 0.012219596845073007 0.0022944506252686641 0 0.011817238520502057 0.0018868988116109377 0 0.012219596845073007 0.0022944506252686641 0 0.012802314931921672 0.0015645619676312771 0 0.011817238520502057 0.0018868988116109377 0 0.011058418503221843 0.0040231276738984436 0 0.010899140787579012 0.0038002929923551692 0 0.011217224189833995 0.0037305758174004935 0 0.011058418503221843 0.0040231276738984436 0 0.010899140787579012 0.0038002929923551692 0 0.010724763533526563 0.0040063873373695231 0 0.011316659010611749 0.0030955243658088764 0 0.011361613811211212 0.00301376350885614 0 0.010654461551766614 0.0029751244695107363 0 0.012234582758669855 0.0028301291872553425 0 0.01052769820407543 0.0034714974115538392 0 0.01322993481451229 0.0028454848130423007 0 0.013148273561232925 0.0028401776382913232 0 0.012985757035716325 0.0032965913029865809 0 0.012481733071086109 0.0024546172143062681 0 0.013829403092657891 0.0022532047831867364 0 0.012459870931557709 0.0026348590419289675 0 0.012579414562034751 0.0024172721047101419 0 0.012902112354652219 0.0024396656567422107 0 0.012234582758669855 0.0028301291872553425 0 0.013829403092657891 0.0022532047831867364 0 0.012481733071086109 0.0024546172143062681 0 0.012234582758669855 0.0028301291872553425 0 0.012234582758669855 0.0028301291872553425 0 0.01213418324324322 0.0034591831629107277 0 0.010724763533526563 0.0040063873373695231 0 0.010625504446514403 0.0037542228117081597 0 0.01039295655753845 0.0039844918865678952 0 0.011316659010611749 0.0030955243658088764 0 0.010654461551766614 0.0029751244695107363 0 0.010670089443179313 0.0033761743571645232 0 0.010899140787579012 0.0038002929923551692 0 0.010724763533526563 0.0040063873373695231 0 0.010625504446514403 0.0037542228117081597 0 0.010326087408068237 0.0031540315316206089 0 0.010654461551766614 0.0029751244695107363 0 0.010670089443179313 0.0033761743571645232 0 0.011299671203795226 0.0030930381282887214 0 0.010670089443179313 0.0033761743571645232 0 0.010807491833439802 0.0039443234429419405 0 0.010326087408068237 0.0031540315316206089 0 0.010670089443179313 0.0033761743571645232 0 0.010391618857003846 0.0036450876602021681 0 0.010670089443179313 0.0033761743571645232 0 0.010391618857003846 0.0036450876602021681 0 0.010807491833439802 0.0039443234429419405 0 0.012481733071086109 0.0024546172143062681 0 0.012495646883200187 0.0022795127577327078 0 0.014241842895178684 0.00071678912726895439 0 0.014245810554662385 0.00078308437618494352 0 0.014080419460656282 0.00082365569034347603 0 0.012481733071086109 0.0024546172143062681 0 0.01035004721212824 0.0035191726795185652 0 0.014241842895178684 0.00071678912726895439 0 0.014277893042611517 0.00071108142721317436 0 0.014245810554662385 0.00078308437618494352 0 0.014277893042611517 0.00071108142721317436 0 0.01437265023021269 0.00079985819949195689 0 0.014490414920982395 0.00091208723236023263 0 0.014277893042611517 0.00071108142721317436 0 0.014245810554662385 0.00078308437618494352 0 0.01437265023021269 0.00079985819949195689 0 0.014244975774898484 0.00087385391668256813 0 0.014490414920982395 0.00091208723236023263 0 0.014423859189132219 0.00074581492122463328 0 0.01437265023021269 0.00079985819949195689 0 0.014490414920982395 0.00091208723236023263 0 0.014423859189132219 0.00074581492122463328 0 0.014357864211870358 0.0020844927010331906 0 0.01471271201348366 0.0017414546951838102 0 0.014826190874887518 0.0021155560371076596 0 0.013148273561232925 0.0028401776382913232 0 0.012455777340719332 0.0031594312171084288 0 0.012985757035716325 0.0032965913029865809 0 0.015428942008423012 0.0018257188714752607 0 0.01471271201348366 0.0017414546951838102 0 0.014826190874887518 0.0021155560371076596 0 0.013829403092657891 0.0022532047831867364 0 0.014790767931352878 0.00120365606511516 0 0.013829403092657891 0.0022532047831867364 0 0.013820453773579299 0.0025745657913946074 0 0.012455777340719332 0.0031594312171084288 0 0.012985757035716325 0.0032965913029865809 0 0.0127392108563067 0.0037427428926363432 0 0.01213418324324322 0.0034591831629107277 0 0.011400156890609825 0.0043115406431302235 0 0.012455777340719332 0.0031594312171084288 0 0.012356592153463774 0.0035745487215543682 0 0.0127392108563067 0.0037427428926363432 0 0.011767593273332438 0.0034738520669061138 0 0.012455777340719332 0.0031594312171084288 0 0.012356592153463774 0.0035745487215543682 0 0.011133534027915198 0.0045650733622349749 0 0.011400156890609825 0.0043115406431302235 0 0.012012398919938385 0.0038197388751515602 0 0.012356592153463774 0.0035745487215543682 0 0.0127392108563067 0.0037427428926363432 0 0.010747483173891383 0.00524458204896065 0 0.010691383671952182 0.0052466239010517191 0 0.010699048264795815 0.0052293271063571997 0 0.010674874051488946 0.0053096645652226659 0 0.010699048264795815 0.0052293271063571997 0 0.010640279890606589 0.0052374168742449021 0 0.011400156890609825 0.0043115406431302235 0 0.010572931235726999 0.0055236850355281295 0 0.010674874051488946 0.0053096645652226659 0 0.010591157148787205 0.0052695330909389116 0 0.010640279890606589 0.0052374168742449021 0 0.011400156890609825 0.0043115406431302235 0 0.010782138399390746 0.0044593828451586137 0 0.010674874051488946 0.0053096645652226659 0 0.010591157148787205 0.0052695330909389116 0 0.010514921234828828 0.0053774406438009811 0 0.010591157148787205 0.0052695330909389116 0 0.010514921234828828 0.0053774406438009811 0 0.010522996193927636 0.0052312971413082127 0 0.010899140787579012 0.0038002929923551692 0 0.011217224189833995 0.0037305758174004935 0 0.010864420933221538 0.0034887740857226001 0 0.011217224189833995 0.0037305758174004935 0 0.011377614891806938 0.0034418240560332722 0 0.010864420933221538 0.0034887740857226001 0 0.010782138399390746 0.0044593828451586137 0 0.0093543616815968782 0.0043269727070103271 0 0.010899140787579012 0.0038002929923551692 0 0.010625504446514403 0.0037542228117081597 0 0.010864420933221538 0.0034887740857226001 0 0.010625504446514403 0.0037542228117081597 0 0.010864420933221538 0.0034887740857226001 0 0.010338529111363152 0.003542784895759256 0 0.010514921234828828 0.0053774406438009811 0 0.010432198729874538 0.0052533247824348029 0 0.010084379483497 0.0054773376030069808 0 0.010514921234828828 0.0053774406438009811 0 0.010432198729874538 0.0052533247824348029 0 0.010522996193927636 0.0052312971413082127 0 0.010432198729874538 0.0052533247824348029 0 0.010443330487755061 0.0051714896590530166 0 0.010522996193927636 0.0052312971413082127 0 0.010443330487755061 0.0051714896590530166 0 0.010522996193927636 0.0052312971413082127 0 0.01053649485762157 0.0051697987965550899 0 0.010591157148787205 0.0052695330909389116 0 0.010522996193927636 0.0052312971413082127 0 0.010584634321970258 0.0051997565057742426 0 0.010584634321970258 0.0051997565057742426 0 0.01053649485762157 0.0051697987965550899 0 0.010592700887843727 0.0051513490458179384 0 0.010522996193927636 0.0052312971413082127 0 0.010584634321970258 0.0051997565057742426 0 0.01053649485762157 0.0051697987965550899 0 0.01053649485762157 0.0051697987965550899 0 0.010592700887843727 0.0051513490458179384 0 0.010555462927413601 0.0051168334374397115 0 0.010592700887843727 0.0051513490458179384 0 0.010555462927413601 0.0051168334374397115 0 0.010627195686384427 0.0051120997143674716 0 0.010443330487755061 0.0051714896590530166 0 0.010555462927413601 0.0051168334374397115 0 0.010444552513458411 0.0050907301644848154 0 0.010443330487755061 0.0051714896590530166 0 0.01053649485762157 0.0051697987965550899 0 0.010555462927413601 0.0051168334374397115 0 0.011133534027915198 0.0045650733622349749 0 0.010517011867333099 0.0048726193108315601 0 0.010747483173891383 0.00524458204896065 0 0.010699048264795815 0.0052293271063571997 0 0.010712065078935962 0.0051938100229558153 0 0.010595177654818721 0.004471691984836183 0 0.010496274683080691 0.0045275817294196585 0 0.010414348307325476 0.004536389124091828 0 0.010699048264795815 0.0052293271063571997 0 0.010712065078935962 0.0051938100229558153 0 0.010646568140695912 0.0051867023615459378 0 0.010699048264795815 0.0052293271063571997 0 0.010646568140695912 0.0051867023615459378 0 0.010640279890606589 0.0052374168742449021 0 0.010584634321970258 0.0051997565057742426 0 0.010646568140695912 0.0051867023615459378 0 0.010640279890606589 0.0052374168742449021 0 0.010591157148787205 0.0052695330909389116 0 0.010584634321970258 0.0051997565057742426 0 0.010640279890606589 0.0052374168742449021 0 0.010584634321970258 0.0051997565057742426 0 0.010592700887843727 0.0051513490458179384 0 0.010646568140695912 0.0051867023615459378 0 0.010592700887843727 0.0051513490458179384 0 0.010646568140695912 0.0051867023615459378 0 0.010627195686384427 0.0051120997143674716 0 0.010712065078935962 0.0051938100229558153 0 0.010646568140695912 0.0051867023615459378 0 0.010627195686384427 0.0051120997143674716 0 0.010517011867333099 0.0048726193108315601 0 0.010468527110140426 0.00482282405238683 0 0.010414348307325476 0.004536389124091828 0 0.010287098636499096 0.0045065679434549049 0 0.010299254403193956 0.0045305041312849858 0 0.010287098636499096 0.0045065679434549049 0 0.010299254403193956 0.0045305041312849858 0 0.010071927595800495 0.0044838456973540705 0 0.010427548996092974 0.0045738523325730409 0 0.010299254403193956 0.0045305041312849858 0 0.010071927595800495 0.0044838456973540705 0 0.010427548996092974 0.0045738523325730409 0 0.010496274683080691 0.0045275817294196585 0 0.010299254403193956 0.0045305041312849858 0 0.010496274683080691 0.0045275817294196585 0 0.010414348307325476 0.004536389124091828 0 0.010299254403193956 0.0045305041312849858 0 0.010071927595800495 0.0044838456973540705 0 0.010253431605559134 0.004909823509624261 0 0.0099526754012383058 0.005207041305205491 0 0.010287098636499096 0.0045065679434549049 0 0.010071927595800495 0.0044838456973540705 0 0.010253431605559134 0.004909823509624261 0 0.010287098636499096 0.0045065679434549049 0 0.010253431605559134 0.004909823509624261 0 0.010574835050531053 0.0050826929734142916 0 0.010468527110140426 0.00482282405238683 0 0.010567402039033284 0.0050494364899329111 0 0.010253431605559134 0.004909823509624261 0 0.010328490736887699 0.0053839318690204222 0 0.010574835050531053 0.0050826929734142916 0 0.0099054114092886492 0.0059323473502280689 0 0.010328490736887699 0.0053839318690204222 0 0.0099526754012383058 0.005207041305205491 0 0.010253431605559134 0.004909823509624261 0 0.010328490736887699 0.0053839318690204222 0 0.0099526754012383058 0.005207041305205491 0 0.0099054114092886492 0.0059323473502280689 0 0.0090663417185319582 0.0052604412538219264 0 0.0099526754012383058 0.005207041305205491 0 0.0090663417185319582 0.0052604412538219264 0 0.010071927595800495 0.0044838456973540705 0 0.0099526754012383058 0.005207041305205491 0 0.0067335589018524475 0.0043561746819748429 0 0.0064100253991667246 0.0045436749690912111 0 0.010566915525051774 0.0050965093521293256 0 0.010633239191512494 0.0051336778991916705 0 0.010444552513458411 0.0050907301644848154 0 0.010555462927413601 0.0051168334374397115 0 0.010566915525051774 0.0050965093521293256 0 0.010444552513458411 0.0050907301644848154 0 0.0020492332828554146 0.0038398645707493012 0 0.0019208914723162383 0.0038521961358055344 0 0.0019609598780530499 0.003973675056529893 0 0.010555462927413601 0.0051168334374397115 0 0.010627195686384427 0.0051120997143674716 0 0.010574835050531053 0.0050826929734142916 0 0.010555462927413601 0.0051168334374397115 0 0.010566915525051774 0.0050965093521293256 0 0.010574835050531053 0.0050826929734142916 0 0.0028897483887520112 0.0045029602181858638 0 0.0067335589018524475 0.0043561746819748429 0 0.010565498189115858 0.0056333705958650799 0 0.01054712009942152 0.0053066275020911312 0 0.010633239191512494 0.0051336778991916705 0 0.010566915525051774 0.0050965093521293256 0 0.010574835050531053 0.0050826929734142916 0 0.010633239191512494 0.0051336778991916705 0 0.010574835050531053 0.0050826929734142916 0 0.01054712009942152 0.0053066275020911312 0 0.010633239191512494 0.0051336778991916705 0 0.010328490736887699 0.0053839318690204222 0 0.010574835050531053 0.0050826929734142916 0 0.01054712009942152 0.0053066275020911312 0 0.0019934726982494678 0.003744989913357932 0 0.0020492332828554146 0.0038398645707493012 0 0.0019208914723162383 0.0038521961358055344 0 0.0018821359951694697 0.0037189794800757876 0 0.0019934726982494678 0.003744989913357932 0 0.0019208914723162383 0.0038521961358055344 0 0.0018821359951694697 0.0037189794800757876 0 0.0019208914723162383 0.0038521961358055344 0 0.0017935658086182845 0.0038418476165286335 0 -0.00092303453234498676 0.0034585251277356242 0 -0.0020671678597800969 0.0034464370488070943 0 0.0019208914723162383 0.0038521961358055344 0 0.0019609598780530499 0.003973675056529893 0 0.0018344006256764665 0.0039762916651528268 0 0.0019208914723162383 0.0038521961358055344 0 0.0018344006256764665 0.0039762916651528268 0 0.0017935658086182845 0.0038418476165286335 0 0.00058829782704983692 0.0038545605468024214 0 -0.0020671678597800969 0.0034464370488070943 0 -0.0012650022587090126 0.0034280355359369618 0 -0.00063823975667642104 0.0037084102677417646 0 -0.00076055526854844054 0.0027876532795003814 0 -0.0012650022587090126 0.0034280355359369618 0 -0.00063823975667642104 0.0037084102677417646 0 -0.00096629302662712348 0.004133070038118798 0 -0.002763864440428053 0.0034920033487985595 0 -0.0020671678597800969 0.0034464370488070943 0 -0.0043403979298602732 0.0036817936970975863 0 -0.0042440216043582264 0.0035500724256393784 0 -0.0043955106543665107 0.0035631797424393167 0 -0.004408388381566924 0.0034015632674803246 0 -0.0042440216043582264 0.0035500724256393784 0 -0.0043955106543665107 0.0035631797424393167 0 -0.004408388381566924 0.0034015632674803246 0 -0.0044920228544429557 0.0034782164735793915 0 -0.0043955106543665107 0.0035631797424393167 0 -0.0044920228544429557 0.0034782164735793915 0 -0.0043955106543665107 0.0035631797424393167 0 -0.0044724683191808643 0.0036426965736523651 0 -0.0047027338740302628 0.0033054581594779212 0 -0.0044920228544429557 0.0034782164735793915 0 -0.0046284662643754767 0.0035574718060767067 0 -0.0044920228544429557 0.0034782164735793915 0 -0.0046284662643754767 0.0035574718060767067 0 -0.0044724683191808643 0.0036426965736523651 0 -0.0045896117388256608 0.0037061089227930525 0 -0.0041061914204755861 0.0038161623432379794 0 -0.0046284662643754767 0.0035574718060767067 0 -0.0045591090899116584 0.0037197345983141098 0 -0.0044724683191808643 0.0036426965736523651 0 -0.0045591090899116584 0.0037197345983141098 0 -0.0044724683191808643 0.0036426965736523651 0 -0.0044256291584605307 0.0037863588964371572 0 -0.0043403979298602732 0.0036817936970975863 0 -0.0044724683191808643 0.0036426965736523651 0 -0.0044256291584605307 0.0037863588964371572 0 -0.0043403979298602732 0.0036817936970975863 0 -0.0043955106543665107 0.0035631797424393167 0 -0.0044724683191808643 0.0036426965736523651 0 -0.002763864440428053 0.0034920033487985595 0 -0.0041061914204755861 0.0038161623432379794 0 -0.003956752909851328 0.0036757249790274672 0 -0.0042404568379327233 0.0040416851418413014 0 -0.003870298310831799 0.0041051764693800152 0 -0.0041061914204755861 0.0038161623432379794 0 -0.0042085162249498615 0.0039895514075388534 0 -0.004141541157995538 0.0038626434498153059 0 -0.0045074252909164106 0.0039167807104619774 0 -0.0042404568379327233 0.0040416851418413014 0 -0.0045591090899116584 0.0037197345983141098 0 -0.004141541157995538 0.0038626434498153059 0 -0.0045074252909164106 0.0039167807104619774 0 -0.0042404568379327233 0.0040416851418413014 0 -0.0045863508007878608 0.0042438009960255579 0 -0.0043055839844892817 0.0044151743339145332 0 -0.0042404568379327233 0.0040416851418413014 0 -0.0040502506325368641 0.0043223322404008059 0 -0.0043055839844892817 0.0044151743339145332 0 -0.0045074252909164106 0.0039167807104619774 0 -0.0042404568379327233 0.0040416851418413014 0 -0.0045863508007878608 0.0042438009960255579 0 -0.0042404568379327233 0.0040416851418413014 0 -0.003870298310831799 0.0041051764693800152 0 -0.0040502506325368641 0.0043223322404008059 0 -0.003870298310831799 0.0041051764693800152 0 -0.0037135725450376049 0.0043947627360998017 0 -0.0040502506325368641 0.0043223322404008059 0 0.0018971115580240726 0.0039669067729803803 0 -0.00034075442126520737 0.0048753480321375858 0 0.0045358545099968509 0.0037217118970212146 0 0.0046952315062190947 0.0038190531378072845 0 0.0038268432677712578 0.0046734686501792785 0 -0.003870298310831799 0.0041051764693800152 0 -0.0033714471888623221 0.0040260891739554803 0 -0.0037135725450376049 0.0043947627360998017 0 0.0018971115580240726 0.0039669067729803803 0 0.0037860962803508607 0.0041302572138562027 0 0.0018971115580240726 0.0039669067729803803 0 0.0062544413510478821 0.0051059599350066374 0 0.010443330487755061 0.0051714896590530166 0 0.010322032161264941 0.005195100580467832 0 0.010318154890099095 0.0051701760811697648 0 0.011864592496284057 0.0055670847752545939 0 0.0062544413510478821 0.0051059599350066374 0 0.010432198729874538 0.0052533247824348029 0 0.010443330487755061 0.0051714896590530166 0 0.010322032161264941 0.005195100580467832 0 0.0062544413510478821 0.0051059599350066374 0 0.0037860962803508607 0.0041302572138562027 0 0.0054209313348629251 0.0035777214112001484 0 0.0042943886158892082 0.0028644613212133957 0 0.0045079994165036349 0.0048240889620574517 0 0.010443330487755061 0.0051714896590530166 0 0.010444552513458411 0.0050907301644848154 0 0.010318154890099095 0.0051701760811697648 0 0.0019609598780530499 0.003973675056529893 0 0.0018344006256764665 0.0039762916651528268 0 0.0018736849211559989 0.0041122706330187601 0 0.0064100253991667246 0.0045436749690912111 0 0.0037860962803508607 0.0041302572138562027 0 -0.0017958536968446215 0.0040846227226451932 0 -0.00062089396233553794 0.0048035992972502621 0 -0.00096629302662712348 0.004133070038118798 0 -0.0041061914204755861 0.0038161623432379794 0 0.0018971115580240726 0.0039669067729803803 0 -0.003956752909851328 0.0036757249790274672 0 -0.003870298310831799 0.0041051764693800152 0 -0.0033714471888623221 0.0040260891739554803 0 0.00058829782704983692 0.0038545605468024214 0 0.0037860962803508607 0.0041302572138562027 0 -0.0012650022587090126 0.0034280355359369618 0 -0.0017958536968446215 0.0040846227226451932 0 -0.00096629302662712348 0.004133070038118798 0 -0.00063823975667642104 0.0037084102677417646 0 -0.00050874666545897278 0.0046500364944638628 0 -0.00096629302662712348 0.004133070038118798 0 -0.00062089396233553794 0.0048035992972502621 0 -0.00050874666545897278 0.0046500364944638628 0 -0.00096629302662712348 0.004133070038118798 0 -0.0056198608190915211 0.0039324618718264183 0 -0.0067536927743541419 0.0041768146549683548 0 -0.0067476636520459807 0.0049941334797442838 0 -0.005593928626050639 0.0039332098495357256 0 -0.005863291368173284 0.0045261987678555295 0 -0.0056198608190915211 0.0039324618718264183 0 -0.0051963381670193055 0.0040528296988232805 0 -0.0050242093971795037 0.0041387959460951872 0 -0.0062599808447735194 0.0035625514116588218 0 -0.0056198608190915211 0.0039324618718264183 0 -0.0067536927743541419 0.0041768146549683548 0 -0.005726125682413429 0.0034101322806869019 0 -0.0062599808447735194 0.0035625514116588218 0 -0.0056198608190915211 0.0039324618718264183 0 -0.0056198608190915211 0.0039324618718264183 0 -0.0053148976832611697 0.0034953551875421601 0 -0.0051963381670193055 0.0040528296988232805 0 -0.005726125682413429 0.0034101322806869019 0 -0.0056198608190915211 0.0039324618718264183 0 -0.0053148976832611697 0.0034953551875421601 0 -0.0049533797139680175 0.0036937496154696011 0 -0.0048891808919638664 0.003960316375982144 0 -0.0051963381670193055 0.0040528296988232805 0 -0.0049584903298481638 0.0036872120166902907 0 -0.0049967661769681161 0.0040852220943444276 0 -0.0053148976832611697 0.0034953551875421601 0 -0.0051963381670193055 0.0040528296988232805 0 -0.0049584903298481638 0.0036872120166902907 0 -0.005025803186565001 0.003278571642396508 0 -0.0053148976832611697 0.0034953551875421601 0 -0.0049584903298481638 0.0036872120166902907 0 -0.0046284662643754767 0.0035574718060767067 0 -0.0045591090899116584 0.0037197345983141098 0 -0.0049584903298481638 0.0036872120166902907 0 -0.0047027338740302628 0.0033054581594779212 0 -0.0046284662643754767 0.0035574718060767067 0 -0.0049584903298481638 0.0036872120166902907 0 -0.0045591090899116584 0.0037197345983141098 0 -0.0049584903298481638 0.0036872120166902907 0 -0.0047606893911573949 0.003878850959878589 0 -0.0045074252909164106 0.0039167807104619774 0 -0.0047606893911573949 0.003878850959878589 0 -0.0045863508007878608 0.0042438009960255579 0 -0.0045591090899116584 0.0037197345983141098 0 -0.0045074252909164106 0.0039167807104619774 0 -0.0047606893911573949 0.003878850959878589 0 -0.0048891808919638664 0.003960316375982144 0 -0.0047417640001558405 0.0041129787935370718 0 -0.0049967661769681161 0.0040852220943444276 0 -0.0050398374164496041 0.0039780031806747615 0 -0.0049616047874161198 0.003968216268657382 0 -0.0049967661769681161 0.0040852220943444276 0 -0.0049862579371695564 0.0040576310175524143 0 -0.0049616047874161198 0.003968216268657382 0 -0.0051963381670193055 0.0040528296988232805 0 -0.0049967661769681161 0.0040852220943444276 0 -0.0049862579371695564 0.0040576310175524143 0 -0.0051963381670193055 0.0040528296988232805 0 -0.0049862579371695564 0.0040576310175524143 0 -0.0050242093971795037 0.0041387959460951872 0 -0.0049862579371695564 0.0040576310175524143 0 -0.0047733164112811971 0.0040180784519154196 0 -0.0050242093971795037 0.0041387959460951872 0 -0.0049862579371695564 0.0040576310175524143 0 -0.0047733164112811971 0.0040180784519154196 0 -0.0047732641682588063 0.0038619659310390499 0 -0.0044920917904842485 0.0036419165292788276 0 -0.0047732641682588063 0.0038619659310390499 0 -0.0045765416138874348 0.0038813877326869064 0 -0.0047733164112811971 0.0040180784519154196 0 -0.0047732641682588063 0.0038619659310390499 0 -0.0045765416138874348 0.0038813877326869064 0 -0.0049862579371695564 0.0040576310175524143 0 -0.0047732641682588063 0.0038619659310390499 0 -0.0049616047874161198 0.003968216268657382 0 -0.0047732641682588063 0.0038619659310390499 0 -0.0049243065043306665 0.0037550374282152299 0 -0.0047188327591749617 0.003606927255111329 0 -0.0044920917904842485 0.0036419165292788276 0 -0.0047732641682588063 0.0038619659310390499 0 -0.0047188327591749617 0.003606927255111329 0 -0.0047732641682588063 0.0038619659310390499 0 -0.0049243065043306665 0.0037550374282152299 0 -0.0049616047874161198 0.003968216268657382 0 -0.0049243065043306665 0.0037550374282152299 0 -0.0049616047874161198 0.003968216268657382 0 -0.0050026631234610878 0.003851555103100212 0 -0.0047417640001558405 0.0041129787935370718 0 -0.0053991856112419277 0.0042406995950546519 0 -0.0050398374164496041 0.0039780031806747615 0 -0.0049616047874161198 0.003968216268657382 0 -0.0050026631234610878 0.003851555103100212 0 -0.0045863508007878608 0.0042438009960255579 0 -0.0044098175730705614 0.0046305934546873213 0 -0.0043055839844892817 0.0044151743339145332 0 -0.0050398374164496041 0.0039780031806747615 0 -0.0050026631234610878 0.003851555103100212 0 -0.0050852354870219536 0.0037610868839316599 0 -0.0042882988704777102 0.0046795135901545343 0 -0.0044098175730705614 0.0046305934546873213 0 -0.0040079265485963413 0.0059949799689591639 0 -0.0049243065043306665 0.0037550374282152299 0 -0.0050026631234610878 0.003851555103100212 0 -0.0050024219740824284 0.0037388588762137997 0 -0.0050026631234610878 0.003851555103100212 0 -0.0050852354870219536 0.0037610868839316599 0 -0.0050024219740824284 0.0037388588762137997 0 -0.0050024219740824284 0.0037388588762137997 0 -0.0050427180346530112 0.003645931420276929 0 -0.0049812933453362773 0.0036161799017015331 0 -0.0049243065043306665 0.0037550374282152299 0 -0.0050024219740824284 0.0037388588762137997 0 -0.0049812933453362773 0.0036161799017015331 0 -0.0050852354870219536 0.0037610868839316599 0 -0.0050024219740824284 0.0037388588762137997 0 -0.0050427180346530112 0.003645931420276929 0 -0.0050852354870219536 0.0037610868839316599 0 -0.0050427180346530112 0.003645931420276929 0 -0.0051069105680021463 0.0034635847773027513 0 -0.0053991856112419277 0.0042406995950546519 0 0.0015167800230585051 0.0038707671685160238 0 -0.0049812933453362773 0.0036161799017015331 0 -0.0049320793482315415 0.0034357383495423432 0 -0.0051069105680021463 0.0034635847773027513 0 -0.0050427180346530112 0.003645931420276929 0 -0.0049812933453362773 0.0036161799017015331 0 -0.0051069105680021463 0.0034635847773027513 0 -0.0049812933453362773 0.0036161799017015331 0 -0.0049320793482315415 0.0034357383495423432 0 -0.0048685003332805824 0.0035657477063212291 0 0.0015167800230585051 0.0038707671685160238 0 0.0014037183362268643 0.0034265996357086157 0 -0.0049320793482315415 0.0034357383495423432 0 -0.0051069105680021463 0.0034635847773027513 0 -0.0049074410544387888 0.0031761301421714492 0 0.0079536070597017224 0.0032574572996177456 0 0.0081278910573645436 0.0037950181983661757 0 0.0074546929235157367 0.0039906166685166194 0 -0.0049320793482315415 0.0034357383495423432 0 -0.0047447835839114303 0.0034027661959315481 0 -0.0049074410544387888 0.0031761301421714492 0 -0.0047447835839114303 0.0034027661959315481 0 -0.0045671636998851428 0.0031587797255740106 0 -0.0049074410544387888 0.0031761301421714492 0 -0.0049243065043306665 0.0037550374282152299 0 -0.0048685003332805824 0.0035657477063212291 0 -0.0047188327591749617 0.003606927255111329 0 -0.0047447835839114303 0.0034027661959315481 0 -0.0048685003332805824 0.0035657477063212291 0 -0.0047188327591749617 0.003606927255111329 0 -0.0049243065043306665 0.0037550374282152299 0 -0.0049812933453362773 0.0036161799017015331 0 -0.0048685003332805824 0.0035657477063212291 0 -0.0049320793482315415 0.0034357383495423432 0 -0.0047447835839114303 0.0034027661959315481 0 -0.0048685003332805824 0.0035657477063212291 0 -0.0047447835839114303 0.0034027661959315481 0 -0.0047188327591749617 0.003606927255111329 0 -0.0045044405948118735 0.0034242557258204217 0 -0.0047447835839114303 0.0034027661959315481 0 -0.0045044405948118735 0.0034242557258204217 0 -0.0045671636998851428 0.0031587797255740106 0 -0.0045044405948118735 0.0034242557258204217 0 -0.0043549006365530144 0.0029689039931113394 0 -0.0042794303661443907 0.0033678055683824017 0 -0.0042356899549309893 0.0031999042722350469 0 -0.00503709961319488 0.0033779958451936329 0 -0.0044920917904842485 0.0036419165292788276 0 -0.0045044405948118735 0.0034242557258204217 0 -0.0042794303661443907 0.0033678055683824017 0 -0.0044920917904842485 0.0036419165292788276 0 -0.0047188327591749617 0.003606927255111329 0 -0.0045044405948118735 0.0034242557258204217 0 0.0094604053133159321 0.0025682696838148816 0 0.0098005175201051759 0.0021911388546948262 0 0.008670581103112935 0.0022998789822116553 0 0.0093543616815968782 0.0043269727070103271 0 0.0016873996674267931 0.0041864179934354689 0 0.010625504446514403 0.0037542228117081597 0 0.010338529111363152 0.003542784895759256 0 0.01039295655753845 0.0039844918865678952 0 0.0093543616815968782 0.0043269727070103271 0 0.010239823267513916 0.0030937126519804039 0 0.0094604053133159321 0.0025682696838148816 0 0.0098005175201051759 0.0021911388546948262 0 0.009920569095802077 0.0029973276609008889 0 0.010432198729874538 0.0052533247824348029 0 0.0099841955485536135 0.0049743663449969572 0 0.010084379483497 0.0054773376030069808 0 0.0062544413510478821 0.0051059599350066374 0 0.0093543616815968782 0.0043269727070103271 0 0.0049122421288898665 0.0054527045539363023 0 0.0038268432677712578 0.0046734686501792785 0 0.0031033177456164145 0.0056372942102541805 0 0.0046952315062190947 0.0038190531378072845 0 0.0049122421288898665 0.0054527045539363023 0 0.0038268432677712578 0.0046734686501792785 0 -0.0037135725450376049 0.0043947627360998017 0 -0.0040502506325368641 0.0043223322404008059 0 -0.0039666656249825287 0.0046666117145310899 0 -0.00034075442126520737 0.0048753480321375858 0 0.0016873996674267931 0.0041864179934354689 0 -0.0040502506325368641 0.0043223322404008059 0 -0.0043055839844892817 0.0044151743339145332 0 -0.0039666656249825287 0.0046666117145310899 0 -0.0042882988704777102 0.0046795135901545343 0 -0.0028178947978745408 0.0044540867970991396 0 -0.0034701961324696919 0.0052865372572022239 0 -0.0042882988704777102 0.0046795135901545343 0 -0.0043055839844892817 0.0044151743339145332 0 -0.0039666656249825287 0.0046666117145310899 0 -0.0061866215647566856 0.0048537593596433039 0 0.0016873996674267931 0.0041864179934354689 0 -0.0042882988704777102 0.0046795135901545343 0 -0.0044098175730705614 0.0046305934546873213 0 -0.0043055839844892817 0.0044151743339145332 0 0.0094604053133159321 0.0025682696838148816 0 0.008670581103112935 0.0022998789822116553 0 0.0090262403341121473 0.002704925027159633 0 0.0016873996674267931 0.0041864179934354689 0 0.0025029280247312984 0.0038634959658985146 0 0.008670581103112935 0.0022998789822116553 0 0.0087178644203745985 0.002805050528740157 0 0.0083367238518131347 0.0027641622602620386 0 0.008670581103112935 0.0022998789822116553 0 0.0090262403341121473 0.002704925027159633 0 0.0087178644203745985 0.002805050528740157 0 0.0090262403341121473 0.002704925027159633 0 0.0087178644203745985 0.002805050528740157 0 0.0090231056832207664 0.0030171447653389418 0 0.0087178644203745985 0.002805050528740157 0 0.0085871898939829869 0.0031621711031544759 0 0.0083367238518131347 0.0027641622602620386 0 0.0087178644203745985 0.002805050528740157 0 0.0085871898939829869 0.0031621711031544759 0 0.0090231056832207664 0.0030171447653389418 0 0.0085871898939829869 0.0031621711031544759 0 0.0090231056832207664 0.0030171447653389418 0 0.0088858555977554664 0.0032846472221549432 0 -0.0042882988704777102 0.0046795135901545343 0 -0.0034701961324696919 0.0052865372572022239 0 -0.0040079265485963413 0.0059949799689591639 0 0.0085871898939829869 0.0031621711031544759 0 0.0083367238518131347 0.0027641622602620386 0 0.008000529281677193 0.0032272457442275556 0 0.0025029280247312984 0.0038634959658985146 0 0.0015167800230585051 0.0038707671685160238 0 0.0083842151850025848 0.0034413522206325976 0 0.0081639145480947462 0.0037866869319388087 0 0.0087844417198119796 0.0035882497247542947 0 0.0015167800230585051 0.0038707671685160238 0 0.0079899601695628316 0.0039764515612036961 0 0.008000529281677193 0.0032272457442275556 0 0.0083842151850025848 0.0034413522206325976 0 0.0081639145480947462 0.0037866869319388087 0 0.0085871898939829869 0.0031621711031544759 0 0.008000529281677193 0.0032272457442275556 0 0.0083842151850025848 0.0034413522206325976 0 0.0088858555977554664 0.0032846472221549432 0 0.0087844417198119796 0.0035882497247542947 0 0.0091480455185893698 0.0033715295726421141 0 0.0090231056832207664 0.0030171447653389418 0 0.0088858555977554664 0.0032846472221549432 0 0.0091480455185893698 0.0033715295726421141 0 0.0085871898939829869 0.0031621711031544759 0 0.0088858555977554664 0.0032846472221549432 0 0.0087844417198119796 0.0035882497247542947 0 0.0085871898939829869 0.0031621711031544759 0 0.0083842151850025848 0.0034413522206325976 0 0.0087844417198119796 0.0035882497247542947 0 0.0087844417198119796 0.0035882497247542947 0 0.0090957255596464687 0.0037249840034272669 0 0.0091480455185893698 0.0033715295726421141 0 0.0087844417198119796 0.0035882497247542947 0 0.0090957255596464687 0.0037249840034272669 0 0.0088168060046364561 0.0040530476385333735 0 0.0090957255596464687 0.0037249840034272669 0 0.0093954733580914537 0.0036003524340302395 0 0.0093358701966013442 0.0040118986120959224 0 0.0090957255596464687 0.0037249840034272669 0 0.0093954733580914537 0.0036003524340302395 0 0.0091480455185893698 0.0033715295726421141 0 0.0093954733580914537 0.0036003524340302395 0 0.009677554294877988 0.0037756079402912735 0 0.0096282787702644153 0.0034626007500809502 0 0.0093954733580914537 0.0036003524340302395 0 0.0096282787702644153 0.0034626007500809502 0 0.0094807604205774994 0.0033134609116499659 0 0.0096282787702644153 0.0034626007500809502 0 0.0094807604205774994 0.0033134609116499659 0 0.0097314925050588641 0.0032750345385714895 0 0.0094807604205774994 0.0033134609116499659 0 0.0096257452165912066 0.0030927088839168447 0 0.0097314925050588641 0.0032750345385714895 0 0.0094807604205774994 0.0033134609116499659 0 0.0091480455185893698 0.0033715295726421141 0 0.0093582177123565976 0.003081383459670085 0 0.0093954733580914537 0.0036003524340302395 0 0.0094807604205774994 0.0033134609116499659 0 0.0091480455185893698 0.0033715295726421141 0 0.0090231056832207664 0.0030171447653389418 0 0.0091480455185893698 0.0033715295726421141 0 0.0093582177123565976 0.003081383459670085 0 0.0090231056832207664 0.0030171447653389418 0 0.0093582177123565976 0.003081383459670085 0 0.0092681633331153507 0.0028495594177482442 0 0.0093582177123565976 0.003081383459670085 0 0.0094943888859792894 0.0029110405632145073 0 0.0092681633331153507 0.0028495594177482442 0 0.0094807604205774994 0.0033134609116499659 0 0.0093582177123565976 0.003081383459670085 0 0.0096257452165912066 0.0030927088839168447 0 0.0096257452165912066 0.0030927088839168447 0 0.0094943888859792894 0.0029110405632145073 0 0.0097683113258705458 0.0029821364661310472 0 0.0093582177123565976 0.003081383459670085 0 0.0096257452165912066 0.0030927088839168447 0 0.0094943888859792894 0.0029110405632145073 0 0.0094604053133159321 0.0025682696838148816 0 0.0094943888859792894 0.0029110405632145073 0 0.0097683113258705458 0.0029821364661310472 0 0.0094604053133159321 0.0025682696838148816 0 0.0094943888859792894 0.0029110405632145073 0 0.0092681633331153507 0.0028495594177482442 0 0.0094604053133159321 0.0025682696838148816 0 0.0090262403341121473 0.002704925027159633 0 0.0092681633331153507 0.0028495594177482442 0 0.0090262403341121473 0.002704925027159633 0 0.0090231056832207664 0.0030171447653389418 0 0.0092681633331153507 0.0028495594177482442 0 0.01052769820407543 0.0034714974115538392 0 0.010239823267513916 0.0030937126519804039 0 0.010326087408068237 0.0031540315316206089 0 0.010654461551766614 0.0029751244695107363 0 0.0099616763524839041 0.0029583596280314223 0 0.0094604053133159321 0.0025682696838148816 0 0.009920569095802077 0.0029973276609008889 0 0.0097683113258705458 0.0029821364661310472 0 0.010239823267513916 0.0030937126519804039 0 0.010030953999813191 0.0030655871816386133 0 0.0099543879942844207 0.0029731766230658829 0 0.0097683113258705458 0.0029821364661310472 0 0.0098288891234185362 0.0031058382708531356 0 0.0099543879942844207 0.0029731766230658829 0 0.0098288891234185362 0.0031058382708531356 0 0.0099706023717645587 0.0030629192345015756 0 0.010239823267513916 0.0030937126519804039 0 0.010221633048909575 0.0030763382112332497 0 0.0096257452165912066 0.0030927088839168447 0 0.0097683113258705458 0.0029821364661310472 0 0.0098288891234185362 0.0031058382708531356 0 0.0096257452165912066 0.0030927088839168447 0 0.0098288891234185362 0.0031058382708531356 0 0.0097314925050588641 0.0032750345385714895 0 0.0098288891234185362 0.0031058382708531356 0 0.0099706023717645587 0.0030629192345015756 0 0.0099351188144924836 0.0032512881056108705 0 0.010326087408068237 0.0031540315316206089 0 0.0099616763524839041 0.0029583596280314223 0 0.010129442995171991 0.0031733609468937727 0 0.0099706023717645587 0.0030629192345015756 0 0.010129442995171991 0.0031733609468937727 0 0.0099351188144924836 0.0032512881056108705 0 0.0099616763524839041 0.0029583596280314223 0 0.0099706023717645587 0.0030629192345015756 0 0.010129442995171991 0.0031733609468937727 0 0.010326087408068237 0.0031540315316206089 0 0.010391618857003846 0.0036450876602021681 0 0.010113897376449271 0.0034183591761435764 0 0.010326087408068237 0.0031540315316206089 0 0.010129442995171991 0.0031733609468937727 0 0.010113897376449271 0.0034183591761435764 0 0.010129442995171991 0.0031733609468937727 0 0.010113897376449271 0.0034183591761435764 0 0.0099351188144924836 0.0032512881056108705 0 0.0098288891234185362 0.0031058382708531356 0 0.0097314925050588641 0.0032750345385714895 0 0.0099351188144924836 0.0032512881056108705 0 0.0097314925050588641 0.0032750345385714895 0 0.0099351188144924836 0.0032512881056108705 0 0.0098527999128337398 0.0034972500629445635 0 0.010113897376449271 0.0034183591761435764 0 0.0099351188144924836 0.0032512881056108705 0 0.0098527999128337398 0.0034972500629445635 0 0.0096282787702644153 0.0034626007500809502 0 0.0097314925050588641 0.0032750345385714895 0 0.0098527999128337398 0.0034972500629445635 0 0.009677554294877988 0.0037756079402912735 0 0.0096282787702644153 0.0034626007500809502 0 0.0098527999128337398 0.0034972500629445635 0 0.009677554294877988 0.0037756079402912735 0 0.0098527999128337398 0.0034972500629445635 0 0.010035921304353133 0.0037972981065975153 0 0.010113897376449271 0.0034183591761435764 0 0.0098527999128337398 0.0034972500629445635 0 0.010035921304353133 0.0037972981065975153 0 0.010391618857003846 0.0036450876602021681 0 0.010113897376449271 0.0034183591761435764 0 0.010035921304353133 0.0037972981065975153 0 0.0098197609908425038 0.0042599932011769702 0 0.01028173508212799 0.0040795342437961214 0 0.010358233952340539 0.0047359968366513247 0 0.010035921304353133 0.0037972981065975153 0 0.0098197609908425038 0.0042599932011769702 0 0.01028173508212799 0.0040795342437961214 0 0.010391618857003846 0.0036450876602021681 0 0.010035921304353133 0.0037972981065975153 0 0.01028173508212799 0.0040795342437961214 0 0.009677554294877988 0.0037756079402912735 0 0.010035921304353133 0.0037972981065975153 0 0.0098197609908425038 0.0042599932011769702 0 0.0098197609908425038 0.0042599932011769702 0 0.0095039555329484819 0.0049540332417466627 0 0.010358233952340539 0.0047359968366513247 0 0.0098197609908425038 0.0042599932011769702 0 0.0092665277056295115 0.0044379065765862763 0 0.0095039555329484819 0.0049540332417466627 0 0.0092665277056295115 0.0044379065765862763 0 0.0090527037944141027 0.0047985959113962078 0 0.0095039555329484819 0.0049540332417466627 0 0.0092665277056295115 0.0044379065765862763 0 0.0093358701966013442 0.0040118986120959224 0 0.0088168060046364561 0.0040530476385333735 0 0.0098197609908425038 0.0042599932011769702 0 0.0092665277056295115 0.0044379065765862763 0 0.0093358701966013442 0.0040118986120959224 0 0.009677554294877988 0.0037756079402912735 0 0.0098197609908425038 0.0042599932011769702 0 0.0093358701966013442 0.0040118986120959224 0 0.0093954733580914537 0.0036003524340302395 0 0.009677554294877988 0.0037756079402912735 0 0.0093358701966013442 0.0040118986120959224 0 0.0090957255596464687 0.0037249840034272669 0 0.0093358701966013442 0.0040118986120959224 0 0.0088168060046364561 0.0040530476385333735 0 0.0081639145480947462 0.0037866869319388087 0 0.0087844417198119796 0.0035882497247542947 0 0.0088168060046364561 0.0040530476385333735 0 0.0088168060046364561 0.0040530476385333735 0 0.0083198389745434646 0.0043499155041404735 0 0.0088069391342938362 0.0045003483374145385 0 0.0092665277056295115 0.0044379065765862763 0 0.0088168060046364561 0.0040530476385333735 0 0.0088069391342938362 0.0045003483374145385 0 0.0081278910573645436 0.0037950181983661757 0 0.0083198389745434646 0.0043499155041404735 0 0.0077941492182098254 0.0043885265831972069 0 0.0081639145480947462 0.0037866869319388087 0 0.0088168060046364561 0.0040530476385333735 0 0.0083198389745434646 0.0043499155041404735 0 0.0079899601695628316 0.0039764515612036961 0 0.0082660806076487025 0.0042425702706917201 0 0.0083198389745434646 0.0043499155041404735 0 0.0085749046755431366 0.0048601992123790336 0 0.0079068381368777862 0.0049824507369446037 0 0.0083198389745434646 0.0043499155041404735 0 0.0077941492182098254 0.0043885265831972069 0 0.0079068381368777862 0.0049824507369446037 0 0.0092665277056295115 0.0044379065765862763 0 0.0088069391342938362 0.0045003483374145385 0 0.0090527037944141027 0.0047985959113962078 0 0.0083198389745434646 0.0043499155041404735 0 0.0085749046755431366 0.0048601992123790336 0 0.0088069391342938362 0.0045003483374145385 0 0.0085749046755431366 0.0048601992123790336 0 0.0088069391342938362 0.0045003483374145385 0 0.0090527037944141027 0.0047985959113962078 0 0.0090527037944141027 0.0047985959113962078 0 0.0089258743496653942 0.0051875645006428488 0 0.0095039555329484819 0.0049540332417466627 0 0.0089258743496653942 0.0051875645006428488 0 0.0091700760064274186 0.0056721927794273234 0 0.0095039555329484819 0.0049540332417466627 0 0.0089258743496653942 0.0051875645006428488 0 0.0084377836237335656 0.0053903318573542648 0 0.0091700760064274186 0.0056721927794273234 0 0.0085749046755431366 0.0048601992123790336 0 0.0089258743496653942 0.0051875645006428488 0 0.0084377836237335656 0.0053903318573542648 0 0.0085749046755431366 0.0048601992123790336 0 0.0090527037944141027 0.0047985959113962078 0 0.0089258743496653942 0.0051875645006428488 0 0.0085749046755431366 0.0048601992123790336 0 0.0084377836237335656 0.0053903318573542648 0 0.0079068381368777862 0.0049824507369446037 0 0.0084377836237335656 0.0053903318573542648 0 0.0079068381368777862 0.0049824507369446037 0 0.007948340217974921 0.0056786042432394055 0 0.0084929197488218932 0.0059481140479902455 0 0.007948340217974921 0.0056786042432394055 0 0.0081843488415264155 0.0064083831588969287 0 0.0084377836237335656 0.0053903318573542648 0 0.0084929197488218932 0.0059481140479902455 0 0.007948340217974921 0.0056786042432394055 0 0.0084377836237335656 0.0053903318573542648 0 0.0084929197488218932 0.0059481140479902455 0 0.0091700760064274186 0.0056721927794273234 0 0.0084929197488218932 0.0059481140479902455 0 0.0091700760064274186 0.0056721927794273234 0 0.0088852914470504783 0.0063637500182924696 0 0.0091700760064274186 0.0056721927794273234 0 0.0099542701314365989 0.005522655721998837 0 0.0095763877661536739 0.0063197216322390462 0 0.011292463477920655 0.0035498044451972672 0 0.015621722225867711 0.0047972892135824501 0 0.01379441096467165 0.001632069356505022 0 0.013613663965363725 0.0014409900070493655 0 0.013387667641752622 0.001923070018393244 0 0.01379441096467165 0.001632069356505022 0 0.013613663965363725 0.0014409900070493655 0 0.013884613289631254 0.0013646703676672772 0 0.011292463477920655 0.0035498044451972672 0 0.012167027979837538 0.0028858576175332497 0 0.0099542701314365989 0.005522655721998837 0 0.0095039555329484819 0.0049540332417466627 0 0.010358233952340539 0.0047359968366513247 0 0.013613663965363725 0.0014409900070493655 0 0.013868075368392407 0.0010460926630225425 0 0.013884613289631254 0.0013646703676672772 0 0.0091700760064274186 0.0056721927794273234 0 0.0099542701314365989 0.005522655721998837 0 0.0095039555329484819 0.0049540332417466627 0 -0.0042862246298191508 0.0028588063622997421 0 -0.0041183115106272986 0.0031204970707174756 0 -0.0037988309423346916 0.00273757476121051 0 -0.0042862246298191508 0.0028588063622997421 0 -0.0041183115106272986 0.0031204970707174756 0 -0.0045671636998851428 0.0031587797255740106 0 -0.0045044405948118735 0.0034242557258204217 0 -0.0041183115106272986 0.0031204970707174756 0 -0.0045671636998851428 0.0031587797255740106 0 -0.0042862246298191508 0.0028588063622997421 0 -0.0045671636998851428 0.0031587797255740106 0 -0.0046391344623017312 0.0028398984938580443 0 0.00038684435271144687 0.0039929946502642198 0 0.0014037183362268643 0.0034265996357086157 0 -0.0045671636998851428 0.0031587797255740106 0 -0.0046391344623017312 0.0028398984938580443 0 -0.0049074410544387888 0.0031761301421714492 0 0.0081278910573645436 0.0037950181983661757 0 0.0074546929235157367 0.0039906166685166194 0 0.0077941492182098254 0.0043885265831972069 0 0.0069075885642186242 0.0047463635412481999 0 0.0077941492182098254 0.0043885265831972069 0 0.0079068381368777862 0.0049824507369446037 0 0.0069075885642186242 0.0047463635412481999 0 0.0074546929235157367 0.0039906166685166194 0 0.0077941492182098254 0.0043885265831972069 0 0.0079068381368777862 0.0049824507369446037 0 0.007948340217974921 0.0056786042432394055 0 0.0072715788299706719 0.0053802197659472235 0 0.007948340217974921 0.0056786042432394055 0 0.0072501477314720324 0.0059773121375043875 0 0.0072715788299706719 0.0053802197659472235 0 0.007948340217974921 0.0056786042432394055 0 0.0072501477314720324 0.0059773121375043875 0 0.0081843488415264155 0.0064083831588969287 0 0.0072501477314720324 0.0059773121375043875 0 0.0072715788299706719 0.0053802197659472235 0 0.0063383751380061788 0.0055274528588308055 0 0.0069075885642186242 0.0047463635412481999 0 0.0072715788299706719 0.0053802197659472235 0 0.0063383751380061788 0.0055274528588308055 0 0.0069075885642186242 0.0047463635412481999 0 0.0079068381368777862 0.0049824507369446037 0 0.0072715788299706719 0.0053802197659472235 0 -0.0042862246298191508 0.0028588063622997421 0 -0.0046391344623017312 0.0028398984938580443 0 -0.0042955108374624481 0.0024855494503702785 0 0.00038684435271144687 0.0039929946502642198 0 0.0060291299782577728 0.0043910118227250021 0 0.013908699298218429 0.0036729081870360094 0 0.01274090801939814 0.003856420370752415 0 0.012241574791203257 0.0028780837605864853 0 0.010360573870088806 0.0047800150861508749 0 0.0060291299782577728 0.0043910118227250021 0 0.01274090801939814 0.003856420370752415 0 0.012241574791203257 0.0028780837605864853 0 0.011750161544763795 0.0036135172667050674 0 0.012105877867599047 0.003050895381772693 0 0.011750161544763795 0.0036135172667050674 0 0.011239204488192966 0.0026065836578447318 0 0.011750161544763795 0.0036135172667050674 0 0.011239204488192966 0.0026065836578447318 0 0.010760942887857694 0.003338307647488414 0 0.0060291299782577728 0.0043910118227250021 0 0.011687483726153518 0.0021054331993673116 0 -0.0042862246298191508 0.0028588063622997421 0 -0.0040631623194191313 0.0026098655871752679 0 -0.0037988309423346916 0.00273757476121051 0 -0.0042862246298191508 0.0028588063622997421 0 -0.0042955108374624481 0.0024855494503702785 0 -0.0040631623194191313 0.0026098655871752679 0 0.0060291299782577728 0.0043910118227250021 0 0.0034112167901243001 0.0025211457811579576 0 0.024518179419849379 0.0046025374639329401 0 0.024333391197827819 0.0054425996914123009 0 0.025003307110155856 0.0047901437621864088 0 0.024518179419849379 0.0046025374639329401 0 0.025006110692539604 0.004186412561912615 0 0.025003307110155856 0.0047901437621864088 0 0.024333391197827819 0.0054425996914123009 0 0.025254008538514981 0.0051694930549758744 0 0.025003307110155856 0.0047901437621864088 0 0.017847841977174782 0.0049811923702467037 0 0.019039052669253202 0.0049619946972606042 0 0.011750161544763795 0.0036135172667050674 0 0.012063035044247404 0.0045370470967568315 0 0.010613847399556819 0.0044827365159260321 0 0.017847841977174782 0.0049811923702467037 0 0.019028521906159345 0.0051005054320593778 0 0.01274090801939814 0.003856420370752415 0 0.012063035044247404 0.0045370470967568315 0 0.013800791842574074 0.0045827254770662079 0 0.01274090801939814 0.003856420370752415 0 0.011750161544763795 0.0036135172667050674 0 0.012063035044247404 0.0045370470967568315 0 0.024333391197827819 0.0054425996914123009 0 0.023504500074193999 0.0046215517308943709 0 0.023144772594021638 0.0056664332228454602 0 0.024518179419849379 0.0046025374639329401 0 0.024333391197827819 0.0054425996914123009 0 0.023504500074193999 0.0046215517308943709 0 0.023504500074193999 0.0046215517308943709 0 0.023144772594021638 0.0056664332228454602 0 0.022296989647290048 0.005057182704076766 0 0.013908699298218429 0.0036729081870360094 0 0.01274090801939814 0.003856420370752415 0 0.013800791842574074 0.0045827254770662079 0 0.013908699298218429 0.0036729081870360094 0 0.013800791842574074 0.0045827254770662079 0 0.015662511575548727 0.0045594200381205135 0 0.019028521906159345 0.0051005054320593778 0 0.016344339708099058 0.005298696580041104 0 0.023144772594021638 0.0056664332228454602 0 0.022296989647290048 0.005057182704076766 0 0.021784220161956868 0.0058354126303777204 0 0.010360573870088806 0.0047800150861508749 0 0.016344339708099058 0.005298696580041104 0 0.023504500074193999 0.0046215517308943709 0 0.022296989647290048 0.005057182704076766 0 0.022408899896198504 0.0043354466362327225 0 0.022296989647290048 0.005057182704076766 0 0.022408899896198504 0.0043354466362327225 0 0.021497028313015962 0.0046421582440753636 0 0.022408899896198504 0.0043354466362327225 0 0.022005762225216861 0.0036405402794279333 0 0.022949080538773307 0.0038160376258212889 0 0.022408899896198504 0.0043354466362327225 0 0.022005762225216861 0.0036405402794279333 0 0.021800958050653567 0.0041748835510297851 0 0.022005762225216861 0.0036405402794279333 0 0.022565686523848421 0.0030626363753189808 0 0.022949080538773307 0.0038160376258212889 0 0.022005762225216861 0.0036405402794279333 0 0.022565686523848421 0.0030626363753189808 0 0.021879799457547852 0.002852784048481969 0 0.022565686523848421 0.0030626363753189808 0 0.023422958947661013 0.0031968060255934869 0 0.022949080538773307 0.0038160376258212889 0 0.023422958947661013 0.0031968060255934869 0 0.023710661561755556 0.0038616631569918305 0 0.022949080538773307 0.0038160376258212889 0 0.023504500074193999 0.0046215517308943709 0 0.022408899896198504 0.0043354466362327225 0 0.022949080538773307 0.0038160376258212889 0 0.023504500074193999 0.0046215517308943709 0 0.023710661561755556 0.0038616631569918305 0 0.022949080538773307 0.0038160376258212889 0 0.024518179419849379 0.0046025374639329401 0 0.023504500074193999 0.0046215517308943709 0 0.024390312112521486 0.0039765801700386164 0 0.023504500074193999 0.0046215517308943709 0 0.023710661561755556 0.0038616631569918305 0 0.024390312112521486 0.0039765801700386164 0 0.023422958947661013 0.0031968060255934869 0 0.023710661561755556 0.0038616631569918305 0 0.024278750727628699 0.0032547796361321415 0 0.023710661561755556 0.0038616631569918305 0 0.024390312112521486 0.0039765801700386164 0 0.024278750727628699 0.0032547796361321415 0 0.024390312112521486 0.0039765801700386164 0 0.024278750727628699 0.0032547796361321415 0 0.024991810649414324 0.0033769640826129526 0 0.024390312112521486 0.0039765801700386164 0 0.024991810649414324 0.0033769640826129526 0 0.025006110692539604 0.004186412561912615 0 0.024518179419849379 0.0046025374639329401 0 0.024390312112521486 0.0039765801700386164 0 0.025006110692539604 0.004186412561912615 0 0.015621722225867711 0.0047972892135824501 0 0.021228066112190837 0.0042954023661226576 0 0.019922816784652336 0.0045492962808958651 0 0.020021508122051657 0.0051463146253720596 0 0.02064320370740801 0.0041436750472312106 0 0.019922816784652336 0.0045492962808958651 0 0.02064320370740801 0.0041436750472312106 0 0.019888753935254674 0.0040117667242773741 0 0.019934309693312328 0.0032290862690762027 0 0.021271274457632813 0.0034133529978929568 0 0.022210690918968056 0.0021255045437638745 0 0.022111029861315121 0.0027428486227918797 0 0.022578681954363852 0.0018749527678494694 0 0.021547295463852957 0.00376413728935309 0 0.022618472285012972 0.0024471181882350281 0 0.0222956663234091 0.0023614307929524167 0 0.022210690918968056 0.0021255045437638745 0 0.022111029861315121 0.0027428486227918797 0 0.021955643717994414 0.0024433249795315789 0 0.019922816784652336 0.0045492962808958651 0 0.019149849106759976 0.0048923402089756972 0 0.019888753935254674 0.0040117667242773741 0 0.019934309693312328 0.0032290862690762027 0 0.022716192106033921 0.0020337177984601153 0 0.01379441096467165 0.001632069356505022 0 0.013387667641752622 0.001923070018393244 0 0.013912263842219689 0.0018800071174803338 0 0.015621722225867711 0.0047972892135824501 0 0.016981074324766084 0.0029235087738272779 0 0.019149849106759976 0.0048923402089756972 0 0.020021508122051657 0.0051463146253720596 0 0.019008602747472302 0.0051566972473817791 0 0.019922816784652336 0.0045492962808958651 0 0.019149849106759976 0.0048923402089756972 0 0.020021508122051657 0.0051463146253720596 0 0.019671403878700575 0.0058297203619411897 0 0.020611628027044641 0.0057362203278385404 0 0.02065255562714937 0.0053141797672035538 0 0.015621722225867711 0.0047972892135824501 0 0.014252028002625252 0.0061161301986194282 0 0.0091700760064274186 0.0056721927794273234 0 0.0095763877661536739 0.0063197216322390462 0 0.0088852914470504783 0.0063637500182924696 0 0.0084929197488218932 0.0059481140479902455 0 0.0088852914470504783 0.0063637500182924696 0 0.0081843488415264155 0.0064083831588969287 0 0.021784220161956868 0.0058354126303777204 0 0.021409413372761792 0.0051574751959167619 0 0.02065255562714937 0.0053141797672035538 0 0.016344339708099058 0.005298696580041104 0 0.022455072940538667 0.0059679511652625484 0 0.020611628027044641 0.0057362203278385404 0 0.021176173728184752 0.0056933463261567554 0 0.02065255562714937 0.0053141797672035538 0 0.014252028002625252 0.0061161301986194282 0 0.016344339708099058 0.005298696580041104 0 0.022296989647290048 0.005057182704076766 0 0.021784220161956868 0.0058354126303777204 0 0.021409413372761792 0.0051574751959167619 0 0.021409413372761792 0.0051574751959167619 0 0.02065255562714937 0.0053141797672035538 0 0.020969248259701888 0.004786319450845046 0 0.021409413372761792 0.0051574751959167619 0 0.021497028313015962 0.0046421582440753636 0 0.020969248259701888 0.004786319450845046 0 0.022296989647290048 0.005057182704076766 0 0.021409413372761792 0.0051574751959167619 0 0.021497028313015962 0.0046421582440753636 0 0.019671403878700575 0.0058297203619411897 0 0.02065255562714937 0.0053141797672035538 0 0.020452122601605234 0.0045188338590970139 0 0.02065255562714937 0.0053141797672035538 0 0.020969248259701888 0.004786319450845046 0 0.020452122601605234 0.0045188338590970139 0 0.021228066112190837 0.0042954023661226576 0 0.02106006215567946 0.0032352347155299023 0 0.020452122601605234 0.0045188338590970139 0 0.021293447089865768 0.004086544128374248 0 0.021316177237058722 0.0031295731616870896 0 0.020969248259701888 0.004786319450845046 0 0.020452122601605234 0.0045188338590970139 0 0.021293447089865768 0.004086544128374248 0 0.021497028313015962 0.0046421582440753636 0 0.021800958050653567 0.0041748835510297851 0 0.021293447089865768 0.004086544128374248 0 0.022408899896198504 0.0043354466362327225 0 0.021497028313015962 0.0046421582440753636 0 0.021800958050653567 0.0041748835510297851 0 0.021497028313015962 0.0046421582440753636 0 0.020969248259701888 0.004786319450845046 0 0.021293447089865768 0.004086544128374248 0 0.022005762225216861 0.0036405402794279333 0 0.021800958050653567 0.0041748835510297851 0 0.021293447089865768 0.004086544128374248 0 0.022005762225216861 0.0036405402794279333 0 0.021293447089865768 0.004086544128374248 0 0.021316177237058722 0.0031295731616870896 0 0.022005762225216861 0.0036405402794279333 0 0.021316177237058722 0.0031295731616870896 0 0.021879799457547852 0.002852784048481969 0 0.02064320370740801 0.0041436750472312106 0 0.021316177237058722 0.0031295731616870896 0 0.020648519597999106 0.0031193011632722673 0 0.022995522010012561 0.0011017047981965265 0 0.022578681954363852 0.0018749527678494694 0 0.022558132006772799 0.0013622604224400859 0 0.022877534450999378 0.001205221400317074 0 0.022716192106033921 0.0020337177984601153 0 0.023521517720913463 0.0012558348319415976 0 0.022995522010012561 0.0011017047981965265 0 0.022618472285012972 0.0024471181882350281 0 0.022995522010012561 0.0011017047981965265 0 0.022558132006772799 0.0013622604224400859 0 0.022645073594023627 0.0009511093584322162 0 0.02064320370740801 0.0041436750472312106 0 0.020648519597999106 0.0031193011632722673 0 0.019888753935254674 0.0040117667242773741 0 0.022995522010012561 0.0011017047981965265 0 0.022618472285012972 0.0024471181882350281 0 0.0222956663234091 0.0023614307929524167 0 0.022102548911069993 0.0022190767992735652 0 0.021271274457632813 0.0034133529978929568 0 0.022210690918968056 0.0021255045437638745 0 0.022190820500396811 0.0017744519089135356 0 0.022007282867938131 0.002078659543313913 0 0.022210690918968056 0.0021255045437638745 0 0.022346158446710195 0.0018552699819138737 0 0.022578681954363852 0.0018749527678494694 0 0.022210690918968056 0.0021255045437638745 0 0.022346158446710195 0.0018552699819138737 0 0.022190820500396811 0.0017744519089135356 0 0.022578681954363852 0.0018749527678494694 0 0.022403007620421644 0.0016510444572761015 0 0.022558132006772799 0.0013622604224400859 0 0.022346158446710195 0.0018552699819138737 0 0.022578681954363852 0.0018749527678494694 0 0.022403007620421644 0.0016510444572761015 0 0.022190820500396811 0.0017744519089135356 0 0.022280684962201154 0.0014460653321213411 0 0.021972586828163207 0.0014153683701687695 0 0.022403007620421644 0.0016510444572761015 0 0.022190820500396811 0.0017744519089135356 0 0.022280684962201154 0.0014460653321213411 0 0.022346158446710195 0.0018552699819138737 0 0.022403007620421644 0.0016510444572761015 0 0.022190820500396811 0.0017744519089135356 0 0.022280684962201154 0.0014460653321213411 0 0.022270306395004047 0.0010218845728275257 0 0.021972586828163207 0.0014153683701687695 0 0.022280684962201154 0.0014460653321213411 0 0.022558132006772799 0.0013622604224400859 0 0.022270306395004047 0.0010218845728275257 0 0.022403007620421644 0.0016510444572761015 0 0.022280684962201154 0.0014460653321213411 0 0.022558132006772799 0.0013622604224400859 0 0.022558132006772799 0.0013622604224400859 0 0.022270306395004047 0.0010218845728275257 0 0.022645073594023627 0.0009511093584322162 0 0.022270306395004047 0.0010218845728275257 0 0.021693422691692506 0.0010453399430083012 0 0.021972586828163207 0.0014153683701687695 0 0.021693422691692506 0.0010453399430083012 0 0.021571762132148339 0.0014759588989872951 0 0.021972586828163207 0.0014153683701687695 0 0.021693422691692506 0.0010453399430083012 0 0.021571762132148339 0.0014759588989872951 0 0.021076760811716881 0.0012932438570267435 0 0.021571762132148339 0.0014759588989872951 0 0.021076760811716881 0.0012932438570267435 0 0.021319597629282157 0.0017738269089915147 0 0.021076760811716881 0.0012932438570267435 0 0.021319597629282157 0.0017738269089915147 0 0.020861909845010095 0.0017814045589008968 0 0.021319597629282157 0.0017738269089915147 0 0.021773008430053673 0.0018476979718161388 0 0.021436952052539447 0.0021500446575934162 0 0.021319597629282157 0.0017738269089915147 0 0.021436952052539447 0.0021500446575934162 0 0.021053427862827843 0.0021586405135514014 0 0.021319597629282157 0.0017738269089915147 0 0.021053427862827843 0.0021586405135514014 0 0.020861909845010095 0.0017814045589008968 0 0.022190820500396811 0.0017744519089135356 0 0.021972586828163207 0.0014153683701687695 0 0.021773008430053673 0.0018476979718161388 0 0.021571762132148339 0.0014759588989872951 0 0.021319597629282157 0.0017738269089915147 0 0.021773008430053673 0.0018476979718161388 0 0.021571762132148339 0.0014759588989872951 0 0.021972586828163207 0.0014153683701687695 0 0.021773008430053673 0.0018476979718161388 0 0.021773008430053673 0.0018476979718161388 0 0.022007282867938131 0.002078659543313913 0 0.021746131090360939 0.0022791276360094983 0 0.022190820500396811 0.0017744519089135356 0 0.021773008430053673 0.0018476979718161388 0 0.022007282867938131 0.002078659543313913 0 0.022007282867938131 0.002078659543313913 0 0.021955643717994414 0.0024433249795315789 0 0.021746131090360939 0.0022791276360094983 0 0.022210690918968056 0.0021255045437638745 0 0.022007282867938131 0.002078659543313913 0 0.021955643717994414 0.0024433249795315789 0 0.021955643717994414 0.0024433249795315789 0 0.021894092048154741 0.0027543188360891991 0 0.021729117334454463 0.0026354968844342257 0 0.021955643717994414 0.0024433249795315789 0 0.021746131090360939 0.0022791276360094983 0 0.021729117334454463 0.0026354968844342257 0 0.021746131090360939 0.0022791276360094983 0 0.021490793974901012 0.0025104724018385647 0 0.021729117334454463 0.0026354968844342257 0 0.021746131090360939 0.0022791276360094983 0 0.021436952052539447 0.0021500446575934162 0 0.021490793974901012 0.0025104724018385647 0 0.021773008430053673 0.0018476979718161388 0 0.021746131090360939 0.0022791276360094983 0 0.021436952052539447 0.0021500446575934162 0 0.021436952052539447 0.0021500446575934162 0 0.021053427862827843 0.0021586405135514014 0 0.021244633516671451 0.0023679729230769719 0 0.02105473105534551 0.0025510136062015737 0 0.021244633516671451 0.0023679729230769719 0 0.021232239383863819 0.0027676028087504512 0 0.021053427862827843 0.0021586405135514014 0 0.02105473105534551 0.0025510136062015737 0 0.020776294378916118 0.0025003625679546168 0 0.021053427862827843 0.0021586405135514014 0 0.02105473105534551 0.0025510136062015737 0 0.021244633516671451 0.0023679729230769719 0 0.02105473105534551 0.0025510136062015737 0 0.020955594006581306 0.0027184309549863842 0 0.020776294378916118 0.0025003625679546168 0 0.021244633516671451 0.0023679729230769719 0 0.021490793974901012 0.0025104724018385647 0 0.021232239383863819 0.0027676028087504512 0 0.021436952052539447 0.0021500446575934162 0 0.021244633516671451 0.0023679729230769719 0 0.021490793974901012 0.0025104724018385647 0 0.014437297178585745 0.001679335840979504 0 0.013949820891699624 0.0015038711939234007 0 0.014213622818907564 0.0014198982905447141 0 0.021487377665904521 0.0028816164195385251 0 0.021068869255858113 0.0029976800674154334 0 0.021903426206134068 0.0029888869879570483 0 0.017782521683315972 0.0023086216370320819 0 0.017597057131573765 0.0026185831545181833 0 0.021232239383863819 0.0027676028087504512 0 0.021487377665904521 0.0028816164195385251 0 0.021068869255858113 0.0029976800674154334 0 0.021490793974901012 0.0025104724018385647 0 0.021232239383863819 0.0027676028087504512 0 0.021487377665904521 0.0028816164195385251 0 0.02105473105534551 0.0025510136062015737 0 0.021232239383863819 0.0027676028087504512 0 0.020955594006581306 0.0027184309549863842 0 0.021232239383863819 0.0027676028087504512 0 0.020955594006581306 0.0027184309549863842 0 0.021068869255858113 0.0029976800674154334 0 0.014437297178585745 0.001679335840979504 0 0.013949820891699624 0.0015038711939234007 0 0.013865070704557725 0.0016192046597781175 0 0.016146368752685995 0.0027946874086286003 0 0.017597057131573765 0.0026185831545181833 0 0.016981074324766084 0.0029235087738272779 0 0.017597057131573765 0.0026185831545181833 0 0.013949820891699624 0.0015038711939234007 0 0.013854038018049686 0.0015867008617750091 0 0.0138894455827613 0.0015863713023448608 0 0.022111029861315121 0.0027428486227918797 0 0.021955643717994414 0.0024433249795315789 0 0.021894092048154741 0.0027543188360891991 0 0.021903426206134068 0.0029888869879570483 0 0.021894092048154741 0.0027543188360891991 0 0.021753374787452637 0.0028150503306509584 0 0.018788191695264425 0.0025311032678912325 0 0.018287100279600208 0.0035337779089637702 0 0.017993121582263578 0.0035423058532803812 0 0.019934309693312328 0.0032290862690762027 0 0.016981074324766084 0.0029235087738272779 0 0.022111029861315121 0.0027428486227918797 0 0.021903426206134068 0.0029888869879570483 0 0.021894092048154741 0.0027543188360891991 0 0.019934309693312328 0.0032290862690762027 0 0.017597057131573765 0.0026185831545181833 0 0.021894092048154741 0.0027543188360891991 0 0.021729117334454463 0.0026354968844342257 0 0.021753374787452637 0.0028150503306509584 0 0.021490793974901012 0.0025104724018385647 0 0.021487377665904521 0.0028816164195385251 0 0.021729117334454463 0.0026354968844342257 0 0.021487377665904521 0.0028816164195385251 0 0.021903426206134068 0.0029888869879570483 0 0.021753374787452637 0.0028150503306509584 0 0.021487377665904521 0.0028816164195385251 0 0.021729117334454463 0.0026354968844342257 0 0.021753374787452637 0.0028150503306509584 0 0.01551936584363112 0.0016828090104226839 0 0.015373393091057534 0.0014976253392888007 0 0.016741336125087769 0.0016756496989915224 0 0.014254485927659592 0.0015102150348163307 0 0.014805928417744942 0.0020610922154826808 0 0.014608958309790188 0.0017082208805837783 0 0.02022825058569927 0.003014980931816819 0 0.01924482492896893 0.0031263489270139341 0 0.019677207977657079 0.0029551787053533527 0 0.014578528141801222 0.0014772758503429008 0 0.016881287842929062 0.0021923005460301663 0 0.018088417556696431 0.0023692114567405269 0 0.016881287842929062 0.0021923005460301663 0 0.0201518980299689 0.0027319932501509688 0 0.019913312160620426 0.0027752531562876804 0 0.02022825058569927 0.003014980931816819 0 0.0201518980299689 0.0027319932501509688 0 0.02022825058569927 0.003014980931816819 0 0.02035755101416507 0.0027473196407967492 0 0.020272523806873638 0.0025929925681521539 0 0.0201518980299689 0.0027319932501509688 0 0.02035755101416507 0.0027473196407967492 0 0.020272523806873638 0.0025929925681521539 0 0.0201518980299689 0.0027319932501509688 0 0.019977710731408554 0.0025220628602296009 0 0.0201518980299689 0.0027319932501509688 0 0.019913312160620426 0.0027752531562876804 0 0.019977710731408554 0.0025220628602296009 0 0.019713836048297153 0.0027323860547396306 0 0.019913312160620426 0.0027752531562876804 0 0.019977710731408554 0.0025220628602296009 0 0.019713836048297153 0.0027323860547396306 0 0.019913312160620426 0.0027752531562876804 0 0.019677207977657079 0.0029551787053533527 0 0.019913312160620426 0.0027752531562876804 0 0.02022825058569927 0.003014980931816819 0 0.019677207977657079 0.0029551787053533527 0 0.014437297178585745 0.001679335840979504 0 0.015373393091057534 0.0014976253392888007 0 0.014213622818907564 0.0014198982905447141 0 0.017782521683315972 0.0023086216370320819 0 0.018088417556696431 0.0023692114567405269 0 0.014437297178585745 0.001679335840979504 0 0.01551936584363112 0.0016828090104226839 0 0.015373393091057534 0.0014976253392888007 0 0.021068869255858113 0.0029976800674154334 0 0.02022825058569927 0.003014980931816819 0 0.020643217742880551 0.0027726873799917878 0 0.020955594006581306 0.0027184309549863842 0 0.020643217742880551 0.0027726873799917878 0 0.020776294378916118 0.0025003625679546168 0 0.020955594006581306 0.0027184309549863842 0 0.021068869255858113 0.0029976800674154334 0 0.020643217742880551 0.0027726873799917878 0 0.020643217742880551 0.0027726873799917878 0 0.020492477956273788 0.0025453184443398852 0 0.020776294378916118 0.0025003625679546168 0 0.02022825058569927 0.003014980931816819 0 0.020643217742880551 0.0027726873799917878 0 0.02035755101416507 0.0027473196407967492 0 0.020643217742880551 0.0027726873799917878 0 0.02035755101416507 0.0027473196407967492 0 0.020492477956273788 0.0025453184443398852 0 0.020272523806873638 0.0025929925681521539 0 0.02035755101416507 0.0027473196407967492 0 0.020492477956273788 0.0025453184443398852 0 0.020272523806873638 0.0025929925681521539 0 0.020492477956273788 0.0025453184443398852 0 0.02034945249399786 0.0023034295152308073 0 0.020492477956273788 0.0025453184443398852 0 0.02034945249399786 0.0023034295152308073 0 0.020659752242347566 0.002198460219892917 0 0.020492477956273788 0.0025453184443398852 0 0.020776294378916118 0.0025003625679546168 0 0.020659752242347566 0.002198460219892917 0 0.021053427862827843 0.0021586405135514014 0 0.020776294378916118 0.0025003625679546168 0 0.020659752242347566 0.002198460219892917 0 0.021053427862827843 0.0021586405135514014 0 0.020659752242347566 0.002198460219892917 0 0.020861909845010095 0.0017814045589008968 0 0.02034945249399786 0.0023034295152308073 0 0.020659752242347566 0.002198460219892917 0 0.020476362199675885 0.0018519936586440999 0 0.02034945249399786 0.0023034295152308073 0 0.019992111182668155 0.0021167296854222757 0 0.020476362199675885 0.0018519936586440999 0 0.02034945249399786 0.0023034295152308073 0 0.019977710731408554 0.0025220628602296009 0 0.019992111182668155 0.0021167296854222757 0 0.020272523806873638 0.0025929925681521539 0 0.02034945249399786 0.0023034295152308073 0 0.019977710731408554 0.0025220628602296009 0 0.019713836048297153 0.0027323860547396306 0 0.019977710731408554 0.0025220628602296009 0 0.019705235647415505 0.0023883414346788693 0 0.019977710731408554 0.0025220628602296009 0 0.019992111182668155 0.0021167296854222757 0 0.019705235647415505 0.0023883414346788693 0 0.019992111182668155 0.0021167296854222757 0 0.019705235647415505 0.0023883414346788693 0 0.01959599399339863 0.0020087669077885205 0 0.019992111182668155 0.0021167296854222757 0 0.019818205875732433 0.0016740233154158089 0 0.020476362199675885 0.0018519936586440999 0 0.019818205875732433 0.0016740233154158089 0 0.020476362199675885 0.0018519936586440999 0 0.02015693858542179 0.0013767054405186996 0 0.019992111182668155 0.0021167296854222757 0 0.019818205875732433 0.0016740233154158089 0 0.01959599399339863 0.0020087669077885205 0 0.020659752242347566 0.002198460219892917 0 0.020861909845010095 0.0017814045589008968 0 0.020476362199675885 0.0018519936586440999 0 0.020476362199675885 0.0018519936586440999 0 0.020591413865977081 0.0014341292672858323 0 0.02015693858542179 0.0013767054405186996 0 0.020861909845010095 0.0017814045589008968 0 0.020476362199675885 0.0018519936586440999 0 0.020591413865977081 0.0014341292672858323 0 0.021076760811716881 0.0012932438570267435 0 0.020861909845010095 0.0017814045589008968 0 0.020591413865977081 0.0014341292672858323 0 0.021076760811716881 0.0012932438570267435 0 0.020591413865977081 0.0014341292672858323 0 0.020389995051831582 0.00099055160696013764 0 0.020591413865977081 0.0014341292672858323 0 0.020389995051831582 0.00099055160696013764 0 0.02015693858542179 0.0013767054405186996 0 0.020389995051831582 0.00099055160696013764 0 0.02015693858542179 0.0013767054405186996 0 0.019717620183716113 0.0011309113038952263 0 0.019818205875732433 0.0016740233154158089 0 0.02015693858542179 0.0013767054405186996 0 0.019717620183716113 0.0011309113038952263 0 0.019717620183716113 0.0011309113038952263 0 0.019108434793311736 0.0014160428625827695 0 0.019551029672026602 0.0010139835536942131 0 0.019717620183716113 0.0011309113038952263 0 0.019108434793311736 0.0014160428625827695 0 0.019299715360590365 0.001687353285662754 0 0.019108434793311736 0.0014160428625827695 0 0.019551029672026602 0.0010139835536942131 0 0.018974925999952402 0.0011668598101438137 0 0.019108434793311736 0.0014160428625827695 0 0.018077238342695881 0.001846650226014571 0 0.018611078361930138 0.0019953196783249047 0 0.019108434793311736 0.0014160428625827695 0 0.019299715360590365 0.001687353285662754 0 0.018611078361930138 0.0019953196783249047 0 0.019818205875732433 0.0016740233154158089 0 0.019717620183716113 0.0011309113038952263 0 0.019299715360590365 0.001687353285662754 0 0.019818205875732433 0.0016740233154158089 0 0.019299715360590365 0.001687353285662754 0 0.01959599399339863 0.0020087669077885205 0 0.018027738112041215 0.0012343466444951431 0 0.018974925999952402 0.0011668598101438137 0 0.018077238342695881 0.001846650226014571 0 0.019108434793311736 0.0014160428625827695 0 0.018974925999952402 0.0011668598101438137 0 0.018077238342695881 0.001846650226014571 0 0.018077238342695881 0.001846650226014571 0 0.01757403865686568 0.002124331194510414 0 0.017548816051994771 0.0020102450976347383 0 0.018027738112041215 0.0012343466444951431 0 0.018077238342695881 0.001846650226014571 0 0.017548816051994771 0.0020102450976347383 0 0.018077238342695881 0.001846650226014571 0 0.01757403865686568 0.002124331194510414 0 0.017169999074910371 0.0024244755467714577 0 0.018077238342695881 0.001846650226014571 0 0.017169999074910371 0.0024244755467714577 0 0.018611078361930138 0.0019953196783249047 0 0.01757403865686568 0.002124331194510414 0 0.017169999074910371 0.0024244755467714577 0 0.017511689161119916 0.0019359006530567627 0 0.019299715360590365 0.001687353285662754 0 0.019240755339120116 0.0022686799915531504 0 0.01959599399339863 0.0020087669077885205 0 0.019299715360590365 0.001687353285662754 0 0.019240755339120116 0.0022686799915531504 0 0.018611078361930138 0.0019953196783249047 0 0.019240755339120116 0.0022686799915531504 0 0.019705235647415505 0.0023883414346788693 0 0.019476265335025292 0.0026672212328620925 0 0.019240755339120116 0.0022686799915531504 0 0.019705235647415505 0.0023883414346788693 0 0.01959599399339863 0.0020087669077885205 0 0.017169999074910371 0.0024244755467714577 0 0.018611078361930138 0.0019953196783249047 0 0.018732572257056407 0.002500674639387915 0 0.019240755339120116 0.0022686799915531504 0 0.018611078361930138 0.0019953196783249047 0 0.018732572257056407 0.002500674639387915 0 0.017169999074910371 0.0024244755467714577 0 0.01491990754574327 0.002186025184902097 0 0.015855165457133273 0.0017250608715320942 0 0.017169999074910371 0.0024244755467714577 0 0.018732572257056407 0.002500674639387915 0 0.019075173718335548 0.0031154968260673995 0 0.017191374851620238 0.0025371924290643081 0 0.017005680794851322 0.0023652661233504652 0 0.018732572257056407 0.002500674639387915 0 0.01924482492896893 0.0031263489270139341 0 0.019075173718335548 0.0031154968260673995 0 0.014805928417744942 0.0020610922154826808 0 0.01491990754574327 0.002186025184902097 0 0.01478258380697312 0.0018579079265367657 0 0.01924482492896893 0.0031263489270139341 0 0.019210777443065537 0.0026997099624968407 0 0.019383254451739117 0.0029272321423148258 0 0.016881287842929062 0.0021923005460301663 0 0.017005680794851322 0.0023652661233504652 0 0.018732572257056407 0.002500674639387915 0 0.01924482492896893 0.0031263489270139341 0 0.019210777443065537 0.0026997099624968407 0 0.019240755339120116 0.0022686799915531504 0 0.018732572257056407 0.002500674639387915 0 0.019210777443065537 0.0026997099624968407 0 0.019240755339120116 0.0022686799915531504 0 0.019210777443065537 0.0026997099624968407 0 0.019476265335025292 0.0026672212328620925 0 0.019713836048297153 0.0027323860547396306 0 0.019705235647415505 0.0023883414346788693 0 0.019476265335025292 0.0026672212328620925 0 0.019210777443065537 0.0026997099624968407 0 0.019476265335025292 0.0026672212328620925 0 0.019383254451739117 0.0029272321423148258 0 0.019476265335025292 0.0026672212328620925 0 0.019563652452384072 0.0028211581674416359 0 0.019383254451739117 0.0029272321423148258 0 0.019713836048297153 0.0027323860547396306 0 0.019563652452384072 0.0028211581674416359 0 0.019677207977657079 0.0029551787053533527 0 0.019563652452384072 0.0028211581674416359 0 0.019677207977657079 0.0029551787053533527 0 0.019383254451739117 0.0029272321423148258 0 0.019713836048297153 0.0027323860547396306 0 0.019476265335025292 0.0026672212328620925 0 0.019563652452384072 0.0028211581674416359 0 0.01924482492896893 0.0031263489270139341 0 0.019677207977657079 0.0029551787053533527 0 0.019383254451739117 0.0029272321423148258 0 0.014805928417744942 0.0020610922154826808 0 0.014608958309790188 0.0017082208805837783 0 0.01478258380697312 0.0018579079265367657 0 0.014608958309790188 0.0017082208805837783 0 0.014657548858452194 0.0014831449090814781 0 0.014477499218518106 0.0015503390845116804 0 0.014608958309790188 0.0017082208805837783 0 0.014733227555598962 0.0016884045466338297 0 0.01478258380697312 0.0018579079265367657 0 0.014608958309790188 0.0017082208805837783 0 0.014733227555598962 0.0016884045466338297 0 0.014657548858452194 0.0014831449090814781 0 0.014657548858452194 0.0014831449090814781 0 0.014833654508326384 0.0012251801782410747 0 0.014459572201255122 0.0012084002719199951 0 0.014657548858452194 0.0014831449090814781 0 0.014833654508326384 0.0012251801782410747 0 0.014923038935401622 0.0016905448779107575 0 0.01491990754574327 0.002186025184902097 0 0.014923038935401622 0.0016905448779107575 0 0.01478258380697312 0.0018579079265367657 0 0.014733227555598962 0.0016884045466338297 0 0.014657548858452194 0.0014831449090814781 0 0.014923038935401622 0.0016905448779107575 0 0.014733227555598962 0.0016884045466338297 0 0.014923038935401622 0.0016905448779107575 0 0.01478258380697312 0.0018579079265367657 0 0.014833654508326384 0.0012251801782410747 0 0.015855165457133273 0.0017250608715320942 0 0.015366463062370921 0.0010189960069059566 0 0.01491990754574327 0.002186025184902097 0 0.014923038935401622 0.0016905448779107575 0 0.015855165457133273 0.0017250608715320942 0 0.014833654508326384 0.0012251801782410747 0 0.014923038935401622 0.0016905448779107575 0 0.015855165457133273 0.0017250608715320942 0 0.014833654508326384 0.0012251801782410747 0 0.015366463062370921 0.0010189960069059566 0 0.014768093927618612 0.00088371846959147977 0 0.015366463062370921 0.0010189960069059566 0 0.014768093927618612 0.00088371846959147977 0 0.014651367547505626 0.00011386687297437348 0 0.014768093927618612 0.00088371846959147977 0 0.014514089763318222 0.00090766777154308194 0 0.014535297708589613 0.00056617540277844106 0 0.014833654508326384 0.0012251801782410747 0 0.014514089763318222 0.00090766777154308194 0 0.014459572201255122 0.0012084002719199951 0 0.014833654508326384 0.0012251801782410747 0 0.014768093927618612 0.00088371846959147977 0 0.014514089763318222 0.00090766777154308194 0 0.017169999074910371 0.0024244755467714577 0 0.0165907496333049 0.0013095175717866845 0 0.017511689161119916 0.0019359006530567627 0 0.0165907496333049 0.0013095175717866845 0 0.017461377982127983 0.0011930155525629298 0 0.017511689161119916 0.0019359006530567627 0 0.017169999074910371 0.0024244755467714577 0 0.015855165457133273 0.0017250608715320942 0 0.0165907496333049 0.0013095175717866845 0 0.015855165457133273 0.0017250608715320942 0 0.015366463062370921 0.0010189960069059566 0 0.0165907496333049 0.0013095175717866845 0 0.015366463062370921 0.0010189960069059566 0 0.0165907496333049 0.0013095175717866845 0 0.014651367547505626 0.00011386687297437348 0 0.0165907496333049 0.0013095175717866845 0 0.016824828472443827 0.00041816545814916646 0 0.017461377982127983 0.0011930155525629298 0 0.016824828472443827 0.00041816545814916646 0 0.016292491287567889 -0.00033948346731194442 0 0.014651367547505626 0.00011386687297437348 0 0.0165907496333049 0.0013095175717866845 0 0.016824828472443827 0.00041816545814916646 0 0.014651367547505626 0.00011386687297437348 0 0.011924586701987219 -0.00010289687541167777 0 0.014651367547505626 0.00011386687297437348 0 0.013667118501116805 0.00056003011612131167 0 0.012036001311610367 0.0010814485073904806 0 0.011924586701987219 -0.00010289687541167777 0 0.013667118501116805 0.00056003011612131167 0 0.014039813638522095 -9.7322205936377395e-05 0 0.014498666089571002 4.9752566851804049e-05 0 0.016824828472443827 0.00041816545814916646 0 0.016292491287567889 -0.00033948346731194442 0 0.017218482819957637 -0.00044160990221491853 0 0.014039813638522095 -9.7322205936377395e-05 0 0.013666625987166978 -0.00015376090361319891 0 0.014535297708589613 0.00056617540277844106 0 0.014349117259537568 0.00055137078567847771 0 0.014437435002908287 0.00069846287570033176 0 0.014514089763318222 0.00090766777154308194 0 0.014535297708589613 0.00056617540277844106 0 0.014437435002908287 0.00069846287570033176 0 0.014768093927618612 0.00088371846959147977 0 0.014535297708589613 0.00056617540277844106 0 0.014651367547505626 0.00011386687297437348 0 0.014535297708589613 0.00056617540277844106 0 0.014651367547505626 0.00011386687297437348 0 0.014349117259537568 0.00055137078567847771 0 0.013921166257983782 0.00085580053202630136 0 0.013667118501116805 0.00056003011612131167 0 0.014349117259537568 0.00055137078567847771 0 0.014651367547505626 0.00011386687297437348 0 0.013667118501116805 0.00056003011612131167 0 0.014349117259537568 0.00055137078567847771 0 0.014349117259537568 0.00055137078567847771 0 0.014423859189132219 0.00074581492122463328 0 0.014437435002908287 0.00069846287570033176 0 0.014244975774898484 0.00087385391668256813 0 0.014349117259537568 0.00055137078567847771 0 0.014423859189132219 0.00074581492122463328 0 0.014423859189132219 0.00074581492122463328 0 0.014437435002908287 0.00069846287570033176 0 0.014349502931035818 0.00081326301345488624 0 0.01437265023021269 0.00079985819949195689 0 0.014423859189132219 0.00074581492122463328 0 0.014349502931035818 0.00081326301345488624 0 0.014437435002908287 0.00069846287570033176 0 0.014349502931035818 0.00081326301345488624 0 0.014317514688413935 0.0010238198569740523 0 0.014514089763318222 0.00090766777154308194 0 0.014437435002908287 0.00069846287570033176 0 0.014317514688413935 0.0010238198569740523 0 0.014236092214641165 0.00097969725434860063 0 0.014349502931035818 0.00081326301345488624 0 0.014317514688413935 0.0010238198569740523 0 0.014236092214641165 0.00097969725434860063 0 0.014349502931035818 0.00081326301345488624 0 0.014248257177698249 0.00086123493157360222 0 0.01437265023021269 0.00079985819949195689 0 0.014349502931035818 0.00081326301345488624 0 0.014248257177698249 0.00086123493157360222 0 0.014245810554662385 0.00078308437618494352 0 0.01437265023021269 0.00079985819949195689 0 0.014248257177698249 0.00086123493157360222 0 0.014248257177698249 0.00086123493157360222 0 0.014080419460656282 0.00082365569034347603 0 0.014131132242184661 0.0010049131307296843 0 0.014245810554662385 0.00078308437618494352 0 0.014248257177698249 0.00086123493157360222 0 0.014080419460656282 0.00082365569034347603 0 0.012495646883200187 0.0022795127577327078 0 0.012167027979837538 0.0028858576175332497 0 0.01028173508212799 0.0040795342437961214 0 0.010807491833439802 0.0039443234429419405 0 0.010358233952340539 0.0047359968366513247 0 0.010391618857003846 0.0036450876602021681 0 0.01028173508212799 0.0040795342437961214 0 0.010807491833439802 0.0039443234429419405 0 0.013868075368392407 0.0010460926630225425 0 0.014131132242184661 0.0010049131307296843 0 0.014103315231595316 0.0012150363870601377 0 0.014080419460656282 0.00082365569034347603 0 0.013868075368392407 0.0010460926630225425 0 0.014131132242184661 0.0010049131307296843 0 0.014236092214641165 0.00097969725434860063 0 0.014248257177698249 0.00086123493157360222 0 0.014131132242184661 0.0010049131307296843 0 0.014236092214641165 0.00097969725434860063 0 0.014131132242184661 0.0010049131307296843 0 0.014190768141058331 0.0011492150694944326 0 0.014131132242184661 0.0010049131307296843 0 0.014190768141058331 0.0011492150694944326 0 0.014103315231595316 0.0012150363870601377 0 0.014103315231595316 0.0012150363870601377 0 0.014176691030167011 0.0012578403801306206 0 0.014137548122179759 0.0013055811658281408 0 0.014190768141058331 0.0011492150694944326 0 0.014103315231595316 0.0012150363870601377 0 0.014176691030167011 0.0012578403801306206 0 0.014190768141058331 0.0011492150694944326 0 0.014176691030167011 0.0012578403801306206 0 0.014236564660888795 0.0012626638503477855 0 0.013868075368392407 0.0010460926630225425 0 0.014103315231595316 0.0012150363870601377 0 0.013884613289631254 0.0013646703676672772 0 0.014102217172648862 0.0012415520749173043 0 0.014046609422334173 0.0015243723471812928 0 0.014103315231595316 0.0012150363870601377 0 0.013884613289631254 0.0013646703676672772 0 0.014029558918646148 0.0015517122581400569 0 0.01379441096467165 0.001632069356505022 0 0.013884613289631254 0.0013646703676672772 0 0.014029558918646148 0.0015517122581400569 0 0.014103315231595316 0.0012150363870601377 0 0.014001312342142302 0.001339547596229626 0 0.014137548122179759 0.0013055811658281408 0 0.013949820891699624 0.0015038711939234007 0 0.014001312342142302 0.001339547596229626 0 0.014213622818907564 0.0014198982905447141 0 0.013949820891699624 0.0015038711939234007 0 0.013854038018049686 0.0015867008617750091 0 0.014001312342142302 0.001339547596229626 0 0.016981074324766084 0.0029235087738272779 0 0.014046609422334173 0.0015243723471812928 0 0.01379441096467165 0.001632069356505022 0 0.013912263842219689 0.0018800071174803338 0 0.014029558918646148 0.0015517122581400569 0 0.014176691030167011 0.0012578403801306206 0 0.014217910300922881 0.0013730259449689019 0 0.014137548122179759 0.0013055811658281408 0 0.014001312342142302 0.001339547596229626 0 0.014137548122179759 0.0013055811658281408 0 0.014213622818907564 0.0014198982905447141 0 0.014217910300922881 0.0013730259449689019 0 0.014137548122179759 0.0013055811658281408 0 0.014213622818907564 0.0014198982905447141 0 0.014254485927659592 0.0015102150348163307 0 0.014217910300922881 0.0013730259449689019 0 0.014252854019850344 0.0013967960611008788 0 0.014254485927659592 0.0015102150348163307 0 0.014217910300922881 0.0013730259449689019 0 0.014213622818907564 0.0014198982905447141 0 0.014578528141801222 0.0014772758503429008 0 0.014353760839720328 0.0014387721356797184 0 0.014176691030167011 0.0012578403801306206 0 0.014217910300922881 0.0013730259449689019 0 0.014236564660888795 0.0012626638503477855 0 0.014217910300922881 0.0013730259449689019 0 0.014252854019850344 0.0013967960611008788 0 0.014236564660888795 0.0012626638503477855 0 0.014252854019850344 0.0013967960611008788 0 0.014324690083432097 0.0013181327146535706 0 0.014236564660888795 0.0012626638503477855 0 0.014286066386865295 0.0014318431478052909 0 0.014252854019850344 0.0013967960611008788 0 0.014324690083432097 0.0013181327146535706 0 0.014254485927659592 0.0015102150348163307 0 0.014286066386865295 0.0014318431478052909 0 0.014252854019850344 0.0013967960611008788 0 0.014254485927659592 0.0015102150348163307 0 0.01434428275493024 0.001445785728759729 0 0.014477499218518106 0.0015503390845116804 0 0.014254485927659592 0.0015102150348163307 0 0.014608958309790188 0.0017082208805837783 0 0.014477499218518106 0.0015503390845116804 0 0.014254485927659592 0.0015102150348163307 0 0.014286066386865295 0.0014318431478052909 0 0.01434428275493024 0.001445785728759729 0 0.01434428275493024 0.001445785728759729 0 0.014477499218518106 0.0015503390845116804 0 0.014420884024347918 0.00138565288530822 0 0.014657548858452194 0.0014831449090814781 0 0.014477499218518106 0.0015503390845116804 0 0.014420884024347918 0.00138565288530822 0 0.014657548858452194 0.0014831449090814781 0 0.014420884024347918 0.00138565288530822 0 0.014459572201255122 0.0012084002719199951 0 0.014420884024347918 0.00138565288530822 0 0.014324690083432097 0.0013181327146535706 0 0.014459572201255122 0.0012084002719199951 0 0.014286066386865295 0.0014318431478052909 0 0.01434428275493024 0.001445785728759729 0 0.014324690083432097 0.0013181327146535706 0 0.01434428275493024 0.001445785728759729 0 0.014420884024347918 0.00138565288530822 0 0.014324690083432097 0.0013181327146535706 0 0.014324690083432097 0.0013181327146535706 0 0.014459572201255122 0.0012084002719199951 0 0.014317514688413935 0.0010238198569740523 0 0.014514089763318222 0.00090766777154308194 0 0.014459572201255122 0.0012084002719199951 0 0.014317514688413935 0.0010238198569740523 0 0.014190768141058331 0.0011492150694944326 0 0.014317514688413935 0.0010238198569740523 0 0.014236564660888795 0.0012626638503477855 0 0.014324690083432097 0.0013181327146535706 0 0.014317514688413935 0.0010238198569740523 0 0.014236564660888795 0.0012626638503477855 0 0.014236092214641165 0.00097969725434860063 0 0.014190768141058331 0.0011492150694944326 0 0.014317514688413935 0.0010238198569740523 0 0.0075117869651943094 -0.00024096412743520663 0 0.0083291287636594758 -0.00025937330782916914 0 0.0063095358471814576 -0.0011271625753094627 0 0.0075117869651943094 -0.00024096412743520663 0 0.0083336553633361534 -3.327368751126822e-08 0 0.006286813620134675 -1.3194264191090776e-06 0 0.0075117869651943094 -0.00024096412743520663 0 0.0063095358471814576 -0.0011271625753094627 0 0.006286813620134675 -1.3194264191090776e-06 0 0.0075117869651943094 -0.00024096412743520663 0 0.0083336553633361534 -3.327368751126822e-08 0 0.0091434018773006824 0.00029924855240459424 0 0.0075117869651943094 -0.00024096412743520663 0 0.0083291287636594758 -0.00025937330782916914 0 0.0091434018773006824 0.00029924855240459424 0 0.0097469421117247091 1.4748037091260969e-05 0 0.0083291287636594758 -0.00025937330782916914 0 0.0091434018773006824 0.00029924855240459424 0 0.0097469421117247091 1.4748037091260969e-05 0 0.010742359310891287 -0.0006996410831404434 0 0.010928480576267819 0.00017358577395090125 0 0.0097469421117247091 1.4748037091260969e-05 0 0.0095985241492523507 -0.0012022596649218639 0 0.010742359310891287 -0.0006996410831404434 0 0.0095985241492523507 -0.0012022596649218639 0 0.0083291287636594758 -0.00025937330782916914 0 0.0063095358471814576 -0.0011271625753094627 0 0.0097469421117247091 1.4748037091260969e-05 0 0.0095985241492523507 -0.0012022596649218639 0 0.0083291287636594758 -0.00025937330782916914 0 0.0065506514805351449 -0.0020181542999031504 0 0.0059582033110953895 -0.001209455964323476 0 0.0095985241492523507 -0.0012022596649218639 0 0.0094200558276448382 -0.0032064528594276409 0 0.0063095358471814576 -0.0011271625753094627 0 0.0095985241492523507 -0.0012022596649218639 0 0.0094200558276448382 -0.0032064528594276409 0 0.010726128531575951 -0.0028930084561674921 0 0.0026489426859054302 -0.0010836262485759347 0 0.0020494020518067647 -0.00081289462076961083 0 0.0019593020239543923 -0.00085316882346905278 0 0.0026489426859054302 -0.0010836262485759347 0 0.0046466235154193321 -0.00042948459230547588 0 0.0063095358471814576 -0.0011271625753094627 0 0.0026489426859054302 -0.0010836262485759347 0 0.0046466235154193321 -0.00042948459230547588 0 0.0028714484922122896 -0.00046050238203572809 0 0.0046466235154193321 -0.00042948459230547588 0 0.0063095358471814576 -0.0011271625753094627 0 0.006286813620134675 -1.3194264191090776e-06 0 0.0046466235154193321 -0.00042948459230547588 0 0.006286813620134675 -1.3194264191090776e-06 0 0.004239701500101653 -3.2076808425352296e-07 0 0.0046466235154193321 -0.00042948459230547588 0 0.004239701500101653 -3.2076808425352296e-07 0 0.002812243698022192 -0.00013526541327002638 0 0.0046466235154193321 -0.00042948459230547588 0 0.002812243698022192 -0.00013526541327002638 0 0.0028714484922122896 -0.00046050238203572809 0 0.004239701500101653 -3.2076808425352296e-07 0 0.002812243698022192 -0.00013526541327002638 0 0.0021931157864698305 -3.8167367047163709e-08 0 0.002812243698022192 -0.00013526541327002638 0 0.0021931157864698305 -3.8167367047163709e-08 0 0.0014506738926436682 0.00013667234296260575 0 0.0021931157864698305 -3.8167367047163709e-08 0 0.00014597859074311879 1.1456290973523679e-06 0 0.0014506738926436682 0.00013667234296260575 0 0.002812243698022192 -0.00013526541327002638 0 0.0014506738926436682 0.00013667234296260575 0 0.0017551010430173716 -5.6164993179238829e-06 0 0.00068043055779792026 0.00018343840588947125 0 0.0013002311155395703 0.0003073923181889225 0 0.0014506738926436682 0.00013667234296260575 0 0.0013002311155395703 0.0003073923181889225 0 0.0014506738926436682 0.00013667234296260575 0 0.0017551010430173716 -5.6164993179238829e-06 0 0.00068043055779792026 0.00018343840588947125 0 0.00014597859074311879 1.1456290973523679e-06 0 0.0014506738926436682 0.00013667234296260575 0 0.00047672697640385145 0.00021084032403305343 0 0.0012277158037648651 0.00025453923200538802 0 0.0012557876520854169 -0.00031362119527305764 0 0.00060185411961462059 0.00074217434889487855 0 0.00047672697640385145 0.00021084032403305343 0 0.0012277158037648651 0.00025453923200538802 0 0.0013002311155395703 0.0003073923181889225 0 0.0012277158037648651 0.00025453923200538802 0 0.0017551010430173716 -5.6164993179238829e-06 0 0.0012277158037648651 0.00025453923200538802 0 0.0017551010430173716 -5.6164993179238829e-06 0 0.0012557876520854169 -0.00031362119527305764 0 0.0017551010430173716 -5.6164993179238829e-06 0 0.0012557876520854169 -0.00031362119527305764 0 0.0020384406229609141 -0.00054099670403906313 0 0.00047672697640385145 0.00021084032403305343 0 0.0012557876520854169 -0.00031362119527305764 0 7.6975252168330082e-05 -0.00051745574663447408 0 0.0012557876520854169 -0.00031362119527305764 0 0.0012919834134728254 -0.0011783360893687542 0 7.6975252168330082e-05 -0.00051745574663447408 0 0.0012557876520854169 -0.00031362119527305764 0 0.0012919834134728254 -0.0011783360893687542 0 0.0020384406229609141 -0.00054099670403906313 0 0.0012919834134728254 -0.0011783360893687542 0 0.0020384406229609141 -0.00054099670403906313 0 0.0020494020518067647 -0.00081289462076961083 0 0.002812243698022192 -0.00013526541327002638 0 0.0020384406229609141 -0.00054099670403906313 0 0.0028714484922122896 -0.00046050238203572809 0 0.002812243698022192 -0.00013526541327002638 0 0.0017551010430173716 -5.6164993179238829e-06 0 0.0020384406229609141 -0.00054099670403906313 0 0.0020384406229609141 -0.00054099670403906313 0 0.0028714484922122896 -0.00046050238203572809 0 0.0020494020518067647 -0.00081289462076961083 0 0.0026489426859054302 -0.0010836262485759347 0 0.0028714484922122896 -0.00046050238203572809 0 0.0020494020518067647 -0.00081289462076961083 0 8.8408431898321182e-05 -0.0015795141513265947 0 0.0042196134861627399 -0.0032855445810590377 0 0.0012919834134728254 -0.0011783360893687542 0 0.0020494020518067647 -0.00081289462076961083 0 0.0019593020239543923 -0.00085316882346905278 0 -0.0011239190005530916 -0.0055696462789510803 0 -0.0023257663783932308 -0.0048309933846822604 0 -0.00062485994808433691 -0.0027855245549689893 0 -0.00020832992092285663 -0.0037581415840224992 0 -0.003962829629263637 -0.002950080580529351 0 -0.002139280951991594 -0.0038890380361396889 0 -0.0036845283464548417 -0.0030025111855537258 0 -0.0029660405800266262 -0.0047908172081826648 0 -0.0018651423714655902 -0.0042157122596144991 0 -0.0019892141641334924 -0.0027819261973857385 0 -0.0037036903980090471 -0.0031164575881538993 0 -0.00020832992092285663 -0.0037581415840224992 0 0.003215654955511862 -0.0025460861499918496 0 0.0038370491138041063 -0.0031615070581400618 0 0.0038505960320915898 -0.0030421457813533627 0 0.004007619968026687 -0.0029745045827452542 0 0.0037252299323269206 -0.0030883792493087321 0 0.0038370491138041063 -0.0031615070581400618 0 0.0038505960320915898 -0.0030421457813533627 0 0.0042196134861627399 -0.0032855445810590377 0 -0.00020832992092285663 -0.0037581415840224992 0 -0.0018651423714655902 -0.0042157122596144991 0 -0.0019892141641334924 -0.0027819261973857385 0 -0.00062485994808433691 -0.0027855245549689893 0 -0.00020832992092285663 -0.0037581415840224992 0 -0.0011162095852364324 -0.0034801463858838639 0 -0.0019892141641334924 -0.0027819261973857385 0 -0.0025695037795054661 -0.0017702902734844342 0 -0.0037036903980090471 -0.0031164575881538993 0 -0.0019892141641334924 -0.0027819261973857385 0 -0.0025695037795054661 -0.0017702902734844342 0 -0.00084902143862225022 -0.001446235516689457 0 0.0012919834134728254 -0.0011783360893687542 0 -0.0011239190005530916 -0.0055696462789510803 0 -0.00062485994808433691 -0.0027855245549689893 0 -0.0019892141641334924 -0.0027819261973857385 0 -0.00062485994808433691 -0.0027855245549689893 0 -0.00084902143862225022 -0.001446235516689457 0 0.0012919834134728254 -0.0011783360893687542 0 -0.00062485994808433691 -0.0027855245549689893 0 -0.00084902143862225022 -0.001446235516689457 0 0.0012919834134728254 -0.0011783360893687542 0 -0.00084902143862225022 -0.001446235516689457 0 7.6975252168330082e-05 -0.00051745574663447408 0 7.6975252168330082e-05 -0.00051745574663447408 0 -0.0017044248636885419 -0.00061457634975173032 0 -0.00039674515195164603 2.51622734875906e-05 0 -0.00084902143862225022 -0.001446235516689457 0 7.6975252168330082e-05 -0.00051745574663447408 0 -0.0017044248636885419 -0.00061457634975173032 0 -0.0025695037795054661 -0.0017702902734844342 0 -0.00084902143862225022 -0.001446235516689457 0 -0.0017044248636885419 -0.00061457634975173032 0 -0.0025695037795054661 -0.0017702902734844342 0 -0.0017044248636885419 -0.00061457634975173032 0 -0.0031524882866906822 -0.00098576154023198321 0 -0.0017044248636885419 -0.00061457634975173032 0 -0.003329018402076197 -0.0001231248476302801 0 -0.0031524882866906822 -0.00098576154023198321 0 -0.0017044248636885419 -0.00061457634975173032 0 -0.0021203610453810339 0.00030415611987440801 0 -0.003329018402076197 -0.0001231248476302801 0 -0.0034860283224061699 0.00096358789623607159 0 -0.0021203610453810339 0.00030415611987440801 0 -0.003329018402076197 -0.0001231248476302801 0 -0.0021203610453810339 0.00030415611987440801 0 -0.0010191278060766936 0.00057055818379874682 0 -0.00039674515195164603 2.51622734875906e-05 0 -0.0002229633023542968 0.0010335674173613293 0 0.00047672697640385145 0.00021084032403305343 0 -0.0010191278060766936 0.00057055818379874682 0 0.00047672697640385145 0.00021084032403305343 0 -0.0010191278060766936 0.00057055818379874682 0 -0.00039674515195164603 2.51622734875906e-05 0 0.00047672697640385145 0.00021084032403305343 0 7.6975252168330082e-05 -0.00051745574663447408 0 -0.00039674515195164603 2.51622734875906e-05 0 -0.0017044248636885419 -0.00061457634975173032 0 -0.0021203610453810339 0.00030415611987440801 0 -0.00039674515195164603 2.51622734875906e-05 0 -0.0052132108398371488 0.00037516358914498456 0 -0.0044326206091768738 -0.00071369921440427421 0 -0.0058372737314865341 -0.00091940912157428866 0 -0.0052132108398371488 0.00037516358914498456 0 -0.0058372737314865341 -0.00091940912157428866 0 -0.0064743911610964881 0.00021361521114647756 0 -0.0034860283224061699 0.00096358789623607159 0 -0.0052132108398371488 0.00037516358914498456 0 -0.003329018402076197 -0.0001231248476302801 0 -0.0052132108398371488 0.00037516358914498456 0 -0.003329018402076197 -0.0001231248476302801 0 -0.0044326206091768738 -0.00071369921440427421 0 -0.003329018402076197 -0.0001231248476302801 0 -0.0044326206091768738 -0.00071369921440427421 0 -0.0031524882866906822 -0.00098576154023198321 0 -0.0044326206091768738 -0.00071369921440427421 0 -0.0038332083983287674 -0.0017347157891388723 0 -0.0052319476845993007 -0.0021800789245026452 0 -0.0044326206091768738 -0.00071369921440427421 0 -0.0031524882866906822 -0.00098576154023198321 0 -0.0038332083983287674 -0.0017347157891388723 0 -0.0025695037795054661 -0.0017702902734844342 0 -0.0031524882866906822 -0.00098576154023198321 0 -0.0038332083983287674 -0.0017347157891388723 0 -0.0044326206091768738 -0.00071369921440427421 0 -0.0058372737314865341 -0.00091940912157428866 0 -0.0052319476845993007 -0.0021800789245026452 0 -0.0052319476845993007 -0.0021800789245026452 0 -0.0036845283464548417 -0.0030025111855537258 0 -0.0054512372558191777 -0.0043074802093936992 0 -0.0049890010165617969 -0.0023069894841944369 0 -0.003962829629263637 -0.002950080580529351 0 -0.0038332083983287674 -0.0017347157891388723 0 -0.0052319476845993007 -0.0021800789245026452 0 -0.0037036903980090471 -0.0031164575881538993 0 -0.0025695037795054661 -0.0017702902734844342 0 -0.0038332083983287674 -0.0017347157891388723 0 -0.0037036903980090471 -0.0031164575881538993 0 -0.0036845283464548417 -0.0030025111855537258 0 -0.0054512372558191777 -0.0043074802093936992 0 -0.0029660405800266262 -0.0047908172081826648 0 -0.0052319476845993007 -0.0021800789245026452 0 -0.0054512372558191777 -0.0043074802093936992 0 -0.0064375446216573548 -0.0030999641974318211 0 0.0035983799905099094 -0.00068955775140361818 0 0.0036321719201942806 -0.00057144037539623785 0 0.0036123247001463342 -0.00051909653524149807 0 0.0036321719201942806 -0.00057144037539623785 0 0.0036361798139308231 -0.00051229128198418059 0 0.0036123247001463342 -0.00051909653524149807 0 0.013127039551116102 -0.0021097731732079472 0 0.012994520052323866 -0.0030983878104781809 0 0.01413895874381268 -0.0017253413663312139 0 0.0036123247001463342 -0.00051909653524149807 0 0.0034002375325988638 -0.00038239077091279121 0 0.004251695077833028 0.00061210451060101419 0 0.008764267223853258 -0.0014695284935012356 0 0.0089241877964500588 -0.00060235035608654868 0 0.0036361798139308231 -0.00051229128198418059 0 0.0036123247001463342 -0.00051909653524149807 0 0.0036648732205667098 -0.00042712755807587427 0 0.0038889327096081686 -0.0003916158246088474 0 0.0037789421297851869 -0.00016040340789323358 0 0.0036123247001463342 -0.00051909653524149807 0 0.004251695077833028 0.00061210451060101419 0 0.0050684309814761526 0.00036835816783660269 0 0.011947272060314493 -0.0025868958538024598 0 0.013127039551116102 -0.0021097731732079472 0 0.012994520052323866 -0.0030983878104781809 0 0.011947272060314493 -0.0025868958538024598 0 0.012994520052323866 -0.0030983878104781809 0 0.011543336735235971 -0.0046585955607938061 0 0.008764267223853258 -0.0014695284935012356 0 0.003215654955511862 -0.0025460861499918496 0 0.0035983799905099094 -0.00068955775140361818 0 0.0036123247001463342 -0.00051909653524149807 0 0.0031979535931636644 -0.00072251422192877814 0 0.0036123247001463342 -0.00051909653524149807 0 0.0034002375325988638 -0.00038239077091279121 0 0.0031979535931636644 -0.00072251422192877814 0 -0.001182586102809455 -0.0025886965041457847 0 0.003215654955511862 -0.0025460861499918496 0 0.011947272060314493 -0.0025868958538024598 0 0.011543336735235971 -0.0046585955607938061 0 0.010528933664827199 -0.0044742517909011252 0 0.012604307511783706 -0.0023080840454474281 0 0.0088811735936787893 -0.0037539292190215275 0 0.0038505960320915898 -0.0030421457813533627 0 0.004007619968026687 -0.0029745045827452542 0 0.0038313576614418601 -0.0029444311375899871 0 0.003215654955511862 -0.0025460861499918496 0 0.0088811735936787893 -0.0037539292190215275 0 0.0037252299323269206 -0.0030883792493087321 0 0.0038505960320915898 -0.0030421457813533627 0 0.0038313576614418601 -0.0029444311375899871 0 0.0042196134861627399 -0.0032855445810590377 0 0.0088811735936787893 -0.0037539292190215275 0 0.011357050532684071 -0.0042216485969432168 0 0.011645058395318731 -0.0036119379688744346 0 0.011755906112981484 -0.003632461364698642 0 0.009135131688149575 -0.0037846710912994843 0 0.0088811735936787893 -0.0037539292190215275 0 0.011645058395318731 -0.0036119379688744346 0 0.011759944530155697 -0.0036280840968268865 0 0.011785621103086431 -0.0026420252525984943 0 0.0065506514805351449 -0.0020181542999031504 0 0.0042196134861627399 -0.0032855445810590377 0 0.0094200558276448382 -0.0032064528594276409 0 0.011357050532684071 -0.0042216485969432168 0 0.010726128531575951 -0.0028930084561674921 0 0.011357050532684071 -0.0042216485969432168 0 0.011645058395318731 -0.0036119379688744346 0 0.010726128531575951 -0.0028930084561674921 0 0.011645058395318731 -0.0036119379688744346 0 0.010726128531575951 -0.0028930084561674921 0 0.011785621103086431 -0.0026420252525984943 0 0.0095985241492523507 -0.0012022596649218639 0 0.010726128531575951 -0.0028930084561674921 0 0.011113851911197134 -0.0016967811289988663 0 0.010726128531575951 -0.0028930084561674921 0 0.011113851911197134 -0.0016967811289988663 0 0.011785621103086431 -0.0026420252525984943 0 0.012649646217788685 -0.0021585603659607109 0 0.011759944530155697 -0.0036280840968268865 0 0.011785621103086431 -0.0026420252525984943 0 0.011113851911197134 -0.0016967811289988663 0 0.011785621103086431 -0.0026420252525984943 0 0.011965635927786395 -0.0017974454135572251 0 0.012649646217788685 -0.0021585603659607109 0 0.011785621103086431 -0.0026420252525984943 0 0.011965635927786395 -0.0017974454135572251 0 0.011965635927786395 -0.0017974454135572251 0 0.012449444045072809 -0.0013409522520460293 0 0.011695608425090188 -0.0011035875481606463 0 0.012649646217788685 -0.0021585603659607109 0 0.011965635927786395 -0.0017974454135572251 0 0.012449444045072809 -0.0013409522520460293 0 0.011113851911197134 -0.0016967811289988663 0 0.011965635927786395 -0.0017974454135572251 0 0.011695608425090188 -0.0011035875481606463 0 0.012449444045072809 -0.0013409522520460293 0 0.011695608425090188 -0.0011035875481606463 0 0.01250950242882606 -0.00062532184148080905 0 0.0095985241492523507 -0.0012022596649218639 0 0.011113851911197134 -0.0016967811289988663 0 0.010742359310891287 -0.0006996410831404434 0 0.011113851911197134 -0.0016967811289988663 0 0.011695608425090188 -0.0011035875481606463 0 0.010742359310891287 -0.0006996410831404434 0 0.010742359310891287 -0.0006996410831404434 0 0.011712632050030571 -0.00030565871672722644 0 0.010928480576267819 0.00017358577395090125 0 0.011695608425090188 -0.0011035875481606463 0 0.010742359310891287 -0.0006996410831404434 0 0.011712632050030571 -0.00030565871672722644 0 0.011712632050030571 -0.00030565871672722644 0 0.01250950242882606 -0.00062532184148080905 0 0.012628891582404855 0.00021829554007190278 0 0.011695608425090188 -0.0011035875481606463 0 0.011712632050030571 -0.00030565871672722644 0 0.01250950242882606 -0.00062532184148080905 0 0.01250950242882606 -0.00062532184148080905 0 0.013163684494524572 -0.00035103431207133277 0 0.013331534522390404 -0.0010687390457218447 0 0.01250950242882606 -0.00062532184148080905 0 0.013163684494524572 -0.00035103431207133277 0 0.012628891582404855 0.00021829554007190278 0 0.013163684494524572 -0.00035103431207133277 0 0.013749571260936372 -0.00046685370527382836 0 0.013618238868387008 0.00016449034524412118 0 0.013749571260936372 -0.00046685370527382836 0 0.014367865976487421 -0.00060190826442296178 0 0.014236567683604982 -9.2270937829258001e-05 0 0.013749571260936372 -0.00046685370527382836 0 0.014023439581753764 -0.0010258816821660745 0 0.014367865976487421 -0.00060190826442296178 0 0.013749571260936372 -0.00046685370527382836 0 0.013331534522390404 -0.0010687390457218447 0 0.014023439581753764 -0.0010258816821660745 0 0.013163684494524572 -0.00035103431207133277 0 0.013749571260936372 -0.00046685370527382836 0 0.013331534522390404 -0.0010687390457218447 0 0.013331534522390404 -0.0010687390457218447 0 0.014023439581753764 -0.0010258816821660745 0 0.01413895874381268 -0.0017253413663312139 0 0.013127039551116102 -0.0021097731732079472 0 0.013331534522390404 -0.0010687390457218447 0 0.01413895874381268 -0.0017253413663312139 0 0.012649646217788685 -0.0021585603659607109 0 0.012449444045072809 -0.0013409522520460293 0 0.013331534522390404 -0.0010687390457218447 0 0.012449444045072809 -0.0013409522520460293 0 0.01250950242882606 -0.00062532184148080905 0 0.013331534522390404 -0.0010687390457218447 0 0.012604307511783706 -0.0023080840454474281 0 0.013155329437896818 -0.0012110756019630834 0 0.011947272060314493 -0.0025868958538024598 0 0.013127039551116102 -0.0021097731732079472 0 0.013331534522390404 -0.0010687390457218447 0 0.0038207748328371342 -0.00033201069276957509 0 0.0038999729609432506 -0.00023255764911981217 0 0.0038284119902972716 -0.00043301016556556002 0 0.0037789421297851869 -0.00016040340789323358 0 0.0086957339695508066 0.00034566115258574556 0 0.0038207748328371342 -0.00033201069276957509 0 0.0036648732205667098 -0.00042712755807587427 0 0.0038802012329653313 -0.00022816541055752199 0 0.0083280757582406828 0.00044638022926151002 0 0.0036787496127616112 -0.00048664303579417631 0 0.0050684309814761526 0.00036835816783660269 0 0.0054163839293877242 0.0018726212963400702 0 0.0066622154016138828 0.0016275697501560919 0 0.0038207748328371342 -0.00033201069276957509 0 0.0038999729609432506 -0.00023255764911981217 0 0.0038802012329653313 -0.00022816541055752199 0 0.0038207748328371342 -0.00033201069276957509 0 0.0037599536818021724 -0.00042364549605741406 0 0.0038284119902972716 -0.00043301016556556002 0 0.0038207748328371342 -0.00033201069276957509 0 0.0036648732205667098 -0.00042712755807587427 0 0.0037599536818021724 -0.00042364549605741406 0 0.004251695077833028 0.00061210451060101419 0 0.0050684309814761526 0.00036835816783660269 0 0.0054163839293877242 0.0018726212963400702 0 0.0089241877964500588 -0.00060235035608654868 0 0.012132917772181173 -0.00051128091325367215 0 0.014023439581753764 -0.0010258816821660745 0 0.01413895874381268 -0.0017253413663312139 0 0.014974913819991524 -0.00070636499368539689 0 0.014023439581753764 -0.0010258816821660745 0 0.014974913819991524 -0.00070636499368539689 0 0.014367865976487421 -0.00060190826442296178 0 0.012132917772181173 -0.00051128091325367215 0 0.014847394815906622 -0.0008143646733501889 0 0.014913521436181543 -0.00069625446336459907 0 0.014367865976487421 -0.00060190826442296178 0 0.014727920822786938 -0.00031655034795457219 0 0.014367865976487421 -0.00060190826442296178 0 0.014727920822786938 -0.00031655034795457219 0 0.014236567683604982 -9.2270937829258001e-05 0 0.014913521436181543 -0.00069625446336459907 0 0.014727920822786938 -0.00031655034795457219 0 0.015280084413114719 -0.00026852252966344596 0 0.014727920822786938 -0.00031655034795457219 0 0.015280084413114719 -0.00026852252966344596 0 0.014803984603864539 7.5070836360473822e-05 0 0.012132917772181173 -0.00051128091325367215 0 0.014821350102232744 0.00029755971640722681 0 0.015280084413114719 -0.00026852252966344596 0 0.015730381822936155 -0.00074212956708500581 0 0.015915678144386203 0.00036554932813035205 0 0.010439750902157006 0.00071263021220463734 0 0.016253328847301872 0.00047338614198491082 0 0.014886858641587905 -0.00066961306228051235 0 0.015280084413114719 -0.00026852252966344596 0 0.015648187834091887 -0.00081127997650542788 0 0.012132917772181173 -0.00051128091325367215 0 0.0086957339695508066 0.00034566115258574556 0 0.015280084413114719 -0.00026852252966344596 0 0.015730381822936155 -0.00074212956708500581 0 0.015648187834091887 -0.00081127997650542788 0 0.010439750902157006 0.00071263021220463734 0 0.0083280757582406828 0.00044638022926151002 0 0.010439750902157006 0.00071263021220463734 0 0.0086957339695508066 0.00034566115258574556 0 0.0094895995078193834 -0.00043917087201771385 0 0.0095037787965719621 -0.00031412779063343273 0 0.0096097022325835162 -0.00033553858485614601 0 0.0083280757582406828 0.00044638022926151002 0 0.0086957339695508066 0.00034566115258574556 0 0.010439750902157006 0.00071263021220463734 0 0.007894931481927785 0.0014687487946588738 0 0.0015846855232731487 0.0020330724353984828 0 0.007894931481927785 0.0014687487946588738 0 0.0067562298921421734 0.0014028034711210764 0 0.0066475154620342872 0.0014371120417378098 0 0.0066064417287544936 0.0012821595069398546 0 0.0083280757582406828 0.00044638022926151002 0 0.0015846855232731487 0.0020330724353984828 0 0.0067562298921421734 0.0014028034711210764 0 0.0067572636261024046 0.0014152185557211817 0 0.0066475154620342872 0.0014371120417378098 0 -0.00065377288537008102 0.0028456245516195336 0 -0.0012897177470385637 0.0036230422997304704 0 0.0001234832689611889 0.0033690033885583471 0 -0.00065377288537008102 0.0028456245516195336 0 0.0001234832689611889 0.0033690033885583471 0 -0.00046074814064722648 0.0016639463481001226 0 -0.00149378469357086 0.0024345605669270592 0 -0.0010106282908513454 0.0024707846082505343 0 -0.0016971395351329259 0.0030391255163808284 0 -0.00149378469357086 0.0024345605669270592 0 -0.0010186477975264847 0.002007922923370264 0 -0.0014725258009448366 0.001976348196417314 0 -0.00149378469357086 0.0024345605669270592 0 -0.0010106282908513454 0.0024707846082505343 0 -0.0010186477975264847 0.002007922923370264 0 -0.0010106282908513454 0.0024707846082505343 0 -0.00065377288537008102 0.0028456245516195336 0 -0.00046074814064722648 0.0016639463481001226 0 -0.0010106282908513454 0.0024707846082505343 0 -0.00065377288537008102 0.0028456245516195336 0 -0.0016971395351329259 0.0030391255163808284 0 -0.00065377288537008102 0.0028456245516195336 0 -0.0012897177470385637 0.0036230422997304704 0 -0.0016971395351329259 0.0030391255163808284 0 -0.0025971747189417332 0.0037634438499951064 0 0.0015846855232731487 0.0020330724353984828 0 -0.0027998783741435876 0.0037232181724398978 0 -0.0027845663961648883 0.0037145726912454465 0 -0.0028093756819338729 0.0037098013737635032 0 -0.0027998783741435876 0.0037232181724398978 0 -0.0028093756819338729 0.0037098013737635032 0 -0.0027887881108352897 0.0037076549598587237 0 -0.0027845663961648883 0.0037145726912454465 0 -0.0028080413233485162 0.0037009006777309742 0 -0.0028093756819338729 0.0037098013737635032 0 0.0040446072093766796 0.00016601311018846223 0 0.0038307049365700289 -0.00043025268334149087 0 0.0037075582866073114 -0.00020734057224138091 0 0.0037679634786465053 0.00022121935428045226 0 0.0040446072093766796 0.00016601311018846223 0 0.0037075582866073114 -0.00020734057224138091 0 0.0015846855232731487 0.0020330724353984828 0 -0.00087906114196988853 0.0018322665698187041 0 -0.0028080413233485162 0.0037009006777309742 0 -0.002845150583886498 0.0037399584806979639 0 -0.0028355699567243018 0.0037590774856334649 0 -0.0027845663961648883 0.0037145726912454465 0 -0.0028080413233485162 0.0037009006777309742 0 -0.0028325710314831831 0.0036762301397989194 0 -0.0025057863940243829 0.0043444218946132422 0 -0.0053338332433357999 0.0022107921380455768 0 -0.0028080413233485162 0.0037009006777309742 0 -0.0028325710314831831 0.0036762301397989194 0 -0.0028251098405824848 0.0036154126971833038 0 -0.0028093756819338729 0.0037098013737635032 0 -0.0028494513739487932 0.0037478443694641231 0 -0.0027887881108352897 0.0037076549598587237 0 -0.0028080413233485162 0.0037009006777309742 0 -0.0028093756819338729 0.0037098013737635032 0 -0.002845150583886498 0.0037399584806979639 0 -0.0028093756819338729 0.0037098013737635032 0 -0.002845150583886498 0.0037399584806979639 0 -0.0028494513739487932 0.0037478443694641231 0 -0.002894739919740665 0.0037751191912377465 0 -0.002845150583886498 0.0037399584806979639 0 -0.0028494513739487932 0.0037478443694641231 0 -0.002894739919740665 0.0037751191912377465 0 -0.002845150583886498 0.0037399584806979639 0 -0.0028355699567243018 0.0037590774856334649 0 -0.0044397949059683563 0.0013580782937574988 0 -0.0040508063886924061 0.00062096033875552053 0 -0.0044446080468521229 0.00038335226422383232 0 -0.00087906114196988853 0.0018322665698187041 0 -0.0053338332433357999 0.0022107921380455768 0 -0.0044397949059683563 0.0013580782937574988 0 -0.0044446080468521229 0.00038335226422383232 0 -0.005029200078852927 -0.00013580491118046566 0 0.0037381085990413686 -0.00052996248591690982 0 0.0036738207187546668 -0.00062079980082608687 0 0.0036792951679396986 -0.00069695156027494624 0 -0.00087906114196988853 0.0018322665698187041 0 -0.0038675752994338885 -0.001669478336846109 0 0.0038307049365700289 -0.00043025268334149087 0 0.0037381085990413686 -0.00052996248591690982 0 0.0036792951679396986 -0.00069695156027494624 0 0.0037381085990413686 -0.00052996248591690982 0 0.0036996814066198608 -0.00054269342171850735 0 0.0036738207187546668 -0.00062079980082608687 0 0.0037533410494363312 -0.00043470813644634561 0 0.0036787496127616112 -0.00048664303579417631 0 0.0037381085990413686 -0.00052996248591690982 0 0.0037278563640634906 -0.00048804397721563596 0 0.0038284119902972716 -0.00043301016556556002 0 0.0038307049365700289 -0.00043025268334149087 0 0.0037381085990413686 -0.00052996248591690982 0 0.0037075582866073114 -0.00020734057224138091 0 0.0037381085990413686 -0.00052996248591690982 0 0.0037278563640634906 -0.00048804397721563596 0 0.0036996814066198608 -0.00054269342171850735 0 0.0037278563640634906 -0.00048804397721563596 0 0.0037599536818021724 -0.00042364549605741406 0 0.0038284119902972716 -0.00043301016556556002 0 0.0036361798139308231 -0.00051229128198418059 0 0.0036648732205667098 -0.00042712755807587427 0 0.0036694656720736179 -0.00049141685851361279 0 0.0036648732205667098 -0.00042712755807587427 0 0.0037278563640634906 -0.00048804397721563596 0 0.0036694656720736179 -0.00049141685851361279 0 0.0036648732205667098 -0.00042712755807587427 0 0.0037278563640634906 -0.00048804397721563596 0 0.0037599536818021724 -0.00042364549605741406 0 0.0037278563640634906 -0.00048804397721563596 0 0.0036635635120794213 -0.00053923671202432428 0 0.0036996814066198608 -0.00054269342171850735 0 0.0037278563640634906 -0.00048804397721563596 0 0.0036694656720736179 -0.00049141685851361279 0 0.0036635635120794213 -0.00053923671202432428 0 0.0036361798139308231 -0.00051229128198418059 0 0.0036694656720736179 -0.00049141685851361279 0 0.0036635635120794213 -0.00053923671202432428 0 0.0035983799905099094 -0.00068955775140361818 0 0.0036529121651785799 -0.00059138252931864534 0 0.0036738207187546668 -0.00062079980082608687 0 0.0036321719201942806 -0.00057144037539623785 0 0.0036361798139308231 -0.00051229128198418059 0 0.0036635635120794213 -0.00053923671202432428 0 0.0036321719201942806 -0.00057144037539623785 0 0.0036635635120794213 -0.00053923671202432428 0 0.0036529121651785799 -0.00059138252931864534 0 0.0036529121651785799 -0.00059138252931864534 0 0.0036996814066198608 -0.00054269342171850735 0 0.0036738207187546668 -0.00062079980082608687 0 0.0036635635120794213 -0.00053923671202432428 0 0.0036529121651785799 -0.00059138252931864534 0 0.0036996814066198608 -0.00054269342171850735 0 0.0035983799905099094 -0.00068955775140361818 0 0.0036321719201942806 -0.00057144037539623785 0 0.0036529121651785799 -0.00059138252931864534 0 -0.001182586102809455 -0.0025886965041457847 0 -0.0038675752994338885 -0.001669478336846109 0 -0.0054512372558191777 -0.0043074802093936992 0 -0.0077132817304007423 -0.0038347612060743025 0 -0.0064375446216573548 -0.0030999641974318211 0 0.0035983799905099094 -0.00068955775140361818 0 0.0036738207187546668 -0.00062079980082608687 0 0.0036792951679396986 -0.00069695156027494624 0 -0.0038675752994338885 -0.001669478336846109 0 -0.0088183844356446682 -0.00032984412194691988 0 -0.0097057313635296408 -0.002288109201176862 0 -0.0099373558044329267 -0.001630343399635577 0 -0.01036569659422846 -0.0021548495370167149 0 -0.0099373558044329267 -0.001630343399635577 0 -0.0092988104949804345 -0.0011264331379139665 0 -0.010274619350513952 -0.00096912297525006798 0 -0.0038675752994338885 -0.001669478336846109 0 -0.0088784760431291215 -0.0018697251676183791 0 -0.0097057313635296408 -0.002288109201176862 0 -0.0099373558044329267 -0.001630343399635577 0 -0.0092988104949804345 -0.0011264331379139665 0 -0.0052319476845993007 -0.0021800789245026452 0 -0.0064375446216573548 -0.0030999641974318211 0 -0.0069960965333933454 -0.0016982308764468201 0 -0.0077132817304007423 -0.0038347612060743025 0 -0.0064375446216573548 -0.0030999641974318211 0 -0.0069960965333933454 -0.0016982308764468201 0 -0.0058372737314865341 -0.00091940912157428866 0 -0.0052319476845993007 -0.0021800789245026452 0 -0.0069960965333933454 -0.0016982308764468201 0 -0.0058372737314865341 -0.00091940912157428866 0 -0.0069960965333933454 -0.0016982308764468201 0 -0.0064743911610964881 0.00021361521114647756 0 -0.0088784760431291215 -0.0018697251676183791 0 -0.0074937977073925395 0.00033443148219394498 0 -0.0092988104949804345 -0.0011264331379139665 0 -0.0096458917897813898 -0.00034871748746352643 0 -0.010274619350513952 -0.00096912297525006798 0 -0.010210798481522693 0.00064954585138849948 0 -0.0096458917897813898 -0.00034871748746352643 0 -0.0087465862627977981 4.5332789807080115e-05 0 -0.010210798481522693 0.00064954585138849948 0 -0.0096458917897813898 -0.00034871748746352643 0 -0.010274619350513952 -0.00096912297525006798 0 -0.0092988104949804345 -0.0011264331379139665 0 -0.0096458917897813898 -0.00034871748746352643 0 -0.0087465862627977981 4.5332789807080115e-05 0 -0.010210798481522693 0.00064954585138849948 0 -0.0104704678942275 0.0008278852052429756 0 -0.010262220081801221 0.00060882075911092238 0 -0.01014439825868183 0.00068672069180950686 0 -0.010478207659700121 -0.00031202032196785178 0 -0.0104704678942275 0.0008278852052429756 0 -0.010262220081801221 0.00060882075911092238 0 -0.0104049954761644 0.00065394507743723605 0 -0.010262220081801221 0.00060882075911092238 0 -0.0104049954761644 0.00065394507743723605 0 -0.01032373465848741 0.00052634725635363345 0 -0.0104704678942275 0.0008278852052429756 0 -0.0104049954761644 0.00065394507743723605 0 -0.01054534024852077 0.00062655625846699912 0 -0.0104049954761644 0.00065394507743723605 0 -0.01032373465848741 0.00052634725635363345 0 -0.01054534024852077 0.00062655625846699912 0 -0.0029158596662473709 0.0038173169763063507 0 -0.002969423597565283 0.0038160578423330309 0 -0.003018674246822678 0.0038748724006020269 0 -0.0067855160898729269 0.0021541353529818362 0 -0.0067749808362162559 0.0022524089111966936 0 -0.01032373465848741 0.00052634725635363345 0 -0.010373017207465378 0.00044856695959535117 0 -0.01054534024852077 0.00062655625846699912 0 -0.01032373465848741 0.00052634725635363345 0 -0.010301884803541503 0.00042438369621654033 0 -0.010373017207465378 0.00044856695959535117 0 -0.0099373558044329267 -0.001630343399635577 0 -0.010274619350513952 -0.00096912297525006798 0 -0.01036569659422846 -0.0021548495370167149 0 -0.010262220081801221 0.00060882075911092238 0 -0.01032373465848741 0.00052634725635363345 0 -0.010256754279719666 0.00041150038235694626 0 -0.010478207659700121 -0.00031202032196785178 0 -0.0088183844356446682 -0.00032984412194691988 0 -0.01032373465848741 0.00052634725635363345 0 -0.010256754279719666 0.00041150038235694626 0 -0.010301884803541503 0.00042438369621654033 0 -0.010194522210532663 0.00028983098141701383 0 -0.010211447427183138 0.00041666880597974744 0 -0.010301884803541503 0.00042438369621654033 0 -0.0053338332433357999 0.0022107921380455768 0 -0.0067855160898729269 0.0021541353529818362 0 -0.010194522210532663 0.00028983098141701383 0 -0.010301884803541503 0.00042438369621654033 0 -0.010373017207465378 0.00044856695959535117 0 -0.0040508063886924061 0.00062096033875552053 0 -0.0044446080468521229 0.00038335226422383232 0 -0.0042142019873011444 -0.00028248165494191462 0 -0.0053338332433357999 0.0022107921380455768 0 -0.0088183844356446682 -0.00032984412194691988 0 -0.0088183844356446682 -0.00032984412194691988 0 -0.010244059242466982 0.00014969274481428936 0 -0.0044446080468521229 0.00038335226422383232 0 -0.005029200078852927 -0.00013580491118046566 0 -0.0042142019873011444 -0.00028248165494191462 0 -0.002894739919740665 0.0037751191912377465 0 -0.0028355699567243018 0.0037590774856334649 0 -0.0029158596662473709 0.0038173169763063507 0 -0.002894739919740665 0.0037751191912377465 0 -0.0029158596662473709 0.0038173169763063507 0 -0.002969423597565283 0.0038160578423330309 0 -0.002894739919740665 0.0037751191912377465 0 -0.002969423597565283 0.0038160578423330309 0 -0.0029486590431338326 0.0037902695248812845 0 -0.0056669939163728677 0.0044262550561822408 0 -0.0056139768915974171 0.0050870570801914722 0 -0.002969423597565283 0.0038160578423330309 0 -0.0030546095435607721 0.0038415193928749464 0 -0.0029486590431338326 0.0037902695248812845 0 -0.002969423597565283 0.0038160578423330309 0 -0.0030546095435607721 0.0038415193928749464 0 -0.003018674246822678 0.0038748724006020269 0 -0.0082430927953588192 0.0051783059378054525 0 -0.0084397869060884919 0.00399099974655482 0 -0.0075238911458400904 0.0044827014555593667 0 -0.0056669939163728677 0.0044262550561822408 0 -0.0055644868435133551 0.0041022188025067099 0 -0.0030546095435607721 0.0038415193928749464 0 -0.003018674246822678 0.0038748724006020269 0 -0.0031513634308441107 0.0039113385331526404 0 -0.0032569602941929865 0.0039739303838798711 0 -0.0031513634308441107 0.0039113385331526404 0 -0.0031323556329480415 0.0039291079211395625 0 -0.010648623985107479 0.0011213710105051518 0 -0.0104704678942275 0.0008278852052429756 0 -0.01073160992169285 0.00093665534159861452 0 -0.0067749808362162559 0.0022524089111966936 0 -0.0068376101373590625 0.0023946379721763314 0 -0.0104704678942275 0.0008278852052429756 0 -0.01054534024852077 0.00062655625846699912 0 -0.01073160992169285 0.00093665534159861452 0 -0.003018674246822678 0.0038748724006020269 0 -0.0031513634308441107 0.0039113385331526404 0 -0.0031323556329480415 0.0039291079211395625 0 -0.007088435333631531 0.003467936192493839 0 -0.0075238911458400904 0.0044827014555593667 0 -0.0067536927743541419 0.0041768146549683548 0 -0.0062599808447735194 0.0035625514116588218 0 -0.007088435333631531 0.003467936192493839 0 -0.0067536927743541419 0.0041768146549683548 0 -0.007088435333631531 0.003467936192493839 0 -0.0079441055425136346 0.003511551264746901 0 -0.0075238911458400904 0.0044827014555593667 0 -0.0084397869060884919 0.00399099974655482 0 -0.0079441055425136346 0.003511551264746901 0 -0.0075238911458400904 0.0044827014555593667 0 -0.0075238911458400904 0.0044827014555593667 0 -0.0067536927743541419 0.0041768146549683548 0 -0.0067476636520459807 0.0049941334797442838 0 -0.0082430927953588192 0.0051783059378054525 0 -0.0075238911458400904 0.0044827014555593667 0 -0.0073742016940284375 0.0056864728709726392 0 -0.005863291368173284 0.0045261987678555295 0 -0.0059063022976601912 0.0048224383133491705 0 -0.0075238911458400904 0.0044827014555593667 0 -0.0067476636520459807 0.0049941334797442838 0 -0.0073742016940284375 0.0056864728709726392 0 -0.0082430927953588192 0.0051783059378054525 0 -0.0073742016940284375 0.0056864728709726392 0 -0.0080870945499616088 0.0060118992233818159 0 -0.0047733164112811971 0.0040180784519154196 0 -0.0045261653632306647 0.0040870947782885607 0 -0.0045765416138874348 0.0038813877326869064 0 -0.0047733164112811971 0.0040180784519154196 0 -0.0050242093971795037 0.0041387959460951872 0 -0.0045261653632306647 0.0040870947782885607 0 -0.0045261653632306647 0.0040870947782885607 0 -0.0045765416138874348 0.0038813877326869064 0 -0.004322589963961356 0.003801835285808929 0 -0.0044920917904842485 0.0036419165292788276 0 -0.0045765416138874348 0.0038813877326869064 0 -0.004322589963961356 0.003801835285808929 0 -0.0044920917904842485 0.0036419165292788276 0 -0.004322589963961356 0.003801835285808929 0 -0.0041951519686296273 0.0035647116809192653 0 -0.004322589963961356 0.003801835285808929 0 -0.0040267480683038323 0.0036685565195336963 0 -0.0041951519686296273 0.0035647116809192653 0 -0.004322589963961356 0.003801835285808929 0 -0.0040267480683038323 0.0036685565195336963 0 -0.004095785311467013 0.003897512247240499 0 -0.0045261653632306647 0.0040870947782885607 0 -0.004322589963961356 0.003801835285808929 0 -0.004095785311467013 0.003897512247240499 0 -0.0059063022976601912 0.0048224383133491705 0 -0.0061150651484022439 0.0051995510634563636 0 -0.0073742016940284375 0.0056864728709726392 0 -0.007786017986139899 0.006154263783610418 0 -0.0080870945499616088 0.0060118992233818159 0 -0.002894739919740665 0.0037751191912377465 0 -0.0029486590431338326 0.0037902695248812845 0 -0.0028494513739487932 0.0037478443694641231 0 -0.0029486590431338326 0.0037902695248812845 0 -0.0028494513739487932 0.0037478443694641231 0 -0.002837862341021187 0.0037603813142850708 0 -0.0028494513739487932 0.0037478443694641231 0 -0.002837862341021187 0.0037603813142850708 0 -0.0027887881108352897 0.0037076549598587237 0 -0.0056139768915974171 0.0050870570801914722 0 -0.0047701684120228004 0.0043282425165263004 0 -0.0040267480683038323 0.0036685565195336963 0 -0.004095785311467013 0.003897512247240499 0 -0.0037038887821614604 0.0036046350779546611 0 -0.0061150651484022439 0.0051995510634563636 0 -0.0047701684120228004 0.0043282425165263004 0 -0.0029486590431338326 0.0037902695248812845 0 -0.002837862341021187 0.0037603813142850708 0 -0.002921008754284408 0.0037782968041160632 0 -0.007786017986139899 0.006154263783610418 0 -0.0080870945499616088 0.0060118992233818159 0 -0.0079817371202705045 0.006493792511386029 0 -0.0037038887821614604 0.0036046350779546611 0 -0.0036760089034190745 0.003295990873328292 0 -0.0039212825564806037 0.003500364660847815 0 -0.002837862341021187 0.0037603813142850708 0 -0.002921008754284408 0.0037782968041160632 0 -0.0026813398416235968 0.0036624472701207431 0 -0.0047701684120228004 0.0043282425165263004 0 -0.0024178446394417089 0.0029073051435721561 0 -0.002921008754284408 0.0037782968041160632 0 -0.0026813398416235968 0.0036624472701207431 0 -0.0025492226023820907 0.0031349029964702307 0 -0.0012897177470385637 0.0036230422997304704 0 -0.0026813398416235968 0.0036624472701207431 0 -0.0016971395351329259 0.0030391255163808284 0 -0.0025971747189417332 0.0037634438499951064 0 -0.0024035785822260976 0.0036526882969887056 0 -0.0027998783741435876 0.0037232181724398978 0 -0.0027887881108352897 0.0037076549598587237 0 -0.0026813398416235968 0.0036624472701207431 0 -0.002837862341021187 0.0037603813142850708 0 -0.0027887881108352897 0.0037076549598587237 0 -0.0026813398416235968 0.0036624472701207431 0 -0.0026813398416235968 0.0036624472701207431 0 -0.0016971395351329259 0.0030391255163808284 0 -0.0025492226023820907 0.0031349029964702307 0 -0.0016971395351329259 0.0030391255163808284 0 -0.0025492226023820907 0.0031349029964702307 0 -0.0021555187736937904 0.002552550287459055 0 -0.0025492226023820907 0.0031349029964702307 0 -0.0021555187736937904 0.002552550287459055 0 -0.0031500776689975625 0.0020255484980093949 0 -0.0021555187736937904 0.002552550287459055 0 -0.0031500776689975625 0.0020255484980093949 0 -0.0019571610018182116 0.0019343022425293125 0 -0.00149378469357086 0.0024345605669270592 0 -0.0021555187736937904 0.002552550287459055 0 -0.0019571610018182116 0.0019343022425293125 0 -0.00149378469357086 0.0024345605669270592 0 -0.0016971395351329259 0.0030391255163808284 0 -0.0021555187736937904 0.002552550287459055 0 -0.00149378469357086 0.0024345605669270592 0 -0.0019571610018182116 0.0019343022425293125 0 -0.0014725258009448366 0.001976348196417314 0 -0.0032784681301184799 0.0042668439225382916 0 -0.0025492226023820907 0.0031349029964702307 0 -0.0031500776689975625 0.0020255484980093949 0 -0.0047701684120228004 0.0043282425165263004 0 -0.0009603314341185596 0.0031254634107098951 0 -0.0037038887821614604 0.0036046350779546611 0 -0.0036760089034190745 0.003295990873328292 0 -0.0035300533578170343 0.0031785168394000253 0 -0.0036760089034190745 0.003295990873328292 0 -0.0037866174135427057 0.0030898157595515511 0 -0.0035465779987739988 0.0030631249145501582 0 -0.0036760089034190745 0.003295990873328292 0 -0.0035465779987739988 0.0030631249145501582 0 -0.0032563314444171662 0.0030872441851146465 0 -0.0034089484191427936 0.0038346418461086208 0 -0.0009603314341185596 0.0031254634107098951 0 -0.0036760089034190745 0.003295990873328292 0 -0.0040003778310727725 0.0033425051915096041 0 -0.0037866174135427057 0.0030898157595515511 0 -0.0036760089034190745 0.003295990873328292 0 -0.0040003778310727725 0.0033425051915096041 0 -0.0039212825564806037 0.003500364660847815 0 -0.0040003778310727725 0.0033425051915096041 0 -0.0040947520050127386 0.0031352271958519171 0 -0.0037866174135427057 0.0030898157595515511 0 -0.0043549006365530144 0.0029689039931113394 0 -0.0040947520050127386 0.0031352271958519171 0 -0.0042794303661443907 0.0033678055683824017 0 -0.0040003778310727725 0.0033425051915096041 0 -0.0040947520050127386 0.0031352271958519171 0 -0.0042794303661443907 0.0033678055683824017 0 -0.0040003778310727725 0.0033425051915096041 0 -0.0042794303661443907 0.0033678055683824017 0 -0.0041951519686296273 0.0035647116809192653 0 -0.0044920917904842485 0.0036419165292788276 0 -0.0042794303661443907 0.0033678055683824017 0 -0.0041951519686296273 0.0035647116809192653 0 -0.0040267480683038323 0.0036685565195336963 0 -0.0041951519686296273 0.0035647116809192653 0 -0.0039212825564806037 0.003500364660847815 0 -0.0040267480683038323 0.0036685565195336963 0 -0.0037038887821614604 0.0036046350779546611 0 -0.0039212825564806037 0.003500364660847815 0 -0.0040003778310727725 0.0033425051915096041 0 -0.0041951519686296273 0.0035647116809192653 0 -0.0039212825564806037 0.003500364660847815 0 -0.0036984498447018119 0.0026586660302117945 0 -0.0039955488546097595 0.0028629865649364653 0 -0.004059218156003892 0.0024635561737626128 0 -0.0010227394710303843 0.0021571136760104646 0 0.0017568758191373393 0.0022706338906065202 0 -0.00503709961319488 0.0033779958451936329 0 0.0017568758191373393 0.0022706338906065202 0 -0.0043549006365530144 0.0029689039931113394 0 -0.0039955488546097595 0.0028629865649364653 0 -0.004059218156003892 0.0024635561737626128 0 -0.0043549006365530144 0.0029689039931113394 0 -0.0040947520050127386 0.0031352271958519171 0 -0.0039955488546097595 0.0028629865649364653 0 -0.0040947520050127386 0.0031352271958519171 0 -0.0039955488546097595 0.0028629865649364653 0 -0.0037866174135427057 0.0030898157595515511 0 -0.0036984498447018119 0.0026586660302117945 0 -0.0039955488546097595 0.0028629865649364653 0 -0.0037866174135427057 0.0030898157595515511 0 -0.0034753812701421045 0.0023702050819677497 0 -0.0037866174135427057 0.0030898157595515511 0 -0.0034612074088834566 0.00273719270997195 0 -0.0010227394710303843 0.0021571136760104646 0 -0.0041112192359899682 0.0032753351240020416 0 -0.0032563314444171662 0.0030872441851146465 0 -0.0032886665682837104 0.0025529153526286049 0 -0.0030106416971294519 0.002293493480378992 0 -0.0035465779987739988 0.0030631249145501582 0 -0.0032563314444171662 0.0030872441851146465 0 -0.0034612074088834566 0.00273719270997195 0 0.0041129143131429912 0.0044642835598546074 0 0.0046949783999590761 0.0039349414641725051 0 0.0042298092957198854 0.0034767291671592947 0 -0.0037866174135427057 0.0030898157595515511 0 -0.0035465779987739988 0.0030631249145501582 0 -0.0034612074088834566 0.00273719270997195 0 -0.0009603314341185596 0.0031254634107098951 0 0.0007950049017032626 0.0030072077933313681 0 -0.0032563314444171662 0.0030872441851146465 0 -0.0034612074088834566 0.00273719270997195 0 -0.0032886665682837104 0.0025529153526286049 0 -0.0019571610018182116 0.0019343022425293125 0 -0.0020840442712141377 0.00098900727490590064 0 -0.001419747780830915 0.0015282296948529034 0 -0.0019571610018182116 0.0019343022425293125 0 -0.0014725258009448366 0.001976348196417314 0 -0.001419747780830915 0.0015282296948529034 0 -0.0009603314341185596 0.0031254634107098951 0 0.00081093074850472073 0.0028578093531412803 0 -0.0031500776689975625 0.0020255484980093949 0 -0.0019571610018182116 0.0019343022425293125 0 -0.0020840442712141377 0.00098900727490590064 0 -0.0020840442712141377 0.00098900727490590064 0 -0.00098781039767790275 -2.5701664473555666e-05 0 -0.001419747780830915 0.0015282296948529034 0 0.00081093074850472073 0.0028578093531412803 0 0.0090229190661143249 0.0021481226207596582 0 0.0046949783999590761 0.0039349414641725051 0 0.004714326038128957 0.0034749067562636839 0 0.0052398688338103037 0.0034084355416248531 0 0.0046949783999590761 0.0039349414641725051 0 0.004714326038128957 0.0034749067562636839 0 0.0042298092957198854 0.0034767291671592947 0 0.004714326038128957 0.0034749067562636839 0 0.0042298092957198854 0.0034767291671592947 0 0.0046907886441591284 0.0030858203520766499 0 0.004714326038128957 0.0034749067562636839 0 0.0046907886441591284 0.0030858203520766499 0 0.0052398688338103037 0.0034084355416248531 0 -0.0034753812701421045 0.0023702050819677497 0 -0.0034612074088834566 0.00273719270997195 0 -0.0032886665682837104 0.0025529153526286049 0 -0.0032886665682837104 0.0025529153526286049 0 -0.0030106416971294519 0.002293493480378992 0 -0.0032229309230806897 0.0022356559503513259 0 -0.0034753812701421045 0.0023702050819677497 0 -0.0032886665682837104 0.0025529153526286049 0 -0.0032229309230806897 0.0022356559503513259 0 -0.0010227394710303843 0.0021571136760104646 0 -0.000507207333531389 0.0015393054114156768 0 0.0007950049017032626 0.0030072077933313681 0 0.00027937053823905546 0.002034788500068674 0 -0.0032229309230806897 0.0022356559503513259 0 -0.0031323723357312089 0.0015906667298402589 0 -0.0027656012460308133 0.0015480084371250972 0 -0.0034753812701421045 0.0023702050819677497 0 -0.0032229309230806897 0.0022356559503513259 0 -0.0031323723357312089 0.0015906667298402589 0 -0.0030106416971294519 0.002293493480378992 0 -0.0032229309230806897 0.0022356559503513259 0 -0.0027656012460308133 0.0015480084371250972 0 0.0046907886441591284 0.0030858203520766499 0 0.0049328072338788616 0.0025332575584331345 0 0.0052398688338103037 0.0034084355416248531 0 0.0042298092957198854 0.0034767291671592947 0 0.0046907886441591284 0.0030858203520766499 0 0.0043502326739618489 0.0025638574518743727 0 0.0046907886441591284 0.0030858203520766499 0 0.0049328072338788616 0.0025332575584331345 0 0.0043502326739618489 0.0025638574518743727 0 0.010121304588681972 0.0037629951754821556 0 0.011234969613378951 0.0016533765794645896 0 0.0049328072338788616 0.0025332575584331345 0 0.0043502326739618489 0.0025638574518743727 0 0.0046744156870384976 0.0016984435499045928 0 -0.000507207333531389 0.0015393054114156768 0 0.0081166109627642691 0.0028656346630259026 0 -0.0031323723357312089 0.0015906667298402589 0 -0.0027656012460308133 0.0015480084371250972 0 -0.0028554914372574546 0.00082370700208595155 0 0.00027937053823905546 0.002034788500068674 0 0.0059352043289838423 0.0013079567584216888 0 0.0035759056214654875 0.0019486585727621346 0 0.0033673401621627098 0.0018477125240648181 0 0.0037162908928303076 0.0013674719641012785 0 0.0035759056214654875 0.0019486585727621346 0 0.0033673401621627098 0.0018477125240648181 0 0.0030910304881757176 0.0022934079519467037 0 0.0034502402082294175 0.0024815722061060593 0 0.0035759056214654875 0.0019486585727621346 0 0.0030910304881757176 0.0022934079519467037 0 0.006501948060456824 0.0025660055901600832 0 0.0017568758191373393 0.0022706338906065202 0 0.0098158662754488681 0.0033505353555735571 0 0.010343746337961094 0.0021758773675259425 0 0.010760942887857694 0.003338307647488414 0 0.011239204488192966 0.0026065836578447318 0 0.010343746337961094 0.0021758773675259425 0 0.010760942887857694 0.003338307647488414 0 0.0034112167901243001 0.0025211457811579576 0 0.0017568758191373393 0.0022706338906065202 0 0.011750161544763795 0.0036135172667050674 0 0.010760942887857694 0.003338307647488414 0 0.010613847399556819 0.0044827365159260321 0 0.0098158662754488681 0.0033505353555735571 0 0.010760942887857694 0.003338307647488414 0 0.010613847399556819 0.0044827365159260321 0 0.025254008538514981 0.0051694930549758744 0 0.025647358641297881 0.004772604840791307 0 0.025780169737519842 0.0050038724812934083 0 0.0098158662754488681 0.0033505353555735571 0 0.010613847399556819 0.0044827365159260321 0 0.0092910360662906196 0.0044861504021887228 0 0.019039052669253202 0.0049619946972606042 0 0.012441696475553847 0.0033226433789742349 0 0.006501948060456824 0.0025660055901600832 0 0.012441696475553847 0.0033226433789742349 0 0.027017257956457246 0.0046998590239223136 0 0.021886698525538283 0.0044807782053602292 0 0.025647358641297881 0.004772604840791307 0 0.025563836209660098 0.0046383440575967312 0 0.025862118632113067 0.0047092657563140867 0 0.025563836209660098 0.0046383440575967312 0 0.025536466406902558 0.0044392033471662116 0 0.025862118632113067 0.0047092657563140867 0 0.025536466406902558 0.0044392033471662116 0 0.025569234376112374 0.0044238146622302601 0 0.025644917007866787 0.00443908878822874 0 0.025647358641297881 0.004772604840791307 0 0.025773656665613882 0.0048149166165108916 0 0.025780169737519842 0.0050038724812934083 0 0.025647358641297881 0.004772604840791307 0 0.025563836209660098 0.0046383440575967312 0 0.025383560873435917 0.0047907027992466298 0 0.025254008538514981 0.0051694930549758744 0 0.025003307110155856 0.0047901437621864088 0 0.025383560873435917 0.0047907027992466298 0 0.025254008538514981 0.0051694930549758744 0 0.025647358641297881 0.004772604840791307 0 0.025383560873435917 0.0047907027992466298 0 0.025563836209660098 0.0046383440575967312 0 0.025319795910301108 0.0045070672564521252 0 0.025536466406902558 0.0044392033471662116 0 0.025563836209660098 0.0046383440575967312 0 0.025383560873435917 0.0047907027992466298 0 0.025319795910301108 0.0045070672564521252 0 0.025006110692539604 0.004186412561912615 0 0.025003307110155856 0.0047901437621864088 0 0.025319795910301108 0.0045070672564521252 0 0.025003307110155856 0.0047901437621864088 0 0.025383560873435917 0.0047907027992466298 0 0.025319795910301108 0.0045070672564521252 0 0.025006110692539604 0.004186412561912615 0 0.025319795910301108 0.0045070672564521252 0 0.025312329689490556 0.0041934591401977346 0 0.025006110692539604 0.004186412561912615 0 0.025312329689490556 0.0041934591401977346 0 0.025279081365011599 0.0038049377466255621 0 0.025549194235316364 0.0040350209722983081 0 0.025312329689490556 0.0041934591401977346 0 0.025279081365011599 0.0038049377466255621 0 0.025549194235316364 0.0040350209722983081 0 0.025445050730920737 0.0042928638236168579 0 0.025312329689490556 0.0041934591401977346 0 0.025549194235316364 0.0040350209722983081 0 0.025445050730920737 0.0042928638236168579 0 0.025568863234644496 0.0042696195488613762 0 0.025319795910301108 0.0045070672564521252 0 0.025445050730920737 0.0042928638236168579 0 0.025312329689490556 0.0041934591401977346 0 0.025445050730920737 0.0042928638236168579 0 0.025536466406902558 0.0044392033471662116 0 0.025568863234644496 0.0042696195488613762 0 0.025319795910301108 0.0045070672564521252 0 0.025445050730920737 0.0042928638236168579 0 0.025536466406902558 0.0044392033471662116 0 0.025549194235316364 0.0040350209722983081 0 0.025803039212691802 0.0041650543657994294 0 0.025568863234644496 0.0042696195488613762 0 0.026525254604475475 0.0042508451758195929 0 0.023437281634595651 0.0040038232255008681 0 0.025569234376112374 0.0044238146622302601 0 0.025803039212691802 0.0041650543657994294 0 0.026457897449538061 0.0041399523073652337 0 0.025536466406902558 0.0044392033471662116 0 0.025569234376112374 0.0044238146622302601 0 0.025568863234644496 0.0042696195488613762 0 0.025569234376112374 0.0044238146622302601 0 0.025803039212691802 0.0041650543657994294 0 0.025568863234644496 0.0042696195488613762 0 0.025803039212691802 0.0041650543657994294 0 0.025955317596400202 0.003972272771563483 0 0.026457897449538061 0.0041399523073652337 0 0.025549194235316364 0.0040350209722983081 0 0.025803039212691802 0.0041650543657994294 0 0.025955317596400202 0.003972272771563483 0 0.025549194235316364 0.0040350209722983081 0 0.025955317596400202 0.003972272771563483 0 0.025558605270247364 0.0034899369630455681 0 0.025955317596400202 0.003972272771563483 0 0.025558605270247364 0.0034899369630455681 0 0.026116758249967315 0.0028907654694055995 0 0.024991810649414324 0.0033769640826129526 0 0.025006110692539604 0.004186412561912615 0 0.025279081365011599 0.0038049377466255621 0 0.024991810649414324 0.0033769640826129526 0 0.025558605270247364 0.0034899369630455681 0 0.025339828284528701 0.0027643046809782954 0 0.024991810649414324 0.0033769640826129526 0 0.025558605270247364 0.0034899369630455681 0 0.025279081365011599 0.0038049377466255621 0 0.025549194235316364 0.0040350209722983081 0 0.025558605270247364 0.0034899369630455681 0 0.025279081365011599 0.0038049377466255621 0 0.016611660841759825 0.0038838046104633511 0 0.016465866234538752 0.0041135876783003856 0 0.0164801606064768 0.0036857694273829092 0 0.016611660841759825 0.0038838046104633511 0 0.016465866234538752 0.0041135876783003856 0 0.016818380209588854 0.0040316128570637225 0 0.020343925056308321 0.0040627656218204886 0 0.020718234657855075 0.0042308317896493815 0 0.020786535349759831 0.0026284986530910712 0 0.023010750836889485 0.0040144697573501259 0 0.022435788280384554 0.0026914916864073332 0 0.025955317596400202 0.003972272771563483 0 0.026467209097519134 0.0039283534157867469 0 0.026116758249967315 0.0028907654694055995 0 0.023918349399524513 0.003463708011853482 0 0.023983077441541052 0.0029803117956114255 0 0.023757864333923892 0.0029476145945406301 0 0.020343925056308321 0.0040627656218204886 0 0.02051544310493322 0.0025912389858390493 0 0.020786535349759831 0.0026284986530910712 0 0.017900205826132991 0.0041389482136502884 0 0.019141877253005691 0.002740913382437136 0 0.023010750836889485 0.0040144697573501259 0 0.026143871821860318 0.0026037931735913207 0 0.025569234376112374 0.0044238146622302601 0 0.025638788653190081 0.0043904982017142508 0 0.025644917007866787 0.00443908878822874 0 0.023010750836889485 0.0040144697573501259 0 0.021101164808067278 0.0040748672542327878 0 0.020343925056308321 0.0040627656218204886 0 0.020434316352374998 0.004322507238693752 0 0.020718234657855075 0.0042308317896493815 0 0.022856420579611313 0.0035713309731771653 0 0.023347133532973029 0.0049524561321817491 0 0.022674584662722819 0.0051669633621196399 0 0.023010750836889485 0.0040144697573501259 0 0.023437281634595651 0.0040038232255008681 0 0.021101164808067278 0.0040748672542327878 0 0.023437281634595651 0.0040038232255008681 0 0.021101164808067278 0.0040748672542327878 0 0.017900205826132991 0.0041389482136502884 0 0.025955317596400202 0.003972272771563483 0 0.026467209097519134 0.0039283534157867469 0 0.026457897449538061 0.0041399523073652337 0 0.023437281634595651 0.0040038232255008681 0 0.021886698525538283 0.0044807782053602292 0 0.020055085257758089 0.0034767129365698393 0 0.019892240883385301 0.0048194200774335453 0 0.020608404221709231 0.0043275718810743893 0 0.021101164808067278 0.0040748672542327878 0 0.017366958381055498 0.0036705519779243303 0 0.017960940862778257 0.0037598714851223964 0 0.017865606493797249 0.0037895299384870249 0 0.017893070797262128 0.0035995013648058632 0 0.020289604711453798 0.0034016618482050911 0 0.020055085257758089 0.0034767129365698393 0 0.020608404221709231 0.0043275718810743893 0 0.017865606493797249 0.0037895299384870249 0 0.017893070797262128 0.0035995013648058632 0 0.017862793343712068 0.0035267769474059845 0 0.017900205826132991 0.0041389482136502884 0 0.016144099986451676 0.0035256125040430603 0 0.017280379900347427 0.0042418756941724617 0 0.017300668349957218 0.0042565716922009977 0 0.017261860916524614 0.0042658442465349326 0 0.017900205826132991 0.0041389482136502884 0 0.016840765379888028 0.0041650221951439357 0 0.017280379900347427 0.0042418756941724617 0 0.017300668349957218 0.0042565716922009977 0 0.017277191186798921 0.0042334136044491757 0 0.01346258388143684 0.0021738629101560472 0 0.013970535860072311 0.0033267697115282801 0 0.01550545772392231 0.0027136391350297932 0 0.014465164520387914 0.0030427284575580901 0 0.016697842714315431 0.0035546457626819019 0 0.017300668349957218 0.0042565716922009977 0 0.017258086333824297 0.0042715950802788977 0 0.017358938618540942 0.0042773136957138516 0 0.017300668349957218 0.0042565716922009977 0 0.017261860916524614 0.0042658442465349326 0 0.017258086333824297 0.0042715950802788977 0 0.014465164520387914 0.0030427284575580901 0 0.011234969613378951 0.0016533765794645896 0 0.021886698525538283 0.0044807782053602292 0 0.016678269388099107 0.0035130995777116307 0 0.016678269388099107 0.0035130995777116307 0 0.017366958381055498 0.0036705519779243303 0 0.019892240883385301 0.0048194200774335453 0 0.020293662892909275 0.0049270929912217879 0 0.020608404221709231 0.0043275718810743893 0 0.017366958381055498 0.0036705519779243303 0 0.016144099986451676 0.0035256125040430603 0 0.016124847640359007 0.0039375654593005642 0 0.016376797662884017 0.0034590489494172459 0 0.016493921805900365 0.0037947201566902343 0 0.016144099986451676 0.0035256125040430603 0 0.014465164520387914 0.0030427284575580901 0 0.016678269388099107 0.0035130995777116307 0 0.014465164520387914 0.0030427284575580901 0 0.016124847640359007 0.0039375654593005642 0 0.016493921805900365 0.0037947201566902343 0 0.016482877973315668 0.0040330347407585799 0 0.011486068658253018 0.0024672491598226008 0 0.011477773469830466 0.0025295167634793981 0 0.011418033496821916 0.0025613785415146066 0 0.014465164520387914 0.0030427284575580901 0 0.0059352043289838423 0.0013079567584216888 0 0.011524934085472499 0.0024784382621229049 0 0.011477773469830466 0.0025295167634793981 0 0.011490241258427403 0.0026020485656780309 0 0.011486068658253018 0.0024672491598226008 0 0.011524934085472499 0.0024784382621229049 0 0.011477773469830466 0.0025295167634793981 0 0.017187229483722637 0.0022938490915131158 0 0.017870494535423047 0.0024760082501491835 0 0.016948297318548935 0.0042088978730615611 0 0.025647358641297881 0.004772604840791307 0 0.025862118632113067 0.0047092657563140867 0 0.025773656665613882 0.0048149166165108916 0 0.021886698525538283 0.0044807782053602292 0 0.014211092553077443 0.00314032273139027 0 0.016678269388099107 0.0035130995777116307 0 0.014211092553077443 0.00314032273139027 0 0.025862118632113067 0.0047092657563140867 0 0.025773656665613882 0.0048149166165108916 0 0.025827096729078246 0.0049004343573001161 0 -0.0027656012460308133 0.0015480084371250972 0 -0.0028554914372574546 0.00082370700208595155 0 -0.0025675302855236158 0.00081518149757901879 0 0.0043502326739618489 0.0025638574518743727 0 0.0044505658302917269 0.001704324768688977 0 0.0046744156870384976 0.0016984435499045928 0 0.0035759056214654875 0.0019486585727621346 0 0.0037162908928303076 0.0013674719641012785 0 0.0037639810663698393 0.0013664833144598383 0 0.011418033496821916 0.0025613785415146066 0 0.011404049911106048 0.0026069805485834964 0 0.011490241258427403 0.0026020485656780309 0 0.025773656665613882 0.0048149166165108916 0 0.025780169737519842 0.0050038724812934083 0 0.025827096729078246 0.0049004343573001161 0 0.012441696475553847 0.0033226433789742349 0 0.0081166109627642691 0.0028656346630259026 0 0.012441696475553847 0.0033226433789742349 0 0.014211092553077443 0.00314032273139027 0 0.011071968823414064 0.0058124095605966361 0 0.012980483445731703 0.0021574925649340045 0 0.0125652610207579 0.0057666620081841006 0 0.014211092553077443 0.00314032273139027 0 0.0081166109627642691 0.0028656346630259026 0 0.0081166109627642691 0.0028656346630259026 0 0.0059352043289838423 0.0013079567584216888 0 0.011477773469830466 0.0025295167634793981 0 0.011418033496821916 0.0025613785415146066 0 0.011490241258427403 0.0026020485656780309 0 0.011234969613378951 0.0016533765794645896 0 0.016235539669425772 0.0031444786084798755 0 0.015173550876635586 0.0039525755660409796 0 0.014798143293766868 0.0029533681487134414 0 0.015659400258298019 0.0029540409883124742 0 0.011237623901226131 0.0031453836399099014 0 0.011307645879494026 0.00075628916396326717 0 0.010180320952082007 0.00079048226106903196 0 0.0059352043289838423 0.0013079567584216888 0 0.011234969613378951 0.0016533765794645896 0 0.015659400258298019 0.0029540409883124742 0 0.016189050493140816 0.0033339384812108444 0 0.015812064228409254 0.0038006213959844003 0 0.015705864426325527 0.0032774245933598176 0 0.017423248667894655 0.0032310678323799183 0 0.01550545772392231 0.0027136391350297932 0 0.013970535860072311 0.0033267697115282801 0 0.015705864426325527 0.0032774245933598176 0 0.01550545772392231 0.0027136391350297932 0 0.016235539669425772 0.0031444786084798755 0 0.016951774949497674 0.0034342759418973358 0 0.016951774949497674 0.0034342759418973358 0 0.016697842714315431 0.0035546457626819019 0 0.015659400258298019 0.0029540409883124742 0 0.016189050493140816 0.0033339384812108444 0 0.016496592829127077 0.0030547901189771939 0 0.016609349684454114 0.0033518631516254627 0 0.016189050493140816 0.0033339384812108444 0 0.016395980917175455 0.003599843275868147 0 0.016609349684454114 0.0033518631516254627 0 0.016189050493140816 0.0033339384812108444 0 0.016496592829127077 0.0030547901189771939 0 0.016951774949497674 0.0034342759418973358 0 0.016772894347383358 0.0033354224231412384 0 0.016609349684454114 0.0033518631516254627 0 0.016496592829127077 0.0030547901189771939 0 0.016818832286700263 0.0033681080727841939 0 0.017411721260683511 0.0040506706163059032 0 0.017378604264493756 0.0042815225801933745 0 0.017358938618540942 0.0042773136957138516 0 0.017411721260683511 0.0040506706163059032 0 0.017378604264493756 0.0042815225801933745 0 0.017295672220750423 0.0044010627948053074 0 0.017378604264493756 0.0042815225801933745 0 0.017336196566921782 0.0043389716447182472 0 0.017295672220750423 0.0044010627948053074 0 0.017378604264493756 0.0042815225801933745 0 0.017358938618540942 0.0042773136957138516 0 0.017337856063738978 0.0042795502122947842 0 0.017300668349957218 0.0042565716922009977 0 0.017358938618540942 0.0042773136957138516 0 0.017337856063738978 0.0042795502122947842 0 0.017300668349957218 0.0042565716922009977 0 0.017337856063738978 0.0042795502122947842 0 0.017277191186798921 0.0042334136044491757 0 0.017337856063738978 0.0042795502122947842 0 0.017336196566921782 0.0043389716447182472 0 0.017277191186798921 0.0042334136044491757 0 0.017378604264493756 0.0042815225801933745 0 0.017337856063738978 0.0042795502122947842 0 0.017336196566921782 0.0043389716447182472 0 0.017336196566921782 0.0043389716447182472 0 0.017277191186798921 0.0042334136044491757 0 0.017426603518716909 0.0040128849353951515 0 0.016840765379888028 0.0041650221951439357 0 0.017512696909373539 0.0039926355369280979 0 0.016818380209588854 0.0040316128570637225 0 0.017426603518716909 0.0040128849353951515 0 0.016963592840302855 0.0037028997747894188 0 0.016818380209588854 0.0040316128570637225 0 0.016700071894709522 0.0037032715595034416 0 0.016963592840302855 0.0037028997747894188 0 0.016611660841759825 0.0038838046104633511 0 0.016818380209588854 0.0040316128570637225 0 0.016700071894709522 0.0037032715595034416 0 0.017740957939449232 0.0041949446669388019 0 0.018506641376122138 0.0039302946832864361 0 0.01793863621305818 0.0037188365819821917 0 0.017740957939449232 0.0041949446669388019 0 0.018506641376122138 0.0039302946832864361 0 0.018279547233537179 0.0043543117634219095 0 0.017740957939449232 0.0041949446669388019 0 0.017426603518716909 0.0040128849353951515 0 0.01793863621305818 0.0037188365819821917 0 0.017740957939449232 0.0041949446669388019 0 0.017426603518716909 0.0040128849353951515 0 0.017360351308576161 0.0044323634056970141 0 0.017336196566921782 0.0043389716447182472 0 0.017426603518716909 0.0040128849353951515 0 0.017360351308576161 0.0044323634056970141 0 0.017740957939449232 0.0041949446669388019 0 0.017360351308576161 0.0044323634056970141 0 0.01711400949416814 0.004730193147193763 0 0.017336196566921782 0.0043389716447182472 0 0.017360351308576161 0.0044323634056970141 0 0.017295672220750423 0.0044010627948053074 0 0.017360351308576161 0.0044323634056970141 0 0.01711400949416814 0.004730193147193763 0 0.017295672220750423 0.0044010627948053074 0 0.017740957939449232 0.0041949446669388019 0 0.018279547233537179 0.0043543117634219095 0 0.01711400949416814 0.004730193147193763 0 0.01711400949416814 0.004730193147193763 0 0.015829035245860951 0.0037583286881760574 0 0.014881324208898993 0.0039152932305527525 0 0.01711400949416814 0.004730193147193763 0 0.015829035245860951 0.0037583286881760574 0 0.016484812617622635 0.0036987689081735831 0 0.017411721260683511 0.0040506706163059032 0 0.017295672220750423 0.0044010627948053074 0 0.016484812617622635 0.0036987689081735831 0 0.01711400949416814 0.004730193147193763 0 0.017295672220750423 0.0044010627948053074 0 0.016484812617622635 0.0036987689081735831 0 0.017053753017010235 0.0032936538170086319 0 0.016818832286700263 0.0033681080727841939 0 0.016484812617622635 0.0036987689081735831 0 0.016951774949497674 0.0034342759418973358 0 0.016586400444433821 0.0037326307381648398 0 0.016818832286700263 0.0033681080727841939 0 0.016484812617622635 0.0036987689081735831 0 0.016931241316213284 0.0033429621354654133 0 0.016609349684454114 0.0033518631516254627 0 0.016818832286700263 0.0033681080727841939 0 0.016931241316213284 0.0033429621354654133 0 0.016609349684454114 0.0033518631516254627 0 0.016931241316213284 0.0033429621354654133 0 0.016395980917175455 0.003599843275868147 0 0.015829035245860951 0.0037583286881760574 0 0.015327664970852141 0.0028376852439846796 0 0.014511098431278315 0.0031004365644519086 0 0.015869711810364461 0.0036852116897935416 0 0.016106343554992349 0.0031720266233692443 0 0.015829035245860951 0.0037583286881760574 0 0.016484812617622635 0.0036987689081735831 0 0.016931241316213284 0.0033429621354654133 0 0.015829035245860951 0.0037583286881760574 0 0.015327664970852141 0.0028376852439846796 0 0.01576498491167103 0.0026477984520667133 0 0.015327664970852141 0.0028376852439846796 0 0.015391036848359589 0.0023502302147494405 0 0.014641991944043498 0.0023800243952717313 0 0.015327664970852141 0.0028376852439846796 0 0.015391036848359589 0.0023502302147494405 0 0.01576498491167103 0.0026477984520667133 0 0.015391036848359589 0.0023502302147494405 0 0.014901672802905854 0.001958976959905039 0 0.014641991944043498 0.0023800243952717313 0 0.015391036848359589 0.0023502302147494405 0 0.014901672802905854 0.001958976959905039 0 0.015302832749273946 0.0017983719323444896 0 0.015302832749273946 0.0017983719323444896 0 0.014905660591204168 0.0013102999762854156 0 0.015376074778227099 0.001096778846021901 0 0.014901672802905854 0.001958976959905039 0 0.015302832749273946 0.0017983719323444896 0 0.014905660591204168 0.0013102999762854156 0 0.014901672802905854 0.001958976959905039 0 0.014905660591204168 0.0013102999762854156 0 0.014351502304614695 0.0015650122695375936 0 0.015302832749273946 0.0017983719323444896 0 0.015735392508092711 0.0016735012006843259 0 0.015376074778227099 0.001096778846021901 0 0.015735392508092711 0.0016735012006843259 0 0.01567984341463401 0.0020689121451730619 0 0.016179097655823715 0.0018577018912288603 0 0.015735392508092711 0.0016735012006843259 0 0.016005773053598522 0.0014550436452509888 0 0.015376074778227099 0.001096778846021901 0 0.015302832749273946 0.0017983719323444896 0 0.015735392508092711 0.0016735012006843259 0 0.01567984341463401 0.0020689121451730619 0 0.01567984341463401 0.0020689121451730619 0 0.01576498491167103 0.0026477984520667133 0 0.016179097655823715 0.0018577018912288603 0 0.016106343554992349 0.0031720266233692443 0 0.017299504030181125 0.0027828143027112881 0 0.015391036848359589 0.0023502302147494405 0 0.015302832749273946 0.0017983719323444896 0 0.01567984341463401 0.0020689121451730619 0 0.015391036848359589 0.0023502302147494405 0 0.01567984341463401 0.0020689121451730619 0 0.01576498491167103 0.0026477984520667133 0 0.016931241316213284 0.0033429621354654133 0 0.016395980917175455 0.003599843275868147 0 0.016302533119982979 0.0041839675308350524 0 0.016189050493140816 0.0033339384812108444 0 0.016395980917175455 0.003599843275868147 0 0.015812064228409254 0.0038006213959844003 0 0.016395980917175455 0.003599843275868147 0 0.015812064228409254 0.0038006213959844003 0 0.016302533119982979 0.0041839675308350524 0 0.015173550876635586 0.0039525755660409796 0 0.015659400258298019 0.0029540409883124742 0 0.015812064228409254 0.0038006213959844003 0 0.017299504030181125 0.0027828143027112881 0 0.0090229190661143249 0.0021481226207596582 0 0.015173550876635586 0.0039525755660409796 0 0.015812064228409254 0.0038006213959844003 0 0.015489700683460188 0.0049142212203691941 0 0.010121304588681972 0.0037629951754821556 0 0.0090229190661143249 0.0021481226207596582 0 0.015812064228409254 0.0038006213959844003 0 0.016302533119982979 0.0041839675308350524 0 0.015489700683460188 0.0049142212203691941 0 0.016179097655823715 0.0018577018912288603 0 0.016005773053598522 0.0014550436452509888 0 0.016511787238512966 0.0013128768699499755 0 0.015735392508092711 0.0016735012006843259 0 0.016179097655823715 0.0018577018912288603 0 0.016005773053598522 0.0014550436452509888 0 0.016005773053598522 0.0014550436452509888 0 0.016153416406083771 0.0011108815268924882 0 0.016511787238512966 0.0013128768699499755 0 0.016005773053598522 0.0014550436452509888 0 0.016153416406083771 0.0011108815268924882 0 0.015767556622749593 0.00083446911612465753 0 0.015920614677692103 0.0014194134984666471 0 0.016253328847301872 0.00047338614198491082 0 0.0090229190661143249 0.0021481226207596582 0 0.007894931481927785 0.0014687487946588738 0 0.016153416406083771 0.0011108815268924882 0 0.016511787238512966 0.0013128768699499755 0 0.016279866141246782 0.00069170835019404019 0 -0.00098781039767790275 -2.5701664473555666e-05 0 -0.00046074814064722648 0.0016639463481001226 0 -0.001419747780830915 0.0015282296948529034 0 -0.0010106282908513454 0.0024707846082505343 0 -0.00046074814064722648 0.0016639463481001226 0 -0.0010186477975264847 0.002007922923370264 0 -0.00046074814064722648 0.0016639463481001226 0 -0.0010186477975264847 0.002007922923370264 0 -0.001419747780830915 0.0015282296948529034 0 -0.0010186477975264847 0.002007922923370264 0 -0.0014725258009448366 0.001976348196417314 0 -0.001419747780830915 0.0015282296948529034 0 0.016153416406083771 0.0011108815268924882 0 0.016279866141246782 0.00069170835019404019 0 0.015767556622749593 0.00083446911612465753 0 0.015598962680417491 0.00013294056508332305 0 0.016279866141246782 0.00069170835019404019 0 0.015767556622749593 0.00083446911612465753 0 0.015915678144386203 0.00036554932813035205 0 0.015292759682687066 0.0003735529600129098 0 0.015376074778227099 0.001096778846021901 0 0.015280084413114719 -0.00026852252966344596 0 0.015915678144386203 0.00036554932813035205 0 0.015292759682687066 0.0003735529600129098 0 0.015280084413114719 -0.00026852252966344596 0 0.015292759682687066 0.0003735529600129098 0 0.014803984603864539 7.5070836360473822e-05 0 0.015292759682687066 0.0003735529600129098 0 0.014803984603864539 7.5070836360473822e-05 0 0.014527994510800911 0.00067326173537627396 0 0.014803984603864539 7.5070836360473822e-05 0 0.014527994510800911 0.00067326173537627396 0 0.014236567683604982 -9.2270937829258001e-05 0 0.014727920822786938 -0.00031655034795457219 0 0.014803984603864539 7.5070836360473822e-05 0 0.014236567683604982 -9.2270937829258001e-05 0 0.015292759682687066 0.0003735529600129098 0 0.014527994510800911 0.00067326173537627396 0 0.015376074778227099 0.001096778846021901 0 0.014527994510800911 0.00067326173537627396 0 0.014905660591204168 0.0013102999762854156 0 0.014351502304614695 0.0015650122695375936 0 0.014527994510800911 0.00067326173537627396 0 0.014905660591204168 0.0013102999762854156 0 0.015376074778227099 0.001096778846021901 0 0.016005773053598522 0.0014550436452509888 0 0.015915678144386203 0.00036554932813035205 0 0.015376074778227099 0.001096778846021901 0 0.013629576680945544 0.00086186448975144193 0 0.012628891582404855 0.00021829554007190278 0 0.012653456111878573 0.00085418973577199627 0 0.013629576680945544 0.00086186448975144193 0 0.012653456111878573 0.00085418973577199627 0 0.013259951618684786 0.0014689129381030668 0 0.014527994510800911 0.00067326173537627396 0 0.013629576680945544 0.00086186448975144193 0 0.014351502304614695 0.0015650122695375936 0 0.014527994510800911 0.00067326173537627396 0 0.013629576680945544 0.00086186448975144193 0 0.013618238868387008 0.00016449034524412118 0 0.014527994510800911 0.00067326173537627396 0 0.014236567683604982 -9.2270937829258001e-05 0 0.013618238868387008 0.00016449034524412118 0 0.013749571260936372 -0.00046685370527382836 0 0.014236567683604982 -9.2270937829258001e-05 0 0.013618238868387008 0.00016449034524412118 0 0.013163684494524572 -0.00035103431207133277 0 0.013618238868387008 0.00016449034524412118 0 0.012628891582404855 0.00021829554007190278 0 0.013629576680945544 0.00086186448975144193 0 0.013618238868387008 0.00016449034524412118 0 0.012628891582404855 0.00021829554007190278 0 0.011712632050030571 -0.00030565871672722644 0 0.012628891582404855 0.00021829554007190278 0 0.011837017542849765 0.00031273321414377079 0 0.012628891582404855 0.00021829554007190278 0 0.011837017542849765 0.00031273321414377079 0 0.012653456111878573 0.00085418973577199627 0 0.011837017542849765 0.00031273321414377079 0 0.010928480576267819 0.00017358577395090125 0 0.011488001531956372 0.00079035036954566717 0 0.010928480576267819 0.00017358577395090125 0 0.011488001531956372 0.00079035036954566717 0 0.010361851182376529 0.0006348540111446565 0 0.011712632050030571 -0.00030565871672722644 0 0.011837017542849765 0.00031273321414377079 0 0.010928480576267819 0.00017358577395090125 0 0.011488001531956372 0.00079035036954566717 0 0.012243875726386907 0.0013712339413985966 0 0.01152022995339135 0.001275002967471603 0 0.011488001531956372 0.00079035036954566717 0 0.01152022995339135 0.001275002967471603 0 0.010930121440778054 0.0010039811652650167 0 0.011488001531956372 0.00079035036954566717 0 0.012653456111878573 0.00085418973577199627 0 0.012243875726386907 0.0013712339413985966 0 0.011837017542849765 0.00031273321414377079 0 0.011488001531956372 0.00079035036954566717 0 0.012653456111878573 0.00085418973577199627 0 0.012653456111878573 0.00085418973577199627 0 0.012243875726386907 0.0013712339413985966 0 0.013259951618684786 0.0014689129381030668 0 0.012243875726386907 0.0013712339413985966 0 0.011790134214249929 0.0018355444274141491 0 0.012700077438364385 0.0020324975042865499 0 0.012243875726386907 0.0013712339413985966 0 0.012700077438364385 0.0020324975042865499 0 0.013259951618684786 0.0014689129381030668 0 0.01152022995339135 0.001275002967471603 0 0.011104967987536477 0.0014397257121155453 0 0.010930121440778054 0.0010039811652650167 0 0.012243875726386907 0.0013712339413985966 0 0.01152022995339135 0.001275002967471603 0 0.011790134214249929 0.0018355444274141491 0 0.01152022995339135 0.001275002967471603 0 0.011790134214249929 0.0018355444274141491 0 0.011104967987536477 0.0014397257121155453 0 0.011790134214249929 0.0018355444274141491 0 0.011386534812641881 0.0022454591575540132 0 0.011104967987536477 0.0014397257121155453 0 0.011790134214249929 0.0018355444274141491 0 0.011386534812641881 0.0022454591575540132 0 0.012149640752684812 0.0026361487635734901 0 0.011386534812641881 0.0022454591575540132 0 0.012149640752684812 0.0026361487635734901 0 0.011520493621367997 0.0030796868732737904 0 0.011386534812641881 0.0022454591575540132 0 0.011520493621367997 0.0030796868732737904 0 0.01100699001912183 0.0026240364836037735 0 0.011790134214249929 0.0018355444274141491 0 0.012700077438364385 0.0020324975042865499 0 0.012149640752684812 0.0026361487635734901 0 0.012700077438364385 0.0020324975042865499 0 0.012149640752684812 0.0026361487635734901 0 0.013088913067573135 0.0027804258698985369 0 0.01374383140248471 0.0021976523192030781 0 0.014511098431278315 0.0031004365644519086 0 0.013088913067573135 0.0027804258698985369 0 0.012700077438364385 0.0020324975042865499 0 0.01374383140248471 0.0021976523192030781 0 0.013088913067573135 0.0027804258698985369 0 0.012700077438364385 0.0020324975042865499 0 0.01374383140248471 0.0021976523192030781 0 0.013259951618684786 0.0014689129381030668 0 0.01374383140248471 0.0021976523192030781 0 0.013259951618684786 0.0014689129381030668 0 0.014351502304614695 0.0015650122695375936 0 0.014901672802905854 0.001958976959905039 0 0.014351502304614695 0.0015650122695375936 0 0.014641991944043498 0.0023800243952717313 0 0.013629576680945544 0.00086186448975144193 0 0.013259951618684786 0.0014689129381030668 0 0.014351502304614695 0.0015650122695375936 0 0.01374383140248471 0.0021976523192030781 0 0.014351502304614695 0.0015650122695375936 0 0.014641991944043498 0.0023800243952717313 0 0.01374383140248471 0.0021976523192030781 0 0.014641991944043498 0.0023800243952717313 0 0.014511098431278315 0.0031004365644519086 0 0.015327664970852141 0.0028376852439846796 0 0.014641991944043498 0.0023800243952717313 0 0.014511098431278315 0.0031004365644519086 0 0.014511098431278315 0.0031004365644519086 0 0.013612375474538989 0.0035789557780865257 0 0.014881324208898993 0.0039152932305527525 0 0.015829035245860951 0.0037583286881760574 0 0.014511098431278315 0.0031004365644519086 0 0.014881324208898993 0.0039152932305527525 0 0.014511098431278315 0.0031004365644519086 0 0.013088913067573135 0.0027804258698985369 0 0.013612375474538989 0.0035789557780865257 0 0.016602286488171775 0.0047811808277086493 0 0.016193499171043364 0.0048370883979134711 0 0.013612375474538989 0.0035789557780865257 0 0.014026516442518485 0.0046139301647954859 0 0.012225589577133688 0.0041226358566562619 0 0.01711400949416814 0.004730193147193763 0 0.014026516442518485 0.0046139301647954859 0 0.014881324208898993 0.0039152932305527525 0 0.013612375474538989 0.0035789557780865257 0 0.014026516442518485 0.0046139301647954859 0 0.014881324208898993 0.0039152932305527525 0 0.017077530512027757 0.0047741596191336619 0 0.016602286488171775 0.0047811808277086493 0 0.018279547233537179 0.0043543117634219095 0 0.019155236146313419 0.0050943571612578065 0 0.019078078155249138 0.0041554593389963269 0 0.018279547233537179 0.0043543117634219095 0 0.01711400949416814 0.004730193147193763 0 0.019155236146313419 0.0050943571612578065 0 0.019155236146313419 0.0050943571612578065 0 0.019783563889080362 0.0042198987105200765 0 0.020188159541092543 0.0050286829583405896 0 0.019155236146313419 0.0050943571612578065 0 0.019783563889080362 0.0042198987105200765 0 0.019078078155249138 0.0041554593389963269 0 0.019783563889080362 0.0042198987105200765 0 0.019078078155249138 0.0041554593389963269 0 0.019471821066934382 0.0037259043155314143 0 0.019783563889080362 0.0042198987105200765 0 0.020271237368946753 0.0034670423868960625 0 0.019471821066934382 0.0037259043155314143 0 0.018506641376122138 0.0039302946832864361 0 0.019078078155249138 0.0041554593389963269 0 0.019471821066934382 0.0037259043155314143 0 0.018506641376122138 0.0039302946832864361 0 0.018279547233537179 0.0043543117634219095 0 0.019078078155249138 0.0041554593389963269 0 0.02038708052094481 0.0041283287858317188 0 0.020960449779694378 0.0043804078617949282 0 0.020884842662888772 0.0036788382061804545 0 0.019783563889080362 0.0042198987105200765 0 0.02038708052094481 0.0041283287858317188 0 0.020271237368946753 0.0034670423868960625 0 0.019783563889080362 0.0042198987105200765 0 0.02038708052094481 0.0041283287858317188 0 0.020188159541092543 0.0050286829583405896 0 0.02038708052094481 0.0041283287858317188 0 0.020188159541092543 0.0050286829583405896 0 0.020960449779694378 0.0043804078617949282 0 0.016193499171043364 0.0048370883979134711 0 0.015960475881567536 0.0027226056587344219 0 0.012225589577133688 0.0041226358566562619 0 0.011520493621367997 0.0030796868732737904 0 0.010637228325927848 0.0038219422623351124 0 0.013088913067573135 0.0027804258698985369 0 0.013612375474538989 0.0035789557780865257 0 0.012225589577133688 0.0041226358566562619 0 0.012149640752684812 0.0026361487635734901 0 0.013088913067573135 0.0027804258698985369 0 0.012225589577133688 0.0041226358566562619 0 0.012149640752684812 0.0026361487635734901 0 0.012225589577133688 0.0041226358566562619 0 0.011520493621367997 0.0030796868732737904 0 0.013734972881898564 0.0014875120017691411 0 0.013762635032500543 0.0014507773904523338 0 0.013747817553412856 0.0014515965333721018 0 0.011520493621367997 0.0030796868732737904 0 0.010856511670384969 0.003155792992023784 0 0.01100699001912183 0.0026240364836037735 0 0.010462527333879009 0.0028301073069924875 0 0.010856511670384969 0.003155792992023784 0 0.010637228325927848 0.0038219422623351124 0 0.011520493621367997 0.0030796868732737904 0 0.010856511670384969 0.003155792992023784 0 0.010637228325927848 0.0038219422623351124 0 0.011964696626422659 0.0014353701252911891 0 0.015960475881567536 0.0027226056587344219 0 0.010856511670384969 0.003155792992023784 0 0.01100699001912183 0.0026240364836037735 0 0.010425509844133509 0.0025386343640874148 0 0.010462527333879009 0.0028301073069924875 0 0.010856511670384969 0.003155792992023784 0 0.010425509844133509 0.0025386343640874148 0 0.011964696626422659 0.0014353701252911891 0 0.011289319129190456 0.0014039796074695255 0 0.011712659938800747 2.4982739076416843e-05 0 0.011342265014594935 -0.00070360471855704159 0 0.013121641675487869 -0.00014746133904839485 0 0.011053077727279776 0.00023889838178895939 0 0.011712659938800747 2.4982739076416843e-05 0 0.011342265014594935 -0.00070360471855704159 0 0.011964696626422659 0.0014353701252911891 0 0.014122332528753371 0.00051100413368982106 0 0.011385225779885672 0.00030900311276351811 0 0.011712659938800747 2.4982739076416843e-05 0 0.011931331170480274 0.0002905028512857622 0 0.011053077727279776 0.00023889838178895939 0 0.011385225779885672 0.00030900311276351811 0 0.011081154339808328 0.00035239574272772191 0 0.011053077727279776 0.00023889838178895939 0 0.011385225779885672 0.00030900311276351811 0 0.011712659938800747 2.4982739076416843e-05 0 0.018100202574340779 0.0015233396587533874 0 0.018154335761483547 0.0016798578342997672 0 0.018042861779460417 0.0017854680278168817 0 0.014122332528753371 0.00051100413368982106 0 0.015640301867991094 0.00093340075428178203 0 0.013430860851857527 -2.4188051220900181e-05 0 0.013470862797829379 -1.904752423152127e-05 0 0.013121641675487869 -0.00014746133904839485 0 0.014122332528753371 0.00051100413368982106 0 0.01236960823903089 -0.00033145576606874661 0 0.013430860851857527 -2.4188051220900181e-05 0 0.013470862797829379 -1.904752423152127e-05 0 0.013409015796749213 -0.00027085649106705153 0 0.020188159541092543 0.0050286829583405896 0 0.021003842785063894 0.005057512863778005 0 0.020960449779694378 0.0043804078617949282 0 0.018100202574340779 0.0015233396587533874 0 0.018154335761483547 0.0016798578342997672 0 0.018211306455949601 0.0015391587519187147 0 0.014122332528753371 0.00051100413368982106 0 0.015960475881567536 0.0027226056587344219 0 0.018154335761483547 0.0016798578342997672 0 0.018211306455949601 0.0015391587519187147 0 0.018302623327748273 0.0018573878603655527 0 0.015960475881567536 0.0027226056587344219 0 0.019837823974751791 0.0034183783965025367 0 0.018302623327748273 0.0018573878603655527 0 0.018042861779460417 0.0017854680278168817 0 0.018174727580670878 0.0019722142840407943 0 0.018154335761483547 0.0016798578342997672 0 0.018302623327748273 0.0018573878603655527 0 0.018042861779460417 0.0017854680278168817 0 0.013430860851857527 -2.4188051220900181e-05 0 0.013409015796749213 -0.00027085649106705153 0 0.013898846631233542 -0.00056884637136727604 0 0.018042861779460417 0.0017854680278168817 0 0.018174727580670878 0.0019722142840407943 0 0.017969792279381145 0.0020576123429693312 0 0.018516187377165844 -0.00020999948391825092 0 0.021240336789309013 0.0021786507002391881 0 0.013409015796749213 -0.00027085649106705153 0 0.013676524043248844 -0.0011904746145253195 0 0.013898846631233542 -0.00056884637136727604 0 0.018174727580670878 0.0019722142840407943 0 0.017969792279381145 0.0020576123429693312 0 0.018386548145683333 0.0021939863290800356 0 0.015640301867991094 0.00093340075428178203 0 0.018516187377165844 -0.00020999948391825092 0 0.019837823974751791 0.0034183783965025367 0 0.021240336789309013 0.0021786507002391881 0 0.018302623327748273 0.0018573878603655527 0 0.018174727580670878 0.0019722142840407943 0 0.018386548145683333 0.0021939863290800356 0 0.016524853472554089 -1.812501208488342e-06 0 0.018155264647998527 -0.00020381124451591167 0 0.018402732863207646 8.3139600999233882e-07 0 0.016522173301320477 -2.2372645631161661e-07 0 0.016042800574132064 -0.00060895691115991555 0 0.018739485807168509 -0.00021651168072284922 0 0.018155264647998527 -0.00020381124451591167 0 0.018703721184677023 -9.4524472648424852e-05 0 0.013676524043248844 -0.0011904746145253195 0 0.014624947080205456 -0.00096231131256679057 0 0.013898846631233542 -0.00056884637136727604 0 0.018516187377165844 -0.00020999948391825092 0 0.016042800574132064 -0.00060895691115991555 0 0.013430860851857527 -2.4188051220900181e-05 0 0.013898846631233542 -0.00056884637136727604 0 0.014291995986947862 -6.0197361836165739e-05 0 0.014624947080205456 -0.00096231131256679057 0 0.013898846631233542 -0.00056884637136727604 0 0.014291995986947862 -6.0197361836165739e-05 0 0.016518283930805601 -2.6371195560143872e-06 0 0.014291995986947862 -6.0197361836165739e-05 0 0.014474660322740248 7.6846652697912302e-07 0 0.016518283930805601 -2.6371195560143872e-06 0 0.014624947080205456 -0.00096231131256679057 0 0.014291995986947862 -6.0197361836165739e-05 0 0.014291995986947862 -6.0197361836165739e-05 0 0.014474660322740248 7.6846652697912302e-07 0 0.013121641675487869 -0.00014746133904839485 0 0.013430860851857527 -2.4188051220900181e-05 0 0.014291995986947862 -6.0197361836165739e-05 0 0.013121641675487869 -0.00014746133904839485 0 0.013121641675487869 -0.00014746133904839485 0 0.011931331170480274 0.0002905028512857622 0 0.012721698054214055 0.00015372878232741333 0 0.011712659938800747 2.4982739076416843e-05 0 0.013121641675487869 -0.00014746133904839485 0 0.011931331170480274 0.0002905028512857622 0 0.014474660322740248 7.6846652697912302e-07 0 0.013121641675487869 -0.00014746133904839485 0 0.012721698054214055 0.00015372878232741333 0 0.014474660322740248 7.6846652697912302e-07 0 0.012721698054214055 0.00015372878232741333 0 0.012427312470413496 3.6765693859962331e-07 0 0.012721698054214055 0.00015372878232741333 0 0.012427312470413496 3.6765693859962331e-07 0 0.011416753439437544 0.00049540664114529223 0 0.012427312470413496 3.6765693859962331e-07 0 0.011416753439437544 0.00049540664114529223 0 0.01038063567878722 9.5263096522120041e-07 0 0.011416753439437544 0.00049540664114529223 0 0.01038063567878722 9.5263096522120041e-07 0 0.010270913163694979 0.00063163840070136945 0 0.011931331170480274 0.0002905028512857622 0 0.011416753439437544 0.00049540664114529223 0 0.011318437000296182 0.00051854551341710498 0 0.011931331170480274 0.0002905028512857622 0 0.012721698054214055 0.00015372878232741333 0 0.011416753439437544 0.00049540664114529223 0 0.011289319129190456 0.0014039796074695255 0 0.010558449519989781 0.001135753544355141 0 0.011318437000296182 0.00051854551341710498 0 0.011081154339808328 0.00035239574272772191 0 0.01059730222108588 0.0010352370951111046 0 0.011385225779885672 0.00030900311276351811 0 0.011931331170480274 0.0002905028512857622 0 0.011318437000296182 0.00051854551341710498 0 0.011385225779885672 0.00030900311276351811 0 0.011318437000296182 0.00051854551341710498 0 0.011081154339808328 0.00035239574272772191 0 0.010425509844133509 0.0025386343640874148 0 0.010906560641540337 0.0019294050398517945 0 0.01059730222108588 0.0010352370951111046 0 0.011386534812641881 0.0022454591575540132 0 0.01100699001912183 0.0026240364836037735 0 0.010906560641540337 0.0019294050398517945 0 0.01100699001912183 0.0026240364836037735 0 0.010425509844133509 0.0025386343640874148 0 0.010906560641540337 0.0019294050398517945 0 0.011386534812641881 0.0022454591575540132 0 0.010906560641540337 0.0019294050398517945 0 0.011104967987536477 0.0014397257121155453 0 0.010906560641540337 0.0019294050398517945 0 0.011104967987536477 0.0014397257121155453 0 0.01059730222108588 0.0010352370951111046 0 0.011104967987536477 0.0014397257121155453 0 0.01059730222108588 0.0010352370951111046 0 0.010930121440778054 0.0010039811652650167 0 0.011416753439437544 0.00049540664114529223 0 0.011318437000296182 0.00051854551341710498 0 0.01059730222108588 0.0010352370951111046 0 0.011416753439437544 0.00049540664114529223 0 0.01059730222108588 0.0010352370951111046 0 0.010270913163694979 0.00063163840070136945 0 0.01059730222108588 0.0010352370951111046 0 0.010361851182376529 0.0006348540111446565 0 0.010270913163694979 0.00063163840070136945 0 0.011488001531956372 0.00079035036954566717 0 0.010361851182376529 0.0006348540111446565 0 0.010930121440778054 0.0010039811652650167 0 0.01059730222108588 0.0010352370951111046 0 0.010361851182376529 0.0006348540111446565 0 0.010930121440778054 0.0010039811652650167 0 0.0097469421117247091 1.4748037091260969e-05 0 0.010928480576267819 0.00017358577395090125 0 0.010361851182376529 0.0006348540111446565 0 0.0097469421117247091 1.4748037091260969e-05 0 0.010361851182376529 0.0006348540111446565 0 0.0091434018773006824 0.00029924855240459424 0 0.010361851182376529 0.0006348540111446565 0 0.0091434018773006824 0.00029924855240459424 0 0.010270913163694979 0.00063163840070136945 0 0.0083336553633361534 -3.327368751126822e-08 0 0.0091434018773006824 0.00029924855240459424 0 0.01038063567878722 9.5263096522120041e-07 0 0.0091434018773006824 0.00029924855240459424 0 0.01038063567878722 9.5263096522120041e-07 0 0.010270913163694979 0.00063163840070136945 0 0.024622918384052492 -0.00014619798050055351 0 0.026046196001304735 -0.0006288733216982368 0 0.024729977480770809 -0.00081745118356320583 0 0.024622918384052492 -0.00014619798050055351 0 0.026046196001304735 -0.0006288733216982368 0 0.024046163455350388 1.8103602673572366e-08 0 0.025926488163474114 -1.1639075722713482e-06 0 0.026046196001304735 -0.0006288733216982368 0 0.024046163455350388 1.8103602673572366e-08 0 0.025870839801875663 -0.001660821703530176 0 0.024729977480770809 -0.00081745118356320583 0 0.026618441012073106 -0.0031175110209275647 0 0.026046196001304735 -0.0006288733216982368 0 0.025870839801875663 -0.001660821703530176 0 0.024729977480770809 -0.00081745118356320583 0 0.024729977480770809 -0.00081745118356320583 0 0.023443576938110749 -0.00236214283861764 0 0.026618441012073106 -0.0031175110209275647 0 0.024729977480770809 -0.00081745118356320583 0 0.023084605911819659 -0.00055958235792313393 0 0.023443576938110749 -0.00236214283861764 0 0.024729977480770809 -0.00081745118356320583 0 0.023628647319614303 -9.593480972550623e-05 0 0.023084605911819659 -0.00055958235792313393 0 0.024622918384052492 -0.00014619798050055351 0 0.024729977480770809 -0.00081745118356320583 0 0.023821374611940015 0.00010870857534486305 0 0.024729977480770809 -0.00081745118356320583 0 0.023821374611940015 0.00010870857534486305 0 0.023628647319614303 -9.593480972550623e-05 0 0.023821374611940015 0.00010870857534486305 0 0.023628647319614303 -9.593480972550623e-05 0 0.023275798791424732 0.00028494014156555975 0 0.023628647319614303 -9.593480972550623e-05 0 0.022809116658216548 0.00030701494440498091 0 0.023084605911819659 -0.00055958235792313393 0 0.023628647319614303 -9.593480972550623e-05 0 0.023275798791424732 0.00028494014156555975 0 0.022809116658216548 0.00030701494440498091 0 0.023275798791424732 0.00028494014156555975 0 0.023277588768909698 0.00017633840285172239 0 0.022809116658216548 0.00030701494440498091 0 0.023821374611940015 0.00010870857534486305 0 0.023275798791424732 0.00028494014156555975 0 0.022880626066605816 0.00021747316792595673 0 0.023821374611940015 0.00010870857534486305 0 0.022559333349415688 0.00012830714657393921 0 0.023516264139260536 5.7177748510275922e-05 0 0.023821374611940015 0.00010870857534486305 0 0.022559333349415688 0.00012830714657393921 0 0.022880626066605816 0.00021747316792595673 0 0.024622918384052492 -0.00014619798050055351 0 0.023821374611940015 0.00010870857534486305 0 0.023516264139260536 5.7177748510275922e-05 0 0.024622918384052492 -0.00014619798050055351 0 0.023516264139260536 5.7177748510275922e-05 0 0.024046163455350388 1.8103602673572366e-08 0 0.023516264139260536 5.7177748510275922e-05 0 0.024046163455350388 1.8103602673572366e-08 0 0.022164833403417676 4.7676918216273821e-07 0 0.022559333349415688 0.00012830714657393921 0 0.023516264139260536 5.7177748510275922e-05 0 0.022164833403417676 4.7676918216273821e-07 0 0.022164833403417676 4.7676918216273821e-07 0 0.021230378095555263 -6.4681798372011879e-05 0 0.020284395522382804 -5.3975023462416651e-07 0 0.022559333349415688 0.00012830714657393921 0 0.022164833403417676 4.7676918216273821e-07 0 0.021230378095555263 -6.4681798372011879e-05 0 0.022559333349415688 0.00012830714657393921 0 0.021230378095555263 -6.4681798372011879e-05 0 0.022880626066605816 0.00021747316792595673 0 0.021230378095555263 -6.4681798372011879e-05 0 0.021796488798937138 -0.0011036450016583153 0 0.022609764416759319 -0.00041701405578285864 0 0.021230378095555263 -6.4681798372011879e-05 0 0.020284395522382804 -5.3975023462416651e-07 0 0.01975528634037144 -3.7627066610731495e-05 0 0.01975528634037144 -3.7627066610731495e-05 0 0.019258431093950104 4.5462095943380532e-05 0 0.018402732863207646 8.3139600999233882e-07 0 0.020284395522382804 -5.3975023462416651e-07 0 0.01975528634037144 -3.7627066610731495e-05 0 0.018402732863207646 8.3139600999233882e-07 0 0.02096182233753778 0.00010158328604947896 0 0.020821007586679277 -0.00069587728953605726 0 0.021230378095555263 -6.4681798372011879e-05 0 0.01975528634037144 -3.7627066610731495e-05 0 0.019258431093950104 4.5462095943380532e-05 0 0.018516187377165844 -0.00020999948391825092 0 0.020821007586679277 -0.00069587728953605726 0 0.018739485807168509 -0.00021651168072284922 0 0.019258431093950104 4.5462095943380532e-05 0 0.018703721184677023 -9.4524472648424852e-05 0 0.018155264647998527 -0.00020381124451591167 0 0.018703721184677023 -9.4524472648424852e-05 0 0.018402732863207646 8.3139600999233882e-07 0 0.019258431093950104 4.5462095943380532e-05 0 0.018703721184677023 -9.4524472648424852e-05 0 0.018402732863207646 8.3139600999233882e-07 0 0.02210349861557669 -0.0019472993313217322 0 0.023151467620375954 -0.0015885460772756513 0 0.022605611181215807 -0.0011439437064450651 0 0.02210349861557669 -0.0019472993313217322 0 0.021796488798937138 -0.0011036450016583153 0 0.022605611181215807 -0.0011439437064450651 0 0.021796488798937138 -0.0011036450016583153 0 0.022605611181215807 -0.0011439437064450651 0 0.022609764416759319 -0.00041701405578285864 0 0.023151467620375954 -0.0015885460772756513 0 0.022605611181215807 -0.0011439437064450651 0 0.023270959535025778 -0.00066573380369442184 0 0.022605611181215807 -0.0011439437064450651 0 0.023270959535025778 -0.00066573380369442184 0 0.022609764416759319 -0.00041701405578285864 0 0.021240336789309013 0.0021786507002391881 0 0.023144898953924027 0.00092362930794774535 0 0.023270959535025778 -0.00066573380369442184 0 0.022609764416759319 -0.00041701405578285864 0 0.023277588768909698 0.00017633840285172239 0 0.021230378095555263 -6.4681798372011879e-05 0 0.022609764416759319 -0.00041701405578285864 0 0.022880626066605816 0.00021747316792595673 0 0.023275798791424732 0.00028494014156555975 0 0.022880626066605816 0.00021747316792595673 0 0.023277588768909698 0.00017633840285172239 0 0.022609764416759319 -0.00041701405578285864 0 0.022880626066605816 0.00021747316792595673 0 0.023277588768909698 0.00017633840285172239 0 0.022608485518954186 0.0015467997255973699 0 0.021354265973646234 0.0024283615922903044 0 0.020993377269867514 0.0012861256610509296 0 0.022608485518954186 0.0015467997255973699 0 0.020993377269867514 0.0012861256610509296 0 0.02172805842941378 0.00055200408087066209 0 0.0226928153534088 0.0028172266656565337 0 0.022608485518954186 0.0015467997255973699 0 0.021354265973646234 0.0024283615922903044 0 0.023144898953924027 0.00092362930794774535 0 0.022916576570571525 0.00084547464542754716 0 0.0226928153534088 0.0028172266656565337 0 0.021354265973646234 0.0024283615922903044 0 0.021545524959155682 0.003841171083406886 0 0.021354265973646234 0.0024283615922903044 0 0.021545524959155682 0.003841171083406886 0 0.019893259310759949 0.0032844608577595477 0 0.021088955253244546 0.003843685916454695 0 0.019873328117026558 0.0032668573603945065 0 0.022869349691554443 0.0042212187662625566 0 0.0226928153534088 0.0028172266656565337 0 0.021545524959155682 0.003841171083406886 0 0.02038708052094481 0.0041283287858317188 0 0.020884842662888772 0.0036788382061804545 0 0.020271237368946753 0.0034670423868960625 0 0.021240336789309013 0.0021786507002391881 0 0.021088955253244546 0.003843685916454695 0 0.018506641376122138 0.0039302946832864361 0 0.018785249836923923 0.0034283482998882999 0 0.019471821066934382 0.0037259043155314143 0 0.018785249836923923 0.0034283482998882999 0 0.019471821066934382 0.0037259043155314143 0 0.019893259310759949 0.0032844608577595477 0 0.020271237368946753 0.0034670423868960625 0 0.019471821066934382 0.0037259043155314143 0 0.019893259310759949 0.0032844608577595477 0 0.021354265973646234 0.0024283615922903044 0 0.019893259310759949 0.0032844608577595477 0 0.020126695526281511 0.0021465828908018309 0 0.019893259310759949 0.0032844608577595477 0 0.019072318508415811 0.0027737042540587221 0 0.020126695526281511 0.0021465828908018309 0 0.018785249836923923 0.0034283482998882999 0 0.019893259310759949 0.0032844608577595477 0 0.019072318508415811 0.0027737042540587221 0 0.019072318508415811 0.0027737042540587221 0 0.019217864866482255 0.0019731711442899161 0 0.020126695526281511 0.0021465828908018309 0 0.021354265973646234 0.0024283615922903044 0 0.020126695526281511 0.0021465828908018309 0 0.020993377269867514 0.0012861256610509296 0 0.020126695526281511 0.0021465828908018309 0 0.020993377269867514 0.0012861256610509296 0 0.020012652967834017 0.0011500393989569259 0 0.019217864866482255 0.0019731711442899161 0 0.020012652967834017 0.0011500393989569259 0 0.01895632307518523 0.0011652094843897685 0 0.019217864866482255 0.0019731711442899161 0 0.020126695526281511 0.0021465828908018309 0 0.020012652967834017 0.0011500393989569259 0 0.020012652967834017 0.0011500393989569259 0 0.019867742716508725 0.00031084724806044816 0 0.020837298882743483 3.6843061601646872e-05 0 0.020012652967834017 0.0011500393989569259 0 0.019867742716508725 0.00031084724806044816 0 0.01895632307518523 0.0011652094843897685 0 0.019826666231395243 -0.00025969581430086301 0 0.020837298882743483 3.6843061601646872e-05 0 0.020395311209481633 -0.00069565626900311027 0 0.019867742716508725 0.00031084724806044816 0 0.019826666231395243 -0.00025969581430086301 0 0.020837298882743483 3.6843061601646872e-05 0 0.020993377269867514 0.0012861256610509296 0 0.020012652967834017 0.0011500393989569259 0 0.020837298882743483 3.6843061601646872e-05 0 0.020993377269867514 0.0012861256610509296 0 0.020837298882743483 3.6843061601646872e-05 0 0.02172805842941378 0.00055200408087066209 0 0.022608485518954186 0.0015467997255973699 0 0.02172805842941378 0.00055200408087066209 0 0.022809116658216548 0.00030701494440498091 0 0.02172805842941378 0.00055200408087066209 0 0.022809116658216548 0.00030701494440498091 0 0.022139981736257659 -0.00013377626727384786 0 0.022916576570571525 0.00084547464542754716 0 0.022820949469674202 0.0002844819138470866 0 0.022809116658216548 0.00030701494440498091 0 0.022139981736257659 -0.00013377626727384786 0 0.023084605911819659 -0.00055958235792313393 0 0.020837298882743483 3.6843061601646872e-05 0 0.02172805842941378 0.00055200408087066209 0 0.022139981736257659 -0.00013377626727384786 0 0.020837298882743483 3.6843061601646872e-05 0 0.022139981736257659 -0.00013377626727384786 0 0.021735826603656083 -0.00069329973433664084 0 0.021735826603656083 -0.00069329973433664084 0 0.021886208242662204 -0.0018662786450779384 0 0.021102003597378502 -0.00088799930265415076 0 0.021735826603656083 -0.00069329973433664084 0 0.023084605911819659 -0.00055958235792313393 0 0.021886208242662204 -0.0018662786450779384 0 0.022139981736257659 -0.00013377626727384786 0 0.021735826603656083 -0.00069329973433664084 0 0.023084605911819659 -0.00055958235792313393 0 0.023084605911819659 -0.00055958235792313393 0 0.021886208242662204 -0.0018662786450779384 0 0.023443576938110749 -0.00236214283861764 0 0.026791624717405076 -0.0037723503654396567 0 0.026509011839763497 -0.0034310218113283511 0 0.031494008946252101 -0.0053105298049893231 0 0.032605938584138426 -0.0050961540582674754 0 0.03189948644134067 -0.0041142480386419898 0 0.031494008946252101 -0.0053105298049893231 0 0.032605938584138426 -0.0050961540582674754 0 0.03325268657800632 -0.0058686255245180988 0 0.021886208242662204 -0.0018662786450779384 0 0.020519555734228107 -0.0014141626849871974 0 0.020636277008511134 -0.0013672234771561708 0 0.026791624717405076 -0.0037723503654396567 0 0.026738589692294767 -0.0021693541721996517 0 0.021886208242662204 -0.0018662786450779384 0 0.020636277008511134 -0.0013672234771561708 0 0.021102003597378502 -0.00088799930265415076 0 0.032605938584138426 -0.0050961540582674754 0 0.03325268657800632 -0.0058686255245180988 0 0.033140249899909921 -0.004241616600606588 0 0.026738589692294767 -0.0021693541721996517 0 0.033818553621429694 -0.0036882472747028993 0 0.026738589692294767 -0.0021693541721996517 0 0.025817246686776731 -0.002368350866056905 0 0.026738589692294767 -0.0021693541721996517 0 0.031167316207700056 -0.0012223855656439597 0 0.033472027265082235 -0.0026410623257077204 0 0.033753521858851061 -0.0022661121825851911 0 0.034086686040127219 -0.0024097432118335171 0 0.026599541519671536 -0.00054760203506659319 0 0.026880547362751868 -0.00065858782990639857 0 0.026893998880340803 -0.00042167120042755344 0 0.033472027265082235 -0.0026410623257077204 0 0.033753521858851061 -0.0022661121825851911 0 0.033464571582372461 -0.0020885120419311455 0 0.0204901664131211 -0.0012233556084311713 0 0.020395311209481633 -0.00069565626900311027 0 0.019497003789954868 -0.00066282050998030305 0 0.026738589692294767 -0.0021693541721996517 0 0.021829411899248072 -0.00032333016697615581 0 0.026738589692294767 -0.0021693541721996517 0 0.022435849436807501 -0.00035486806817425535 0 0.019826666231395243 -0.00025969581430086301 0 0.020395311209481633 -0.00069565626900311027 0 0.019497003789954868 -0.00066282050998030305 0 0.020837298882743483 3.6843061601646872e-05 0 0.020395311209481633 -0.00069565626900311027 0 0.021102003597378502 -0.00088799930265415076 0 0.020837298882743483 3.6843061601646872e-05 0 0.021735826603656083 -0.00069329973433664084 0 0.021102003597378502 -0.00088799930265415076 0 0.020636277008511134 -0.0013672234771561708 0 0.020395311209481633 -0.00069565626900311027 0 0.021102003597378502 -0.00088799930265415076 0 0.020522377740050935 -0.0014115520413485411 0 0.020636277008511134 -0.0013672234771561708 0 0.020395311209481633 -0.00069565626900311027 0 0.022435849436807501 -0.00035486806817425535 0 0.023654298592975742 -0.00073090081210145502 0 0.027133806035627948 -0.00056591287584418213 0 0.027264516193366645 -0.00066841029026970923 0 0.027178765789452365 -0.00077201930504896404 0 0.027133806035627948 -0.00056591287584418213 0 0.026880547362751868 -0.00065858782990639857 0 0.027178765789452365 -0.00077201930504896404 0 0.027133806035627948 -0.00056591287584418213 0 0.026880547362751868 -0.00065858782990639857 0 0.026893998880340803 -0.00042167120042755344 0 0.027133806035627948 -0.00056591287584418213 0 0.026893998880340803 -0.00042167120042755344 0 0.027197474018533153 -0.00029658539054981518 0 0.031167316207700056 -0.0012223855656439597 0 0.030763674065258238 -0.0012713374124896551 0 0.027352472360041305 -0.00054175114897321065 0 0.027486204318000678 -0.000374332911548276 0 0.027197474018533153 -0.00029658539054981518 0 0.027133806035627948 -0.00056591287584418213 0 0.027352472360041305 -0.00054175114897321065 0 0.027197474018533153 -0.00029658539054981518 0 0.027352472360041305 -0.00054175114897321065 0 0.027486204318000678 -0.000374332911548276 0 0.027660911846259493 -0.0004953638655533591 0 0.027486204318000678 -0.000374332911548276 0 0.027660911846259493 -0.0004953638655533591 0 0.027649986033492668 -0.00029172152137928463 0 0.027418747240650285 -0.00077267421068310236 0 0.027376422538726641 -0.00078070176933077516 0 0.027411745562436026 -0.00078661978580469487 0 0.027352472360041305 -0.00054175114897321065 0 0.027660911846259493 -0.0004953638655533591 0 0.027376422538726641 -0.00078070176933077516 0 0.027391256569760811 -0.00057307088947318831 0 0.02743132720082072 -0.00078342989990198679 0 0.027133806035627948 -0.00056591287584418213 0 0.027352472360041305 -0.00054175114897321065 0 0.027264516193366645 -0.00066841029026970923 0 0.027352472360041305 -0.00054175114897321065 0 0.027264516193366645 -0.00066841029026970923 0 0.027376422538726641 -0.00078070176933077516 0 0.027264516193366645 -0.00066841029026970923 0 0.027376422538726641 -0.00078070176933077516 0 0.027178765789452365 -0.00077201930504896404 0 0.017682743666740629 5.2038141813338727e-05 0 0.020962825742964264 -9.8917155898453613e-05 0 0.020962825742964264 -9.8917155898453613e-05 0 0.023654298592975742 -0.00073090081210145502 0 0.027376422538726641 -0.00078070176933077516 0 0.027384278163996214 -0.00082977695801784534 0 0.027178765789452365 -0.00077201930504896404 0 0.018941370735616123 -0.00010333110311170272 0 0.018702480506778578 -0.00012657179533998703 0 0.018978851330182667 -0.00031505756693098685 0 0.027398704512741675 -0.00079779312684928236 0 0.027384278163996214 -0.00082977695801784534 0 0.027421545535228537 -0.00080241335763327356 0 0.027398704512741675 -0.00079779312684928236 0 0.027376422538726641 -0.00078070176933077516 0 0.027411745562436026 -0.00078661978580469487 0 0.027398704512741675 -0.00079779312684928236 0 0.027376422538726641 -0.00078070176933077516 0 0.027384278163996214 -0.00082977695801784534 0 0.016805911046550506 0.00025991603668737597 0 0.016520188119145927 0.001012835941172126 0 0.017158588282096945 0.00075201334531130293 0 0.016805911046550506 0.00025991603668737597 0 0.016520188119145927 0.001012835941172126 0 0.015872812567711916 0.00066712089317918653 0 0.016520188119145927 0.001012835941172126 0 0.017158588282096945 0.00075201334531130293 0 0.017078787322216703 0.0013454098979202682 0 0.017632878922436625 0.00028306601526076108 0 0.016805911046550506 0.00025991603668737597 0 0.017158588282096945 0.00075201334531130293 0 0.017632878922436625 0.00028306601526076108 0 0.017158588282096945 0.00075201334531130293 0 0.017814930876890511 0.0012471797505622722 0 0.017632878922436625 0.00028306601526076108 0 0.01859091850267696 0.00027447941045601943 0 0.017814930876890511 0.0012471797505622722 0 0.019497003789954868 -0.00066282050998030305 0 0.018978851330182667 -0.00031505756693098685 0 0.019331696376675332 4.1722253210351034e-05 0 0.018941370735616123 -0.00010333110311170272 0 0.018978851330182667 -0.00031505756693098685 0 0.019331696376675332 4.1722253210351034e-05 0 0.017682743666740629 5.2038141813338727e-05 0 0.019126084921082722 0.00018347112318788171 0 0.019867742716508725 0.00031084724806044816 0 0.019826666231395243 -0.00025969581430086301 0 0.019331696376675332 4.1722253210351034e-05 0 0.019826666231395243 -0.00025969581430086301 0 0.019497003789954868 -0.00066282050998030305 0 0.019331696376675332 4.1722253210351034e-05 0 0.019756890862823874 0.0002835668264642413 0 0.019126084921082722 0.00018347112318788171 0 0.01859091850267696 0.00027447941045601943 0 0.01895632307518523 0.0011652094843897685 0 0.017814930876890511 0.0012471797505622722 0 0.019867742716508725 0.00031084724806044816 0 0.01859091850267696 0.00027447941045601943 0 0.01895632307518523 0.0011652094843897685 0 0.019217864866482255 0.0019731711442899161 0 0.01895632307518523 0.0011652094843897685 0 0.018437145636003172 0.0018242310666855917 0 0.017814930876890511 0.0012471797505622722 0 0.017809722505246938 0.0021959611889870042 0 0.018437145636003172 0.0018242310666855917 0 0.01895632307518523 0.0011652094843897685 0 0.017814930876890511 0.0012471797505622722 0 0.018437145636003172 0.0018242310666855917 0 0.017809722505246938 0.0021959611889870042 0 0.018437145636003172 0.0018242310666855917 0 0.018423770836356341 0.002495830470631435 0 0.017809722505246938 0.0021959611889870042 0 0.018423770836356341 0.002495830470631435 0 0.017945719391260242 0.0027471143328639479 0 0.019072318508415811 0.0027737042540587221 0 0.019217864866482255 0.0019731711442899161 0 0.018423770836356341 0.002495830470631435 0 0.019217864866482255 0.0019731711442899161 0 0.018437145636003172 0.0018242310666855917 0 0.018423770836356341 0.002495830470631435 0 0.018785249836923923 0.0034283482998882999 0 0.019072318508415811 0.0027737042540587221 0 0.018151729336745834 0.003150738746923858 0 0.019072318508415811 0.0027737042540587221 0 0.018423770836356341 0.002495830470631435 0 0.018151729336745834 0.003150738746923858 0 0.018151729336745834 0.003150738746923858 0 0.017945719391260242 0.0027471143328639479 0 0.017408518036671435 0.0031129288806659391 0 0.018423770836356341 0.002495830470631435 0 0.018151729336745834 0.003150738746923858 0 0.017945719391260242 0.0027471143328639479 0 0.017809722505246938 0.0021959611889870042 0 0.017945719391260242 0.0027471143328639479 0 0.017408518036671435 0.0031129288806659391 0 0.018151729336745834 0.003150738746923858 0 0.01793863621305818 0.0037188365819821917 0 0.017408518036671435 0.0031129288806659391 0 0.017426603518716909 0.0040128849353951515 0 0.01793863621305818 0.0037188365819821917 0 0.017408518036671435 0.0031129288806659391 0 0.018506641376122138 0.0039302946832864361 0 0.018785249836923923 0.0034283482998882999 0 0.01793863621305818 0.0037188365819821917 0 0.018785249836923923 0.0034283482998882999 0 0.018151729336745834 0.003150738746923858 0 0.01793863621305818 0.0037188365819821917 0 0.016771042881096071 0.0032085696573464807 0 0.016351614044233635 0.0035962180055401486 0 0.016295579861850051 0.0029599482451792159 0 0.016101685021844989 0.0035432251760834704 0 0.017039156408107256 0.0037116606706986423 0 0.016771042881096071 0.0032085696573464807 0 0.016351614044233635 0.0035962180055401486 0 0.016963592840302855 0.0037028997747894188 0 0.017426603518716909 0.0040128849353951515 0 0.016963592840302855 0.0037028997747894188 0 0.017408518036671435 0.0031129288806659391 0 0.016771042881096071 0.0032085696573464807 0 0.016963592840302855 0.0037028997747894188 0 0.017408518036671435 0.0031129288806659391 0 0.017408518036671435 0.0031129288806659391 0 0.01681055054715597 0.0026689820012647343 0 0.017150181854563521 0.0020732353417945268 0 0.016771042881096071 0.0032085696573464807 0 0.017408518036671435 0.0031129288806659391 0 0.01681055054715597 0.0026689820012647343 0 0.01681055054715597 0.0026689820012647343 0 0.016480292368697986 0.0020537305402034954 0 0.016295579861850051 0.0029599482451792159 0 0.016771042881096071 0.0032085696573464807 0 0.01681055054715597 0.0026689820012647343 0 0.016295579861850051 0.0029599482451792159 0 0.01681055054715597 0.0026689820012647343 0 0.016480292368697986 0.0020537305402034954 0 0.017150181854563521 0.0020732353417945268 0 0.016480292368697986 0.0020537305402034954 0 0.017150181854563521 0.0020732353417945268 0 0.017078787322216703 0.0013454098979202682 0 0.017809722505246938 0.0021959611889870042 0 0.017408518036671435 0.0031129288806659391 0 0.017150181854563521 0.0020732353417945268 0 0.017814930876890511 0.0012471797505622722 0 0.017809722505246938 0.0021959611889870042 0 0.017150181854563521 0.0020732353417945268 0 0.017814930876890511 0.0012471797505622722 0 0.017150181854563521 0.0020732353417945268 0 0.017078787322216703 0.0013454098979202682 0 0.017158588282096945 0.00075201334531130293 0 0.017814930876890511 0.0012471797505622722 0 0.017078787322216703 0.0013454098979202682 0 0.016520188119145927 0.001012835941172126 0 0.016480292368697986 0.0020537305402034954 0 0.017078787322216703 0.0013454098979202682 0 0.019629980014179288 0.0018448492487449022 0 0.023072112338433252 0.0002768660822412717 0 0.016520188119145927 0.001012835941172126 0 0.016480292368697986 0.0020537305402034954 0 0.015799354362404334 0.0016335496693670563 0 0.023944748217425565 0.0016475243919063392 0 0.023978904006846161 0.0016478179131709024 0 0.023983858535923778 0.001650827220733119 0 0.023944748217425565 0.0016475243919063392 0 0.023958115311494121 0.0016490792719429984 0 0.023978904006846161 0.0016478179131709024 0 0.023944748217425565 0.0016475243919063392 0 0.023958115311494121 0.0016490792719429984 0 0.023932944421147326 0.0016533347039116072 0 0.016480292368697986 0.0020537305402034954 0 0.015799354362404334 0.0016335496693670563 0 0.015764778688689519 0.0025943999698388328 0 0.019629980014179288 0.0018448492487449022 0 0.019919988727602991 0.0020454633714201845 0 0.016480292368697986 0.0020537305402034954 0 0.016295579861850051 0.0029599482451792159 0 0.015764778688689519 0.0025943999698388328 0 0.016295579861850051 0.0029599482451792159 0 0.015764778688689519 0.0025943999698388328 0 0.015749669656982844 0.0035049218490681936 0 0.019919988727602991 0.0020454633714201845 0 0.019141877253005691 0.002740913382437136 0 0.023932944421147326 0.0016533347039116072 0 0.023924906233282535 0.0016574199135275061 0 0.023909659507191098 0.0016630969613269104 0 0.023954631548363348 0.0016518918674122236 0 0.023945910404082227 0.0016533591871634825 0 0.023956924273506309 0.0016516144943869255 0 0.023958115311494121 0.0016490792719429984 0 0.023932944421147326 0.0016533347039116072 0 0.023954631548363348 0.0016518918674122236 0 0.023954631548363348 0.0016518918674122236 0 0.023924906233282535 0.0016574199135275061 0 0.023945910404082227 0.0016533591871634825 0 0.023932944421147326 0.0016533347039116072 0 0.023954631548363348 0.0016518918674122236 0 0.023924906233282535 0.0016574199135275061 0 0.023924906233282535 0.0016574199135275061 0 0.023945910404082227 0.0016533591871634825 0 0.023928422810571413 0.0016485943733900591 0 0.022946212361042887 0.0018450341952307484 0 0.022435788280384554 0.0026914916864073332 0 0.023924906233282535 0.0016574199135275061 0 0.02391049100980296 0.0016650892056806212 0 0.023909659507191098 0.0016630969613269104 0 0.022435788280384554 0.0026914916864073332 0 0.026143871821860318 0.0026037931735913207 0 0.023945910404082227 0.0016533591871634825 0 0.023928422810571413 0.0016485943733900591 0 0.023956924273506309 0.0016516144943869255 0 0.022435788280384554 0.0026914916864073332 0 0.019141877253005691 0.002740913382437136 0 0.016611660841759825 0.0038838046104633511 0 0.016700071894709522 0.0037032715595034416 0 0.0164801606064768 0.0036857694273829092 0 0.016101685021844989 0.0035432251760834704 0 0.019141877253005691 0.002740913382437136 0 0.016351614044233635 0.0035962180055401486 0 0.016295579861850051 0.0029599482451792159 0 0.015749669656982844 0.0035049218490681936 0 0.025558605270247364 0.0034899369630455681 0 0.025339828284528701 0.0027643046809782954 0 0.026116758249967315 0.0028907654694055995 0 0.026743843235634161 0.0028714613931722379 0 0.026143871821860318 0.0026037931735913207 0 0.023954631548363348 0.0016518918674122236 0 0.023956924273506309 0.0016516144943869255 0 0.023978855010125626 0.0016462487342565404 0 0.027430138888388387 0.0028910379022639974 0 0.029603909071617356 0.003175749573942158 0 0.028876274695677901 0.00092651354858967999 0 0.026143871821860318 0.0026037931735913207 0 0.026499414283742768 0.0011370023582690431 0 0.027430138888388387 0.0028910379022639974 0 0.027254558161480313 0.00047706994008065595 0 0.028876274695677901 0.00092651354858967999 0 0.027254558161480313 0.00047706994008065595 0 0.028876274695677901 0.00092651354858967999 0 0.028433020592163835 -0.0013397601432423123 0 0.023958115311494121 0.0016490792719429984 0 0.023978855010125626 0.0016462487342565404 0 0.023978904006846161 0.0016478179131709024 0 0.026499414283742768 0.0011370023582690431 0 0.026155757289380192 0.00074618364861009443 0 0.023958115311494121 0.0016490792719429984 0 0.023954631548363348 0.0016518918674122236 0 0.023978855010125626 0.0016462487342565404 0 0.026155757289380192 0.00074618364861009443 0 0.027204710875249824 -0.00020678613825552775 0 0.023978855010125626 0.0016462487342565404 0 0.023978904006846161 0.0016478179131709024 0 0.024011844225031425 0.0016469396746724488 0 0.023978904006846161 0.0016478179131709024 0 0.024011844225031425 0.0016469396746724488 0 0.023983858535923778 0.001650827220733119 0 0.027254558161480313 0.00047706994008065595 0 0.027311133985386704 -0.00061001522961002619 0 0.028433020592163835 -0.0013397601432423123 0 0.027311133985386704 -0.00061001522961002619 0 0.0282167403502608 -0.0013211285219277571 0 0.026450141984305165 -0.0012000475500494004 0 0.027311133985386704 -0.00061001522961002619 0 0.0282167403502608 -0.0013211285219277571 0 0.028433020592163835 -0.0013397601432423123 0 0.0282167403502608 -0.0013211285219277571 0 0.028356830461722753 -0.0014539099714100528 0 0.028421838099256625 -0.001587772532285734 0 0.0282167403502608 -0.0013211285219277571 0 0.028433020592163835 -0.0013397601432423123 0 0.028356830461722753 -0.0014539099714100528 0 0.028433020592163835 -0.0013397601432423123 0 0.028356830461722753 -0.0014539099714100528 0 0.028444433969257912 -0.0015219511842756524 0 0.028249589685916929 -0.0013103254558034674 0 0.027137959814929974 -0.0021218589965302584 0 0.0282167403502608 -0.0013211285219277571 0 0.028421838099256625 -0.001587772532285734 0 0.028416357163534234 -0.0017079583219593536 0 0.028433020592163835 -0.0013397601432423123 0 0.028632633226250211 -0.001591489224560194 0 0.028444433969257912 -0.0015219511842756524 0 0.028421838099256625 -0.001587772532285734 0 0.028632633226250211 -0.001591489224560194 0 0.028444433969257912 -0.0015219511842756524 0 0.028421838099256625 -0.001587772532285734 0 0.028632633226250211 -0.001591489224560194 0 0.028736819748922594 -0.001808289558387787 0 0.028356830461722753 -0.0014539099714100528 0 0.028421838099256625 -0.001587772532285734 0 0.028444433969257912 -0.0015219511842756524 0 0.028421838099256625 -0.001587772532285734 0 0.028736819748922594 -0.001808289558387787 0 0.028563432210508766 -0.0017738247192564116 0 0.028736819748922594 -0.001808289558387787 0 0.028563432210508766 -0.0017738247192564116 0 0.028813766962931163 -0.0019465585564173229 0 0.028563432210508766 -0.0017738247192564116 0 0.028813766962931163 -0.0019465585564173229 0 0.028605552346584625 -0.0019508003870581576 0 0.028736819748922594 -0.001808289558387787 0 0.028813766962931163 -0.0019465585564173229 0 0.028992863615748373 -0.0020171115128846812 0 0.028992863615748373 -0.0020171115128846812 0 0.029049090060394668 -0.0021903777749643408 0 0.02916023956710917 -0.0021346191663320102 0 0.028813766962931163 -0.0019465585564173229 0 0.028992863615748373 -0.0020171115128846812 0 0.029049090060394668 -0.0021903777749643408 0 0.028813766962931163 -0.0019465585564173229 0 0.029049090060394668 -0.0021903777749643408 0 0.028605552346584625 -0.0019508003870581576 0 0.029109343041163412 -0.001986543155644289 0 0.029219805476507151 -0.0019653577139167322 0 0.029210497514949932 -0.0020707658218851715 0 0.028992863615748373 -0.0020171115128846812 0 0.029109343041163412 -0.001986543155644289 0 0.02916023956710917 -0.0021346191663320102 0 0.028736819748922594 -0.001808289558387787 0 0.028992863615748373 -0.0020171115128846812 0 0.028951356574868997 -0.0018161058836662907 0 0.028992863615748373 -0.0020171115128846812 0 0.029109343041163412 -0.001986543155644289 0 0.028951356574868997 -0.0018161058836662907 0 0.029109343041163412 -0.001986543155644289 0 0.02913748834215291 -0.0018506230543952613 0 0.028951356574868997 -0.0018161058836662907 0 0.029109343041163412 -0.001986543155644289 0 0.02913748834215291 -0.0018506230543952613 0 0.029219805476507151 -0.0019653577139167322 0 0.028433020592163835 -0.0013397601432423123 0 0.028632633226250211 -0.001591489224560194 0 0.029137542812720428 -0.0015812939955942747 0 0.028632633226250211 -0.001591489224560194 0 0.028951356574868997 -0.0018161058836662907 0 0.029137542812720428 -0.0015812939955942747 0 0.02913748834215291 -0.0018506230543952613 0 0.028951356574868997 -0.0018161058836662907 0 0.029137542812720428 -0.0015812939955942747 0 0.028632633226250211 -0.001591489224560194 0 0.028736819748922594 -0.001808289558387787 0 0.028951356574868997 -0.0018161058836662907 0 0.029137542812720428 -0.0015812939955942747 0 0.029250503022630513 -0.0018309708132035749 0 0.029374158123676594 -0.0017623992655093016 0 0.027204710875249824 -0.00020678613825552775 0 0.023072112338433252 0.0002768660822412717 0 0.023944748217425565 0.0016475243919063392 0 0.023983858535923778 0.001650827220733119 0 0.023951978681760498 0.0016481023281283646 0 0.02913748834215291 -0.0018506230543952613 0 0.029137542812720428 -0.0015812939955942747 0 0.029250503022630513 -0.0018309708132035749 0 0.020962825742964264 -9.8917155898453613e-05 0 0.023072112338433252 0.0002768660822412717 0 0.016520188119145927 0.001012835941172126 0 0.015799354362404334 0.0016335496693670563 0 0.015872812567711916 0.00066712089317918653 0 0.021815434816806731 -7.1851334691693292e-05 0 0.024712795742871194 -0.0012226711223457321 0 0.024662982876216794 0.00024077997635103856 0 0.027398704512741675 -0.00079779312684928236 0 0.027421545535228537 -0.00080241335763327356 0 0.027411745562436026 -0.00078661978580469487 0 0.020962825742964264 -9.8917155898453613e-05 0 0.027487638879222242 -0.00094645821991039541 0 0.029374158123676594 -0.0017623992655093016 0 0.029368278750578885 -0.0019411705289232419 0 0.029329366691644723 -0.001947723428577904 0 0.023072112338433252 0.0002768660822412717 0 0.027487638879222242 -0.00094645821991039541 0 0.027487638879222242 -0.00094645821991039541 0 0.027934727752128425 -0.00098538906392357404 0 0.02913748834215291 -0.0018506230543952613 0 0.029250503022630513 -0.0018309708132035749 0 0.029219805476507151 -0.0019653577139167322 0 0.029250503022630513 -0.0018309708132035749 0 0.029329366691644723 -0.001947723428577904 0 0.029219805476507151 -0.0019653577139167322 0 0.029250503022630513 -0.0018309708132035749 0 0.029374158123676594 -0.0017623992655093016 0 0.029329366691644723 -0.001947723428577904 0 0.02934651417644844 -0.0019515602935080852 0 0.029329366691644723 -0.001947723428577904 0 0.02927491245652588 -0.0020355011499134084 0 0.029329366691644723 -0.001947723428577904 0 0.029219805476507151 -0.0019653577139167322 0 0.02927491245652588 -0.0020355011499134084 0 0.029219805476507151 -0.0019653577139167322 0 0.02927491245652588 -0.0020355011499134084 0 0.029210497514949932 -0.0020707658218851715 0 0.02927491245652588 -0.0020355011499134084 0 0.029269360400395471 -0.0020895905674151549 0 0.029210497514949932 -0.0020707658218851715 0 0.02927491245652588 -0.0020355011499134084 0 0.029269360400395471 -0.0020895905674151549 0 0.029269559231353905 -0.0020968517428694685 0 0.027418747240650285 -0.00077267421068310236 0 0.027411745562436026 -0.00078661978580469487 0 0.027433942063991797 -0.00077820196460874939 0 0.027421545535228537 -0.00080241335763327356 0 0.027411745562436026 -0.00078661978580469487 0 0.027433942063991797 -0.00077820196460874939 0 0.027487638879222242 -0.00094645821991039541 0 0.028393923388062178 -0.0015893391603275906 0 0.02934651417644844 -0.0019515602935080852 0 0.02927491245652588 -0.0020355011499134084 0 0.029269559231353905 -0.0020968517428694685 0 0.027391256569760811 -0.00057307088947318831 0 0.028908993900427817 -0.0010124790745506538 0 0.027418747240650285 -0.00077267421068310236 0 0.027433942063991797 -0.00077820196460874939 0 0.02745529747621224 -0.00075562432690683145 0 0.028393923388062178 -0.0015893391603275906 0 0.028908993900427817 -0.0010124790745506538 0 0.029269559231353905 -0.0020968517428694685 0 0.029325291675873066 -0.0020657350639273187 0 0.02933335293848505 -0.0019899283332963191 0 0.029269360400395471 -0.0020895905674151549 0 0.029269559231353905 -0.0020968517428694685 0 0.029325291675873066 -0.0020657350639273187 0 0.029325291675873066 -0.0020657350639273187 0 0.029471191737964975 -0.0020228278346068498 0 0.02933335293848505 -0.0019899283332963191 0 0.029325291675873066 -0.0020657350639273187 0 0.02934184216237138 -0.002081865003027449 0 0.029253552256184288 -0.0021076527620763046 0 0.029269360400395471 -0.0020895905674151549 0 0.029325291675873066 -0.0020657350639273187 0 0.029253552256184288 -0.0021076527620763046 0 0.029325291675873066 -0.0020657350639273187 0 0.02934184216237138 -0.002081865003027449 0 0.029471191737964975 -0.0020228278346068498 0 0.029394746521257068 -0.0020822020774755559 0 0.029721053189930163 -0.0019443489299150285 0 0.029626976837451611 -0.0020522499215542161 0 0.029471191737964975 -0.0020228278346068498 0 0.029394746521257068 -0.0020822020774755559 0 0.029721053189930163 -0.0019443489299150285 0 0.02934184216237138 -0.002081865003027449 0 0.029471191737964975 -0.0020228278346068498 0 0.029394746521257068 -0.0020822020774755559 0 0.029394746521257068 -0.0020822020774755559 0 0.029049090060394668 -0.0021903777749643408 0 0.029536433601499854 -0.0021965412782476274 0 0.02934184216237138 -0.002081865003027449 0 0.029394746521257068 -0.0020822020774755559 0 0.02916023956710917 -0.0021346191663320102 0 0.029394746521257068 -0.0020822020774755559 0 0.029049090060394668 -0.0021903777749643408 0 0.02916023956710917 -0.0021346191663320102 0 0.029103138725881366 -0.002204196976139355 0 0.028938046648906989 -0.0023586379032858114 0 0.029109343041163412 -0.001986543155644289 0 0.02916023956710917 -0.0021346191663320102 0 0.029210497514949932 -0.0020707658218851715 0 0.02916023956710917 -0.0021346191663320102 0 0.029210497514949932 -0.0020707658218851715 0 0.029253552256184288 -0.0021076527620763046 0 0.029269360400395471 -0.0020895905674151549 0 0.029210497514949932 -0.0020707658218851715 0 0.029253552256184288 -0.0021076527620763046 0 0.02934184216237138 -0.002081865003027449 0 0.02916023956710917 -0.0021346191663320102 0 0.029253552256184288 -0.0021076527620763046 0 0.029691528487604275 -0.0018796753839914265 0 0.02968313639980881 -0.0016544365886205145 0 0.029487740904132465 -0.0018985433675307469 0 0.02968313639980881 -0.0016544365886205145 0 0.029487740904132465 -0.0018985433675307469 0 0.029434284476491671 -0.001742551760100873 0 0.029901285637760896 -0.0018313833171942412 0 0.029721053189930163 -0.0019443489299150285 0 0.030016975980416857 -0.0018238324682302168 0 0.029691528487604275 -0.0018796753839914265 0 0.02968313639980881 -0.0016544365886205145 0 0.030118774571935014 -0.0016746768801641952 0 0.029901285637760896 -0.0018313833171942412 0 0.030118774571935014 -0.0016746768801641952 0 0.030016975980416857 -0.0018238324682302168 0 0.029691528487604275 -0.0018796753839914265 0 0.029901285637760896 -0.0018313833171942412 0 0.030118774571935014 -0.0016746768801641952 0 0.029471191737964975 -0.0020228278346068498 0 0.029691528487604275 -0.0018796753839914265 0 0.029721053189930163 -0.0019443489299150285 0 0.029691528487604275 -0.0018796753839914265 0 0.029901285637760896 -0.0018313833171942412 0 0.029721053189930163 -0.0019443489299150285 0 0.029471191737964975 -0.0020228278346068498 0 0.029487740904132465 -0.0018985433675307469 0 0.02933335293848505 -0.0019899283332963191 0 0.029471191737964975 -0.0020228278346068498 0 0.029691528487604275 -0.0018796753839914265 0 0.029487740904132465 -0.0018985433675307469 0 0.02933335293848505 -0.0019899283332963191 0 0.029292161513400927 -0.0019110059386505079 0 0.02935809695753239 -0.0018738885850903626 0 0.02933335293848505 -0.0019899283332963191 0 0.029292161513400927 -0.0019110059386505079 0 0.029226997648212832 -0.0019312507488242754 0 0.029487740904132465 -0.0018985433675307469 0 0.02933335293848505 -0.0019899283332963191 0 0.02935809695753239 -0.0018738885850903626 0 0.029269559231353905 -0.0020968517428694685 0 0.02933335293848505 -0.0019899283332963191 0 0.029226997648212832 -0.0019312507488242754 0 0.027923201910148136 -0.00013853244534979737 0 0.027929029134395742 -1.5990885023857376e-05 0 0.027534857931740066 -0.00015392413767226183 0 0.027660911846259493 -0.0004953638655533591 0 0.027923201910148136 -0.00013853244534979737 0 0.027649986033492668 -0.00029172152137928463 0 0.029292161513400927 -0.0019110059386505079 0 0.029226997648212832 -0.0019312507488242754 0 0.029250789615532957 -0.0018343655651604552 0 0.028908993900427817 -0.0010124790745506538 0 0.031183283392652594 -0.00078151856960383245 0 0.035603069839273339 -0.0016590419422702338 0 0.035466206056846028 -0.0014168900967646602 0 0.035596143007914562 -0.0012384661213208123 0 0.031183283392652594 -0.00078151856960383245 0 0.034137547945686728 -0.0014256703626836617 0 0.032242794686342606 -0.0014261480425624069 0 0.032289736910399894 -0.0014096957890905124 0 0.032252406083207799 -0.0012536935799164549 0 0.035603069839273339 -0.0016590419422702338 0 0.035466206056846028 -0.0014168900967646602 0 0.035295202139901616 -0.0015113796398047987 0 0.029776444190425168 -0.0010796798597604914 0 0.029766826958903907 -0.00077139650969338357 0 0.029987505460361059 -0.00068981829189853272 0 0.028908993900427817 -0.0010124790745506538 0 0.030042590931252985 -0.0012684395573173545 0 0.031183283392652594 -0.00078151856960383245 0 0.030042590931252985 -0.0012684395573173545 0 0.030042590931252985 -0.0012684395573173545 0 0.030731113736736614 -0.0014919156224967875 0 0.029128878061648857 -0.0018540002798199348 0 0.029434284476491671 -0.001742551760100873 0 0.029335618508441821 -0.0014440039721009706 0 0.029487740904132465 -0.0018985433675307469 0 0.02935809695753239 -0.0018738885850903626 0 0.029434284476491671 -0.001742551760100873 0 0.029292161513400927 -0.0019110059386505079 0 0.029250789615532957 -0.0018343655651604552 0 0.02935809695753239 -0.0018738885850903626 0 0.029250789615532957 -0.0018343655651604552 0 0.02935809695753239 -0.0018738885850903626 0 0.029434284476491671 -0.001742551760100873 0 0.030042590931252985 -0.0012684395573173545 0 0.029113958586481928 -0.0018500523264484798 0 0.032289736910399894 -0.0014096957890905124 0 0.032393733763337332 -0.0012384334016266993 0 0.032252406083207799 -0.0012536935799164549 0 0.029434284476491671 -0.001742551760100873 0 0.029335618508441821 -0.0014440039721009706 0 0.029568746027177628 -0.0013998461928153932 0 0.032393733763337332 -0.0012384334016266993 0 0.032252406083207799 -0.0012536935799164549 0 0.032255192054757 -0.0011650368015750875 0 0.035466206056846028 -0.0014168900967646602 0 0.035596143007914562 -0.0012384661213208123 0 0.035366922128518052 -0.0012558062943881611 0 0.034137547945686728 -0.0014256703626836617 0 0.034510371547722934 -0.0012330068368173427 0 0.035596143007914562 -0.0012384661213208123 0 0.035471961458144491 -0.0010423632139061319 0 0.035366922128518052 -0.0012558062943881611 0 0.035596143007914562 -0.0012384661213208123 0 0.035471961458144491 -0.0010423632139061319 0 0.035557933897181412 -0.0010255007371308652 0 0.035471961458144491 -0.0010423632139061319 0 0.035557933897181412 -0.0010255007371308652 0 0.035475727955881727 -0.000858170609978393 0 0.035471961458144491 -0.0010423632139061319 0 0.035452160599925439 -0.00092299422481585626 0 0.035475727955881727 -0.000858170609978393 0 0.035452160599925439 -0.00092299422481585626 0 0.035406972180031963 -0.00080985737767121731 0 0.035358006712078213 -0.00091874020908677429 0 0.035471961458144491 -0.0010423632139061319 0 0.035452160599925439 -0.00092299422481585626 0 0.035358006712078213 -0.00091874020908677429 0 0.034510371547722934 -0.0012330068368173427 0 0.035047209989095898 -0.00086592670640108231 0 0.035461813929932431 -0.0006739070122565048 0 0.035475727955881727 -0.000858170609978393 0 0.035235741574989703 -0.0009486195570926224 0 0.035496016708564906 -0.00085384610580363366 0 0.035406972180031963 -0.00080985737767121731 0 0.035478967078845548 -0.00066923577442125988 0 0.035452160599925439 -0.00092299422481585626 0 0.035475727955881727 -0.000858170609978393 0 0.035496016708564906 -0.00085384610580363366 0 0.035452160599925439 -0.00092299422481585626 0 0.035496016708564906 -0.00085384610580363366 0 0.035406972180031963 -0.00080985737767121731 0 0.032393733763337332 -0.0012384334016266993 0 0.032255192054757 -0.0011650368015750875 0 0.032492798016453502 -0.0010618768325755695 0 0.035461813929932431 -0.0006739070122565048 0 0.035235741574989703 -0.0009486195570926224 0 0.034934483711424866 -0.00087782176636619564 0 0.030731113736736614 -0.0014919156224967875 0 0.032793748600481294 -0.00080875831638388765 0 0.034510371547722934 -0.0012330068368173427 0 0.032793748600481294 -0.00080875831638388765 0 0.029588289228520168 -0.00098045818458027535 0 0.029568746027177628 -0.0013998461928153932 0 0.029806903298203225 -0.00128590817028164 0 0.032793748600481294 -0.00080875831638388765 0 0.032646500626906896 -0.00029716714622930436 0 0.032793748600481294 -0.00080875831638388765 0 0.029804528139374526 -0.0010463640672500848 0 0.029634250945928441 -0.00076376873012604443 0 0.03008205944304149 -0.0013405356374336548 0 0.030287594267568437 -0.0010710411723296098 0 0.029335618508441821 -0.0014440039721009706 0 0.029588289228520168 -0.00098045818458027535 0 0.029568746027177628 -0.0013998461928153932 0 0.02968313639980881 -0.0016544365886205145 0 0.029568746027177628 -0.0013998461928153932 0 0.029806903298203225 -0.00128590817028164 0 0.02968313639980881 -0.0016544365886205145 0 0.029434284476491671 -0.001742551760100873 0 0.029568746027177628 -0.0013998461928153932 0 0.030118774571935014 -0.0016746768801641952 0 0.03070280100049869 -0.0014393623983962292 0 0.030016975980416857 -0.0018238324682302168 0 0.029804528139374526 -0.0010463640672500848 0 0.030179865688261934 -0.0017074705994669821 0 0.02968313639980881 -0.0016544365886205145 0 0.029806903298203225 -0.00128590817028164 0 0.030118774571935014 -0.0016746768801641952 0 0.03008205944304149 -0.0013405356374336548 0 0.030118774571935014 -0.0016746768801641952 0 0.030350247595064887 -0.0013714919969280265 0 0.030350247595064887 -0.0013714919969280265 0 0.03070280100049869 -0.0014393623983962292 0 0.030864144274884462 -0.0010518123354295553 0 0.030118774571935014 -0.0016746768801641952 0 0.030350247595064887 -0.0013714919969280265 0 0.03070280100049869 -0.0014393623983962292 0 0.030350247595064887 -0.0013714919969280265 0 0.030864144274884462 -0.0010518123354295553 0 0.030287594267568437 -0.0010710411723296098 0 0.029634250945928441 -0.00076376873012604443 0 0.030287594267568437 -0.0010710411723296098 0 0.030585529483561295 -0.00032606853908532813 0 0.03008205944304149 -0.0013405356374336548 0 0.030350247595064887 -0.0013714919969280265 0 0.030287594267568437 -0.0010710411723296098 0 0.030864144274884462 -0.0010518123354295553 0 0.030287594267568437 -0.0010710411723296098 0 0.031094306722530208 -0.00051768687288540366 0 0.030417657733281492 -0.00099501351705522057 0 0.030934623798528519 -0.00062533259476743543 0 0.030287594267568437 -0.0010710411723296098 0 0.030585529483561295 -0.00032606853908532813 0 0.03099058678566936 -0.0005039542035067422 0 0.034489020318752305 -0.00041565198872747192 0 0.034763823607666798 -0.00029669761984178842 0 0.034738485208410205 -0.00020672633039493473 0 0.034738485208410205 -0.00020672633039493473 0 0.034818332722187574 -0.00015595953931752684 0 0.034674547360230207 -0.0001477689214845247 0 0.034763823607666798 -0.00029669761984178842 0 0.034738485208410205 -0.00020672633039493473 0 0.034829180301722468 -0.0002002417560336458 0 0.034738485208410205 -0.00020672633039493473 0 0.034818332722187574 -0.00015595953931752684 0 0.034829180301722468 -0.0002002417560336458 0 0.034836406663912217 -0.00038659216935012561 0 0.034848805451901693 -0.00022891903930885273 0 0.034931809091354182 -0.00022268686932665893 0 0.034489020318752305 -0.00041565198872747192 0 0.034738485208410205 -0.00020672633039493473 0 0.034674547360230207 -0.0001477689214845247 0 0.032793748600481294 -0.00080875831638388765 0 0.035053759669395869 -2.216958958624257e-05 0 0.034848805451901693 -0.00022891903930885273 0 0.034882592336750305 -7.8468073361593013e-05 0 0.034745472808807909 -0.00024139006092948177 0 0.034848805451901693 -0.00022891903930885273 0 0.034931809091354182 -0.00022268686932665893 0 0.034882592336750305 -7.8468073361593013e-05 0 0.034674547360230207 -0.0001477689214845247 0 0.034850743357094406 -1.9259859853549934e-06 0 0.03487308102601052 -6.5011498699067967e-05 0 0.035053759669395869 -2.216958958624257e-05 0 0.034879963560123892 -9.4955956604558304e-05 0 0.034818332722187574 -0.00015595953931752684 0 0.034674547360230207 -0.0001477689214845247 0 0.03487308102601052 -6.5011498699067967e-05 0 0.034996363521219223 -7.8206767316756266e-05 0 0.034882592336750305 -7.8468073361593013e-05 0 0.034999856996957034 3.0989071893791634e-08 0 0.034931809091354182 -0.00022268686932665893 0 0.034996363521219223 -7.8206767316756266e-05 0 0.034882592336750305 -7.8468073361593013e-05 0 0.034886661996370451 1.7046714250897023e-05 0 0.035000002845944386 -6.8278357693217782e-08 0 0.035003748309186761 -5.4027238724921102e-06 0 0.035000003585766624 -1.9081197104751577e-09 0 0.035000003256640204 -1.2220753878706602e-10 0 0.034996363521219223 -7.8206767316756266e-05 0 0.034999856996957034 3.0989071893791634e-08 0 0.034997324440040653 3.6449878830117662e-06 0 0.034999998782223464 -2.2058826087778395e-09 0 0.035000105278903161 -2.7990299865629008e-06 0 0.03499819961255142 -3.0652080276465842e-06 0 0.035000003585766624 -1.9081197104751577e-09 0 0.035000105278903161 -2.7990299865629008e-06 0 0.035001911949146779 -6.8709910020319858e-06 0 0.035000003585766624 -1.9081197104751577e-09 0 0.034999998782223464 -2.2058826087778395e-09 0 0.035000105278903161 -2.7990299865629008e-06 0 0.035003748309186761 -5.4027238724921102e-06 0 0.035000003585766624 -1.9081197104751577e-09 0 0.035001911949146779 -6.8709910020319858e-06 0 0.035165088518508469 -8.8262536007902847e-05 0 0.035121672337865277 -5.4987999043188164e-05 0 0.035000105278903161 -2.7990299865629008e-06 0 0.035001911949146779 -6.8709910020319858e-06 0 0.03499989526454541 -1.0433435029629209e-05 0 0.035000105278903161 -2.7990299865629008e-06 0 0.03499989526454541 -1.0433435029629209e-05 0 0.03499819961255142 -3.0652080276465842e-06 0 0.035165088518508469 -8.8262536007902847e-05 0 0.034986745787256225 1.118082562527605e-05 0 0.035544027864394638 -0.00025852724692263277 0 0.035722941250054215 -0.00047100363391106725 0 0.035426954186806026 -0.00052458004608580279 0 0.035544027864394638 -0.00025852724692263277 0 0.035426954186806026 -0.00052458004608580279 0 0.035249284535160144 -0.00030136292142195225 0 0.035165088518508469 -8.8262536007902847e-05 0 0.035089039882838326 -3.8720127794320443e-05 0 0.035001911949146779 -6.8709910020319858e-06 0 0.035001526807238531 -1.2651507323064653e-05 0 0.035005032956933066 -1.8583010370169995e-05 0 0.035003748309186761 -5.4027238724921102e-06 0 0.035001911949146779 -6.8709910020319858e-06 0 0.035005032956933066 -1.8583010370169995e-05 0 0.034886661996370451 1.7046714250897023e-05 0 0.0353156825044929 -0.00054655813252473559 0 0.035001911949146779 -6.8709910020319858e-06 0 0.03499989526454541 -1.0433435029629209e-05 0 0.035001526807238531 -1.2651507323064653e-05 0 0.034999943944332083 -1.1260848088060542e-05 0 0.035001526807238531 -1.2651507323064653e-05 0 0.035005032956933066 -1.8583010370169995e-05 0 0.035165088518508469 -8.8262536007902847e-05 0 0.0353156825044929 -0.00054655813252473559 0 0.035235741574989703 -0.0009486195570926224 0 0.034934483711424866 -0.00087782176636619564 0 0.03523185896690452 -0.0012358999670797016 0 0.032793748600481294 -0.00080875831638388765 0 0.0353156825044929 -0.00054655813252473559 0 0.034836406663912217 -0.00038659216935012561 0 0.034848805451901693 -0.00022891903930885273 0 0.034745472808807909 -0.00024139006092948177 0 0.035475727955881727 -0.000858170609978393 0 0.035235741574989703 -0.0009486195570926224 0 0.03523185896690452 -0.0012358999670797016 0 0.035496016708564906 -0.00085384610580363366 0 0.035722941250054215 -0.00047100363391106725 0 0.035478967078845548 -0.00066923577442125988 0 0.035722941250054215 -0.00047100363391106725 0 0.035426954186806026 -0.00052458004608580279 0 0.035478967078845548 -0.00066923577442125988 0 0.035475727955881727 -0.000858170609978393 0 0.035496016708564906 -0.00085384610580363366 0 0.03523185896690452 -0.0012358999670797016 0 0.035511040723873975 -0.00094957100918211315 0 0.0353156825044929 -0.00054655813252473559 0 0.035406972180031963 -0.00080985737767121731 0 0.035478967078845548 -0.00066923577442125988 0 0.03535124230911834 -0.00068408010384496507 0 0.035426954186806026 -0.00052458004608580279 0 0.035478967078845548 -0.00066923577442125988 0 0.03535124230911834 -0.00068408010384496507 0 0.035426954186806026 -0.00052458004608580279 0 0.03535124230911834 -0.00068408010384496507 0 0.035129458559599432 -0.00052984025873475114 0 0.03535124230911834 -0.00068408010384496507 0 0.035129458559599432 -0.00052984025873475114 0 0.03524390993300705 -0.00079050930415445607 0 0.035129458559599432 -0.00052984025873475114 0 0.034998183057825427 -0.00082142837100327001 0 0.03524390993300705 -0.00079050930415445607 0 0.035129458559599432 -0.00052984025873475114 0 0.034761455457543791 -0.00053807571703060769 0 0.034998183057825427 -0.00082142837100327001 0 0.035129458559599432 -0.00052984025873475114 0 0.035249284535160144 -0.00030136292142195225 0 0.034953817665276679 -0.00018863169079021849 0 0.035129458559599432 -0.00052984025873475114 0 0.034953817665276679 -0.00018863169079021849 0 0.034761455457543791 -0.00053807571703060769 0 0.035426954186806026 -0.00052458004608580279 0 0.035129458559599432 -0.00052984025873475114 0 0.035249284535160144 -0.00030136292142195225 0 0.035033968101716127 -3.5831059926431903e-05 0 0.035003417196537275 -9.6492781857183441e-06 0 0.035015408612372553 -1.013497524014606e-05 0 0.035544027864394638 -0.00025852724692263277 0 0.035249284535160144 -0.00030136292142195225 0 0.035177262240761405 -6.323908715360891e-05 0 0.035177262240761405 -6.323908715360891e-05 0 0.034999997914046212 2.0755159955939113e-07 0 0.034953817665276679 -0.00018863169079021849 0 0.035249284535160144 -0.00030136292142195225 0 0.035177262240761405 -6.323908715360891e-05 0 0.034953817665276679 -0.00018863169079021849 0 0.035121672337865277 -5.4987999043188164e-05 0 0.03499998066149794 2.3247566709164288e-08 0 0.035003417196537275 -9.6492781857183441e-06 0 0.035000023050551103 -6.5405499777141323e-09 0 0.034999981127551302 4.3072454530225219e-09 0 0.034986745787256225 1.118082562527605e-05 0 0.035000022875838775 -2.7398247255022811e-08 0 0.035003417196537275 -9.6492781857183441e-06 0 0.035015408612372553 -1.013497524014606e-05 0 0.035000023050551103 -6.5405499777141323e-09 0 0.034999998782223464 -2.2058826087778395e-09 0 0.03499819961255142 -3.0652080276465842e-06 0 0.034999996666922294 -1.9622609622393012e-10 0 0.034999997914046212 2.0755159955939113e-07 0 0.034846317801055661 -4.6828881116894446e-05 0 0.034953817665276679 -0.00018863169079021849 0 0.034999688355195707 -1.1445505592015615e-07 0 0.034846317801055661 -4.6828881116894446e-05 0 0.034687743355055083 -2.9889295620742879e-06 0 0.034999688355195707 -1.1445505592015615e-07 0 0.034999997914046212 2.0755159955939113e-07 0 0.034846317801055661 -4.6828881116894446e-05 0 0.034846317801055661 -4.6828881116894446e-05 0 0.034550624643081097 -0.00024983608834462884 0 0.034687743355055083 -2.9889295620742879e-06 0 0.034846317801055661 -4.6828881116894446e-05 0 0.034550624643081097 -0.00024983608834462884 0 0.034953817665276679 -0.00018863169079021849 0 0.034550624643081097 -0.00024983608834462884 0 0.034953817665276679 -0.00018863169079021849 0 0.034761455457543791 -0.00053807571703060769 0 0.034550624643081097 -0.00024983608834462884 0 0.034440749673220902 -0.00070888322307441831 0 0.033956904545810046 -0.00076153902971694862 0 0.034550624643081097 -0.00024983608834462884 0 0.034761455457543791 -0.00053807571703060769 0 0.034440749673220902 -0.00070888322307441831 0 0.034440749673220902 -0.00070888322307441831 0 0.034269247189169634 -0.001140344664496906 0 0.034662744005845098 -0.00095632849807767426 0 0.034440749673220902 -0.00070888322307441831 0 0.034269247189169634 -0.001140344664496906 0 0.033956904545810046 -0.00076153902971694862 0 0.034269247189169634 -0.001140344664496906 0 0.034512808710277773 -0.0014827334190726234 0 0.033976469125233985 -0.0014843999598834817 0 0.034662744005845098 -0.00095632849807767426 0 0.0349504239688452 -0.0011482597167631824 0 0.034512808710277773 -0.0014827334190726234 0 0.034269247189169634 -0.001140344664496906 0 0.034662744005845098 -0.00095632849807767426 0 0.034512808710277773 -0.0014827334190726234 0 0.034761455457543791 -0.00053807571703060769 0 0.034440749673220902 -0.00070888322307441831 0 0.034662744005845098 -0.00095632849807767426 0 0.034761455457543791 -0.00053807571703060769 0 0.034662744005845098 -0.00095632849807767426 0 0.034998183057825427 -0.00082142837100327001 0 0.034662744005845098 -0.00095632849807767426 0 0.034998183057825427 -0.00082142837100327001 0 0.0349504239688452 -0.0011482597167631824 0 0.034998183057825427 -0.00082142837100327001 0 0.035214417542797589 -0.0010223889849701382 0 0.0349504239688452 -0.0011482597167631824 0 0.035406972180031963 -0.00080985737767121731 0 0.03524390993300705 -0.00079050930415445607 0 0.035358006712078213 -0.00091874020908677429 0 0.035406972180031963 -0.00080985737767121731 0 0.03535124230911834 -0.00068408010384496507 0 0.03524390993300705 -0.00079050930415445607 0 0.034998183057825427 -0.00082142837100327001 0 0.03524390993300705 -0.00079050930415445607 0 0.035214417542797589 -0.0010223889849701382 0 0.03524390993300705 -0.00079050930415445607 0 0.035214417542797589 -0.0010223889849701382 0 0.035358006712078213 -0.00091874020908677429 0 0.035471961458144491 -0.0010423632139061319 0 0.035214417542797589 -0.0010223889849701382 0 0.035358006712078213 -0.00091874020908677429 0 0.035471961458144491 -0.0010423632139061319 0 0.035214417542797589 -0.0010223889849701382 0 0.035366922128518052 -0.0012558062943881611 0 0.035214417542797589 -0.0010223889849701382 0 0.035151593289449064 -0.0013009084298413953 0 0.035366922128518052 -0.0012558062943881611 0 0.035151593289449064 -0.0013009084298413953 0 0.035366922128518052 -0.0012558062943881611 0 0.035295202139901616 -0.0015113796398047987 0 0.0349504239688452 -0.0011482597167631824 0 0.034959388307553386 -0.0015738362390989619 0 0.034512808710277773 -0.0014827334190726234 0 0.035151593289449064 -0.0013009084298413953 0 0.0349504239688452 -0.0011482597167631824 0 0.034959388307553386 -0.0015738362390989619 0 0.035214417542797589 -0.0010223889849701382 0 0.035151593289449064 -0.0013009084298413953 0 0.0349504239688452 -0.0011482597167631824 0 0.034959388307553386 -0.0015738362390989619 0 0.035295202139901616 -0.0015113796398047987 0 0.035155047977161173 -0.0018756804676945049 0 0.035603069839273339 -0.0016590419422702338 0 0.035295202139901616 -0.0015113796398047987 0 0.035155047977161173 -0.0018756804676945049 0 0.035151593289449064 -0.0013009084298413953 0 0.034959388307553386 -0.0015738362390989619 0 0.035295202139901616 -0.0015113796398047987 0 0.035466206056846028 -0.0014168900967646602 0 0.035366922128518052 -0.0012558062943881611 0 0.035295202139901616 -0.0015113796398047987 0 0.027923201910148136 -0.00013853244534979737 0 0.027534857931740066 -0.00015392413767226183 0 0.027649986033492668 -0.00029172152137928463 0 0.031183283392652594 -0.00078151856960383245 0 0.031483676842133455 -0.00099226591512473206 0 0.027486204318000678 -0.000374332911548276 0 0.027534857931740066 -0.00015392413767226183 0 0.027649986033492668 -0.00029172152137928463 0 0.027486204318000678 -0.000374332911548276 0 0.027534857931740066 -0.00015392413767226183 0 0.027197474018533153 -0.00029658539054981518 0 0.031483676842133455 -0.00099226591512473206 0 0.030763674065258238 -0.0012713374124896551 0 0.034959388307553386 -0.0015738362390989619 0 0.035155047977161173 -0.0018756804676945049 0 0.034664086742739783 -0.0021417533129555653 0 0.034664086742739783 -0.0021417533129555653 0 0.033990121936798783 -0.0019312136835533923 0 0.034512808710277773 -0.0014827334190726234 0 0.033753521858851061 -0.0022661121825851911 0 0.034086686040127219 -0.0024097432118335171 0 0.033990121936798783 -0.0019312136835533923 0 0.034086686040127219 -0.0024097432118335171 0 0.034664086742739783 -0.0021417533129555653 0 0.033990121936798783 -0.0019312136835533923 0 0.033990121936798783 -0.0019312136835533923 0 0.034512808710277773 -0.0014827334190726234 0 0.033976469125233985 -0.0014843999598834817 0 0.034959388307553386 -0.0015738362390989619 0 0.034664086742739783 -0.0021417533129555653 0 0.034512808710277773 -0.0014827334190726234 0 0.033177000785899892 -0.0019165326844198345 0 0.033818553621429694 -0.0036882472747028993 0 0.033990121936798783 -0.0019312136835533923 0 0.03340901680192631 -0.0015884422805844448 0 0.033976469125233985 -0.0014843999598834817 0 0.033990121936798783 -0.0019312136835533923 0 0.03340901680192631 -0.0015884422805844448 0 0.033464571582372461 -0.0020885120419311455 0 0.033753521858851061 -0.0022661121825851911 0 0.033990121936798783 -0.0019312136835533923 0 0.033464571582372461 -0.0020885120419311455 0 0.032605938584138426 -0.0050961540582674754 0 0.033140249899909921 -0.004241616600606588 0 0.03189948644134067 -0.0041142480386419898 0 0.033062991071768862 -0.0025443640007183988 0 0.033140249899909921 -0.004241616600606588 0 0.03189948644134067 -0.0041142480386419898 0 0.03189948644134067 -0.0041142480386419898 0 0.029613417414372761 -0.0046452846647674108 0 0.031257871746766537 -0.0028563037588264771 0 0.031494008946252101 -0.0053105298049893231 0 0.03189948644134067 -0.0041142480386419898 0 0.029613417414372761 -0.0046452846647674108 0 0.029613417414372761 -0.0046452846647674108 0 0.031257871746766537 -0.0028563037588264771 0 0.029122078494085653 -0.0027527886674594262 0 0.033062991071768862 -0.0025443640007183988 0 0.031257871746766537 -0.0028563037588264771 0 0.032315506884237934 -0.0018126570216660202 0 0.033062991071768862 -0.0025443640007183988 0 0.03189948644134067 -0.0041142480386419898 0 0.031257871746766537 -0.0028563037588264771 0 0.031257871746766537 -0.0028563037588264771 0 0.032315506884237934 -0.0018126570216660202 0 0.031229843229912225 -0.0013060509387584232 0 0.032315506884237934 -0.0018126570216660202 0 0.031229843229912225 -0.0013060509387584232 0 0.033099868879495953 -0.00099037768297416721 0 0.031669151622273267 -0.0018110379035494672 0 0.029373986399329154 -0.0027490565172992722 0 0.031257871746766537 -0.0028563037588264771 0 0.031229843229912225 -0.0013060509387584232 0 0.029122078494085653 -0.0027527886674594262 0 0.032187001708584968 -0.0024037213725537541 0 0.030415113282666328 -0.0021621788496558542 0 0.029122078494085653 -0.0027527886674594262 0 0.032187001708584968 -0.0024037213725537541 0 0.031181596262374506 -0.0012673100253624504 0 0.030415113282666328 -0.0021621788496558542 0 0.032187001708584968 -0.0024037213725537541 0 0.031181596262374506 -0.0012673100253624504 0 0.032844541856471031 -0.0012081949820712274 0 0.031669151622273267 -0.0018110379035494672 0 0.033678924366852034 -0.0007760956199820469 0 0.032187001708584968 -0.0024037213725537541 0 0.034172727874807296 -0.0011426182467680845 0 0.032844541856471031 -0.0012081949820712274 0 0.031229843229912225 -0.0013060509387584232 0 0.033099868879495953 -0.00099037768297416721 0 0.033279113394944868 -0.00036130815873328874 0 0.033099868879495953 -0.00099037768297416721 0 0.033956904545810046 -0.00076153902971694862 0 0.033279113394944868 -0.00036130815873328874 0 0.03340901680192631 -0.0015884422805844448 0 0.033099868879495953 -0.00099037768297416721 0 0.033671486399110342 -0.001259784065766775 0 0.033062991071768862 -0.0025443640007183988 0 0.032315506884237934 -0.0018126570216660202 0 0.033099868879495953 -0.00099037768297416721 0 0.033177000785899892 -0.0019165326844198345 0 0.03312021956719341 -0.0010922974914974882 0 0.034269247189169634 -0.001140344664496906 0 0.033671486399110342 -0.001259784065766775 0 0.033956904545810046 -0.00076153902971694862 0 0.034269247189169634 -0.001140344664496906 0 0.033976469125233985 -0.0014843999598834817 0 0.033671486399110342 -0.001259784065766775 0 0.03340901680192631 -0.0015884422805844448 0 0.033976469125233985 -0.0014843999598834817 0 0.033671486399110342 -0.001259784065766775 0 0.033099868879495953 -0.00099037768297416721 0 0.033671486399110342 -0.001259784065766775 0 0.033956904545810046 -0.00076153902971694862 0 0.034550624643081097 -0.00024983608834462884 0 0.034172727874807296 -0.0011426182467680845 0 0.034330865958347286 -0.00024507469279408167 0 0.034471250967836375 -0.00029299990825531292 0 0.033678924366852034 -0.0007760956199820469 0 0.034550624643081097 -0.00024983608834462884 0 0.033956904545810046 -0.00076153902971694862 0 0.033279113394944868 -0.00036130815873328874 0 0.034172727874807296 -0.0011426182467680845 0 0.034330865958347286 -0.00024507469279408167 0 0.033804550710269346 -0.00040983061360205683 0 0.034330865958347286 -0.00024507469279408167 0 0.034314419692360348 9.8103058816489567e-05 0 0.033804550710269346 -0.00040983061360205683 0 0.034550624643081097 -0.00024983608834462884 0 0.034330865958347286 -0.00024507469279408167 0 0.034687743355055083 -2.9889295620742879e-06 0 0.034330865958347286 -0.00024507469279408167 0 0.034687743355055083 -2.9889295620742879e-06 0 0.034314419692360348 9.8103058816489567e-05 0 0.034687743355055083 -2.9889295620742879e-06 0 0.034314419692360348 9.8103058816489567e-05 0 0.034999397791276136 3.3285335982015598e-07 0 0.034999688355195707 -1.1445505592015615e-07 0 0.034687743355055083 -2.9889295620742879e-06 0 0.034999397791276136 3.3285335982015598e-07 0 0.03427994986421002 0.00050799215309791355 0 0.034597303045449931 0.00019615192300348597 0 0.033911773442632041 0.00024739069254357349 0 0.03427994986421002 0.00050799215309791355 0 0.034997852075089923 4.5190738700446648e-07 0 0.034597303045449931 0.00019615192300348597 0 0.03427994986421002 0.00050799215309791355 0 0.034997852075089923 4.5190738700446648e-07 0 0.034854029708984928 0.00023853275098080842 0 0.034314419692360348 9.8103058816489567e-05 0 0.034999397791276136 3.3285335982015598e-07 0 0.034597303045449931 0.00019615192300348597 0 0.034999397791276136 3.3285335982015598e-07 0 0.034997852075089923 4.5190738700446648e-07 0 0.034597303045449931 0.00019615192300348597 0 0.034314419692360348 9.8103058816489567e-05 0 0.034597303045449931 0.00019615192300348597 0 0.033911773442632041 0.00024739069254357349 0 0.034314419692360348 9.8103058816489567e-05 0 0.033911773442632041 0.00024739069254357349 0 0.03354663195025228 -0.00012311521990281097 0 0.033911773442632041 0.00024739069254357349 0 0.032784286872814032 0.00012640682266125812 0 0.03354663195025228 -0.00012311521990281097 0 0.03427994986421002 0.00050799215309791355 0 0.033911773442632041 0.00024739069254357349 0 0.032784286872814032 0.00012640682266125812 0 0.032784286872814032 0.00012640682266125812 0 0.032670328223892105 -0.00044003392908663965 0 0.031627250912240508 -0.00060150511858874116 0 0.032784286872814032 0.00012640682266125812 0 0.032670328223892105 -0.00044003392908663965 0 0.03354663195025228 -0.00012311521990281097 0 0.034314419692360348 9.8103058816489567e-05 0 0.03354663195025228 -0.00012311521990281097 0 0.033804550710269346 -0.00040983061360205683 0 0.03354663195025228 -0.00012311521990281097 0 0.033804550710269346 -0.00040983061360205683 0 0.033044676939376558 -0.00057175707443679028 0 0.032670328223892105 -0.00044003392908663965 0 0.03354663195025228 -0.00012311521990281097 0 0.033044676939376558 -0.00057175707443679028 0 0.034172727874807296 -0.0011426182467680845 0 0.033804550710269346 -0.00040983061360205683 0 0.032844541856471031 -0.0012081949820712274 0 0.033804550710269346 -0.00040983061360205683 0 0.033044676939376558 -0.00057175707443679028 0 0.032844541856471031 -0.0012081949820712274 0 0.033044676939376558 -0.00057175707443679028 0 0.032844541856471031 -0.0012081949820712274 0 0.03229396336896808 -0.00082131925328819016 0 0.031181596262374506 -0.0012673100253624504 0 0.032844541856471031 -0.0012081949820712274 0 0.03229396336896808 -0.00082131925328819016 0 0.031181596262374506 -0.0012673100253624504 0 0.03229396336896808 -0.00082131925328819016 0 0.031627250912240508 -0.00060150511858874116 0 0.032670328223892105 -0.00044003392908663965 0 0.03229396336896808 -0.00082131925328819016 0 0.031627250912240508 -0.00060150511858874116 0 0.032670328223892105 -0.00044003392908663965 0 0.033044676939376558 -0.00057175707443679028 0 0.03229396336896808 -0.00082131925328819016 0 0.031181596262374506 -0.0012673100253624504 0 0.030476729551874276 -0.00066577941187471285 0 0.029383700565893643 -0.0013962877671179757 0 0.031181596262374506 -0.0012673100253624504 0 0.030476729551874276 -0.00066577941187471285 0 0.031627250912240508 -0.00060150511858874116 0 0.029523650349029266 -0.00063596181131656817 0 0.028550500421851342 -0.0012103006986459446 0 0.029383700565893643 -0.0013962877671179757 0 0.030476729551874276 -0.00066577941187471285 0 0.029523650349029266 -0.00063596181131656817 0 0.029383700565893643 -0.0013962877671179757 0 0.029523650349029266 -0.00063596181131656817 0 0.030223479086256652 -6.3074104410891174e-05 0 0.028973863789886228 0.00023686142721062578 0 0.030223479086256652 -6.3074104410891174e-05 0 0.031045028498585585 0.00089569721844818531 0 0.028973863789886228 0.00023686142721062578 0 0.030476729551874276 -0.00066577941187471285 0 0.029523650349029266 -0.00063596181131656817 0 0.030223479086256652 -6.3074104410891174e-05 0 0.032784286872814032 0.00012640682266125812 0 0.031627250912240508 -0.00060150511858874116 0 0.031339189181231637 -0.00010302182110609588 0 0.030476729551874276 -0.00066577941187471285 0 0.031627250912240508 -0.00060150511858874116 0 0.031339189181231637 -0.00010302182110609588 0 0.030476729551874276 -0.00066577941187471285 0 0.030223479086256652 -6.3074104410891174e-05 0 0.031339189181231637 -0.00010302182110609588 0 0.030223479086256652 -6.3074104410891174e-05 0 0.031339189181231637 -0.00010302182110609588 0 0.031045028498585585 0.00089569721844818531 0 0.03397935555220994 0.00051490302773864822 0 0.033136308005607996 0.00073896788712551962 0 0.032784286872814032 0.00012640682266125812 0 0.031339189181231637 -0.00010302182110609588 0 0.031045028498585585 0.00089569721844818531 0 0.03427994986421002 0.00050799215309791355 0 0.032784286872814032 0.00012640682266125812 0 0.031045028498585585 0.00089569721844818531 0 0.035035564207154223 0.00049660023152365467 0 0.035280836522152755 0.00052379508121971018 0 0.035278819322263302 0.0005871808007000929 0 0.035035564207154223 0.00049660023152365467 0 0.0352031079154538 0.00033784037738149813 0 0.034854029708984928 0.00023853275098080842 0 0.035035564207154223 0.00049660023152365467 0 0.0352031079154538 0.00033784037738149813 0 0.035280836522152755 0.00052379508121971018 0 0.033136308005607996 0.00073896788712551962 0 0.031801227003843087 -0.00045685916442267122 0 0.0352031079154538 0.00033784037738149813 0 0.035000957960930577 1.4651294378491763e-07 0 0.034854029708984928 0.00023853275098080842 0 0.034994397224500005 3.6433470663346794e-06 0 0.034999997314419259 -1.4966884690416316e-09 0 0.034999993221919892 7.0934630381326289e-09 0 0.035157930628127013 0.00026639297859015396 0 0.034999971385100158 -3.0444719735823509e-08 0 0.03427994986421002 0.00050799215309791355 0 0.035035564207154223 0.00049660023152365467 0 0.034854029708984928 0.00023853275098080842 0 0.034997852075089923 4.5190738700446648e-07 0 0.035000957960930577 1.4651294378491763e-07 0 0.034854029708984928 0.00023853275098080842 0 0.034998433960657466 6.7570527125862076e-07 0 0.033713542928404346 5.5504515585388201e-05 0 0.031573343010881383 -1.3443837084615431e-06 0 0.034998433960657466 6.7570527125862076e-07 0 0.034999039955916848 -1.0516811409696132e-08 0 0.034396689350716707 6.2880733440652675e-05 0 0.034998433960657466 6.7570527125862076e-07 0 0.034396689350716707 6.2880733440652675e-05 0 0.033713542928404346 5.5504515585388201e-05 0 0.034999039955916848 -1.0516811409696132e-08 0 0.034396689350716707 6.2880733440652675e-05 0 0.034139952174403874 -1.619387112020677e-05 0 0.035000255690795991 -1.2220268772552348e-07 0 0.033893207899777213 0.00022344705694564971 0 0.034994397224500005 3.6433470663346794e-06 0 0.034999993221919892 7.0934630381326289e-09 0 0.0349844141906153 7.4294362868291183e-06 0 0.034396689350716707 6.2880733440652675e-05 0 0.034139952174403874 -1.619387112020677e-05 0 0.033713542928404346 5.5504515585388201e-05 0 0.035157930628127013 0.00026639297859015396 0 0.033893207899777213 0.00022344705694564971 0 0.034139952174403874 -1.619387112020677e-05 0 0.033713542928404346 5.5504515585388201e-05 0 0.033761870353790691 -0.00027685532846601703 0 0.033713542928404346 5.5504515585388201e-05 0 0.033761870353790691 -0.00027685532846601703 0 0.031573343010881383 -1.3443837084615431e-06 0 0.031803190750678251 -0.00058169089586118704 0 0.031570793111827075 4.7014123636090378e-07 0 0.029231789247238796 -0.0018231135402315237 0 0.029595067009493506 -0.0016243320526175555 0 0.029309205614440358 -0.00025959049250526094 0 0.032914883321887141 0.00018716401176422791 0 0.032858129707701654 -0.00051277197503574201 0 0.032210136081697732 -0.00086416915728473051 0 0.033893207899777213 0.00022344705694564971 0 0.031801227003843087 -0.00045685916442267122 0 0.033893207899777213 0.00022344705694564971 0 0.031803190750678251 -0.00058169089586118704 0 0.031801227003843087 -0.00045685916442267122 0 0.031803190750678251 -0.00058169089586118704 0 0.029523650349029266 -0.00063596181131656817 0 0.028973863789886228 0.00023686142721062578 0 0.028550500421851342 -0.0012103006986459446 0 0.029595067009493506 -0.0016243320526175555 0 0.029309205614440358 -0.00025959049250526094 0 0.030602474964765369 -2.390557117551155e-05 0 0.031801227003843087 -0.00045685916442267122 0 0.028607070337043419 -0.00086140135651064287 0 0.031566268295112297 -1.207820339198696e-06 0 0.030602474964765369 -2.390557117551155e-05 0 0.029688625701197912 4.9611923170621487e-07 0 0.031356361949166557 -0.00016783256741507036 0 0.031566268295112297 -1.207820339198696e-06 0 0.030602474964765369 -2.390557117551155e-05 0 0.031803190750678251 -0.00058169089586118704 0 0.030215798093706846 -0.0002771895577196109 0 0.030602474964765369 -2.390557117551155e-05 0 0.029587137557137357 7.2611799348863603e-05 0 0.029688625701197912 4.9611923170621487e-07 0 0.029587137557137357 7.2611799348863603e-05 0 0.029688625701197912 4.9611923170621487e-07 0 0.028918335968955829 0.00021952557196620379 0 0.029309205614440358 -0.00025959049250526094 0 0.030602474964765369 -2.390557117551155e-05 0 0.029587137557137357 7.2611799348863603e-05 0 0.029688625701197912 4.9611923170621487e-07 0 0.028918335968955829 0.00021952557196620379 0 0.027807387621404576 4.2080609805366864e-07 0 0.029309205614440358 -0.00025959049250526094 0 0.029587137557137357 7.2611799348863603e-05 0 0.028918335968955829 0.00021952557196620379 0 0.028550500421851342 -0.0012103006986459446 0 0.027715752002670915 -0.0023417927199194063 0 0.029383700565893643 -0.0013962877671179757 0 0.028607070337043419 -0.00086140135651064287 0 0.02831976903208706 -0.0010334973212356331 0 0.027715752002670915 -0.0023417927199194063 0 0.029383700565893643 -0.0013962877671179757 0 0.02928726279156707 -0.0020477155095943111 0 0.031181596262374506 -0.0012673100253624504 0 0.029383700565893643 -0.0013962877671179757 0 0.02928726279156707 -0.0020477155095943111 0 0.031181596262374506 -0.0012673100253624504 0 0.02928726279156707 -0.0020477155095943111 0 0.030415113282666328 -0.0021621788496558542 0 0.02928726279156707 -0.0020477155095943111 0 0.027836319594314745 -0.0026832999076694579 0 0.029122078494085653 -0.0027527886674594262 0 0.02928726279156707 -0.0020477155095943111 0 0.030415113282666328 -0.0021621788496558542 0 0.029122078494085653 -0.0027527886674594262 0 0.027715752002670915 -0.0023417927199194063 0 0.02928726279156707 -0.0020477155095943111 0 0.027836319594314745 -0.0026832999076694579 0 0.027836319594314745 -0.0026832999076694579 0 0.029122078494085653 -0.0027527886674594262 0 0.026618441012073106 -0.0031175110209275647 0 0.027836319594314745 -0.0026832999076694579 0 0.026618441012073106 -0.0031175110209275647 0 0.027057920124594948 -0.0028573188185702621 0 0.029613417414372761 -0.0046452846647674108 0 0.029122078494085653 -0.0027527886674594262 0 0.026618441012073106 -0.0031175110209275647 0 0.026509011839763497 -0.0034310218113283511 0 0.026591750911770396 -0.0032078844169494583 0 0.025870839801875663 -0.001660821703530176 0 0.026618441012073106 -0.0031175110209275647 0 0.027057920124594948 -0.0028573188185702621 0 0.026316933811858144 -0.00069936987772550657 0 0.02725974093708472 -0.0013497596729303292 0 0.026046196001304735 -0.0006288733216982368 0 0.025870839801875663 -0.001660821703530176 0 0.027057920124594948 -0.0028573188185702621 0 0.025926488163474114 -1.1639075722713482e-06 0 0.027807387621404576 4.2080609805366864e-07 0 0.02757741423574555 1.6909991973891322e-06 0 0.025926488163474114 -1.1639075722713482e-06 0 0.026046196001304735 -0.0006288733216982368 0 0.02757741423574555 1.6909991973891322e-06 0 0.028918335968955829 0.00021952557196620379 0 0.027807387621404576 4.2080609805366864e-07 0 0.02757741423574555 1.6909991973891322e-06 0 0.027715752002670915 -0.0023417927199194063 0 0.027836319594314745 -0.0026832999076694579 0 0.027057920124594948 -0.0028573188185702621 0 0.02831976903208706 -0.0010334973212356331 0 0.02725974093708472 -0.0013497596729303292 0 0.02252008466617169 -0.00018947950268434507 0 0.022946887818280283 -0.00023994028412829049 0 0.022920147762882856 0.00098436499465415412 0 0.02252008466617169 -0.00018947950268434507 0 0.022946887818280283 -0.00023994028412829049 0 0.022322305851078535 -9.0194541052997175e-05 0 0.022953321756901589 -0.00023502368015059186 0 0.023427714824026155 0.00015156767704784297 0 0.022946887818280283 -0.00023994028412829049 0 0.022322305851078535 -9.0194541052997175e-05 0 0.021709527375374894 -0.00045376104987551123 0 0.022322305851078535 -9.0194541052997175e-05 0 0.021709527375374894 -0.00045376104987551123 0 0.021361487595085656 -0.00015082653455126378 0 0.022409971788768406 -0.00015884172232312629 0 0.022310923056053204 -8.0763383715981338e-05 0 0.022187047650664194 -4.2383186427934326e-05 0 0.022322305851078535 -9.0194541052997175e-05 0 0.022179211822512267 -2.0888842691101033e-05 0 0.022187047650664194 -4.2383186427934326e-05 0 0.022179211822512267 -2.0888842691101033e-05 0 0.022251958968685745 -1.8949190377844875e-05 0 0.022179211822512267 -2.0888842691101033e-05 0 0.022251958968685745 -1.8949190377844875e-05 0 0.022199812348039211 0.00010480173182159557 0 0.022348989856587412 -7.9248730975198693e-06 0 0.022251958968685745 -1.8949190377844875e-05 0 0.022315047366241927 0.00011843913223675045 0 0.022348989856587412 -7.9248730975198693e-06 0 0.022251958968685745 -1.8949190377844875e-05 0 0.022334872310693882 -8.3110234231854692e-05 0 0.022334872310693882 -8.3110234231854692e-05 0 0.022257550489663078 -0.00014054408962807559 0 0.02236284228207187 -0.00015519662248817567 0 0.022251958968685745 -1.8949190377844875e-05 0 0.022334872310693882 -8.3110234231854692e-05 0 0.022257550489663078 -0.00014054408962807559 0 0.022409971788768406 -0.00015884172232312629 0 0.02131181288210475 0.00050221493441733687 0 0.022187047650664194 -4.2383186427934326e-05 0 0.022251958968685745 -1.8949190377844875e-05 0 0.022257550489663078 -0.00014054408962807559 0 0.02252008466617169 -0.00018947950268434507 0 0.021341372020573436 0.00075500282806929126 0 0.022920147762882856 0.00098436499465415412 0 0.021341372020573436 0.00075500282806929126 0 0.021882202411584974 0.0023482329440619328 0 0.022920147762882856 0.00098436499465415412 0 0.021341372020573436 0.00075500282806929126 0 0.020152730431101447 0.0018372097258627122 0 0.021882202411584974 0.0023482329440619328 0 0.02131181288210475 0.00050221493441733687 0 0.025294943549709046 0.0015836607873769854 0 0.022257550489663078 -0.00014054408962807559 0 0.02236284228207187 -0.00015519662248817567 0 0.022369745648881466 -0.00023811149252313607 0 0.031681190680602586 0.0054901464582421981 0 0.031198688818447031 0.0041635959961882621 0 0.028624351699727872 0.0047639113241984329 0 0.025294943549709046 0.0015836607873769854 0 0.025474054069471452 0.0037345150945990091 0 0.031198688818447031 0.0041635959961882621 0 0.028624351699727872 0.0047639113241984329 0 0.030643593903057098 0.0030672267305364193 0 0.031198688818447031 0.0041635959961882621 0 0.031990411129883309 0.0031383437210536799 0 0.030643593903057098 0.0030672267305364193 0 0.028624351699727872 0.0047639113241984329 0 0.02872657845125531 0.0024024230974041571 0 0.030643593903057098 0.0030672267305364193 0 0.021882202411584974 0.0023482329440619328 0 0.022920147762882856 0.00098436499465415412 0 0.02474582501685087 0.0030105340723886936 0 0.028624351699727872 0.0047639113241984329 0 0.02474582501685087 0.0030105340723886936 0 0.026765833332124886 0.0024217701458155382 0 0.025474054069471452 0.0037345150945990091 0 0.024718316983038974 0.0030683743609788618 0 0.022920147762882856 0.00098436499465415412 0 0.02424849880307026 0.001652150262281166 0 0.02474582501685087 0.0030105340723886936 0 0.022946887818280283 -0.00023994028412829049 0 0.02424849880307026 0.001652150262281166 0 0.025219099749629451 0.0014911937764521097 0 0.022946887818280283 -0.00023994028412829049 0 0.022920147762882856 0.00098436499465415412 0 0.02424849880307026 0.001652150262281166 0 0.02474582501685087 0.0030105340723886936 0 0.024925196488691053 0.0022839185311701897 0 0.024703665124350727 0.002336583150111917 0 0.02424849880307026 0.001652150262281166 0 0.02474582501685087 0.0030105340723886936 0 0.024925196488691053 0.0022839185311701897 0 0.024925196488691053 0.0022839185311701897 0 0.025553625594164783 0.0021165291479598139 0 0.025219099749629451 0.0014911937764521097 0 0.024925196488691053 0.0022839185311701897 0 0.025553625594164783 0.0021165291479598139 0 0.025180590221570053 0.0023514184509776655 0 0.022800041431808544 0.00011866184769781816 0 0.023427714824026155 0.00015156767704784297 0 0.020770614637865281 -0.0016179844356686958 0 0.020752463324061408 -0.0010341366464347206 0 0.021556355889174924 -0.0012697025669273125 0 0.02424849880307026 0.001652150262281166 0 0.024925196488691053 0.0022839185311701897 0 0.025219099749629451 0.0014911937764521097 0 0.025111033838105885 0.0003053019085697804 0 0.024564237109154272 -0.0015416686138634711 0 0.020262446852631424 -0.0014895742376214837 0 0.020254453313701241 -0.0019518330563153799 0 0.019679829737287897 -0.0015709592844977657 0 0.022800041431808544 0.00011866184769781816 0 0.025111033838105885 0.0003053019085697804 0 0.020770614637865281 -0.0016179844356686958 0 0.020262446852631424 -0.0014895742376214837 0 0.020254453313701241 -0.0019518330563153799 0 0.020770614637865281 -0.0016179844356686958 0 0.020752463324061408 -0.0010341366464347206 0 0.020262446852631424 -0.0014895742376214837 0 0.020752463324061408 -0.0010341366464347206 0 0.020262446852631424 -0.0014895742376214837 0 0.020080662610099314 -0.00095260174583858455 0 0.020262446852631424 -0.0014895742376214837 0 0.020080662610099314 -0.00095260174583858455 0 0.019679829737287897 -0.0015709592844977657 0 0.020080662610099314 -0.00095260174583858455 0 0.020043042416906107 -0.00041850483780345448 0 0.019670544416078156 -0.00066629052474729731 0 0.020752463324061408 -0.0010341366464347206 0 0.020043042416906107 -0.00041850483780345448 0 0.020867137978064526 -0.0004235331926487576 0 0.020752463324061408 -0.0010341366464347206 0 0.020080662610099314 -0.00095260174583858455 0 0.020043042416906107 -0.00041850483780345448 0 0.020043042416906107 -0.00041850483780345448 0 0.020867137978064526 -0.0004235331926487576 0 0.02051260380619244 -0.00011677317240958321 0 0.022946887818280283 -0.00023994028412829049 0 0.021556355889174924 -0.0012697025669273125 0 0.021709527375374894 -0.00045376104987551123 0 0.020752463324061408 -0.0010341366464347206 0 0.021556355889174924 -0.0012697025669273125 0 0.021709527375374894 -0.00045376104987551123 0 0.020752463324061408 -0.0010341366464347206 0 0.021709527375374894 -0.00045376104987551123 0 0.020867137978064526 -0.0004235331926487576 0 0.020867137978064526 -0.0004235331926487576 0 0.021361487595085656 -0.00015082653455126378 0 0.02051260380619244 -0.00011677317240958321 0 0.021709527375374894 -0.00045376104987551123 0 0.020867137978064526 -0.0004235331926487576 0 0.021361487595085656 -0.00015082653455126378 0 0.021361487595085656 -0.00015082653455126378 0 0.020881499187930565 9.3684738164665819e-05 0 0.021616681130586343 0.00011712595013656052 0 0.021361487595085656 -0.00015082653455126378 0 0.02051260380619244 -0.00011677317240958321 0 0.020881499187930565 9.3684738164665819e-05 0 0.02051260380619244 -0.00011677317240958321 0 0.020339350440263439 0.00012221238016386302 0 0.020881499187930565 9.3684738164665819e-05 0 0.020339350440263439 0.00012221238016386302 0 0.020881499187930565 9.3684738164665819e-05 0 0.020203328995977057 0.00034745006243739587 0 0.020339350440263439 0.00012221238016386302 0 0.019885332590096321 0.00023222116934463333 0 0.020203328995977057 0.00034745006243739587 0 0.020881499187930565 9.3684738164665819e-05 0 0.021031436120732334 0.00039618861950645233 0 0.020203328995977057 0.00034745006243739587 0 0.020881499187930565 9.3684738164665819e-05 0 0.021031436120732334 0.00039618861950645233 0 0.021616681130586343 0.00011712595013656052 0 0.020043042416906107 -0.00041850483780345448 0 0.01996844904749245 -4.8021070746596576e-05 0 0.019630237543734171 -8.6115614460280778e-05 0 0.020043042416906107 -0.00041850483780345448 0 0.02051260380619244 -0.00011677317240958321 0 0.01996844904749245 -4.8021070746596576e-05 0 0.02051260380619244 -0.00011677317240958321 0 0.020339350440263439 0.00012221238016386302 0 0.01996844904749245 -4.8021070746596576e-05 0 0.020339350440263439 0.00012221238016386302 0 0.01996844904749245 -4.8021070746596576e-05 0 0.019885332590096321 0.00023222116934463333 0 0.01996844904749245 -4.8021070746596576e-05 0 0.019885332590096321 0.00023222116934463333 0 0.019625939955087018 0.00023842589459725086 0 0.01996844904749245 -4.8021070746596576e-05 0 0.019625939955087018 0.00023842589459725086 0 0.019630237543734171 -8.6115614460280778e-05 0 0.019885332590096321 0.00023222116934463333 0 0.019625939955087018 0.00023842589459725086 0 0.019513459942772877 0.00043456740105765601 0 0.019885332590096321 0.00023222116934463333 0 0.019513459942772877 0.00043456740105765601 0 0.020203328995977057 0.00034745006243739587 0 0.018027738112041215 0.0012343466444951431 0 0.018974925999952402 0.0011668598101438137 0 0.019513459942772877 0.00043456740105765601 0 0.018974925999952402 0.0011668598101438137 0 0.019513459942772877 0.00043456740105765601 0 0.019710652742438304 0.00085065145229675431 0 0.018837283587126094 0.00083922295639385239 0 0.019424523678317332 0.00045365268330845536 0 0.019595523312641205 0.0003863289477859139 0 0.019625939955087018 0.00023842589459725086 0 0.019513459942772877 0.00043456740105765601 0 0.021031436120732334 0.00039618861950645233 0 0.019710652742438304 0.00085065145229675431 0 0.021320443168065039 0.00099555706568680538 0 0.019513459942772877 0.00043456740105765601 0 0.020203328995977057 0.00034745006243739587 0 0.019710652742438304 0.00085065145229675431 0 0.021031436120732334 0.00039618861950645233 0 0.020203328995977057 0.00034745006243739587 0 0.019710652742438304 0.00085065145229675431 0 0.019551029672026602 0.0010139835536942131 0 0.018974925999952402 0.0011668598101438137 0 0.019710652742438304 0.00085065145229675431 0 0.019776805054709794 0.00085701943215044552 0 0.020590558920905867 0.00082031560788904992 0 0.019551029672026602 0.0010139835536942131 0 0.019710652742438304 0.00085065145229675431 0 0.019874718974666715 0.00068982407707701026 0 0.019717620183716113 0.0011309113038952263 0 0.019551029672026602 0.0010139835536942131 0 0.019874718974666715 0.00068982407707701026 0 0.020389995051831582 0.00099055160696013764 0 0.019717620183716113 0.0011309113038952263 0 0.019874718974666715 0.00068982407707701026 0 0.020590558920905867 0.00082031560788904992 0 0.021447283087834206 0.00061424332021968507 0 0.020389995051831582 0.00099055160696013764 0 0.019874718974666715 0.00068982407707701026 0 0.020876535528651628 0.00049522660083324641 0 0.021076760811716881 0.0012932438570267435 0 0.020389995051831582 0.00099055160696013764 0 0.020876535528651628 0.00049522660083324641 0 0.022025290688398164 0.00069995605899623862 0 0.021764706041288429 0.00039062460454831647 0 0.022080883330729075 0.00030891560199705121 0 0.021031436120732334 0.00039618861950645233 0 0.021320443168065039 0.00099555706568680538 0 0.021764706041288429 0.00039062460454831647 0 0.021320443168065039 0.00099555706568680538 0 0.022025290688398164 0.00069995605899623862 0 0.021764706041288429 0.00039062460454831647 0 0.021764706041288429 0.00039062460454831647 0 0.02205852073968171 8.7456083800398936e-05 0 0.021616681130586343 0.00011712595013656052 0 0.021031436120732334 0.00039618861950645233 0 0.021764706041288429 0.00039062460454831647 0 0.021616681130586343 0.00011712595013656052 0 0.021764706041288429 0.00039062460454831647 0 0.02205852073968171 8.7456083800398936e-05 0 0.022080883330729075 0.00030891560199705121 0 0.022322305851078535 -9.0194541052997175e-05 0 0.022179211822512267 -2.0888842691101033e-05 0 0.02205852073968171 8.7456083800398936e-05 0 0.022322305851078535 -9.0194541052997175e-05 0 0.02205852073968171 8.7456083800398936e-05 0 0.021616681130586343 0.00011712595013656052 0 0.022322305851078535 -9.0194541052997175e-05 0 0.021361487595085656 -0.00015082653455126378 0 0.021616681130586343 0.00011712595013656052 0 0.022251958968685745 -1.8949190377844875e-05 0 0.022315047366241927 0.00011843913223675045 0 0.022199812348039211 0.00010480173182159557 0 0.022179211822512267 -2.0888842691101033e-05 0 0.02205852073968171 8.7456083800398936e-05 0 0.022199812348039211 0.00010480173182159557 0 0.02205852073968171 8.7456083800398936e-05 0 0.022199812348039211 0.00010480173182159557 0 0.022080883330729075 0.00030891560199705121 0 0.022199812348039211 0.00010480173182159557 0 0.022080883330729075 0.00030891560199705121 0 0.022218390908423528 0.00033124349362804567 0 0.022315047366241927 0.00011843913223675045 0 0.022218390908423528 0.00033124349362804567 0 0.022432730891178809 0.00024767046880427136 0 0.022315047366241927 0.00011843913223675045 0 0.022199812348039211 0.00010480173182159557 0 0.022218390908423528 0.00033124349362804567 0 0.022218390908423528 0.00033124349362804567 0 0.022131469805636957 0.00053068660615902396 0 0.022315814604146833 0.00039202139326783962 0 0.022025290688398164 0.00069995605899623862 0 0.022080883330729075 0.00030891560199705121 0 0.022218390908423528 0.00033124349362804567 0 0.022025290688398164 0.00069995605899623862 0 0.022218390908423528 0.00033124349362804567 0 0.022131469805636957 0.00053068660615902396 0 0.021447283087834206 0.00061424332021968507 0 0.022086621835666866 0.00053576457268116485 0 0.021693422691692506 0.0010453399430083012 0 0.021076760811716881 0.0012932438570267435 0 0.020876535528651628 0.00049522660083324641 0 0.021693422691692506 0.0010453399430083012 0 0.020876535528651628 0.00049522660083324641 0 0.022131469805636957 0.00053068660615902396 0 0.022270306395004047 0.0010218845728275257 0 0.021693422691692506 0.0010453399430083012 0 0.022131469805636957 0.00053068660615902396 0 0.022270306395004047 0.0010218845728275257 0 0.022131469805636957 0.00053068660615902396 0 0.022527788145365161 0.00053894004014412393 0 0.022270306395004047 0.0010218845728275257 0 0.022645073594023627 0.0009511093584322162 0 0.022527788145365161 0.00053894004014412393 0 0.022218390908423528 0.00033124349362804567 0 0.022315814604146833 0.00039202139326783962 0 0.022432730891178809 0.00024767046880427136 0 0.022524857901079522 0.00050417636826222318 0 0.0225130535284578 -5.2299034958768575e-05 0 0.022527788145365161 0.00053894004014412393 0 0.022315814604146833 0.00039202139326783962 0 0.022432730891178809 0.00024767046880427136 0 0.022527788145365161 0.00053894004014412393 0 0.022894221731473235 5.7356639660371774e-05 0 0.022582900423761845 -0.00038884751456229181 0 0.022131469805636957 0.00053068660615902396 0 0.022527788145365161 0.00053894004014412393 0 0.022315814604146833 0.00039202139326783962 0 0.022527788145365161 0.00053894004014412393 0 0.022894221731473235 5.7356639660371774e-05 0 0.02298093311431703 0.0006175536018714939 0 0.022894221731473235 5.7356639660371774e-05 0 0.02298093311431703 0.0006175536018714939 0 0.023433571670320563 0.00028022239188399146 0 0.02298093311431703 0.0006175536018714939 0 0.023418487942705089 0.00073465876318863828 0 0.023433571670320563 0.00028022239188399146 0 0.022645073594023627 0.0009511093584322162 0 0.022527788145365161 0.00053894004014412393 0 0.02298093311431703 0.0006175536018714939 0 0.022995522010012561 0.0011017047981965265 0 0.022645073594023627 0.0009511093584322162 0 0.02298093311431703 0.0006175536018714939 0 0.022995522010012561 0.0011017047981965265 0 0.02298093311431703 0.0006175536018714939 0 0.023418487942705089 0.00073465876318863828 0 0.021316177237058722 0.0031295731616870896 0 0.020648519597999106 0.0031193011632722673 0 0.021471934731179504 0.0020536796405227742 0 0.022102548911069993 0.0022190767992735652 0 0.022619416920846951 0.00082206223498342988 0 0.023521517720913463 0.0012558348319415976 0 0.023418487942705089 0.00073465876318863828 0 0.024180309257516557 0.00035419148969418528 0 0.023521517720913463 0.0012558348319415976 0 0.022995522010012561 0.0011017047981965265 0 0.023418487942705089 0.00073465876318863828 0 0.023418487942705089 0.00073465876318863828 0 0.024180309257516557 0.00035419148969418528 0 0.023433571670320563 0.00028022239188399146 0 0.021316177237058722 0.0031295731616870896 0 0.021879799457547852 0.002852784048481969 0 0.021471934731179504 0.0020536796405227742 0 0.021879799457547852 0.002852784048481969 0 0.021342002033167561 0.0019146570650575511 0 0.022133422924926947 0.0021605259747997946 0 0.021863669132966751 0.0029337303902609783 0 0.022619416920846951 0.00082206223498342988 0 0.021342002033167561 0.0019146570650575511 0 0.022133422924926947 0.0021605259747997946 0 0.022067921597149927 0.00080950464368554156 0 0.023525020434781958 -0.0012049397417555415 0 0.023377977472696296 -0.0015774821426355755 0 0.023724472326895622 -0.0014815767789319472 0 0.022619416920846951 0.00082206223498342988 0 0.022911517876346179 -0.00039783979861548834 0 0.022619416920846951 0.00082206223498342988 0 0.023679104499234074 -0.0012136117800113845 0 0.022894221731473235 5.7356639660371774e-05 0 0.023433571670320563 0.00028022239188399146 0 0.023785074150893364 -0.00048977682528585748 0 0.024180309257516557 0.00035419148969418528 0 0.023433571670320563 0.00028022239188399146 0 0.023785074150893364 -0.00048977682528585748 0 0.023377977472696296 -0.0015774821426355755 0 0.023618996586958218 -0.0017757164839379519 0 0.023724472326895622 -0.0014815767789319472 0 0.023618996586958218 -0.0017757164839379519 0 0.023453241192203905 -0.0018671274865460646 0 0.023585057254560601 -0.0020538470213737232 0 0.023377977472696296 -0.0015774821426355755 0 0.023618996586958218 -0.0017757164839379519 0 0.023453241192203905 -0.0018671274865460646 0 0.023679104499234074 -0.0012136117800113845 0 0.023347963896309342 -0.0015702971996527531 0 0.023785074150893364 -0.00048977682528585748 0 0.023424432580471825 -0.0012997337595177473 0 0.023140863089537795 -0.00068948283100020522 0 0.023377977472696296 -0.0015774821426355755 0 0.023453241192203905 -0.0018671274865460646 0 0.023289814558490433 -0.001892328953419332 0 0.023424432580471825 -0.0012997337595177473 0 0.022658117749484712 -0.0012558207408737221 0 0.023140863089537795 -0.00068948283100020522 0 0.022348989856587412 -7.9248730975198693e-06 0 0.022315047366241927 0.00011843913223675045 0 0.022423090131362067 5.4426293019756059e-05 0 0.022658117749484712 -0.0012558207408737221 0 0.022582900423761845 -0.00038884751456229181 0 0.023140863089537795 -0.00068948283100020522 0 0.022315047366241927 0.00011843913223675045 0 0.022423090131362067 5.4426293019756059e-05 0 0.022432730891178809 0.00024767046880427136 0 0.022551652757405928 -0.00059465753723243113 0 0.0225130535284578 -5.2299034958768575e-05 0 0.022894221731473235 5.7356639660371774e-05 0 0.023785074150893364 -0.00048977682528585748 0 0.023140863089537795 -0.00068948283100020522 0 0.022894221731473235 5.7356639660371774e-05 0 0.022582900423761845 -0.00038884751456229181 0 0.023140863089537795 -0.00068948283100020522 0 0.027430138888388387 0.0028910379022639974 0 0.025813227618810941 0.0012696936978493242 0 0.024858419798312461 0.0024296195189380935 0 0.027430138888388387 0.0028910379022639974 0 0.027254558161480313 0.00047706994008065595 0 0.025813227618810941 0.0012696936978493242 0 0.026743843235634161 0.0028714613931722379 0 0.024791779584570878 0.0024614996191769907 0 0.024991810649414324 0.0033769640826129526 0 0.025339828284528701 0.0027643046809782954 0 0.024858419798312461 0.0024296195189380935 0 0.024278750727628699 0.0032547796361321415 0 0.024991810649414324 0.0033769640826129526 0 0.024858419798312461 0.0024296195189380935 0 0.024278750727628699 0.0032547796361321415 0 0.024858419798312461 0.0024296195189380935 0 0.023878439623559566 0.0025715347627438623 0 0.023422958947661013 0.0031968060255934869 0 0.024278750727628699 0.0032547796361321415 0 0.023878439623559566 0.0025715347627438623 0 0.025813227618810941 0.0012696936978493242 0 0.024858419798312461 0.0024296195189380935 0 0.024011121117900568 0.0010414939272004558 0 0.024858419798312461 0.0024296195189380935 0 0.023878439623559566 0.0025715347627438623 0 0.024011121117900568 0.0010414939272004558 0 0.022969609819660751 0.0021139816309923842 0 0.022067921597149927 0.00080950464368554156 0 0.024011121117900568 0.0010414939272004558 0 0.022969609819660751 0.0021139816309923842 0 0.023878439623559566 0.0025715347627438623 0 0.024011121117900568 0.0010414939272004558 0 0.023422958947661013 0.0031968060255934869 0 0.022969609819660751 0.0021139816309923842 0 0.023878439623559566 0.0025715347627438623 0 0.022565686523848421 0.0030626363753189808 0 0.023422958947661013 0.0031968060255934869 0 0.022969609819660751 0.0021139816309923842 0 0.022565686523848421 0.0030626363753189808 0 0.022969609819660751 0.0021139816309923842 0 0.022133422924926947 0.0021605259747997946 0 0.022565686523848421 0.0030626363753189808 0 0.021879799457547852 0.002852784048481969 0 0.022133422924926947 0.0021605259747997946 0 0.022969609819660751 0.0021139816309923842 0 0.022133422924926947 0.0021605259747997946 0 0.022067921597149927 0.00080950464368554156 0 0.023618996586958218 -0.0017757164839379519 0 0.023724472326895622 -0.0014815767789319472 0 0.023910841075456827 -0.0017400665973862878 0 0.022911517876346179 -0.00039783979861548834 0 0.023451989278800291 -0.00113372588805934 0 0.023618996586958218 -0.0017757164839379519 0 0.023910841075456827 -0.0017400665973862878 0 0.023869106544576343 -0.0021383910434649863 0 0.023451989278800291 -0.00113372588805934 0 0.024058117503293171 -0.0019210971494222899 0 0.022954990044473905 -0.00051397116461983318 0 0.02436700373048855 -0.00072900017587256179 0 0.02411931576942512 -0.001993424820501626 0 0.022067921597149927 0.00080950464368554156 0 0.022954990044473905 -0.00051397116461983318 0 0.024011121117900568 0.0010414939272004558 0 0.022954990044473905 -0.00051397116461983318 0 0.024011121117900568 0.0010414939272004558 0 0.02436700373048855 -0.00072900017587256179 0 0.024011121117900568 0.0010414939272004558 0 0.02436700373048855 -0.00072900017587256179 0 0.025723999761267276 -0.0002515720902427275 0 0.025813227618810941 0.0012696936978493242 0 0.024011121117900568 0.0010414939272004558 0 0.025723999761267276 -0.0002515720902427275 0 0.02436700373048855 -0.00072900017587256179 0 0.025723999761267276 -0.0002515720902427275 0 0.025129178055726595 -0.0018826849855956215 0 0.02436700373048855 -0.00072900017587256179 0 0.025129178055726595 -0.0018826849855956215 0 0.02411931576942512 -0.001993424820501626 0 0.026450141984305165 -0.0012000475500494004 0 0.025723999761267276 -0.0002515720902427275 0 0.025129178055726595 -0.0018826849855956215 0 0.0282167403502608 -0.0013211285219277571 0 0.026450141984305165 -0.0012000475500494004 0 0.026097290621185033 -0.0024526576159483245 0 0.027311133985386704 -0.00061001522961002619 0 0.026450141984305165 -0.0012000475500494004 0 0.025723999761267276 -0.0002515720902427275 0 0.027254558161480313 0.00047706994008065595 0 0.027311133985386704 -0.00061001522961002619 0 0.025723999761267276 -0.0002515720902427275 0 0.027254558161480313 0.00047706994008065595 0 0.025813227618810941 0.0012696936978493242 0 0.025723999761267276 -0.0002515720902427275 0 0.028329083542510569 -0.0020949349744106317 0 0.028605552346584625 -0.0019508003870581576 0 0.028416357163534234 -0.0017079583219593536 0 0.028329083542510569 -0.0020949349744106317 0 0.028605552346584625 -0.0019508003870581576 0 0.028494982215416256 -0.0023916248059848272 0 0.029049090060394668 -0.0021903777749643408 0 0.028605552346584625 -0.0019508003870581576 0 0.028494982215416256 -0.0023916248059848272 0 0.028563432210508766 -0.0017738247192564116 0 0.028605552346584625 -0.0019508003870581576 0 0.028416357163534234 -0.0017079583219593536 0 0.028421838099256625 -0.001587772532285734 0 0.028563432210508766 -0.0017738247192564116 0 0.028416357163534234 -0.0017079583219593536 0 0.026450141984305165 -0.0012000475500494004 0 0.026097290621185033 -0.0024526576159483245 0 0.025129178055726595 -0.0018826849855956215 0 0.026097290621185033 -0.0024526576159483245 0 0.024559490395566552 -0.0033550136296809571 0 0.024212769316981377 -0.0023901319447519483 0 0.026097290621185033 -0.0024526576159483245 0 0.025129178055726595 -0.0018826849855956215 0 0.024212769316981377 -0.0023901319447519483 0 0.025129178055726595 -0.0018826849855956215 0 0.024212769316981377 -0.0023901319447519483 0 0.02411931576942512 -0.001993424820501626 0 0.027137959814929974 -0.0021218589965302584 0 0.027014148557739495 -0.0024303254704101424 0 0.028329083542510569 -0.0020949349744106317 0 0.028416357163534234 -0.0017079583219593536 0 0.02796874432611731 -0.0020170450234705188 0 0.027014148557739495 -0.0024303254704101424 0 0.025543036755909399 -0.0024155703516905362 0 0.026218843287482679 -0.0022314690577783678 0 0.026355968273607609 -0.0020239006161587602 0 0.02596165314168998 -0.0022206414892421682 0 0.026430499439101068 -0.0022233244388319166 0 0.026218843287482679 -0.0022314690577783678 0 0.02612572094115163 -0.0024591904854423655 0 0.027014148557739495 -0.0024303254704101424 0 0.027754662399032005 -0.0026287285881698061 0 0.025543036755909399 -0.0024155703516905362 0 0.024923422830364514 -0.0022439800969843351 0 0.026218843287482679 -0.0022314690577783678 0 0.02596165314168998 -0.0022206414892421682 0 0.02612572094115163 -0.0024591904854423655 0 0.026430499439101068 -0.0022233244388319166 0 0.026218843287482679 -0.0022314690577783678 0 0.026355968273607609 -0.0020239006161587602 0 0.024212769316981377 -0.0023901319447519483 0 0.023869106544576343 -0.0021383910434649863 0 0.023757829978872401 -0.0022780300623418091 0 0.024212769316981377 -0.0023901319447519483 0 0.02411931576942512 -0.001993424820501626 0 0.023869106544576343 -0.0021383910434649863 0 0.023910841075456827 -0.0017400665973862878 0 0.02411931576942512 -0.001993424820501626 0 0.023869106544576343 -0.0021383910434649863 0 0.023869106544576343 -0.0021383910434649863 0 0.023757829978872401 -0.0022780300623418091 0 0.023585057254560601 -0.0020538470213737232 0 0.023618996586958218 -0.0017757164839379519 0 0.023869106544576343 -0.0021383910434649863 0 0.023585057254560601 -0.0020538470213737232 0 0.027754662399032005 -0.0026287285881698061 0 0.02727729337804408 -0.002466725601653581 0 0.029161946042585957 -0.0027633736707084423 0 0.029133860165156154 -0.0028153883089852743 0 0.029212994172230559 -0.0027563814904076537 0 0.025864561674823507 -0.0024557121326095198 0 0.02612572094115163 -0.0024591904854423655 0 0.025806596382517866 -0.0027066500744934545 0 0.02596165314168998 -0.0022206414892421682 0 0.025864561674823507 -0.0024557121326095198 0 0.02612572094115163 -0.0024591904854423655 0 0.031507449619033408 -0.0032382646593491536 0 0.03102591390700182 -0.0032233558662836171 0 0.029191297147442532 -0.002722263905325077 0 0.029161946042585957 -0.0027633736707084423 0 0.029212994172230559 -0.0027563814904076537 0 0.029191297147442532 -0.002722263905325077 0 0.029161946042585957 -0.0027633736707084423 0 0.029111671916452569 -0.0027535497967442046 0 0.031507449619033408 -0.0032382646593491536 0 0.02727729337804408 -0.002466725601653581 0 0.029045557663204751 -0.0028717370207506352 0 0.029080363072245794 -0.00280353228831638 0 0.029133860165156154 -0.0028153883089852743 0 0.029111671916452569 -0.0027535497967442046 0 0.029080363072245794 -0.00280353228831638 0 0.029133860165156154 -0.0028153883089852743 0 0.029161946042585957 -0.0027633736707084423 0 0.029111671916452569 -0.0027535497967442046 0 0.029133860165156154 -0.0028153883089852743 0 0.027014148557739495 -0.0024303254704101424 0 0.029964125632038294 -0.0028767228402839773 0 0.029045557663204751 -0.0028717370207506352 0 0.029080363072245794 -0.00280353228831638 0 0.029030895044501376 -0.0027863134586750531 0 0.029111671916452569 -0.0027535497967442046 0 0.029080363072245794 -0.00280353228831638 0 0.029030895044501376 -0.0027863134586750531 0 0.028329083542510569 -0.0020949349744106317 0 0.02796874432611731 -0.0020170450234705188 0 0.028140847407248527 -0.0025365197316262406 0 0.029964125632038294 -0.0028767228402839773 0 0.030862897384564259 -0.0026426078425862277 0 0.032067628015791973 -0.0040285918029193853 0 0.032335372108036005 -0.0032715061755225912 0 0.031775347593689919 -0.0031732134985843308 0 0.032830232313468634 -0.0037075312690981925 0 0.032067628015791973 -0.0040285918029193853 0 0.032335372108036005 -0.0032715061755225912 0 0.03102591390700182 -0.0032233558662836171 0 0.029964125632038294 -0.0028767228402839773 0 0.029738404607242638 -0.0021332029288580702 0 0.029626976837451611 -0.0020522499215542161 0 0.029758406335281484 -0.0019653658188342445 0 0.029721053189930163 -0.0019443489299150285 0 0.029626976837451611 -0.0020522499215542161 0 0.029758406335281484 -0.0019653658188342445 0 0.029394746521257068 -0.0020822020774755559 0 0.029626976837451611 -0.0020522499215542161 0 0.029536433601499854 -0.0021965412782476274 0 0.028329083542510569 -0.0020949349744106317 0 0.028140847407248527 -0.0025365197316262406 0 0.028494982215416256 -0.0023916248059848272 0 0.029738404607242638 -0.0021332029288580702 0 0.029626976837451611 -0.0020522499215542161 0 0.029536433601499854 -0.0021965412782476274 0 0.029964125632038294 -0.0028767228402839773 0 0.028938046648906989 -0.0023586379032858114 0 0.023133029260807101 -0.0020880522734927076 0 0.023046855544020636 -0.0022644865099920469 0 0.022770495772146401 -0.0020639645104711399 0 0.023133029260807101 -0.0020880522734927076 0 0.022770495772146401 -0.0020639645104711399 0 0.023058305631280557 -0.0015874636598880239 0 0.023133029260807101 -0.0020880522734927076 0 0.023301480044727207 -0.0020851484233035409 0 0.023353727351506055 -0.0022463298162680731 0 0.023353727351506055 -0.0022463298162680731 0 0.023173873664804483 -0.0022517165216727683 0 0.023158784192409333 -0.0024050871507879652 0 0.023133029260807101 -0.0020880522734927076 0 0.023353727351506055 -0.0022463298162680731 0 0.023173873664804483 -0.0022517165216727683 0 0.023133029260807101 -0.0020880522734927076 0 0.023173873664804483 -0.0022517165216727683 0 0.023046855544020636 -0.0022644865099920469 0 0.023173873664804483 -0.0022517165216727683 0 0.023046855544020636 -0.0022644865099920469 0 0.023158784192409333 -0.0024050871507879652 0 0.023046855544020636 -0.0022644865099920469 0 0.022770495772146401 -0.0020639645104711399 0 0.02295980461675427 -0.0023489651878077587 0 0.022334872310693882 -8.3110234231854692e-05 0 0.02236284228207187 -0.00015519662248817567 0 0.022416731117773443 -9.1148850629417112e-05 0 0.022348989856587412 -7.9248730975198693e-06 0 0.022334872310693882 -8.3110234231854692e-05 0 0.022416731117773443 -9.1148850629417112e-05 0 0.022551652757405928 -0.00059465753723243113 0 0.022486132000443981 -0.0010719234905704233 0 0.022658117749484712 -0.0012558207408737221 0 0.022770495772146401 -0.0020639645104711399 0 0.023058305631280557 -0.0015874636598880239 0 0.022348989856587412 -7.9248730975198693e-06 0 0.022423090131362067 5.4426293019756059e-05 0 0.022416731117773443 -9.1148850629417112e-05 0 0.023347963896309342 -0.0015702971996527531 0 0.023139664730747592 -0.0020755830574532685 0 0.023424432580471825 -0.0012997337595177473 0 0.023133029260807101 -0.0020880522734927076 0 0.023058305631280557 -0.0015874636598880239 0 0.023424432580471825 -0.0012997337595177473 0 0.022658117749484712 -0.0012558207408737221 0 0.023058305631280557 -0.0015874636598880239 0 0.023289814558490433 -0.001892328953419332 0 0.023133029260807101 -0.0020880522734927076 0 0.023301480044727207 -0.0020851484233035409 0 0.023289814558490433 -0.001892328953419332 0 0.023301480044727207 -0.0020851484233035409 0 0.023411238738604845 -0.0020207714814271605 0 0.023301480044727207 -0.0020851484233035409 0 0.023411238738604845 -0.0020207714814271605 0 0.023487130499440453 -0.0021683200974491053 0 0.023453241192203905 -0.0018671274865460646 0 0.023289814558490433 -0.001892328953419332 0 0.023411238738604845 -0.0020207714814271605 0 0.023453241192203905 -0.0018671274865460646 0 0.023411238738604845 -0.0020207714814271605 0 0.023585057254560601 -0.0020538470213737232 0 0.023411238738604845 -0.0020207714814271605 0 0.023585057254560601 -0.0020538470213737232 0 0.023487130499440453 -0.0021683200974491053 0 0.024923422830364514 -0.0022439800969843351 0 0.024006927651586522 -0.0021889587859316461 0 0.023757829978872401 -0.0022780300623418091 0 0.023585057254560601 -0.0020538470213737232 0 0.023487130499440453 -0.0021683200974491053 0 0.023757829978872401 -0.0022780300623418091 0 0.023487130499440453 -0.0021683200974491053 0 0.02348785110964826 -0.002365488353713249 0 0.023179491787947815 -0.0021197298416988646 0 0.024006927651586522 -0.0021889587859316461 0 0.023301480044727207 -0.0020851484233035409 0 0.023487130499440453 -0.0021683200974491053 0 0.02348785110964826 -0.002365488353713249 0 0.023301480044727207 -0.0020851484233035409 0 0.023353727351506055 -0.0022463298162680731 0 0.023551135255565653 -0.0023875223248473764 0 0.024006927651586522 -0.0021889587859316461 0 0.023629000376418859 -0.0022878559523887045 0 0.023542816286547457 -0.0023647076948948111 0 0.023551135255565653 -0.0023875223248473764 0 0.023672008527561232 -0.0022875479124887092 0 0.023353727351506055 -0.0022463298162680731 0 0.023542816286547457 -0.0023647076948948111 0 0.023551135255565653 -0.0023875223248473764 0 0.024176746961961981 -0.0019753573455912735 0 0.024054365921564874 -0.0023011657480965682 0 0.023672008527561232 -0.0022875479124887092 0 0.02596165314168998 -0.0022206414892421682 0 0.025864561674823507 -0.0024557121326095198 0 0.025543876545985816 -0.0024268562360263064 0 0.024176746961961981 -0.0019753573455912735 0 0.024466964203213624 -0.0022883580500928633 0 0.024054365921564874 -0.0023011657480965682 0 0.025864561674823507 -0.0024557121326095198 0 0.025543876545985816 -0.0024268562360263064 0 0.025806596382517866 -0.0027066500744934545 0 0.024006927651586522 -0.0021889587859316461 0 0.02727729337804408 -0.002466725601653581 0 0.029442699256123146 -0.0031134620625624114 0 0.030021178218855773 -0.0026740027952048204 0 0.029844256764030842 -0.0024781043297114271 0 0.02916701609004865 -0.0027899181902424955 0 0.029442699256123146 -0.0031134620625624114 0 0.029844256764030842 -0.0024781043297114271 0 0.024466964203213624 -0.0022883580500928633 0 0.024054365921564874 -0.0023011657480965682 0 0.024144043597495217 -0.0024979392369781934 0 0.02727729337804408 -0.002466725601653581 0 0.02665317037156199 -0.002888804038439368 0 0.024054365921564874 -0.0023011657480965682 0 0.023831962678520741 -0.0024158285451667248 0 0.024144043597495217 -0.0024979392369781934 0 0.024054365921564874 -0.0023011657480965682 0 0.023831962678520741 -0.0024158285451667248 0 0.023672008527561232 -0.0022875479124887092 0 0.023831962678520741 -0.0024158285451667248 0 0.023672008527561232 -0.0022875479124887092 0 0.023627604894465633 -0.0023225845057681968 0 0.023831962678520741 -0.0024158285451667248 0 0.023627604894465633 -0.0023225845057681968 0 0.023881989011186634 -0.0026291774835402156 0 0.023353727351506055 -0.0022463298162680731 0 0.023542816286547457 -0.0023647076948948111 0 0.023158784192409333 -0.0024050871507879652 0 0.02323291893942428 -0.0027039390106301893 0 0.023858456269157113 -0.0014299659596761641 0 0.023542816286547457 -0.0023647076948948111 0 0.023672008527561232 -0.0022875479124887092 0 0.023696958244583781 -0.0022962076675868623 0 0.023542816286547457 -0.0023647076948948111 0 0.023158784192409333 -0.0024050871507879652 0 0.022838558995921941 -0.0026454935678105352 0 0.023046855544020636 -0.0022644865099920469 0 0.023158784192409333 -0.0024050871507879652 0 0.02295980461675427 -0.0023489651878077587 0 0.02236284228207187 -0.00015519662248817567 0 0.022416731117773443 -9.1148850629417112e-05 0 0.022431449632938329 -0.00022696068077741823 0 0.022486132000443981 -0.0010719234905704233 0 0.023858456269157113 -0.0014299659596761641 0 0.022770495772146401 -0.0020639645104711399 0 0.02295980461675427 -0.0023489651878077587 0 0.022838558995921941 -0.0026454935678105352 0 0.023158784192409333 -0.0024050871507879652 0 0.02295980461675427 -0.0023489651878077587 0 0.022838558995921941 -0.0026454935678105352 0 0.02236284228207187 -0.00015519662248817567 0 0.022369745648881466 -0.00023811149252313607 0 0.022431449632938329 -0.00022696068077741823 0 0.025294943549709046 0.0015836607873769854 0 0.023858456269157113 -0.0014299659596761641 0 0.031681190680602586 0.0054901464582421981 0 0.031198688818447031 0.0041635959961882621 0 0.032911098058674253 0.0043918942862212467 0 0.025937905967116006 0.00062564258608267343 0 0.026396846356181339 0.00073321351251788916 0 0.026397004457111888 0.00023831995446782413 0 0.025294943549709046 0.0015836607873769854 0 0.028904868911628009 0.00066437131817334474 0 0.023858456269157113 -0.0014299659596761641 0 0.028904868911628009 0.00066437131817334474 0 0.023672008527561232 -0.0022875479124887092 0 0.023696958244583781 -0.0022962076675868623 0 0.023627604894465633 -0.0023225845057681968 0 0.031198688818447031 0.0041635959961882621 0 0.032911098058674253 0.0043918942862212467 0 0.031990411129883309 0.0031383437210536799 0 0.033106806985515567 0.0002200672148687955 0 0.03313312832290418 -0.00010820745726441958 0 0.033286073590201595 -5.5405394429595067e-05 0 0.032911098058674253 0.0043918942862212467 0 0.031990411129883309 0.0031383437210536799 0 0.032880171691347555 0.0018982684334532527 0 0.028904868911628009 0.00066437131817334474 0 0.033251108383109254 0.0012210945048376054 0 0.03313312832290418 -0.00010820745726441958 0 0.033320182142837655 -0.00023519456397649152 0 0.033286073590201595 -5.5405394429595067e-05 0 0.031990411129883309 0.0031383437210536799 0 0.032880171691347555 0.0018982684334532527 0 0.031671392970100735 0.0021298031540575519 0 0.032880171691347555 0.0018982684334532527 0 0.031671392970100735 0.0021298031540575519 0 0.03169228340287146 0.00078443082288329202 0 0.033251108383109254 0.0012210945048376054 0 0.032972117068136665 -0.00045974564626771719 0 0.03313312832290418 -0.00010820745726441958 0 0.033320182142837655 -0.00023519456397649152 0 0.033008795475146777 -0.00041330139045958522 0 0.032880171691347555 0.0018982684334532527 0 0.033008795475146777 -0.00041330139045958522 0 0.03169228340287146 0.00078443082288329202 0 0.033320182142837655 -0.00023519456397649152 0 0.033008795475146777 -0.00041330139045958522 0 0.033515858738212619 -0.00056138742961550734 0 0.033320182142837655 -0.00023519456397649152 0 0.033426726362632643 -0.00014318474415033435 0 0.033471382637296453 -0.00012743437517983406 0 0.033605430457782783 -0.00042121149235950685 0 0.033320182142837655 -0.00023519456397649152 0 0.033790981321690408 -0.00020069263235649273 0 0.033605430457782783 -0.00042121149235950685 0 0.033790981321690408 -0.00020069263235649273 0 0.033808869865154939 -0.00064016262149675738 0 0.033911534490976142 -2.8673920055899653e-07 0 0.032237798204969928 -0.0016387938432600353 0 0.033605430457782783 -0.00042121149235950685 0 0.033808869865154939 -0.00064016262149675738 0 0.033515858738212619 -0.00056138742961550734 0 0.033605430457782783 -0.00042121149235950685 0 0.033320182142837655 -0.00023519456397649152 0 0.033515858738212619 -0.00056138742961550734 0 0.033426726362632643 -0.00014318474415033435 0 0.033286073590201595 -5.5405394429595067e-05 0 0.033471359899531247 -0.00010774732747973587 0 0.033106806985515567 0.0002200672148687955 0 0.033286073590201595 -5.5405394429595067e-05 0 0.033471359899531247 -0.00010774732747973587 0 0.028904868911628009 0.00066437131817334474 0 0.029681055509982488 -0.0013340903340410932 0 0.033426726362632643 -0.00014318474415033435 0 0.033471382637296453 -0.00012743437517983406 0 0.033452103538108673 -0.00011687428122888833 0 0.030989946725028101 -0.00054750187300784303 0 0.029681055509982488 -0.0013340903340410932 0 0.033320182142837655 -0.00023519456397649152 0 0.033426726362632643 -0.00014318474415033435 0 0.033286073590201595 -5.5405394429595067e-05 0 0.032237798204969928 -0.0016387938432600353 0 0.032222943231673254 -0.0027207101965474188 0 0.030021178218855773 -0.0026740027952048204 0 0.030567894234620727 -0.002134557332309705 0 0.029844256764030842 -0.0024781043297114271 0 0.035285297194222229 -0.00257475358085599 0 0.034471587869532298 -0.0029605159063829517 0 0.034663079524377166 -0.0020014785813193634 0 0.02665317037156199 -0.002888804038439368 0 0.029681055509982488 -0.0013340903340410932 0 0.023831962678520741 -0.0024158285451667248 0 0.024144043597495217 -0.0024979392369781934 0 0.023881989011186634 -0.0026291774835402156 0 0.030021178218855773 -0.0026740027952048204 0 0.030567894234620727 -0.002134557332309705 0 0.030635652548548799 -0.0021930748119544669 0 0.032237798204969928 -0.0016387938432600353 0 0.029681055509982488 -0.0013340903340410932 0 0.031507449619033408 -0.0032382646593491536 0 0.032222943231673254 -0.0027207101965474188 0 0.033639618987008006 -0.0033383520817648143 0 0.034471587869532298 -0.0029605159063829517 0 0.033833907826830503 -0.002316205482732077 0 0.034663079524377166 -0.0020014785813193634 0 0.033972613287579223 -0.0013072803762625208 0 0.033833907826830503 -0.002316205482732077 0 0.034471587869532298 -0.0029605159063829517 0 0.034663079524377166 -0.0020014785813193634 0 0.033833907826830503 -0.002316205482732077 0 0.033790981321690408 -0.00020069263235649273 0 0.034067657289527792 -0.00069073610572249983 0 0.033808869865154939 -0.00064016262149675738 0 0.032237798204969928 -0.0016387938432600353 0 0.034581204643507689 -0.0014946412223917735 0 0.034067657289527792 -0.00069073610572249983 0 0.033808869865154939 -0.00064016262149675738 0 0.034016708976201265 -0.00094494664826241955 0 0.033808869865154939 -0.00064016262149675738 0 0.034016708976201265 -0.00094494664826241955 0 0.033915468098099394 -0.000982590060822384 0 0.034016708976201265 -0.00094494664826241955 0 0.034050944588314952 -0.0010091278161651301 0 0.033915468098099394 -0.000982590060822384 0 0.034016708976201265 -0.00094494664826241955 0 0.033972613287579223 -0.0013072803762625208 0 0.034050944588314952 -0.0010091278161651301 0 0.034067657289527792 -0.00069073610572249983 0 0.034016708976201265 -0.00094494664826241955 0 0.033972613287579223 -0.0013072803762625208 0 0.034581204643507689 -0.0014946412223917735 0 0.033925454431221372 -0.0011817866322531567 0 0.034050944588314952 -0.0010091278161651301 0 0.033946802036311501 -0.00084477941644175091 0 0.034089591233884102 -0.00090742486428808304 0 0.033972613287579223 -0.0013072803762625208 0 0.034050944588314952 -0.0010091278161651301 0 0.033946802036311501 -0.00084477941644175091 0 0.034050944588314952 -0.0010091278161651301 0 0.034089591233884102 -0.00090742486428808304 0 0.033915468098099394 -0.000982590060822384 0 0.034089591233884102 -0.00090742486428808304 0 0.033915468098099394 -0.000982590060822384 0 0.034067402163359364 -0.00096482222590650113 0 0.033915468098099394 -0.000982590060822384 0 0.03357466376399796 -0.0010918873552539234 0 0.034067402163359364 -0.00096482222590650113 0 0.03357466376399796 -0.0010918873552539234 0 0.033755330431966483 -0.0013712252035022498 0 0.032367408639700522 -0.0012334908699815075 0 0.03357466376399796 -0.0010918873552539234 0 0.033008795475146777 -0.00041330139045958522 0 0.033515858738212619 -0.00056138742961550734 0 0.03357466376399796 -0.0010918873552539234 0 0.033008795475146777 -0.00041330139045958522 0 0.032367408639700522 -0.0012334908699815075 0 0.033808869865154939 -0.00064016262149675738 0 0.033915468098099394 -0.000982590060822384 0 0.033515858738212619 -0.00056138742961550734 0 0.033915468098099394 -0.000982590060822384 0 0.03357466376399796 -0.0010918873552539234 0 0.033515858738212619 -0.00056138742961550734 0 0.031428670982708282 -0.0023895900333372484 0 0.032200653599124156 -0.0024355164283673082 0 0.031903278103514794 -0.00186430078602927 0 0.03070407904710136 -0.002024563332875577 0 0.030862897384564259 -0.0026426078425862277 0 0.029721053189930163 -0.0019443489299150285 0 0.030016975980416857 -0.0018238324682302168 0 0.029758406335281484 -0.0019653658188342445 0 0.031428670982708282 -0.0023895900333372484 0 0.031775347593689919 -0.0031732134985843308 0 0.032200653599124156 -0.0024355164283673082 0 0.032335372108036005 -0.0032715061755225912 0 0.031775347593689919 -0.0031732134985843308 0 0.032200653599124156 -0.0024355164283673082 0 0.032335372108036005 -0.0032715061755225912 0 0.032200653599124156 -0.0024355164283673082 0 0.032958875249282801 -0.0026014827888879558 0 0.032200653599124156 -0.0024355164283673082 0 0.03277922649784016 -0.0019049048673684371 0 0.032407450128532293 -0.0015983245417778183 0 0.032200653599124156 -0.0024355164283673082 0 0.03277922649784016 -0.0019049048673684371 0 0.032958875249282801 -0.0026014827888879558 0 0.03277922649784016 -0.0019049048673684371 0 0.032958875249282801 -0.0026014827888879558 0 0.033381710561483979 -0.0015828113419894972 0 0.032830232313468634 -0.0037075312690981925 0 0.032335372108036005 -0.0032715061755225912 0 0.032958875249282801 -0.0026014827888879558 0 0.033589432178690759 -0.0033642494136911431 0 0.032830232313468634 -0.0037075312690981925 0 0.032958875249282801 -0.0026014827888879558 0 0.031507449619033408 -0.0032382646593491536 0 0.033594224495951841 -0.0029185635089475437 0 0.033639618987008006 -0.0033383520817648143 0 0.032958875249282801 -0.0026014827888879558 0 0.033833907826830503 -0.002316205482732077 0 0.033972613287579223 -0.0013072803762625208 0 0.033833907826830503 -0.002316205482732077 0 0.033381710561483979 -0.0015828113419894972 0 0.032958875249282801 -0.0026014827888879558 0 0.033833907826830503 -0.002316205482732077 0 0.033381710561483979 -0.0015828113419894972 0 0.033972613287579223 -0.0013072803762625208 0 0.033381710561483979 -0.0015828113419894972 0 0.03348434971852942 -0.0010105648181184871 0 0.033972613287579223 -0.0013072803762625208 0 0.033946802036311501 -0.00084477941644175091 0 0.03348434971852942 -0.0010105648181184871 0 0.033946802036311501 -0.00084477941644175091 0 0.03348434971852942 -0.0010105648181184871 0 0.033662626114244275 -0.00064328443461577917 0 0.03348434971852942 -0.0010105648181184871 0 0.032927834975676189 -0.00087380531759704877 0 0.032924557536579309 -0.0013378977986939287 0 0.03348434971852942 -0.0010105648181184871 0 0.032927834975676189 -0.00087380531759704877 0 0.033255063166843013 -0.00065127308002160876 0 0.032927834975676189 -0.00087380531759704877 0 0.032924557536579309 -0.0013378977986939287 0 0.03244942734458519 -0.0011109696798149533 0 0.033381710561483979 -0.0015828113419894972 0 0.03348434971852942 -0.0010105648181184871 0 0.032924557536579309 -0.0013378977986939287 0 0.03277922649784016 -0.0019049048673684371 0 0.033381710561483979 -0.0015828113419894972 0 0.032924557536579309 -0.0013378977986939287 0 0.03277922649784016 -0.0019049048673684371 0 0.032924557536579309 -0.0013378977986939287 0 0.032407450128532293 -0.0015983245417778183 0 0.032200653599124156 -0.0024355164283673082 0 0.031903278103514794 -0.00186430078602927 0 0.032407450128532293 -0.0015983245417778183 0 0.031968659497052854 -0.0013669162757979317 0 0.032407450128532293 -0.0015983245417778183 0 0.03244942734458519 -0.0011109696798149533 0 0.031903278103514794 -0.00186430078602927 0 0.031968659497052854 -0.0013669162757979317 0 0.032407450128532293 -0.0015983245417778183 0 0.032924557536579309 -0.0013378977986939287 0 0.032407450128532293 -0.0015983245417778183 0 0.03244942734458519 -0.0011109696798149533 0 0.032927834975676189 -0.00087380531759704877 0 0.03244942734458519 -0.0011109696798149533 0 0.032398811407060142 -0.00063511071477809732 0 0.03244942734458519 -0.0011109696798149533 0 0.031968442015684634 -0.00092791325173017549 0 0.032398811407060142 -0.00063511071477809732 0 0.031968442015684634 -0.00092791325173017549 0 0.031871425391944923 -0.00058744050282993009 0 0.032398811407060142 -0.00063511071477809732 0 0.031968659497052854 -0.0013669162757979317 0 0.03244942734458519 -0.0011109696798149533 0 0.031968442015684634 -0.00092791325173017549 0 0.031968659497052854 -0.0013669162757979317 0 0.031968442015684634 -0.00092791325173017549 0 0.031499265489286075 -0.0011071936399186686 0 0.031968442015684634 -0.00092791325173017549 0 0.031499265489286075 -0.0011071936399186686 0 0.031465643068195111 -0.00079931163405734908 0 0.031968442015684634 -0.00092791325173017549 0 0.031465643068195111 -0.00079931163405734908 0 0.031871425391944923 -0.00058744050282993009 0 0.031465643068195111 -0.00079931163405734908 0 0.031094306722530208 -0.00051768687288540366 0 0.031871425391944923 -0.00058744050282993009 0 0.030864144274884462 -0.0010518123354295553 0 0.031465643068195111 -0.00079931163405734908 0 0.031094306722530208 -0.00051768687288540366 0 0.030864144274884462 -0.0010518123354295553 0 0.031499265489286075 -0.0011071936399186686 0 0.031465643068195111 -0.00079931163405734908 0 0.03070280100049869 -0.0014393623983962292 0 0.030864144274884462 -0.0010518123354295553 0 0.031499265489286075 -0.0011071936399186686 0 0.031428670982708282 -0.0023895900333372484 0 0.031903278103514794 -0.00186430078602927 0 0.031499053770141693 -0.001600625537411094 0 0.03070280100049869 -0.0014393623983962292 0 0.031428670982708282 -0.0023895900333372484 0 0.031499053770141693 -0.001600625537411094 0 0.03070280100049869 -0.0014393623983962292 0 0.031499265489286075 -0.0011071936399186686 0 0.031499053770141693 -0.001600625537411094 0 0.030652050528518909 -0.0014445765249438878 0 0.03070407904710136 -0.002024563332875577 0 0.031903278103514794 -0.00186430078602927 0 0.031968659497052854 -0.0013669162757979317 0 0.031499053770141693 -0.001600625537411094 0 0.031968659497052854 -0.0013669162757979317 0 0.031499265489286075 -0.0011071936399186686 0 0.031499053770141693 -0.001600625537411094 0 0.03487308102601052 -6.5011498699067967e-05 0 0.034918778479734354 -0.00010514081855372887 0 0.03494672267579129 -3.6736972942695406e-05 0 0.034918778479734354 -0.00010514081855372887 0 0.034872808263202673 -0.00016295771300027056 0 0.034937593449404593 -0.0001713527176488522 0 0.034818332722187574 -0.00015595953931752684 0 0.03487308102601052 -6.5011498699067967e-05 0 0.034918778479734354 -0.00010514081855372887 0 0.034818332722187574 -0.00015595953931752684 0 0.034918778479734354 -0.00010514081855372887 0 0.034872808263202673 -0.00016295771300027056 0 0.034763823607666798 -0.00029669761984178842 0 0.034829180301722468 -0.0002002417560336458 0 0.034937593449404593 -0.0001713527176488522 0 0.030585529483561295 -0.00032606853908532813 0 0.03099058678566936 -0.0005039542035067422 0 0.031724614961460805 0.00016063612775136897 0 0.034829180301722468 -0.0002002417560336458 0 0.034872808263202673 -0.00016295771300027056 0 0.034937593449404593 -0.0001713527176488522 0 0.032646500626906896 -0.00029716714622930436 0 0.032821552107465395 -3.3303635666519472e-05 0 0.034818332722187574 -0.00015595953931752684 0 0.034829180301722468 -0.0002002417560336458 0 0.034872808263202673 -0.00016295771300027056 0 0.030934623798528519 -0.00062533259476743543 0 0.032821552107465395 -3.3303635666519472e-05 0 0.031094306722530208 -0.00051768687288540366 0 0.031820552673257237 -0.0004166428908363506 0 0.032021838021500534 -0.00014914873340460781 0 0.031094306722530208 -0.00051768687288540366 0 0.031871425391944923 -0.00058744050282993009 0 0.031820552673257237 -0.0004166428908363506 0 0.031871425391944923 -0.00058744050282993009 0 0.031820552673257237 -0.0004166428908363506 0 0.032264755372608547 -0.00041581068905945377 0 0.031820552673257237 -0.0004166428908363506 0 0.032021838021500534 -0.00014914873340460781 0 0.032264755372608547 -0.00041581068905945377 0 0.032821552107465395 -3.3303635666519472e-05 0 0.032459003981025802 -0.00015893318592747951 0 0.032345658139118459 -0.00017045959484229885 0 0.032264755372608547 -0.00041581068905945377 0 0.032553620934947361 -0.00037122571973011132 0 0.032021838021500534 -0.00014914873340460781 0 0.032345658139118459 -0.00017045959484229885 0 0.032264755372608547 -0.00041581068905945377 0 0.032264755372608547 -0.00041581068905945377 0 0.032398811407060142 -0.00063511071477809732 0 0.032553620934947361 -0.00037122571973011132 0 0.031871425391944923 -0.00058744050282993009 0 0.032264755372608547 -0.00041581068905945377 0 0.032398811407060142 -0.00063511071477809732 0 0.032927834975676189 -0.00087380531759704877 0 0.032398811407060142 -0.00063511071477809732 0 0.032902258962658998 -0.00047253093811051796 0 0.032398811407060142 -0.00063511071477809732 0 0.032553620934947361 -0.00037122571973011132 0 0.032902258962658998 -0.00047253093811051796 0 0.032553620934947361 -0.00037122571973011132 0 0.0328304210337447 -0.0002360379064565733 0 0.032902258962658998 -0.00047253093811051796 0 0.032345658139118459 -0.00017045959484229885 0 0.032553620934947361 -0.00037122571973011132 0 0.0328304210337447 -0.0002360379064565733 0 0.034918778479734354 -0.00010514081855372887 0 0.034996415278744662 -4.4937773222214874e-05 0 0.03494672267579129 -3.6736972942695406e-05 0 0.032345658139118459 -0.00017045959484229885 0 0.0328304210337447 -0.0002360379064565733 0 0.032933060300822305 -1.2333843094005639e-05 0 0.034918778479734354 -0.00010514081855372887 0 0.034937593449404593 -0.0001713527176488522 0 0.034996415278744662 -4.4937773222214874e-05 0 0.032821552107465395 -3.3303635666519472e-05 0 0.034016086075241751 -2.0339917260365366e-05 0 0.032106188058222573 -0.00016846138207274848 0 0.032345658139118459 -0.00017045959484229885 0 0.032933060300822305 -1.2333843094005639e-05 0 0.032933060300822305 -1.2333843094005639e-05 0 0.033357583831530084 -0.00031949613480093534 0 0.033724403646235898 7.7732513546181227e-05 0 0.0328304210337447 -0.0002360379064565733 0 0.032933060300822305 -1.2333843094005639e-05 0 0.033357583831530084 -0.00031949613480093534 0 0.0328304210337447 -0.0002360379064565733 0 0.033357583831530084 -0.00031949613480093534 0 0.032902258962658998 -0.00047253093811051796 0 0.033357583831530084 -0.00031949613480093534 0 0.032902258962658998 -0.00047253093811051796 0 0.033255063166843013 -0.00065127308002160876 0 0.032927834975676189 -0.00087380531759704877 0 0.032902258962658998 -0.00047253093811051796 0 0.033255063166843013 -0.00065127308002160876 0 0.033357583831530084 -0.00031949613480093534 0 0.033255063166843013 -0.00065127308002160876 0 0.033662626114244275 -0.00064328443461577917 0 0.03348434971852942 -0.0010105648181184871 0 0.033255063166843013 -0.00065127308002160876 0 0.033662626114244275 -0.00064328443461577917 0 0.033946802036311501 -0.00084477941644175091 0 0.033662626114244275 -0.00064328443461577917 0 0.033978582566841546 -0.00041707447108168638 0 0.033357583831530084 -0.00031949613480093534 0 0.033662626114244275 -0.00064328443461577917 0 0.033978582566841546 -0.00041707447108168638 0 0.033357583831530084 -0.00031949613480093534 0 0.033978582566841546 -0.00041707447108168638 0 0.033724403646235898 7.7732513546181227e-05 0 0.0343313845798019 -0.00012494708742771186 0 0.03474814652246018 5.0851744437149279e-05 0 0.033724403646235898 7.7732513546181227e-05 0 0.033978582566841546 -0.00041707447108168638 0 0.0343313845798019 -0.00012494708742771186 0 0.033724403646235898 7.7732513546181227e-05 0 0.03474814652246018 5.0851744437149279e-05 0 0.034999708947227738 -2.9969766873610195e-08 0 0.034986852837365322 5.4648188187659157e-05 0 0.03474814652246018 5.0851744437149279e-05 0 0.034999708947227738 -2.9969766873610195e-08 0 0.034999153876291787 9.7043456550484079e-09 0 0.034642373797211301 5.5193319286372072e-05 0 0.034322649749693367 1.7985129418796624e-05 0 0.034999708947227738 -2.9969766873610195e-08 0 0.034986852837365322 5.4648188187659157e-05 0 0.034996457705466597 1.3237096865267327e-05 0 0.034999708947227738 -2.9969766873610195e-08 0 0.034996457705466597 1.3237096865267327e-05 0 0.035000071973537168 2.6997788526496294e-08 0 0.034986852837365322 5.4648188187659157e-05 0 0.034986860505092365 8.0233040244365761e-06 0 0.034996457705466597 1.3237096865267327e-05 0 0.034996415278744662 -4.4937773222214874e-05 0 0.034986852837365322 5.4648188187659157e-05 0 0.034986860505092365 8.0233040244365761e-06 0 0.034016086075241751 -2.0339917260365366e-05 0 0.034322649749693367 1.7985129418796624e-05 0 0.034996415278744662 -4.4937773222214874e-05 0 0.034986860505092365 8.0233040244365761e-06 0 0.03494672267579129 -3.6736972942695406e-05 0 0.034986860505092365 8.0233040244365761e-06 0 0.034942756580693686 -8.9259930329880998e-07 0 0.03494672267579129 -3.6736972942695406e-05 0 0.034986860505092365 8.0233040244365761e-06 0 0.034985145453061937 9.2382627383227656e-06 0 0.034942756580693686 -8.9259930329880998e-07 0 0.034986860505092365 8.0233040244365761e-06 0 0.034996457705466597 1.3237096865267327e-05 0 0.034985145453061937 9.2382627383227656e-06 0 0.034996457705466597 1.3237096865267327e-05 0 0.035000071973537168 2.6997788526496294e-08 0 0.034985145453061937 9.2382627383227656e-06 0 0.034985145453061937 9.2382627383227656e-06 0 0.034997324440040653 3.6449878830117662e-06 0 0.034942756580693686 -8.9259930329880998e-07 0 0.034879963560123892 -9.4955956604558304e-05 0 0.034996974726973197 1.717165217065501e-05 0 0.034999856996957034 3.0989071893791634e-08 0 0.035000071973537168 2.6997788526496294e-08 0 0.034997324440040653 3.6449878830117662e-06 0 0.035000071973537168 2.6997788526496294e-08 0 0.034985145453061937 9.2382627383227656e-06 0 0.034997324440040653 3.6449878830117662e-06 0 0.034850743357094406 -1.9259859853549934e-06 0 0.034997324440040653 3.6449878830117662e-06 0 0.034942756580693686 -8.9259930329880998e-07 0 0.03487308102601052 -6.5011498699067967e-05 0 0.034942756580693686 -8.9259930329880998e-07 0 0.03494672267579129 -3.6736972942695406e-05 0 0.034850743357094406 -1.9259859853549934e-06 0 0.03487308102601052 -6.5011498699067967e-05 0 0.034942756580693686 -8.9259930329880998e-07 0 0.034067402163359364 -0.00096482222590650113 0 0.034386889481252993 -0.00044055889737757694 0 0.034518967660172421 -0.00038047335108306712 0 0.034354835241878656 -0.00062777041105532036 0 0.034067402163359364 -0.00096482222590650113 0 0.034518967660172421 -0.00038047335108306712 0 0.03357466376399796 -0.0010918873552539234 0 0.033755330431966483 -0.0013712252035022498 0 0.034067402163359364 -0.00096482222590650113 0 0.034354835241878656 -0.00062777041105532036 0 0.033755330431966483 -0.0013712252035022498 0 0.034067402163359364 -0.00096482222590650113 0 0.034089591233884102 -0.00090742486428808304 0 0.034067402163359364 -0.00096482222590650113 0 0.034193736920799647 -0.00065941222637929059 0 0.033946802036311501 -0.00084477941644175091 0 0.033978582566841546 -0.00041707447108168638 0 0.034193736920799647 -0.00065941222637929059 0 0.033946802036311501 -0.00084477941644175091 0 0.034089591233884102 -0.00090742486428808304 0 0.034193736920799647 -0.00065941222637929059 0 0.033978582566841546 -0.00041707447108168638 0 0.034193736920799647 -0.00065941222637929059 0 0.034304489233247297 -0.00035999614719449006 0 0.033978582566841546 -0.00041707447108168638 0 0.0343313845798019 -0.00012494708742771186 0 0.034304489233247297 -0.00035999614719449006 0 0.034067402163359364 -0.00096482222590650113 0 0.034193736920799647 -0.00065941222637929059 0 0.034386889481252993 -0.00044055889737757694 0 0.034193736920799647 -0.00065941222637929059 0 0.034304489233247297 -0.00035999614719449006 0 0.034386889481252993 -0.00044055889737757694 0 0.034386889481252993 -0.00044055889737757694 0 0.034523649223678538 -0.00021198000530979445 0 0.034740214611364964 -0.00012664679631164757 0 0.034386889481252993 -0.00044055889737757694 0 0.034740214611364964 -0.00012664679631164757 0 0.034518967660172421 -0.00038047335108306712 0 0.034523649223678538 -0.00021198000530979445 0 0.034704170650258402 -5.4744573767982504e-05 0 0.034740214611364964 -0.00012664679631164757 0 0.034304489233247297 -0.00035999614719449006 0 0.034386889481252993 -0.00044055889737757694 0 0.034523649223678538 -0.00021198000530979445 0 0.0343313845798019 -0.00012494708742771186 0 0.034304489233247297 -0.00035999614719449006 0 0.034523649223678538 -0.00021198000530979445 0 0.0343313845798019 -0.00012494708742771186 0 0.034523649223678538 -0.00021198000530979445 0 0.034704170650258402 -5.4744573767982504e-05 0 0.034999153876291787 9.7043456550484079e-09 0 0.034704170650258402 -5.4744573767982504e-05 0 0.034740214611364964 -0.00012664679631164757 0 0.03474814652246018 5.0851744437149279e-05 0 0.034999153876291787 9.7043456550484079e-09 0 0.034704170650258402 -5.4744573767982504e-05 0 0.0343313845798019 -0.00012494708742771186 0 0.03474814652246018 5.0851744437149279e-05 0 0.034704170650258402 -5.4744573767982504e-05 0 0.034999153876291787 9.7043456550484079e-09 0 0.034740214611364964 -0.00012664679631164757 0 0.034999567421889491 -1.3864104348136043e-07 0 0.034740214611364964 -0.00012664679631164757 0 0.034999567421889491 -1.3864104348136043e-07 0 0.034518967660172421 -0.00038047335108306712 0 0.034999567421889491 -1.3864104348136043e-07 0 0.034518967660172421 -0.00038047335108306712 0 0.034763324820716729 -0.00018487773597745944 0 0.034354835241878656 -0.00062777041105532036 0 0.034518967660172421 -0.00038047335108306712 0 0.034763324820716729 -0.00018487773597745944 0 0.034999567421889491 -1.3864104348136043e-07 0 0.034763324820716729 -0.00018487773597745944 0 0.034999685365091474 -1.1314597252199364e-07 0 0.034763324820716729 -0.00018487773597745944 0 0.034999685365091474 -1.1314597252199364e-07 0 0.034850455032413234 -0.00027431273546800646 0 0.034999685365091474 -1.1314597252199364e-07 0 0.034850455032413234 -0.00027431273546800646 0 0.035000009880967312 -6.7977899732589167e-08 0 0.034850455032413234 -0.00027431273546800646 0 0.035000009880967312 -6.7977899732589167e-08 0 0.034978729885767973 -0.00029124247028507682 0 0.034354835241878656 -0.00062777041105532036 0 0.034763324820716729 -0.00018487773597745944 0 0.034850455032413234 -0.00027431273546800646 0 0.035000106024930575 -8.9619648160332509e-08 0 0.035000009880967312 -6.7977899732589167e-08 0 0.035040847073055929 -0.00014724465337572718 0 0.035000009880967312 -6.7977899732589167e-08 0 0.034978729885767973 -0.00029124247028507682 0 0.035040847073055929 -0.00014724465337572718 0 0.035040847073055929 -0.00014724465337572718 0 0.035055965625608872 -0.00035333648363750341 0 0.035143768381081054 -0.00028941406598515358 0 0.034978729885767973 -0.00029124247028507682 0 0.035040847073055929 -0.00014724465337572718 0 0.035055965625608872 -0.00035333648363750341 0 0.035055965625608872 -0.00035333648363750341 0 0.035129011475408985 -0.00055858760013787379 0 0.035143768381081054 -0.00028941406598515358 0 0.034978729885767973 -0.00029124247028507682 0 0.035055965625608872 -0.00035333648363750341 0 0.034992883314820381 -0.00052322532022079497 0 0.034978729885767973 -0.00029124247028507682 0 0.034992883314820381 -0.00052322532022079497 0 0.034899564112697345 -0.00053233634962454699 0 0.034992883314820381 -0.00052322532022079497 0 0.034899564112697345 -0.00053233634962454699 0 0.034905870886326226 -0.00068604707474590463 0 0.035018660192959274 -0.00063092019309299991 0 0.034992883314820381 -0.00052322532022079497 0 0.034905870886326226 -0.00068604707474590463 0 0.035018660192959274 -0.00063092019309299991 0 0.034992883314820381 -0.00052322532022079497 0 0.035129011475408985 -0.00055858760013787379 0 0.035055965625608872 -0.00035333648363750341 0 0.034992883314820381 -0.00052322532022079497 0 0.035129011475408985 -0.00055858760013787379 0 0.034354835241878656 -0.00062777041105532036 0 0.034850455032413234 -0.00027431273546800646 0 0.034683849482526917 -0.00078213950750222964 0 0.034850455032413234 -0.00027431273546800646 0 0.034978729885767973 -0.00029124247028507682 0 0.034899564112697345 -0.00053233634962454699 0 0.034850455032413234 -0.00027431273546800646 0 0.034899564112697345 -0.00053233634962454699 0 0.034683849482526917 -0.00078213950750222964 0 0.034899564112697345 -0.00053233634962454699 0 0.034905870886326226 -0.00068604707474590463 0 0.034683849482526917 -0.00078213950750222964 0 0.035276475817552826 -0.0011454868590476039 0 0.034629285906982735 -0.0007318009200974918 0 0.035300386047358773 -0.001351177574232176 0 0.034683849482526917 -0.00078213950750222964 0 0.034856001149601287 -0.0017918075819396602 0 0.034354835241878656 -0.00062777041105532036 0 0.033755330431966483 -0.0013712252035022498 0 0.034683849482526917 -0.00078213950750222964 0 0.033755330431966483 -0.0013712252035022498 0 0.034683849482526917 -0.00078213950750222964 0 0.034856001149601287 -0.0017918075819396602 0 0.033535416387017583 -0.0014700339506134902 0 0.032653817221595757 -0.0017790443291414307 0 0.033755330431966483 -0.0013712252035022498 0 0.032367408639700522 -0.0012334908699815075 0 0.030549075657996611 -0.0020545899500859894 0 0.032367408639700522 -0.0012334908699815075 0 0.030735649027820559 -0.00098791344506299838 0 0.030549075657996611 -0.0020545899500859894 0 0.033008795475146777 -0.00041330139045958522 0 0.032367408639700522 -0.0012334908699815075 0 0.031623756998916966 -0.00052670466440236257 0 0.032367408639700522 -0.0012334908699815075 0 0.030735649027820559 -0.00098791344506299838 0 0.031623756998916966 -0.00052670466440236257 0 0.030735649027820559 -0.00098791344506299838 0 0.031623756998916966 -0.00052670466440236257 0 0.030257061633283028 -0.00011977222797166214 0 0.033008795475146777 -0.00041330139045958522 0 0.031623756998916966 -0.00052670466440236257 0 0.03169228340287146 0.00078443082288329202 0 0.029179166267049309 -0.00066918323405591945 0 0.028873448904704849 -0.0016951158671867298 0 0.026884771980366793 -0.00087513489155835065 0 0.029179166267049309 -0.00066918323405591945 0 0.030257061633283028 -0.00011977222797166214 0 0.029060871106333767 0.00036503779768117797 0 0.030735649027820559 -0.00098791344506299838 0 0.029179166267049309 -0.00066918323405591945 0 0.030257061633283028 -0.00011977222797166214 0 0.030735649027820559 -0.00098791344506299838 0 0.029179166267049309 -0.00066918323405591945 0 0.030549075657996611 -0.0020545899500859894 0 0.029179166267049309 -0.00066918323405591945 0 0.028873448904704849 -0.0016951158671867298 0 0.030549075657996611 -0.0020545899500859894 0 0.035300386047358773 -0.001351177574232176 0 0.035187855768669257 -0.0019356383071585785 0 0.034856001149601287 -0.0017918075819396602 0 0.032135233416000428 -0.0015925670982407096 0 0.032653817221595757 -0.0017790443291414307 0 0.035300386047358773 -0.001351177574232176 0 0.035481039756425158 -0.0017766067553881665 0 0.035790068301942798 -0.0017550122718729209 0 0.035018660192959274 -0.00063092019309299991 0 0.034905870886326226 -0.00068604707474590463 0 0.035046731893307821 -0.00074974986385081203 0 0.035300386047358773 -0.001351177574232176 0 0.035187855768669257 -0.0019356383071585785 0 0.035481039756425158 -0.0017766067553881665 0 0.035276475817552826 -0.0011454868590476039 0 0.034473940238567612 -0.00061500191734797623 0 0.035481039756425158 -0.0017766067553881665 0 0.035790068301942798 -0.0017550122718729209 0 0.03562268029268921 -0.002060031831590745 0 0.035157167989426134 0.00012746224066125555 0 0.035258655761199159 0.00030438163925441134 0 0.035078161516712204 0.00026673655934617328 0 0.035018660192959274 -0.00063092019309299991 0 0.035129011475408985 -0.00055858760013787379 0 0.035046731893307821 -0.00074974986385081203 0 0.035258655761199159 0.00030438163925441134 0 0.035047865235844258 0.00047714060436531889 0 0.035078161516712204 0.00026673655934617328 0 0.03522164808310841 -0.00010785875245297717 0 0.034473940238567612 -0.00061500191734797623 0 0.030364686603692039 4.5137088593467962e-05 0 0.029361375037407579 0.00081248641346964346 0 0.029051958210020858 0.00061227118837136902 0 0.030364686603692039 4.5137088593467962e-05 0 0.030431862799553337 0.00017517219869701205 0 0.029361375037407579 0.00081248641346964346 0 0.033085499476987038 -0.00074417041571805563 0 0.033406004921114285 -0.00011695083057945933 0 0.031984487731366792 0.00047660786829076105 0 0.030032278864744508 -0.00042469184841899645 0 0.026899167511298026 0.00071690976077956126 0 0.033085499476987038 -0.00074417041571805563 0 0.031984487731366792 0.00047660786829076105 0 0.03178502226589755 0.0001420016866378821 0 0.034473940238567612 -0.00061500191734797623 0 0.033789397707887268 0.0002535455519056678 0 0.032082163871830216 -0.00044891403999715957 0 0.030251498081701942 0.00063042817767362813 0 0.029179166267049309 -0.00066918323405591945 0 0.026884771980366793 -0.00087513489155835065 0 0.027782561549827871 0.00033588674719018177 0 0.035187855768669257 -0.0019356383071585785 0 0.035481039756425158 -0.0017766067553881665 0 0.03562268029268921 -0.002060031831590745 0 0.032135233416000428 -0.0015925670982407096 0 0.030032278864744508 -0.00042469184841899645 0 0.032135233416000428 -0.0015925670982407096 0 0.032082163871830216 -0.00044891403999715957 0 0.032171344292455599 -0.0014969701282479592 0 0.030662369360317094 -0.00092772112054644907 0 0.030789127193350634 -0.00068402901779596246 0 0.034473940238567612 -0.00061500191734797623 0 0.032082163871830216 -0.00044891403999715957 0 0.032082163871830216 -0.00044891403999715957 0 0.030032278864744508 -0.00042469184841899645 0 0.026884771980366793 -0.00087513489155835065 0 0.027782561549827871 0.00033588674719018177 0 0.026270646400585268 0.00064672113423882237 0 0.026270646400585268 0.00064672113423882237 0 0.026779128874720112 0.0014969026606056904 0 0.025542184766016347 0.0018279372465141524 0 0.027782561549827871 0.00033588674719018177 0 0.026270646400585268 0.00064672113423882237 0 0.026779128874720112 0.0014969026606056904 0 0.027782561549827871 0.00033588674719018177 0 0.026779128874720112 0.0014969026606056904 0 0.028293142967825088 0.0013145896501239392 0 0.02482326040581 0.000556373189221755 0 0.025542184766016347 0.0018279372465141524 0 0.024703665124350727 0.002336583150111917 0 0.026884771980366793 -0.00087513489155835065 0 0.026270646400585268 0.00064672113423882237 0 0.02482326040581 0.000556373189221755 0 0.026270646400585268 0.00064672113423882237 0 0.02482326040581 0.000556373189221755 0 0.025542184766016347 0.0018279372465141524 0 0.02474582501685087 0.0030105340723886936 0 0.025542184766016347 0.0018279372465141524 0 0.024703665124350727 0.002336583150111917 0 0.02474582501685087 0.0030105340723886936 0 0.025542184766016347 0.0018279372465141524 0 0.026765833332124886 0.0024217701458155382 0 0.026779128874720112 0.0014969026606056904 0 0.026765833332124886 0.0024217701458155382 0 0.028293142967825088 0.0013145896501239392 0 0.026779128874720112 0.0014969026606056904 0 0.025542184766016347 0.0018279372465141524 0 0.026765833332124886 0.0024217701458155382 0 0.028624351699727872 0.0047639113241984329 0 0.026765833332124886 0.0024217701458155382 0 0.02872657845125531 0.0024024230974041571 0 0.026765833332124886 0.0024217701458155382 0 0.02872657845125531 0.0024024230974041571 0 0.028293142967825088 0.0013145896501239392 0 0.02872657845125531 0.0024024230974041571 0 0.030612313087850705 0.0018106301346568329 0 0.029788548109245788 0.00092819896375595208 0 0.031990411129883309 0.0031383437210536799 0 0.030643593903057098 0.0030672267305364193 0 0.031671392970100735 0.0021298031540575519 0 0.030643593903057098 0.0030672267305364193 0 0.031671392970100735 0.0021298031540575519 0 0.030612313087850705 0.0018106301346568329 0 0.02872657845125531 0.0024024230974041571 0 0.030643593903057098 0.0030672267305364193 0 0.030612313087850705 0.0018106301346568329 0 0.030612313087850705 0.0018106301346568329 0 0.03169228340287146 0.00078443082288329202 0 0.029788548109245788 0.00092819896375595208 0 0.031671392970100735 0.0021298031540575519 0 0.030612313087850705 0.0018106301346568329 0 0.03169228340287146 0.00078443082288329202 0 0.030257061633283028 -0.00011977222797166214 0 0.03169228340287146 0.00078443082288329202 0 0.029788548109245788 0.00092819896375595208 0 0.031623756998916966 -0.00052670466440236257 0 0.030257061633283028 -0.00011977222797166214 0 0.03169228340287146 0.00078443082288329202 0 0.030257061633283028 -0.00011977222797166214 0 0.029060871106333767 0.00036503779768117797 0 0.029788548109245788 0.00092819896375595208 0 0.027782561549827871 0.00033588674719018177 0 0.029060871106333767 0.00036503779768117797 0 0.028293142967825088 0.0013145896501239392 0 0.029179166267049309 -0.00066918323405591945 0 0.027782561549827871 0.00033588674719018177 0 0.029060871106333767 0.00036503779768117797 0 0.02872657845125531 0.0024024230974041571 0 0.028293142967825088 0.0013145896501239392 0 0.029788548109245788 0.00092819896375595208 0 0.029060871106333767 0.00036503779768117797 0 0.028293142967825088 0.0013145896501239392 0 0.029788548109245788 0.00092819896375595208 0 0.02941140168269786 0.00087701476134218793 0 0.028771519508487324 0.00071611586845645228 0 0.028539750469776561 0.0008717090646657204 0 0.02941140168269786 0.00087701476134218793 0 0.028771519508487324 0.00071611586845645228 0 0.029727872898562591 0.00029745207021099253 0 0.02941140168269786 0.00087701476134218793 0 0.028539750469776561 0.0008717090646657204 0 0.029967300706746285 0.0015886241619626426 0 0.030185951016278179 0.0010222270872992103 0 0.032365511640830437 0.0011686678414042876 0 0.03478203210163304 0.00071034559052062798 0 0.034638483281046267 0.00051720526457546664 0 0.034325827934083876 0.00052183931769390185 0 0.0300584461645696 0.00091158696355661789 0 0.029727872898562591 0.00029745207021099253 0 0.030759184999455756 0.00086710824869922994 0 0.02941140168269786 0.00087701476134218793 0 0.0300584461645696 0.00091158696355661789 0 0.029967300706746285 0.0015886241619626426 0 0.0300584461645696 0.00091158696355661789 0 0.029967300706746285 0.0015886241619626426 0 0.030759184999455756 0.00086710824869922994 0 0.02941140168269786 0.00087701476134218793 0 0.0300584461645696 0.00091158696355661789 0 0.029727872898562591 0.00029745207021099253 0 0.025111033838105885 0.0003053019085697804 0 0.02983145209792841 0.0013594273431675934 0 0.02966337999143219 4.7626105306970624e-05 0 0.029727872898562591 0.00029745207021099253 0 0.030759184999455756 0.00086710824869922994 0 0.025553625594164783 0.0021165291479598139 0 0.025872258881788481 0.0024128407722857786 0 0.025592731592277502 0.0024309384811775571 0 0.028386255483914234 0.0013833681349578071 0 0.025111033838105885 0.0003053019085697804 0 0.028386255483914234 0.0013833681349578071 0 0.029778413040541355 0.00023993823839946112 0 0.028505725684046562 0.00078177622290012227 0 0.02966337999143219 4.7626105306970624e-05 0 0.029727872898562591 0.00029745207021099253 0 0.02562805047238019 0.0025505468731114784 0 0.025872258881788481 0.0024128407722857786 0 0.025592731592277502 0.0024309384811775571 0 0.025553625594164783 0.0021165291479598139 0 0.025592731592277502 0.0024309384811775571 0 0.025180590221570053 0.0023514184509776655 0 0.025592731592277502 0.0024309384811775571 0 0.025180590221570053 0.0023514184509776655 0 0.025188685102065907 0.0026789371071382529 0 0.025341474401198865 0.0025703969036803376 0 0.025776094631108897 0.0017890397169616798 0 0.025592731592277502 0.0024309384811775571 0 0.025593898600340923 0.0025712521445514767 0 0.025492072579998953 0.0025103636050733645 0 0.025180590221570053 0.0023514184509776655 0 0.024703665124350727 0.002336583150111917 0 0.025188685102065907 0.0026789371071382529 0 0.024925196488691053 0.0022839185311701897 0 0.025180590221570053 0.0023514184509776655 0 0.024703665124350727 0.002336583150111917 0 0.024278416500023544 0.0021526122040652251 0 0.025776094631108897 0.0017890397169616798 0 0.029361375037407579 0.00081248641346964346 0 0.029051958210020858 0.00061227118837136902 0 0.028354699399542448 0.0013978609625459771 0 0.026899167511298026 0.00071690976077956126 0 0.025776094631108897 0.0017890397169616798 0 0.031984487731366792 0.00047660786829076105 0 0.030469039375347166 0.0010449796534646569 0 0.03178502226589755 0.0001420016866378821 0 0.02482326040581 0.000556373189221755 0 0.024703665124350727 0.002336583150111917 0 0.023257533443059374 0.0016152668874741913 0 0.030251498081701942 0.00063042817767362813 0 0.030185951016278179 0.0010222270872992103 0 0.029051958210020858 0.00061227118837136902 0 0.027769301226926522 0.0011040888582076764 0 0.028354699399542448 0.0013978609625459771 0 0.030185951016278179 0.0010222270872992103 0 0.033789397707887268 0.0002535455519056678 0 0.02562805047238019 0.0025505468731114784 0 0.025592731592277502 0.0024309384811775571 0 0.025593898600340923 0.0025712521445514767 0 0.028386255483914234 0.0013833681349578071 0 0.030185951016278179 0.0010222270872992103 0 0.030185951016278179 0.0010222270872992103 0 0.025776094631108897 0.0017890397169616798 0 0.03478203210163304 0.00071034559052062798 0 0.034861196734106217 0.00049578048044777165 0 0.034638483281046267 0.00051720526457546664 0 0.03478203210163304 0.00071034559052062798 0 0.034861196734106217 0.00049578048044777165 0 0.035047865235844258 0.00047714060436531889 0 0.034861196734106217 0.00049578048044777165 0 0.035047865235844258 0.00047714060436531889 0 0.034872669860318069 0.00032465005683671492 0 0.034861196734106217 0.00049578048044777165 0 0.034872669860318069 0.00032465005683671492 0 0.034638483281046267 0.00051720526457546664 0 0.035078161516712204 0.00026673655934617328 0 0.034872669860318069 0.00032465005683671492 0 0.035002696028928013 0.00010523099377780245 0 0.035047865235844258 0.00047714060436531889 0 0.035078161516712204 0.00026673655934617328 0 0.034872669860318069 0.00032465005683671492 0 0.034872669860318069 0.00032465005683671492 0 0.03479758092031425 0.00019279999715825932 0 0.035002696028928013 0.00010523099377780245 0 0.034872669860318069 0.00032465005683671492 0 0.034619547581131171 0.000323059608159369 0 0.03479758092031425 0.00019279999715825932 0 0.034619547581131171 0.000323059608159369 0 0.034590905451391908 0.0001432466621134216 0 0.03479758092031425 0.00019279999715825932 0 0.034872669860318069 0.00032465005683671492 0 0.034619547581131171 0.000323059608159369 0 0.034638483281046267 0.00051720526457546664 0 0.034475942060887277 0.0001774887168433112 0 0.034638483281046267 0.00051720526457546664 0 0.034325827934083876 0.00052183931769390185 0 0.034536516499482889 0.00024523359131030511 0 0.034640873027130904 0.0004981275936473817 0 0.034475942060887277 0.0001774887168433112 0 0.034325827934083876 0.00052183931769390185 0 0.034194008437662071 0.00024606522096310796 0 0.034475942060887277 0.0001774887168433112 0 0.034193628344795571 1.9121996543147545e-05 0 0.034302793341308271 -0.00018800582671381255 0 0.034475942060887277 0.0001774887168433112 0 0.034194008437662071 0.00024606522096310796 0 0.034193628344795571 1.9121996543147545e-05 0 0.034536516499482889 0.00024523359131030511 0 0.034556697119829796 -8.5984913586430362e-06 0 0.034619547581131171 0.000323059608159369 0 0.034541657923154646 0.00012384386233106024 0 0.034590905451391908 0.0001432466621134216 0 0.034193628344795571 1.9121996543147545e-05 0 0.034243055819343192 -0.00020992770913180105 0 0.034039444002818366 -0.00015990878611860869 0 0.034193628344795571 1.9121996543147545e-05 0 0.034243055819343192 -0.00020992770913180105 0 0.034302793341308271 -0.00018800582671381255 0 0.03459872836279336 2.1163776053483639e-05 0 0.034609966058365915 2.5026665123556387e-05 0 0.034607009851837123 1.9001830952792526e-05 0 0.034539624532452191 -5.9585503215044146e-06 0 0.034556697119829796 -8.5984913586430362e-06 0 0.034556697119829796 -8.5984913586430362e-06 0 0.034641627023166519 2.1212725052494165e-05 0 0.034691464693077746 -1.0588962490359251e-05 0 0.034702175537397927 3.1716281161210077e-05 0 0.034720985343265599 4.3409710858589286e-08 0 0.034921961080764848 2.2614174975255118e-05 0 0.034915185537322438 2.8248265785082068e-05 0 0.034918870285567907 2.8977794996445882e-05 0 0.034641627023166519 2.1212725052494165e-05 0 0.034873124657881338 1.9852391247945424e-05 0 0.034539624532452191 -5.9585503215044146e-06 0 0.034644939990104394 -5.35749421577607e-06 0 0.034691464693077746 -1.0588962490359251e-05 0 0.034682193314092405 -8.2248708668668465e-06 0 0.034702175537397927 3.1716281161210077e-05 0 0.034539624532452191 -5.9585503215044146e-06 0 0.034641627023166519 2.1212725052494165e-05 0 0.034873124657881338 1.9852391247945424e-05 0 0.034644939990104394 -5.35749421577607e-06 0 0.034921961080764848 2.2614174975255118e-05 0 0.034916335005276598 3.312460193437017e-05 0 0.034918870285567907 2.8977794996445882e-05 0 0.034556697119829796 -8.5984913586430362e-06 0 0.034582422565801872 2.9518572136642802e-05 0 0.034524619629607858 0.00011645730245899954 0 0.034513929517039611 9.2838649876392861e-05 0 0.034590905451391908 0.0001432466621134216 0 0.034590905451391908 0.0001432466621134216 0 0.03479758092031425 0.00019279999715825932 0 0.034896876204312047 4.5773614479190441e-05 0 0.034641627023166519 2.1212725052494165e-05 0 0.034915160152602119 4.9032619645157411e-05 0 0.034513929517039611 9.2838649876392861e-05 0 0.034590905451391908 0.0001432466621134216 0 0.034896876204312047 4.5773614479190441e-05 0 0.034921961080764848 2.2614174975255118e-05 0 0.034916335005276598 3.312460193437017e-05 0 0.034896876204312047 4.5773614479190441e-05 0 0.034916335005276598 3.312460193437017e-05 0 0.034896876204312047 4.5773614479190441e-05 0 0.034953216515391669 2.3197494370162868e-06 0 0.034916335005276598 3.312460193437017e-05 0 0.034923240937381972 9.5399547114561483e-06 0 0.034953216515391669 2.3197494370162868e-06 0 0.034993525247401368 -3.5923823235875887e-05 0 0.034987106575909831 -2.5164142376022655e-05 0 0.035002716997767067 -1.6032789609942781e-05 0 0.034873124657881338 1.9852391247945424e-05 0 0.03496298816930319 -1.6222483601526136e-05 0 0.034915185537322438 2.8248265785082068e-05 0 0.034918870285567907 2.8977794996445882e-05 0 0.034923240937381972 9.5399547114561483e-06 0 0.034916335005276598 3.312460193437017e-05 0 0.034918870285567907 2.8977794996445882e-05 0 0.034923240937381972 9.5399547114561483e-06 0 0.035157167989426134 0.00012746224066125555 0 0.035002696028928013 0.00010523099377780245 0 0.035067791287352296 -5.0803378029598071e-07 0 0.035157167989426134 0.00012746224066125555 0 0.035078161516712204 0.00026673655934617328 0 0.035002696028928013 0.00010523099377780245 0 0.03479758092031425 0.00019279999715825932 0 0.035002696028928013 0.00010523099377780245 0 0.034896876204312047 4.5773614479190441e-05 0 0.035002696028928013 0.00010523099377780245 0 0.034896876204312047 4.5773614479190441e-05 0 0.03498726862546625 7.8345226546438716e-06 0 0.034896876204312047 4.5773614479190441e-05 0 0.03498726862546625 7.8345226546438716e-06 0 0.034953216515391669 2.3197494370162868e-06 0 0.035002696028928013 0.00010523099377780245 0 0.03498726862546625 7.8345226546438716e-06 0 0.035067791287352296 -5.0803378029598071e-07 0 0.03522164808310841 -0.00010785875245297717 0 0.035083570762838363 -0.00017434923770709277 0 0.035040847073055929 -0.00014724465337572718 0 0.035143768381081054 -0.00028941406598515358 0 0.035043302370837345 -6.4858617474538332e-05 0 0.035083570762838363 -0.00017434923770709277 0 0.035061849592984161 -8.1014268218686255e-05 0 0.03498726862546625 7.8345226546438716e-06 0 0.035067791287352296 -5.0803378029598071e-07 0 0.035043302370837345 -6.4858617474538332e-05 0 0.03498726862546625 7.8345226546438716e-06 0 0.035043302370837345 -6.4858617474538332e-05 0 0.034953216515391669 2.3197494370162868e-06 0 0.035043302370837345 -6.4858617474538332e-05 0 0.034953216515391669 2.3197494370162868e-06 0 0.034974402896024541 -1.7408368403736513e-05 0 0.035043302370837345 -6.4858617474538332e-05 0 0.035000030961380747 -5.795992447741502e-08 0 0.034974402896024541 -1.7408368403736513e-05 0 0.035000106024930575 -8.9619648160332509e-08 0 0.035040847073055929 -0.00014724465337572718 0 0.035043302370837345 -6.4858617474538332e-05 0 0.035000106024930575 -8.9619648160332509e-08 0 0.035043302370837345 -6.4858617474538332e-05 0 0.035000030961380747 -5.795992447741502e-08 0 0.034987106575909831 -2.5164142376022655e-05 0 0.034974402896024541 -1.7408368403736513e-05 0 0.03499689670017031 -1.1045408363324679e-05 0 0.034987106575909831 -2.5164142376022655e-05 0 0.03499689670017031 -1.1045408363324679e-05 0 0.035002716997767067 -1.6032789609942781e-05 0 0.034923240937381972 9.5399547114561483e-06 0 0.034953216515391669 2.3197494370162868e-06 0 0.034974402896024541 -1.7408368403736513e-05 0 0.03496298816930319 -1.6222483601526136e-05 0 0.034966362744606065 -1.1475934879107648e-05 0 0.035000030961380747 -5.795992447741502e-08 0 0.034974402896024541 -1.7408368403736513e-05 0 0.034999953875448485 6.4570775826098762e-09 0 0.034974402896024541 -1.7408368403736513e-05 0 0.034999953875448485 6.4570775826098762e-09 0 0.03499689670017031 -1.1045408363324679e-05 0 0.034999953875448485 6.4570775826098762e-09 0 0.03499689670017031 -1.1045408363324679e-05 0 0.035000036928678153 -9.9680566821772805e-09 0 0.03499689670017031 -1.1045408363324679e-05 0 0.035002716997767067 -1.6032789609942781e-05 0 0.035000036928678153 -9.9680566821772805e-09 0 0.035030372796226054 1.6617598573600073e-05 0 0.034999991562771941 -1.1770892553331594e-08 0 0.035025355475080691 3.9749805167240601e-05 0 0.035001463020860296 3.9809700606231075e-05 0 0.035020052406033925 6.3095658189911961e-05 0 0.035025355475080691 3.9749805167240601e-05 0 0.035001463020860296 3.9809700606231075e-05 0 0.035000066639793194 2.6125619259439163e-08 0 0.035001463020860296 3.9809700606231075e-05 0 0.035000066639793194 2.6125619259439163e-08 0 0.034999967937199172 1.1766605634929854e-08 0 0.035001463020860296 3.9809700606231075e-05 0 0.034999967937199172 1.1766605634929854e-08 0 0.034967088139090684 3.353239956506348e-05 0 0.034999967937199172 1.1766605634929854e-08 0 0.034967088139090684 3.353239956506348e-05 0 0.034999866429069083 1.9609514892571988e-08 0 0.034967088139090684 3.353239956506348e-05 0 0.034977289551720858 7.9424958815516055e-05 0 0.03485522224000414 9.2773450491049142e-05 0 0.035001463020860296 3.9809700606231075e-05 0 0.034967088139090684 3.353239956506348e-05 0 0.034977289551720858 7.9424958815516055e-05 0 0.034757847919628541 0.00010586791450236946 0 0.034698926229784363 9.4610497017524011e-05 0 0.03454592095287419 0.00015164217791401673 0 0.034443383744223434 5.3639193079388238e-05 0 0.034380079887632531 9.8754308237308057e-05 0 0.035001463020860296 3.9809700606231075e-05 0 0.034977289551720858 7.9424958815516055e-05 0 0.035004918628044016 7.035938058645693e-05 0 0.03454592095287419 0.00015164217791401673 0 0.034532424342049506 4.7711029174251073e-05 0 0.034718092435987918 6.9733161239969298e-05 0 0.034757847919628541 0.00010586791450236946 0 0.034834823513213126 9.836542385733928e-05 0 0.03454592095287419 0.00015164217791401673 0 0.03485522224000414 9.2773450491049142e-05 0 0.034718092435987918 6.9733161239969298e-05 0 0.034532424342049506 4.7711029174251073e-05 0 0.034718092435987918 6.9733161239969298e-05 0 0.03455976345938528 -2.3339863601583258e-06 0 0.034532424342049506 4.7711029174251073e-05 0 0.034418334730842298 2.0139079901598036e-06 0 0.03455976345938528 -2.3339863601583258e-06 0 0.03454592095287419 0.00015164217791401673 0 0.034532424342049506 4.7711029174251073e-05 0 0.034443383744223434 5.3639193079388238e-05 0 0.034443383744223434 5.3639193079388238e-05 0 0.034375484613611312 1.8207568716108099e-05 0 0.034418334730842298 2.0139079901598036e-06 0 0.034532424342049506 4.7711029174251073e-05 0 0.034443383744223434 5.3639193079388238e-05 0 0.034418334730842298 2.0139079901598036e-06 0 0.034443383744223434 5.3639193079388238e-05 0 0.034375484613611312 1.8207568716108099e-05 0 0.034380079887632531 9.8754308237308057e-05 0 0.034375484613611312 1.8207568716108099e-05 0 0.034299631448826411 3.9485985669775237e-05 0 0.034380079887632531 9.8754308237308057e-05 0 0.034644939990104394 -5.35749421577607e-06 0 0.034698926229784363 9.4610497017524011e-05 0 0.034262273922309107 5.8116336881317151e-05 0 0.034339534564138623 -4.3758067866447132e-05 0 0.034299631448826411 3.9485985669775237e-05 0 0.034288368619145394 5.927194274157664e-05 0 0.034380079887632531 9.8754308237308057e-05 0 0.03455306176099579 -4.5960766245841171e-05 0 0.034474873042074687 -2.5924557521687949e-05 0 0.034499141552658749 -6.5233673828767554e-05 0 0.034539624532452191 -5.9585503215044146e-06 0 0.034339534564138623 -4.3758067866447132e-05 0 0.034339534564138623 -4.3758067866447132e-05 0 0.034644939990104394 -5.35749421577607e-06 0 0.034873124657881338 1.9852391247945424e-05 0 0.035030372796226054 1.6617598573600073e-05 0 0.03502881726273252 7.5364525093189882e-05 0 0.035020052406033925 6.3095658189911961e-05 0 0.035004918628044016 7.035938058645693e-05 0 0.035034282790858483 6.8325117945031651e-05 0 0.035025355475080691 3.9749805167240601e-05 0 0.035020052406033925 6.3095658189911961e-05 0 0.035034282790858483 6.8325117945031651e-05 0 0.03502881726273252 7.5364525093189882e-05 0 0.035020052406033925 6.3095658189911961e-05 0 0.035001463020860296 3.9809700606231075e-05 0 0.035020052406033925 6.3095658189911961e-05 0 0.035004918628044016 7.035938058645693e-05 0 0.034916821085725545 2.5677968132847471e-05 0 0.034999888975809565 3.7978442960833299e-08 0 0.034999870690319138 -5.1514278830123465e-09 0 0.034916821085725545 2.5677968132847471e-05 0 0.034999888975809565 3.7978442960833299e-08 0 0.034923161637671229 4.6962208120759371e-05 0 0.034916821085725545 2.5677968132847471e-05 0 0.034923161637671229 4.6962208120759371e-05 0 0.034868506382705375 6.4161458980647188e-05 0 0.034923161637671229 4.6962208120759371e-05 0 0.03485522224000414 9.2773450491049142e-05 0 0.034868506382705375 6.4161458980647188e-05 0 0.034999888975809565 3.7978442960833299e-08 0 0.034923161637671229 4.6962208120759371e-05 0 0.034999866429069083 1.9609514892571988e-08 0 0.034923161637671229 4.6962208120759371e-05 0 0.034999866429069083 1.9609514892571988e-08 0 0.03485522224000414 9.2773450491049142e-05 0 0.034967088139090684 3.353239956506348e-05 0 0.034999866429069083 1.9609514892571988e-08 0 0.03485522224000414 9.2773450491049142e-05 0 0.034718092435987918 6.9733161239969298e-05 0 0.03474635276973962 3.9043505437332238e-05 0 0.03455976345938528 -2.3339863601583258e-06 0 0.034718092435987918 6.9733161239969298e-05 0 0.03474635276973962 3.9043505437332238e-05 0 0.034868506382705375 6.4161458980647188e-05 0 0.03474635276973962 3.9043505437332238e-05 0 0.034868506382705375 6.4161458980647188e-05 0 0.034827050061969005 4.808556151387624e-05 0 0.03474635276973962 3.9043505437332238e-05 0 0.034827050061969005 4.808556151387624e-05 0 0.034771438242890085 3.1895628911522797e-06 0 0.03485522224000414 9.2773450491049142e-05 0 0.034718092435987918 6.9733161239969298e-05 0 0.034868506382705375 6.4161458980647188e-05 0 0.034868506382705375 6.4161458980647188e-05 0 0.034827050061969005 4.808556151387624e-05 0 0.034807673433121925 8.4064188334100295e-05 0 0.034827050061969005 4.808556151387624e-05 0 0.034839507008100831 2.7995527872898898e-05 0 0.034771438242890085 3.1895628911522797e-06 0 0.034827050061969005 4.808556151387624e-05 0 0.034807673433121925 8.4064188334100295e-05 0 0.034839507008100831 2.7995527872898898e-05 0 0.034770583504765126 7.995518758868199e-05 0 0.0345882695877913 2.5033949024472762e-05 0 0.034807673433121925 8.4064188334100295e-05 0 0.034345199834342886 5.7296206005959505e-05 0 0.034687972500156178 6.5669182558371426e-05 0 0.034916821085725545 2.5677968132847471e-05 0 0.034868506382705375 6.4161458980647188e-05 0 0.034807673433121925 8.4064188334100295e-05 0 0.03373640931169309 0.00018582352363204414 0 0.034044615726956141 0.00032163500715408052 0 0.033687090788167208 0.00053218672132624388 0 0.03373640931169309 0.00018582352363204414 0 0.034303508660032775 7.284131377262388e-05 0 0.034044615726956141 0.00032163500715408052 0 0.034199401352865672 0.00012138551499373999 0 0.034283698955835704 7.4573858486329231e-05 0 0.034673813885309532 1.3794298395113105e-05 0 0.034345199834342886 5.7296206005959505e-05 0 0.034303508660032775 7.284131377262388e-05 0 0.034673813885309532 1.3794298395113105e-05 0 0.034345199834342886 5.7296206005959505e-05 0 0.034687972500156178 6.5669182558371426e-05 0 0.0345882695877913 2.5033949024472762e-05 0 0.034530590278797998 5.9202139476692267e-05 0 0.034839507008100831 2.7995527872898898e-05 0 0.034751822891520102 -0.00010693985484694295 0 0.034771438242890085 3.1895628911522797e-06 0 0.034345199834342886 5.7296206005959505e-05 0 0.034303508660032775 7.284131377262388e-05 0 0.034264148308948666 0.00018943721832801602 0 0.034303508660032775 7.284131377262388e-05 0 0.034044615726956141 0.00032163500715408052 0 0.034264148308948666 0.00018943721832801602 0 0.034751822891520102 -0.00010693985484694295 0 0.034771438242890085 3.1895628911522797e-06 0 0.034675946938394014 -2.352268448741458e-05 0 0.03474635276973962 3.9043505437332238e-05 0 0.034771438242890085 3.1895628911522797e-06 0 0.034675946938394014 -2.352268448741458e-05 0 0.03474635276973962 3.9043505437332238e-05 0 0.034675946938394014 -2.352268448741458e-05 0 0.03455976345938528 -2.3339863601583258e-06 0 0.034675946938394014 -2.352268448741458e-05 0 0.034557504996082344 -8.3375934077651524e-05 0 0.03455976345938528 -2.3339863601583258e-06 0 0.034751822891520102 -0.00010693985484694295 0 0.034557504996082344 -8.3375934077651524e-05 0 0.034579676618258053 -0.00017943518247386315 0 0.034751822891520102 -0.00010693985484694295 0 0.034675946938394014 -2.352268448741458e-05 0 0.034557504996082344 -8.3375934077651524e-05 0 0.034557504996082344 -8.3375934077651524e-05 0 0.034579676618258053 -0.00017943518247386315 0 0.034440176568613479 -0.00014169012344216288 0 0.034751822891520102 -0.00010693985484694295 0 0.034579676618258053 -0.00017943518247386315 0 0.03454935048140579 -0.00029423825396297191 0 0.034579676618258053 -0.00017943518247386315 0 0.03445639213803621 -0.00022950583739736363 0 0.034531410690322714 -0.00027708307939185064 0 0.034579676618258053 -0.00017943518247386315 0 0.03454935048140579 -0.00029423825396297191 0 0.034531410690322714 -0.00027708307939185064 0 0.034579676618258053 -0.00017943518247386315 0 0.03445639213803621 -0.00022950583739736363 0 0.034440176568613479 -0.00014169012344216288 0 0.034575548744460102 -0.00031098542120496864 0 0.034473295876760825 -0.00033379745850628599 0 0.034380667534110544 -0.00038377661544374009 0 0.034575548744460102 -0.00031098542120496864 0 0.034531410690322714 -0.00027708307939185064 0 0.034473295876760825 -0.00033379745850628599 0 0.034432986125223573 3.5331558551600451e-06 0 0.034464684018871913 -4.1931484408571796e-05 0 0.034464586470259406 -0.00028414357176049701 0 0.034473295876760825 -0.00033379745850628599 0 0.034394140039824529 -0.00029697208153054593 0 0.03445639213803621 -0.00022950583739736363 0 0.034464586470259406 -0.00028414357176049701 0 0.034394140039824529 -0.00029697208153054593 0 0.03445639213803621 -0.00022950583739736363 0 0.034531410690322714 -0.00027708307939185064 0 0.034464586470259406 -0.00028414357176049701 0 0.034531410690322714 -0.00027708307939185064 0 0.034464586470259406 -0.00028414357176049701 0 0.034473295876760825 -0.00033379745850628599 0 0.034473295876760825 -0.00033379745850628599 0 0.034394140039824529 -0.00029697208153054593 0 0.034380667534110544 -0.00038377661544374009 0 0.034387455751434121 -0.00033489202285645229 0 0.034391585471482577 -0.00061323192815540529 0 0.034673037212311152 -0.00066769303108932981 0 0.034387455751434121 -0.00033489202285645229 0 0.034391585471482577 -0.00061323192815540529 0 0.034129121021195953 -0.00062394525330219312 0 0.034432986125223573 3.5331558551600451e-06 0 0.034684555988749477 -4.6389949539786296e-05 0 0.034510545940003572 0.00047074760819982984 0 0.034261019604351517 0.00075994443012454994 0 0.034196289062037664 0.0004746721014428889 0 0.034530590278797998 5.9202139476692267e-05 0 0.034432986125223573 3.5331558551600451e-06 0 0.034264148308948666 0.00018943721832801602 0 0.034510545940003572 0.00047074760819982984 0 0.034196289062037664 0.0004746721014428889 0 0.033913296048258532 0.00073727980350492338 0 0.033687090788167208 0.00053218672132624388 0 0.033620948239658839 0.00096177726476861527 0 0.034044615726956141 0.00032163500715408052 0 0.034264148308948666 0.00018943721832801602 0 0.034196289062037664 0.0004746721014428889 0 0.034044615726956141 0.00032163500715408052 0 0.034196289062037664 0.0004746721014428889 0 0.033958980511851422 0.00051467325366401785 0 0.034261019604351517 0.00075994443012454994 0 0.034196289062037664 0.0004746721014428889 0 0.033913296048258532 0.00073727980350492338 0 0.034196289062037664 0.0004746721014428889 0 0.033958980511851422 0.00051467325366401785 0 0.033913296048258532 0.00073727980350492338 0 0.033958980511851422 0.00051467325366401785 0 0.033913296048258532 0.00073727980350492338 0 0.033687090788167208 0.00053218672132624388 0 0.034044615726956141 0.00032163500715408052 0 0.033958980511851422 0.00051467325366401785 0 0.033687090788167208 0.00053218672132624388 0 0.034221283691161383 -0.00015527309515089792 0 0.034213019434066239 -4.7182798805461261e-05 0 0.034166603935651949 -6.5610949189761462e-05 0 0.032369541828318693 0.0011781965725968433 0 0.033076743610940366 0.00050666436671408465 0 0.031835955189651002 0.0016615899174214556 0 0.031002462584033681 0.0016052537947232703 0 0.031448091339346507 0.0023049297788194294 0 0.034221283691161383 -0.00015527309515089792 0 0.034213019434066239 -4.7182798805461261e-05 0 0.034319203060178931 -9.2807674523662614e-05 0 0.032369541828318693 0.0011781965725968433 0 0.034145317321015993 0.00036875956482673478 0 0.029967300706746285 0.0015886241619626426 0 0.031002462584033681 0.0016052537947232703 0 0.031448091339346507 0.0023049297788194294 0 0.034325827934083876 0.00052183931769390185 0 0.034194008437662071 0.00024606522096310796 0 0.033771648530067165 0.00026733754821965157 0 0.032365511640830437 0.0011686678414042876 0 0.033076743610940366 0.00050666436671408465 0 0.034194008437662071 0.00024606522096310796 0 0.034193628344795571 1.9121996543147545e-05 0 0.033771648530067165 0.00026733754821965157 0 0.034339534564138623 -4.3758067866447132e-05 0 0.033076743610940366 0.00050666436671408465 0 0.034193628344795571 1.9121996543147545e-05 0 0.034039444002818366 -0.00015990878611860869 0 0.033771648530067165 0.00026733754821965157 0 0.034218211228391207 8.1161468097184946e-05 0 0.034038526904839828 0.00012678176270514738 0 0.034158560679878054 -7.1332121248044713e-05 0 0.034218211228391207 8.1161468097184946e-05 0 0.034213019434066239 -4.7182798805461261e-05 0 0.034158560679878054 -7.1332121248044713e-05 0 0.033674611998325672 0.00049854764645637173 0 0.033076743610940366 0.00050666436671408465 0 0.034213019434066239 -4.7182798805461261e-05 0 0.034293933768186569 -1.8749264013276654e-05 0 0.034319203060178931 -9.2807674523662614e-05 0 0.034218211228391207 8.1161468097184946e-05 0 0.034213019434066239 -4.7182798805461261e-05 0 0.034293933768186569 -1.8749264013276654e-05 0 0.034218211228391207 8.1161468097184946e-05 0 0.034293933768186569 -1.8749264013276654e-05 0 0.034418334730842298 2.0139079901598036e-06 0 0.034418334730842298 2.0139079901598036e-06 0 0.034418243011459092 -7.1244540235471237e-05 0 0.034319203060178931 -9.2807674523662614e-05 0 0.034262273922309107 5.8116336881317151e-05 0 0.03441771363383736 7.185200966785849e-06 0 0.034293933768186569 -1.8749264013276654e-05 0 0.034418334730842298 2.0139079901598036e-06 0 0.034319203060178931 -9.2807674523662614e-05 0 0.034418334730842298 2.0139079901598036e-06 0 0.03455976345938528 -2.3339863601583258e-06 0 0.034418243011459092 -7.1244540235471237e-05 0 0.034557504996082344 -8.3375934077651524e-05 0 0.03455976345938528 -2.3339863601583258e-06 0 0.034418243011459092 -7.1244540235471237e-05 0 0.034557504996082344 -8.3375934077651524e-05 0 0.034418243011459092 -7.1244540235471237e-05 0 0.034440176568613479 -0.00014169012344216288 0 0.034418243011459092 -7.1244540235471237e-05 0 0.034316342489916968 -0.00012123385324274201 0 0.034440176568613479 -0.00014169012344216288 0 0.034418243011459092 -7.1244540235471237e-05 0 0.034316342489916968 -0.00012123385324274201 0 0.034319203060178931 -9.2807674523662614e-05 0 0.034316342489916968 -0.00012123385324274201 0 0.034319203060178931 -9.2807674523662614e-05 0 0.034308823656206223 -0.0001109972958884015 0 0.034289998299851632 -0.00010153040157551482 0 0.034319203060178931 -9.2807674523662614e-05 0 0.034308823656206223 -0.0001109972958884015 0 0.034289998299851632 -0.00010153040157551482 0 0.034308823656206223 -0.0001109972958884015 0 0.034303981948613803 -0.00011688838692949057 0 0.034316342489916968 -0.00012123385324274201 0 0.033918575043101806 -0.00030998370971722656 0 0.03413203584324178 -0.00034459308181124541 0 0.034316342489916968 -0.00012123385324274201 0 0.034308823656206223 -0.0001109972958884015 0 0.034303981948613803 -0.00011688838692949057 0 0.034386645621034009 -0.00013741262891338725 0 0.03343374035790881 0.00017583402158857838 0 0.034316342489916968 -0.00012123385324274201 0 0.034328019461365829 -0.00024175918258434909 0 0.03413203584324178 -0.00034459308181124541 0 0.03445639213803621 -0.00022950583739736363 0 0.034440176568613479 -0.00014169012344216288 0 0.034328019461365829 -0.00024175918258434909 0 0.034316342489916968 -0.00012123385324274201 0 0.034440176568613479 -0.00014169012344216288 0 0.034328019461365829 -0.00024175918258434909 0 0.03445639213803621 -0.00022950583739736363 0 0.034328019461365829 -0.00024175918258434909 0 0.034394140039824529 -0.00029697208153054593 0 0.034328019461365829 -0.00024175918258434909 0 0.03413203584324178 -0.00034459308181124541 0 0.034270742714442429 -0.0003609016031837826 0 0.034328019461365829 -0.00024175918258434909 0 0.034270742714442429 -0.0003609016031837826 0 0.034394140039824529 -0.00029697208153054593 0 0.034270742714442429 -0.0003609016031837826 0 0.034394140039824529 -0.00029697208153054593 0 0.034380667534110544 -0.00038377661544374009 0 0.034391585471482577 -0.00061323192815540529 0 0.034129121021195953 -0.00062394525330219312 0 0.034277325664415943 -0.00075608036404438482 0 0.034575548744460102 -0.00031098542120496864 0 0.034380667534110544 -0.00038377661544374009 0 0.034129121021195953 -0.00062394525330219312 0 0.034432986125223573 3.5331558551600451e-06 0 0.034142665501197621 -0.00070508026284957421 0 0.034380667534110544 -0.00038377661544374009 0 0.034232177304642425 -0.00044959316028892854 0 0.034129121021195953 -0.00062394525330219312 0 0.034270742714442429 -0.0003609016031837826 0 0.034380667534110544 -0.00038377661544374009 0 0.034232177304642425 -0.00044959316028892854 0 0.03413203584324178 -0.00034459308181124541 0 0.0341354524579588 -0.00045068661679637775 0 0.033917126534216163 -0.00049983317610643324 0 0.034270742714442429 -0.0003609016031837826 0 0.034232177304642425 -0.00044959316028892854 0 0.0341354524579588 -0.00045068661679637775 0 0.03413203584324178 -0.00034459308181124541 0 0.034270742714442429 -0.0003609016031837826 0 0.0341354524579588 -0.00045068661679637775 0 0.0341354524579588 -0.00045068661679637775 0 0.034129121021195953 -0.00062394525330219312 0 0.033917126534216163 -0.00049983317610643324 0 0.034232177304642425 -0.00044959316028892854 0 0.0341354524579588 -0.00045068661679637775 0 0.034129121021195953 -0.00062394525330219312 0 0.033917126534216163 -0.00049983317610643324 0 0.033166197840039137 -0.00043384276139165446 0 0.033409860087185689 -0.00078097635316086292 0 0.033614146148727563 1.9664107518495528e-05 0 0.033917126534216163 -0.00049983317610643324 0 0.033166197840039137 -0.00043384276139165446 0 0.03343374035790881 0.00017583402158857838 0 0.033979873533153841 -0.00057548178240293582 0 0.033918575043101806 -0.00030998370971722656 0 0.03413203584324178 -0.00034459308181124541 0 0.033917126534216163 -0.00049983317610643324 0 0.030354071795981596 -0.00053973207751531027 0 0.030087766545297816 0.0012196702597807509 0 0.028608893550577143 -0.00021080160930598947 0 0.03343374035790881 0.00017583402158857838 0 0.032284471934122171 -1.5245329278364848e-05 0 0.031877780168109104 0.0010950926000309717 0 0.030354071795981596 -0.00053973207751531027 0 0.030087766545297816 0.0012196702597807509 0 0.030602347372440872 0.0031855662510034619 0 0.031877780168109104 0.0010950926000309717 0 0.030087766545297816 0.0012196702597807509 0 0.030602347372440872 0.0031855662510034619 0 0.030087766545297816 0.0012196702597807509 0 0.028308929866968896 0.0014655115561749994 0 0.032369541828318693 0.0011781965725968433 0 0.03343374035790881 0.00017583402158857838 0 0.031835955189651002 0.0016615899174214556 0 0.031002462584033681 0.0016052537947232703 0 0.030759184999455756 0.00086710824869922994 0 0.029967300706746285 0.0015886241619626426 0 0.031002462584033681 0.0016052537947232703 0 0.030759184999455756 0.00086710824869922994 0 0.032369541828318693 0.0011781965725968433 0 0.02983145209792841 0.0013594273431675934 0 0.030087766545297816 0.0012196702597807509 0 0.028308929866968896 0.0014655115561749994 0 0.028608893550577143 -0.00021080160930598947 0 0.02600809797363695 -0.00026917107291876815 0 0.028308929866968896 0.0014655115561749994 0 0.028608893550577143 -0.00021080160930598947 0 0.030354071795981596 -0.00053973207751531027 0 0.028608893550577143 -0.00021080160930598947 0 0.028812279992045615 -0.0021846763197022308 0 0.02600809797363695 -0.00026917107291876815 0 0.028608893550577143 -0.00021080160930598947 0 0.028812279992045615 -0.0021846763197022308 0 0.024564237109154272 -0.0015416686138634711 0 0.0265832761681754 -0.0011668799798891598 0 0.033166197840039137 -0.00043384276139165446 0 0.032724844950118848 -0.00085827171058440845 0 0.033409860087185689 -0.00078097635316086292 0 0.032724844950118848 -0.00085827171058440845 0 0.033409860087185689 -0.00078097635316086292 0 0.033347899597607943 -0.0011809385276252519 0 0.032284471934122171 -1.5245329278364848e-05 0 0.024564237109154272 -0.0015416686138634711 0 0.019504218201688722 -0.00096191095099857867 0 0.019688888891280391 -0.00091261158540071935 0 0.019457257798715016 -0.00072767066167424429 0 0.019767217568382334 -0.0011888437305931788 0 0.019504218201688722 -0.00096191095099857867 0 0.019688888891280391 -0.00091261158540071935 0 0.01837236746808658 -0.0012794331158822833 0 0.024564237109154272 -0.0015416686138634711 0 0.020080662610099314 -0.00095260174583858455 0 0.019767217568382334 -0.0011888437305931788 0 0.019688888891280391 -0.00091261158540071935 0 0.020080662610099314 -0.00095260174583858455 0 0.019688888891280391 -0.00091261158540071935 0 0.019670544416078156 -0.00066629052474729731 0 0.019670544416078156 -0.00066629052474729731 0 0.019457257798715016 -0.00072767066167424429 0 0.019424962963212927 -0.00055037001302860717 0 0.019688888891280391 -0.00091261158540071935 0 0.019670544416078156 -0.00066629052474729731 0 0.019457257798715016 -0.00072767066167424429 0 0.019457257798715016 -0.00072767066167424429 0 0.019424962963212927 -0.00055037001302860717 0 0.019385767761740971 -0.00063332601870637816 0 0.019424962963212927 -0.00055037001302860717 0 0.01953024429532953 -0.0003698049292424176 0 0.019303118696323038 -0.00040200664300137551 0 0.019670544416078156 -0.00066629052474729731 0 0.019424962963212927 -0.00055037001302860717 0 0.01953024429532953 -0.0003698049292424176 0 0.020043042416906107 -0.00041850483780345448 0 0.019670544416078156 -0.00066629052474729731 0 0.01953024429532953 -0.0003698049292424176 0 0.019424962963212927 -0.00055037001302860717 0 0.019334397819607954 -0.00055611471850757334 0 0.019303118696323038 -0.00040200664300137551 0 0.019272968817355213 -0.00045002535130672102 0 0.019334397819607954 -0.00055611471850757334 0 0.019303118696323038 -0.00040200664300137551 0 0.019272968817355213 -0.00045002535130672102 0 0.019334397819607954 -0.00055611471850757334 0 0.019320547029945737 -0.00065219449665951282 0 0.019424962963212927 -0.00055037001302860717 0 0.019334397819607954 -0.00055611471850757334 0 0.019385767761740971 -0.00063332601870637816 0 0.019457257798715016 -0.00072767066167424429 0 0.019385767761740971 -0.00063332601870637816 0 0.019337415072849879 -0.00066842233729057243 0 0.019334397819607954 -0.00055611471850757334 0 0.019385767761740971 -0.00063332601870637816 0 0.019337415072849879 -0.00066842233729057243 0 0.019334397819607954 -0.00055611471850757334 0 0.019337415072849879 -0.00066842233729057243 0 0.019320547029945737 -0.00065219449665951282 0 0.025304344081742345 -0.00044158647975766426 0 0.027433382352055176 -2.9172868851019876e-05 0 0.019272968817355213 -0.00045002535130672102 0 0.019320547029945737 -0.00065219449665951282 0 0.019321412022680721 -0.00042047994736380017 0 0.027433382352055176 -2.9172868851019876e-05 0 0.024641161684993158 4.843846267639424e-05 0 0.033834454597535223 -0.0014075848996304254 0 0.034174329274685999 -0.00095004014978897645 0 0.034468966698695883 -0.0011675777188114018 0 0.033834454597535223 -0.0014075848996304254 0 0.033839962419664797 -0.00090450642507470896 0 0.034174329274685999 -0.00095004014978897645 0 0.027433382352055176 -2.9172868851019876e-05 0 0.033869163607992095 -0.0001178022904726359 0 0.019504218201688722 -0.00096191095099857867 0 0.019337415072849879 -0.00066842233729057243 0 0.019309460920061753 -0.00066993945352049507 0 0.0265832761681754 -0.0011668799798891598 0 0.027433382352055176 -2.9172868851019876e-05 0 0.033347899597607943 -0.0011809385276252519 0 0.033834454597535223 -0.0014075848996304254 0 0.033839962419664797 -0.00090450642507470896 0 0.019504218201688722 -0.00096191095099857867 0 0.019457257798715016 -0.00072767066167424429 0 0.019337415072849879 -0.00066842233729057243 0 0.033409860087185689 -0.00078097635316086292 0 0.033347899597607943 -0.0011809385276252519 0 0.033839962419664797 -0.00090450642507470896 0 0.033917126534216163 -0.00049983317610643324 0 0.033409860087185689 -0.00078097635316086292 0 0.033839962419664797 -0.00090450642507470896 0 0.034129121021195953 -0.00062394525330219312 0 0.033917126534216163 -0.00049983317610643324 0 0.033839962419664797 -0.00090450642507470896 0 0.034129121021195953 -0.00062394525330219312 0 0.033839962419664797 -0.00090450642507470896 0 0.034174329274685999 -0.00095004014978897645 0 0.034129121021195953 -0.00062394525330219312 0 0.034174329274685999 -0.00095004014978897645 0 0.034277325664415943 -0.00075608036404438482 0 0.034391585471482577 -0.00061323192815540529 0 0.034277325664415943 -0.00075608036404438482 0 0.034488571432479957 -0.00086456729416621949 0 0.034174329274685999 -0.00095004014978897645 0 0.034277325664415943 -0.00075608036404438482 0 0.034488571432479957 -0.00086456729416621949 0 0.034391585471482577 -0.00061323192815540529 0 0.034673037212311152 -0.00066769303108932981 0 0.034488571432479957 -0.00086456729416621949 0 0.034673037212311152 -0.00066769303108932981 0 0.034488571432479957 -0.00086456729416621949 0 0.03495049620711678 -0.0010042440463448596 0 0.034488571432479957 -0.00086456729416621949 0 0.034468966698695883 -0.0011675777188114018 0 0.03495049620711678 -0.0010042440463448596 0 0.031174626004162449 0.00090939298265219895 0 0.031972931820178865 0.0010318314761656507 0 0.031699521134516941 0.00051511086226674481 0 0.033869163607992095 -0.0001178022904726359 0 0.033074828497709013 0.0002281008156613062 0 0.034174329274685999 -0.00095004014978897645 0 0.034488571432479957 -0.00086456729416621949 0 0.034468966698695883 -0.0011675777188114018 0 0.033913296048258532 0.00073727980350492338 0 0.033620948239658839 0.00096177726476861527 0 0.033968016774416472 0.0010634307989632686 0 0.034261019604351517 0.00075994443012454994 0 0.033913296048258532 0.00073727980350492338 0 0.033968016774416472 0.0010634307989632686 0 0.034684555988749477 -4.6389949539786296e-05 0 0.033074828497709013 0.0002281008156613062 0 0.031972931820178865 0.0010318314761656507 0 0.032242134607893401 0.00065212586996944374 0 0.031699521134516941 0.00051511086226674481 0 0.033074828497709013 0.0002281008156613062 0 0.032165187472684376 0.00064964620599349552 0 0.033096186963702652 0.00085341167499248117 0 0.033074828497709013 0.0002281008156613062 0 0.032515980984084612 0.00070780928682661422 0 0.032150735126463915 0.00061417359945196515 0 0.03235757626840307 0.00035932865539066021 0 0.032515980984084612 0.00070780928682661422 0 0.03235757626840307 0.00035932865539066021 0 0.032709583232533382 0.00039244234754034964 0 0.032242134607893401 0.00065212586996944374 0 0.032100066191398317 0.00028400056341876598 0 0.032461853592965377 0.00019138099127903368 0 0.03235757626840307 0.00035932865539066021 0 0.032461853592965377 0.00019138099127903368 0 0.032709583232533382 0.00039244234754034964 0 0.032165187472684376 0.00064964620599349552 0 0.032493574009083856 0.00019583956732188601 0 0.032242134607893401 0.00065212586996944374 0 0.032100066191398317 0.00028400056341876598 0 0.031699521134516941 0.00051511086226674481 0 0.032100066191398317 0.00028400056341876598 0 0.031699521134516941 0.00051511086226674481 0 0.031706548765595075 -4.8170084826505345e-05 0 0.032100066191398317 0.00028400056341876598 0 0.032222114740109171 8.8694469884482142e-05 0 0.031706548765595075 -4.8170084826505345e-05 0 0.032222114740109171 8.8694469884482142e-05 0 0.03241142880590505 6.9476496154661691e-05 0 0.032461853592965377 0.00019138099127903368 0 0.032100066191398317 0.00028400056341876598 0 0.032222114740109171 8.8694469884482142e-05 0 0.032461853592965377 0.00019138099127903368 0 0.030232174262603984 0.00071492480408075416 0 0.031174626004162449 0.00090939298265219895 0 0.030984688142675448 0.00026422423149246753 0 0.031174626004162449 0.00090939298265219895 0 0.031699521134516941 0.00051511086226674481 0 0.030984688142675448 0.00026422423149246753 0 0.031699521134516941 0.00051511086226674481 0 0.030984688142675448 0.00026422423149246753 0 0.031706548765595075 -4.8170084826505345e-05 0 0.024641161684993158 4.843846267639424e-05 0 0.025696438320382129 -0.00025927033519677851 0 0.019321412022680721 -0.00042047994736380017 0 0.019329493828921289 -0.00040655561241478226 0 0.019491801438181921 -0.00039910832803111948 0 0.019272968817355213 -0.00045002535130672102 0 0.019321412022680721 -0.00042047994736380017 0 0.019329493828921289 -0.00040655561241478226 0 0.019329493828921289 -0.00040655561241478226 0 0.019491801438181921 -0.00039910832803111948 0 0.019505817742473969 -0.00050264404680624747 0 0.019329493828921289 -0.00040655561241478226 0 0.019505817742473969 -0.00050264404680624747 0 0.019409114224606387 -0.00053023404669581386 0 0.019329493828921289 -0.00040655561241478226 0 0.019409114224606387 -0.00053023404669581386 0 0.019110693287221408 -0.00037856981235902715 0 0.032222114740109171 8.8694469884482142e-05 0 0.032245426621150479 -1.8297750281897911e-05 0 0.03241142880590505 6.9476496154661691e-05 0 0.019491801438181921 -0.00039910832803111948 0 0.019505817742473969 -0.00050264404680624747 0 0.019588657968206476 -0.00050946332949854752 0 0.032222114740109171 8.8694469884482142e-05 0 0.031706548765595075 -4.8170084826505345e-05 0 0.032245426621150479 -1.8297750281897911e-05 0 0.025696438320382129 -0.00025927033519677851 0 0.025868326692385098 -0.00024100522762159719 0 0.019505817742473969 -0.00050264404680624747 0 0.019588657968206476 -0.00050946332949854752 0 0.019549298203439952 -0.00049266615628474242 0 0.019588657968206476 -0.00050946332949854752 0 0.019549298203439952 -0.00049266615628474242 0 0.019488008000290949 -0.00057043402408220073 0 0.019505817742473969 -0.00050264404680624747 0 0.019549298203439952 -0.00049266615628474242 0 0.019585377372744829 -0.00044864664526527928 0 0.019549298203439952 -0.00049266615628474242 0 0.019585377372744829 -0.00044864664526527928 0 0.019547932753868395 -0.0003802322770756666 0 0.019549298203439952 -0.00049266615628474242 0 0.019470923282577202 -0.00047047609653261621 0 0.019547932753868395 -0.0003802322770756666 0 0.018345232382793602 -0.00017617412250477997 0 0.01859485292441275 0.00017620018528916357 0 0.01757681069120821 0.00011343052993841902 0 0.019505817742473969 -0.00050264404680624747 0 0.019409114224606387 -0.00053023404669581386 0 0.019585377372744829 -0.00044864664526527928 0 0.018866892502423706 -0.00032880892906819714 0 0.018560957600987877 -0.00014402237517697962 0 0.018345232382793602 -0.00017617412250477997 0 0.01859485292441275 0.00017620018528916357 0 0.019070335919855907 -6.1617532871840664e-05 0 0.018345232382793602 -0.00017617412250477997 0 0.019070335919855907 -6.1617532871840664e-05 0 0.019110693287221408 -0.00037856981235902715 0 0.01859485292441275 0.00017620018528916357 0 0.019070335919855907 -6.1617532871840664e-05 0 0.019199184853611696 0.00028484051854663019 0 0.019595523312641205 0.0003863289477859139 0 0.019199184853611696 0.00028484051854663019 0 0.019435221601195325 0.00010404981483118962 0 0.019595523312641205 0.0003863289477859139 0 0.019625939955087018 0.00023842589459725086 0 0.019435221601195325 0.00010404981483118962 0 0.019070335919855907 -6.1617532871840664e-05 0 0.019199184853611696 0.00028484051854663019 0 0.019435221601195325 0.00010404981483118962 0 0.019070335919855907 -6.1617532871840664e-05 0 0.019435221601195325 0.00010404981483118962 0 0.019331354068366665 -0.00020763361845342927 0 0.019625939955087018 0.00023842589459725086 0 0.019435221601195325 0.00010404981483118962 0 0.019630237543734171 -8.6115614460280778e-05 0 0.019435221601195325 0.00010404981483118962 0 0.019331354068366665 -0.00020763361845342927 0 0.019630237543734171 -8.6115614460280778e-05 0 0.01953024429532953 -0.0003698049292424176 0 0.019331354068366665 -0.00020763361845342927 0 0.019630237543734171 -8.6115614460280778e-05 0 0.020043042416906107 -0.00041850483780345448 0 0.01953024429532953 -0.0003698049292424176 0 0.019630237543734171 -8.6115614460280778e-05 0 0.01953024429532953 -0.0003698049292424176 0 0.019331354068366665 -0.00020763361845342927 0 0.019303118696323038 -0.00040200664300137551 0 0.019331354068366665 -0.00020763361845342927 0 0.019303118696323038 -0.00040200664300137551 0 0.019110693287221408 -0.00037856981235902715 0 0.019272968817355213 -0.00045002535130672102 0 0.019303118696323038 -0.00040200664300137551 0 0.019110693287221408 -0.00037856981235902715 0 0.019272968817355213 -0.00045002535130672102 0 0.019329493828921289 -0.00040655561241478226 0 0.019110693287221408 -0.00037856981235902715 0 0.018866892502423706 -0.00032880892906819714 0 0.019070984955079463 -0.00037064139891433598 0 0.019070335919855907 -6.1617532871840664e-05 0 0.019331354068366665 -0.00020763361845342927 0 0.019110693287221408 -0.00037856981235902715 0 0.031438271658518292 0.00042917074786671987 0 0.031489278017116339 0.00022121274020572276 0 0.031318669432122831 0.00019959120376492187 0 0.031438271658518292 0.00042917074786671987 0 0.031318669432122831 0.00019959120376492187 0 0.031218853328025591 0.00035220920090735545 0 0.031438271658518292 0.00042917074786671987 0 0.031605495335813624 0.00031174640366284323 0 0.031489278017116339 0.00022121274020572276 0 0.031438271658518292 0.00042917074786671987 0 0.031605495335813624 0.00031174640366284323 0 0.031620854625409908 0.00045420462197680891 0 0.031705338515502092 0.00014971922051374106 0 0.031736621235186238 -6.7946916900147173e-05 0 0.031416728539574897 1.8667012082455017e-05 0 0.031489278017116339 0.00022121274020572276 0 0.031705338515502092 0.00014971922051374106 0 0.031416728539574897 1.8667012082455017e-05 0 0.031605495335813624 0.00031174640366284323 0 0.031489278017116339 0.00022121274020572276 0 0.031705338515502092 0.00014971922051374106 0 0.032467901243282138 0.00042340004929124425 0 0.032534242025210595 6.4150630462860264e-05 0 0.031489278017116339 0.00022121274020572276 0 0.031318669432122831 0.00019959120376492187 0 0.031416728539574897 1.8667012082455017e-05 0 0.031318669432122831 0.00019959120376492187 0 0.031142783797779641 9.7203703507574025e-05 0 0.031416728539574897 1.8667012082455017e-05 0 0.032467901243282138 0.00042340004929124425 0 0.032071414738881622 0.00057660949031677986 0 0.032940849189984425 0.00047481724796299344 0 0.032849315450620364 0.00072553216022915523 0 0.033066159448070835 0.00098742065513637172 0 0.031318669432122831 0.00019959120376492187 0 0.031142783797779641 9.7203703507574025e-05 0 0.031218853328025591 0.00035220920090735545 0 0.033263154697457352 0.00043985548897152387 0 0.033240346058899049 0.00027076255465870213 0 0.033327439851275405 0.00023801142373686929 0 0.033263154697457352 0.00043985548897152387 0 0.032806925953524947 0.00051029208266841581 0 0.033106788636663442 0.00028501021499392667 0 0.032467901243282138 0.00042340004929124425 0 0.032892434668783131 0.00041151222654913904 0 0.033263154697457352 0.00043985548897152387 0 0.033106788636663442 0.00028501021499392667 0 0.033240346058899049 0.00027076255465870213 0 0.032940849189984425 0.00047481724796299344 0 0.032849315450620364 0.00072553216022915523 0 0.032806925953524947 0.00051029208266841581 0 0.032550784860825049 0.00051503943329508429 0 0.032708476988131646 0.00032049711533359 0 0.032480998791001019 0.00024624604590100141 0 0.032550784860825049 0.00051503943329508429 0 0.032708476988131646 0.00032049711533359 0 0.032806925953524947 0.00051029208266841581 0 0.032708476988131646 0.00032049711533359 0 0.032806925953524947 0.00051029208266841581 0 0.032959207394418509 0.00018615178248330448 0 0.032806925953524947 0.00051029208266841581 0 0.032959207394418509 0.00018615178248330448 0 0.033106788636663442 0.00028501021499392667 0 0.032550784860825049 0.00051503943329508429 0 0.032806925953524947 0.00051029208266841581 0 0.032634484447712289 0.0007776886200700487 0 0.032849315450620364 0.00072553216022915523 0 0.032806925953524947 0.00051029208266841581 0 0.032634484447712289 0.0007776886200700487 0 0.032550784860825049 0.00051503943329508429 0 0.032634484447712289 0.0007776886200700487 0 0.03234390902416015 0.00067506285642384106 0 0.032634484447712289 0.0007776886200700487 0 0.032344927804031011 0.0010685947837442919 0 0.03234390902416015 0.00067506285642384106 0 0.032849315450620364 0.00072553216022915523 0 0.032634484447712289 0.0007776886200700487 0 0.032790079352867749 0.00095691183983163627 0 0.032634484447712289 0.0007776886200700487 0 0.032592837137854568 0.0010799142520530958 0 0.032790079352867749 0.00095691183983163627 0 0.032592837137854568 0.0010799142520530958 0 0.032790079352867749 0.00095691183983163627 0 0.032747649381097768 0.0013194870309623668 0 0.032592837137854568 0.0010799142520530958 0 0.032344927804031011 0.0010685947837442919 0 0.032410377961866618 0.001339679580779761 0 0.032634484447712289 0.0007776886200700487 0 0.032592837137854568 0.0010799142520530958 0 0.032344927804031011 0.0010685947837442919 0 0.032849315450620364 0.00072553216022915523 0 0.032790079352867749 0.00095691183983163627 0 0.033066159448070835 0.00098742065513637172 0 0.032790079352867749 0.00095691183983163627 0 0.033066159448070835 0.00098742065513637172 0 0.032747649381097768 0.0013194870309623668 0 0.032071414738881622 0.00057660949031677986 0 0.032529853788471175 0.0013242818729012628 0 0.032747649381097768 0.0013194870309623668 0 0.032716221588150844 0.0016914031664533116 0 0.033237351336064369 0.0015940045547850031 0 0.033066159448070835 0.00098742065513637172 0 0.032747649381097768 0.0013194870309623668 0 0.033237351336064369 0.0015940045547850031 0 0.032344927804031011 0.0010685947837442919 0 0.032410377961866618 0.001339679580779761 0 0.032090281019224121 0.0014576508721591758 0 0.032592837137854568 0.0010799142520530958 0 0.032747649381097768 0.0013194870309623668 0 0.032410377961866618 0.001339679580779761 0 0.032747649381097768 0.0013194870309623668 0 0.032410377961866618 0.001339679580779761 0 0.032342979507864182 0.0016827423302975709 0 0.032747649381097768 0.0013194870309623668 0 0.032342979507864182 0.0016827423302975709 0 0.032716221588150844 0.0016914031664533116 0 0.032410377961866618 0.001339679580779761 0 0.032342979507864182 0.0016827423302975709 0 0.032090281019224121 0.0014576508721591758 0 0.032342979507864182 0.0016827423302975709 0 0.032383098270302654 0.0019893065217599054 0 0.032113469704620728 0.00197732911744407 0 0.032342979507864182 0.0016827423302975709 0 0.032383098270302654 0.0019893065217599054 0 0.032716221588150844 0.0016914031664533116 0 0.032383098270302654 0.0019893065217599054 0 0.032716221588150844 0.0016914031664533116 0 0.032709447136454295 0.0020565792647928068 0 0.032383098270302654 0.0019893065217599054 0 0.032709447136454295 0.0020565792647928068 0 0.032379397756772822 0.0022516048039237608 0 0.032383098270302654 0.0019893065217599054 0 0.032113469704620728 0.00197732911744407 0 0.032154999773814176 0.0022396863070502115 0 0.032941474963137832 0.0018701147878161318 0 0.033237351336064369 0.0015940045547850031 0 0.033099775093400501 0.0021658741666270146 0 0.032941474963137832 0.0018701147878161318 0 0.032716221588150844 0.0016914031664533116 0 0.033237351336064369 0.0015940045547850031 0 0.032941474963137832 0.0018701147878161318 0 0.032716221588150844 0.0016914031664533116 0 0.032709447136454295 0.0020565792647928068 0 0.032941474963137832 0.0018701147878161318 0 0.032709447136454295 0.0020565792647928068 0 0.033099775093400501 0.0021658741666270146 0 0.033237351336064369 0.0015940045547850031 0 0.033409615622109826 0.0021953551813700613 0 0.033099775093400501 0.0021658741666270146 0 0.032529853788471175 0.0013242818729012628 0 0.02956810458429255 0.00095059513534646769 0 0.031291840387459462 0.00060349648312799055 0 0.031435987970152846 0.00066285132254447897 0 0.031355267455883837 0.00081574265200270307 0 0.031438271658518292 0.00042917074786671987 0 0.031218853328025591 0.00035220920090735545 0 0.031291840387459462 0.00060349648312799055 0 0.031438271658518292 0.00042917074786671987 0 0.031291840387459462 0.00060349648312799055 0 0.031435987970152846 0.00066285132254447897 0 0.031438271658518292 0.00042917074786671987 0 0.031523821129430446 0.00056735555458451781 0 0.031435987970152846 0.00066285132254447897 0 0.031438271658518292 0.00042917074786671987 0 0.031523821129430446 0.00056735555458451781 0 0.031620854625409908 0.00045420462197680891 0 0.031523821129430446 0.00056735555458451781 0 0.031533575504178055 0.00067225449476802934 0 0.031600517569095828 0.00059292301546995244 0 0.031523821129430446 0.00056735555458451781 0 0.031620854625409908 0.00045420462197680891 0 0.031600517569095828 0.00059292301546995244 0 0.031523821129430446 0.00056735555458451781 0 0.031533575504178055 0.00067225449476802934 0 0.031435987970152846 0.00066285132254447897 0 0.031533575504178055 0.00067225449476802934 0 0.031435987970152846 0.00066285132254447897 0 0.031500306564203474 0.00075069447470359381 0 0.031435987970152846 0.00066285132254447897 0 0.031500306564203474 0.00075069447470359381 0 0.031355267455883837 0.00081574265200270307 0 0.031533575504178055 0.00067225449476802934 0 0.031500306564203474 0.00075069447470359381 0 0.031576378513529284 0.00074142081793372413 0 0.031177412707370279 0.00076954823074253727 0 0.03144382611405553 0.00074243052586489284 0 0.030643855105087547 0.00086893184099187291 0 0.031576378513529284 0.00074142081793372413 0 0.03149428505398684 0.0010287404316171294 0 0.031576378513529284 0.00074142081793372413 0 0.03201168058623257 0.00058777278924821222 0 0.03149428505398684 0.0010287404316171294 0 0.031533575504178055 0.00067225449476802934 0 0.031576378513529284 0.00074142081793372413 0 0.031600517569095828 0.00059292301546995244 0 0.025580655892368947 2.1453752306912817e-05 0 0.025309745421882104 0.00038275862039808617 0 0.019222465294116069 -0.00055169814130048291 0 0.019088506831515778 -0.00024512780197683123 0 0.018853251442172023 -0.00042386241559079084 0 0.03201168058623257 0.00058777278924821222 0 0.031776668802231456 0.00049892675960400569 0 0.032046411485189226 0.00032502785198493348 0 0.031576378513529284 0.00074142081793372413 0 0.03201168058623257 0.00058777278924821222 0 0.031776668802231456 0.00049892675960400569 0 0.031776668802231456 0.00049892675960400569 0 0.031620854625409908 0.00045420462197680891 0 0.031810770178001831 0.00031452379615244365 0 0.031776668802231456 0.00049892675960400569 0 0.031620854625409908 0.00045420462197680891 0 0.031600517569095828 0.00059292301546995244 0 0.031576378513529284 0.00074142081793372413 0 0.031776668802231456 0.00049892675960400569 0 0.031600517569095828 0.00059292301546995244 0 0.019222465294116069 -0.00055169814130048291 0 0.019470923282577202 -0.00047047609653261621 0 0.01939503301999615 -0.00030291114119547128 0 0.03201168058623257 0.00058777278924821222 0 0.032261259198498218 0.00028306620424808953 0 0.032046411485189226 0.00032502785198493348 0 0.025580655892368947 2.1453752306912817e-05 0 0.02586712920761498 -0.00014333501743570554 0 0.019222465294116069 -0.00055169814130048291 0 0.019470923282577202 -0.00047047609653261621 0 0.019488008000290949 -0.00057043402408220073 0 0.019549298203439952 -0.00049266615628474242 0 0.019470923282577202 -0.00047047609653261621 0 0.019488008000290949 -0.00057043402408220073 0 0.032245426621150479 -1.8297750281897911e-05 0 0.032261259198498218 0.00028306620424808953 0 0.032290842140788069 0.00014583659884926831 0 0.025868326692385098 -0.00024100522762159719 0 0.02586712920761498 -0.00014333501743570554 0 0.032261259198498218 0.00028306620424808953 0 0.032290842140788069 0.00014583659884926831 0 0.032046411485189226 0.00032502785198493348 0 0.032290842140788069 0.00014583659884926831 0 0.032046411485189226 0.00032502785198493348 0 0.03201587642954485 0.00016408153830506735 0 0.032290842140788069 0.00014583659884926831 0 0.03241142880590505 6.9476496154661691e-05 0 0.032332590283820198 6.4529079644914353e-05 0 0.032290842140788069 0.00014583659884926831 0 0.03201587642954485 0.00016408153830506735 0 0.032332590283820198 6.4529079644914353e-05 0 0.032245426621150479 -1.8297750281897911e-05 0 0.032290842140788069 0.00014583659884926831 0 0.03241142880590505 6.9476496154661691e-05 0 0.031605495335813624 0.00031174640366284323 0 0.031810770178001831 0.00031452379615244365 0 0.031705338515502092 0.00014971922051374106 0 0.031605495335813624 0.00031174640366284323 0 0.031620854625409908 0.00045420462197680891 0 0.031810770178001831 0.00031452379615244365 0 0.031810770178001831 0.00031452379615244365 0 0.032046411485189226 0.00032502785198493348 0 0.03201587642954485 0.00016408153830506735 0 0.031776668802231456 0.00049892675960400569 0 0.031810770178001831 0.00031452379615244365 0 0.032046411485189226 0.00032502785198493348 0 0.03201587642954485 0.00016408153830506735 0 0.03189551711398296 5.1695081909021224e-05 0 0.032113333292117081 -9.6328981725261959e-05 0 0.03201587642954485 0.00016408153830506735 0 0.03189551711398296 5.1695081909021224e-05 0 0.031705338515502092 0.00014971922051374106 0 0.03189551711398296 5.1695081909021224e-05 0 0.031705338515502092 0.00014971922051374106 0 0.031736621235186238 -6.7946916900147173e-05 0 0.031810770178001831 0.00031452379615244365 0 0.03201587642954485 0.00016408153830506735 0 0.031705338515502092 0.00014971922051374106 0 0.033667448380035561 -2.8316349074718832e-05 0 0.033310976703519096 -5.0337488988764379e-05 0 0.033545895029205422 0.0001198868626554403 0 0.03189551711398296 5.1695081909021224e-05 0 0.031736621235186238 -6.7946916900147173e-05 0 0.032113333292117081 -9.6328981725261959e-05 0 0.032706939640751151 -4.1708648482439792e-05 0 0.032694846343225302 -5.3074041714110011e-05 0 0.03201587642954485 0.00016408153830506735 0 0.032113333292117081 -9.6328981725261959e-05 0 0.032332590283820198 6.4529079644914353e-05 0 0.033310976703519096 -5.0337488988764379e-05 0 0.03340913609244494 0.00026959822509347811 0 0.033196358067697926 0.00039134260299431202 0 0.033310976703519096 -5.0337488988764379e-05 0 0.03340913609244494 0.00026959822509347811 0 0.033545895029205422 0.0001198868626554403 0 0.033667448380035561 -2.8316349074718832e-05 0 0.033545895029205422 0.0001198868626554403 0 0.033730535536306054 0.00013048471548018722 0 0.033545895029205422 0.0001198868626554403 0 0.033556069097274585 0.00036290689858025933 0 0.033730535536306054 0.00013048471548018722 0 0.03340913609244494 0.00026959822509347811 0 0.033545895029205422 0.0001198868626554403 0 0.033556069097274585 0.00036290689858025933 0 0.03241142880590505 6.9476496154661691e-05 0 0.032332590283820198 6.4529079644914353e-05 0 0.032612514493659185 6.2205498987540528e-05 0 0.03241142880590505 6.9476496154661691e-05 0 0.032612514493659185 6.2205498987540528e-05 0 0.032461853592965377 0.00019138099127903368 0 0.032113333292117081 -9.6328981725261959e-05 0 0.032332590283820198 6.4529079644914353e-05 0 0.032612514493659185 6.2205498987540528e-05 0 0.032694846343225302 -5.3074041714110011e-05 0 0.03260043802132441 3.7748887874124257e-05 0 0.033310976703519096 -5.0337488988764379e-05 0 0.032898655414956679 0.00029500849966098477 0 0.033196358067697926 0.00039134260299431202 0 0.033310976703519096 -5.0337488988764379e-05 0 0.032898655414956679 0.00029500849966098477 0 0.032612514493659185 6.2205498987540528e-05 0 0.032612514493659185 6.2205498987540528e-05 0 0.032461853592965377 0.00019138099127903368 0 0.032709583232533382 0.00039244234754034964 0 0.032898655414956679 0.00029500849966098477 0 0.032612514493659185 6.2205498987540528e-05 0 0.032709583232533382 0.00039244234754034964 0 0.032515980984084612 0.00070780928682661422 0 0.032709583232533382 0.00039244234754034964 0 0.033172657915804989 0.00078828665985848406 0 0.032709583232533382 0.00039244234754034964 0 0.033066813460891582 0.00050960003505225615 0 0.033172657915804989 0.00078828665985848406 0 0.032898655414956679 0.00029500849966098477 0 0.032709583232533382 0.00039244234754034964 0 0.033066813460891582 0.00050960003505225615 0 0.032898655414956679 0.00029500849966098477 0 0.033066813460891582 0.00050960003505225615 0 0.033196358067697926 0.00039134260299431202 0 0.033066813460891582 0.00050960003505225615 0 0.033196358067697926 0.00039134260299431202 0 0.0332691678715707 0.00061782961713495314 0 0.0332691678715707 0.00061782961713495314 0 0.033172657915804989 0.00078828665985848406 0 0.033319345717572744 0.0006842161183188562 0 0.033066813460891582 0.00050960003505225615 0 0.0332691678715707 0.00061782961713495314 0 0.033172657915804989 0.00078828665985848406 0 0.033096186963702652 0.00085341167499248117 0 0.033147957312618305 0.00080194921379748041 0 0.033620948239658839 0.00096177726476861527 0 0.033172657915804989 0.00078828665985848406 0 0.033377593853396441 0.00065687093424230726 0 0.033556069097274585 0.00036290689858025933 0 0.033465261645125761 0.0005821226545716546 0 0.033652545782401247 0.00049503391213800171 0 0.033556069097274585 0.00036290689858025933 0 0.033652545782401247 0.00049503391213800171 0 0.033790752069856773 0.00041548796524426172 0 0.033556069097274585 0.00036290689858025933 0 0.033391208159945902 0.00046971984630472466 0 0.033465261645125761 0.0005821226545716546 0 0.03340913609244494 0.00026959822509347811 0 0.033556069097274585 0.00036290689858025933 0 0.033391208159945902 0.00046971984630472466 0 0.03340913609244494 0.00026959822509347811 0 0.033196358067697926 0.00039134260299431202 0 0.033391208159945902 0.00046971984630472466 0 0.033196358067697926 0.00039134260299431202 0 0.0332691678715707 0.00061782961713495314 0 0.033391208159945902 0.00046971984630472466 0 0.0332691678715707 0.00061782961713495314 0 0.033465261645125761 0.0005821226545716546 0 0.033319345717572744 0.0006842161183188562 0 0.0332691678715707 0.00061782961713495314 0 0.033391208159945902 0.00046971984630472466 0 0.033465261645125761 0.0005821226545716546 0 0.033465261645125761 0.0005821226545716546 0 0.033659150715115653 0.00060149660604574069 0 0.03352099339705459 0.00066780009516141962 0 0.033465261645125761 0.0005821226545716546 0 0.033652545782401247 0.00049503391213800171 0 0.033659150715115653 0.00060149660604574069 0 0.033652545782401247 0.00049503391213800171 0 0.03382243335803127 0.00061644551924414873 0 0.033790752069856773 0.00041548796524426172 0 0.033929729018688182 4.4830669257427502e-06 0 0.03377940332290251 0.00033370672067840857 0 0.033929729018688182 4.4830669257427502e-06 0 0.033856026755944194 -0.00033906742517080543 0 0.033652545782401247 0.00049503391213800171 0 0.033659150715115653 0.00060149660604574069 0 0.03382243335803127 0.00061644551924414873 0 0.033922371337928338 -0.00085571271638709039 0 0.033879375209720161 -0.00084247557708874558 0 0.033926164184099002 -0.00083814137875972935 0 0.033922371337928338 -0.00085571271638709039 0 0.033879375209720161 -0.00084247557708874558 0 0.033963909675885917 -0.0006919534183320149 0 0.033879375209720161 -0.00084247557708874558 0 0.033963909675885917 -0.0006919534183320149 0 0.033713522867168208 -0.00073683588211671054 0 0.033963909675885917 -0.0006919534183320149 0 0.0336779272290922 -0.00044879977527463306 0 0.033713522867168208 -0.00073683588211671054 0 0.033771319384869422 0.00012995282212961232 0 0.033753156883750107 0.00013935412994455065 0 0.033730535536306054 0.00013048471548018722 0 0.033759388289638093 0.00016177593735681181 0 0.033771319384869422 0.00012995282212961232 0 0.033753156883750107 0.00013935412994455065 0 0.03377940332290251 0.00033370672067840857 0 0.033732712622829709 0.00012476069424705781 0 0.033556069097274585 0.00036290689858025933 0 0.033790752069856773 0.00041548796524426172 0 0.033730535536306054 0.00013048471548018722 0 0.033730535536306054 0.00013048471548018722 0 0.033756161963122311 6.8384703152990763e-05 0 0.033765251368475122 4.8528562372587897e-05 0 0.033771319384869422 0.00012995282212961232 0 0.033730535536306054 0.00013048471548018722 0 0.033756161963122311 6.8384703152990763e-05 0 0.033856026755944194 -0.00033906742517080543 0 0.033749789158415547 -9.1441264974796419e-06 0 0.033771319384869422 0.00012995282212961232 0 0.033756161963122311 6.8384703152990763e-05 0 0.033738819247361204 -2.1889238231974116e-05 0 0.033963909675885917 -0.0006919534183320149 0 0.0336779272290922 -0.00044879977527463306 0 0.033738819247361204 -2.1889238231974116e-05 0 0.0336779272290922 -0.00044879977527463306 0 0.033738819247361204 -2.1889238231974116e-05 0 0.03351713350663961 -0.00021930898803216903 0 0.033756161963122311 6.8384703152990763e-05 0 0.033738819247361204 -2.1889238231974116e-05 0 0.033765251368475122 4.8528562372587897e-05 0 0.033738819247361204 -2.1889238231974116e-05 0 0.033793510017710672 0.00011283565999043036 0 0.033765251368475122 4.8528562372587897e-05 0 0.033738819247361204 -2.1889238231974116e-05 0 0.033793510017710672 0.00011283565999043036 0 0.033493344691572183 0.0001951531023382728 0 0.032706939640751151 -4.1708648482439792e-05 0 0.032534242025210595 6.4150630462860264e-05 0 0.033667448380035561 -2.8316349074718832e-05 0 0.033730535536306054 0.00013048471548018722 0 0.033765251368475122 4.8528562372587897e-05 0 0.033667448380035561 -2.8316349074718832e-05 0 0.033793510017710672 0.00011283565999043036 0 0.033765251368475122 4.8528562372587897e-05 0 0.03293759636572182 -6.3266832074169982e-05 0 0.032959207394418509 0.00018615178248330448 0 0.033159687097409414 3.1733227495110047e-05 0 0.03293759636572182 -6.3266832074169982e-05 0 0.033159687097409414 3.1733227495110047e-05 0 0.033275669569255262 -0.00017743437129214592 0 0.03293759636572182 -6.3266832074169982e-05 0 0.032589026705315445 -3.5237036665795049e-05 0 0.032739640694521795 -0.00031605971770464408 0 0.03293759636572182 -6.3266832074169982e-05 0 0.032589026705315445 -3.5237036665795049e-05 0 0.032733683532351759 0.00012870357572807064 0 0.032589026705315445 -3.5237036665795049e-05 0 0.032733683532351759 0.00012870357572807064 0 0.032480998791001019 0.00024624604590100141 0 0.032708476988131646 0.00032049711533359 0 0.032733683532351759 0.00012870357572807064 0 0.032480998791001019 0.00024624604590100141 0 0.032708476988131646 0.00032049711533359 0 0.032733683532351759 0.00012870357572807064 0 0.032959207394418509 0.00018615178248330448 0 0.03293759636572182 -6.3266832074169982e-05 0 0.032733683532351759 0.00012870357572807064 0 0.032959207394418509 0.00018615178248330448 0 0.033263154697457352 0.00043985548897152387 0 0.033793510017710672 0.00011283565999043036 0 0.033493344691572183 0.0001951531023382728 0 0.032959207394418509 0.00018615178248330448 0 0.033106788636663442 0.00028501021499392667 0 0.033218389339100762 0.00017679356915993648 0 0.033106788636663442 0.00028501021499392667 0 0.033240346058899049 0.00027076255465870213 0 0.033218389339100762 0.00017679356915993648 0 0.033240346058899049 0.00027076255465870213 0 0.033327439851275405 0.00023801142373686929 0 0.033218389339100762 0.00017679356915993648 0 0.033218389339100762 0.00017679356915993648 0 0.0334019632847617 3.451683110904305e-05 0 0.033159687097409414 3.1733227495110047e-05 0 0.033327439851275405 0.00023801142373686929 0 0.033218389339100762 0.00017679356915993648 0 0.0334019632847617 3.451683110904305e-05 0 0.032959207394418509 0.00018615178248330448 0 0.033218389339100762 0.00017679356915993648 0 0.033159687097409414 3.1733227495110047e-05 0 0.033263154697457352 0.00043985548897152387 0 0.033327439851275405 0.00023801142373686929 0 0.033493344691572183 0.0001951531023382728 0 0.033327439851275405 0.00023801142373686929 0 0.033493344691572183 0.0001951531023382728 0 0.0334019632847617 3.451683110904305e-05 0 0.033738819247361204 -2.1889238231974116e-05 0 0.0334019632847617 3.451683110904305e-05 0 0.03351713350663961 -0.00021930898803216903 0 0.033738819247361204 -2.1889238231974116e-05 0 0.033493344691572183 0.0001951531023382728 0 0.0334019632847617 3.451683110904305e-05 0 0.0334019632847617 3.451683110904305e-05 0 0.033275669569255262 -0.00017743437129214592 0 0.03351713350663961 -0.00021930898803216903 0 0.0334019632847617 3.451683110904305e-05 0 0.033159687097409414 3.1733227495110047e-05 0 0.033275669569255262 -0.00017743437129214592 0 0.033275669569255262 -0.00017743437129214592 0 0.03351713350663961 -0.00021930898803216903 0 0.03348400294065372 -0.00048415649179740848 0 0.033275669569255262 -0.00017743437129214592 0 0.03348400294065372 -0.00048415649179740848 0 0.0331318871812116 -0.00035004330212384414 0 0.0336779272290922 -0.00044879977527463306 0 0.03351713350663961 -0.00021930898803216903 0 0.03348400294065372 -0.00048415649179740848 0 0.032739640694521795 -0.00031605971770464408 0 0.033057766860995583 -0.00080170801240370788 0 0.032372891353557504 -0.0004601768518717993 0 0.03348400294065372 -0.00048415649179740848 0 0.0331318871812116 -0.00035004330212384414 0 0.033057766860995583 -0.00080170801240370788 0 0.0331318871812116 -0.00035004330212384414 0 0.032739640694521795 -0.00031605971770464408 0 0.033057766860995583 -0.00080170801240370788 0 0.03293759636572182 -6.3266832074169982e-05 0 0.0331318871812116 -0.00035004330212384414 0 0.032739640694521795 -0.00031605971770464408 0 0.03293759636572182 -6.3266832074169982e-05 0 0.033275669569255262 -0.00017743437129214592 0 0.0331318871812116 -0.00035004330212384414 0 0.03348400294065372 -0.00048415649179740848 0 0.033057766860995583 -0.00080170801240370788 0 0.033713522867168208 -0.00073683588211671054 0 0.033057766860995583 -0.00080170801240370788 0 0.033713522867168208 -0.00073683588211671054 0 0.03383441788096675 -0.0009283836766129025 0 0.0336779272290922 -0.00044879977527463306 0 0.03348400294065372 -0.00048415649179740848 0 0.033713522867168208 -0.00073683588211671054 0 0.033879375209720161 -0.00084247557708874558 0 0.033713522867168208 -0.00073683588211671054 0 0.03383441788096675 -0.0009283836766129025 0 0.033879375209720161 -0.00084247557708874558 0 0.03383441788096675 -0.0009283836766129025 0 0.033926164184099002 -0.00083814137875972935 0 0.03383441788096675 -0.0009283836766129025 0 0.034041599113008553 -0.00077243285185682963 0 0.033926164184099002 -0.00083814137875972935 0 0.034205362659538718 -0.0010617517310375045 0 0.03383441788096675 -0.0009283836766129025 0 0.034257433674416929 -0.00088000750292277995 0 0.034205362659538718 -0.0010617517310375045 0 0.034257433674416929 -0.00088000750292277995 0 0.034344077163824455 -0.00094531445034574089 0 0.03383441788096675 -0.0009283836766129025 0 0.034257433674416929 -0.00088000750292277995 0 0.034178206084594404 -0.00077647236790753945 0 0.033609723011551816 -0.00089204552994444938 0 0.033773556349772631 -0.00092407995438591108 0 0.034178206084594404 -0.00077647236790753945 0 0.034288844152636652 -0.00070966850644568042 0 0.034339999439807346 -0.00076887188225245096 0 0.034257433674416929 -0.00088000750292277995 0 0.034178206084594404 -0.00077647236790753945 0 0.034339999439807346 -0.00076887188225245096 0 0.034178206084594404 -0.00077647236790753945 0 0.034204389123348396 -0.00069674822752480636 0 0.034288844152636652 -0.00070966850644568042 0 0.034178206084594404 -0.00077647236790753945 0 0.034204389123348396 -0.00069674822752480636 0 0.034041599113008553 -0.00077243285185682963 0 0.034204389123348396 -0.00069674822752480636 0 0.034288844152636652 -0.00070966850644568042 0 0.034324452362799719 -0.00063566194194891496 0 0.034288844152636652 -0.00070966850644568042 0 0.034324452362799719 -0.00063566194194891496 0 0.034376852834646553 -0.00067761891325539996 0 0.034204389123348396 -0.00069674822752480636 0 0.034324452362799719 -0.00063566194194891496 0 0.034245734747682714 -0.0006293953319440605 0 0.034204389123348396 -0.00069674822752480636 0 0.034245734747682714 -0.0006293953319440605 0 0.034131155351769561 -0.00067819645201354589 0 0.034245734747682714 -0.0006293953319440605 0 0.034365392887475428 -0.00054349274000918015 0 0.03428806110151042 -0.00054061912047018157 0 0.034324452362799719 -0.00063566194194891496 0 0.034365392887475428 -0.00054349274000918015 0 0.034426642234522478 -0.00059174245691136532 0 0.034324452362799719 -0.00063566194194891496 0 0.034245734747682714 -0.0006293953319440605 0 0.034365392887475428 -0.00054349274000918015 0 0.034120449303924508 -0.00058512612497184412 0 0.034186641648049791 -0.00058689542150539356 0 0.034080483831252617 -0.00065431278581211622 0 0.034245734747682714 -0.0006293953319440605 0 0.034186641648049791 -0.00058689542150539356 0 0.03428806110151042 -0.00054061912047018157 0 0.034245734747682714 -0.0006293953319440605 0 0.034186641648049791 -0.00058689542150539356 0 0.034131155351769561 -0.00067819645201354589 0 0.034186641648049791 -0.00058689542150539356 0 0.034131155351769561 -0.00067819645201354589 0 0.034080483831252617 -0.00065431278581211622 0 0.034131155351769561 -0.00067819645201354589 0 0.034080483831252617 -0.00065431278581211622 0 0.034021759495330428 -0.0007384601926214544 0 0.034131155351769561 -0.00067819645201354589 0 0.034021759495330428 -0.0007384601926214544 0 0.034041599113008553 -0.00077243285185682963 0 0.034204389123348396 -0.00069674822752480636 0 0.034131155351769561 -0.00067819645201354589 0 0.034041599113008553 -0.00077243285185682963 0 0.03383441788096675 -0.0009283836766129025 0 0.034178206084594404 -0.00077647236790753945 0 0.034041599113008553 -0.00077243285185682963 0 0.034021759495330428 -0.0007384601926214544 0 0.034041599113008553 -0.00077243285185682963 0 0.033926164184099002 -0.00083814137875972935 0 0.033922371337928338 -0.00085571271638709039 0 0.033926164184099002 -0.00083814137875972935 0 0.033945910537205137 -0.00078407831746747831 0 0.033922371337928338 -0.00085571271638709039 0 0.033945910537205137 -0.00078407831746747831 0 0.033910651311157239 -0.00072835056709200747 0 0.033945910537205137 -0.00078407831746747831 0 0.034006633973978559 -0.00069045660346670184 0 0.033910651311157239 -0.00072835056709200747 0 0.034021759495330428 -0.0007384601926214544 0 0.033945910537205137 -0.00078407831746747831 0 0.034006633973978559 -0.00069045660346670184 0 0.034021759495330428 -0.0007384601926214544 0 0.033926164184099002 -0.00083814137875972935 0 0.033945910537205137 -0.00078407831746747831 0 0.03382243335803127 0.00061644551924414873 0 0.033775588016155378 0.00066387013916742454 0 0.033802556499227865 0.00067404455021970416 0 0.033929729018688182 4.4830669257427502e-06 0 0.034033041485057806 -0.00032933269262940673 0 0.033659150715115653 0.00060149660604574069 0 0.03382243335803127 0.00061644551924414873 0 0.033775588016155378 0.00066387013916742454 0 0.033929729018688182 4.4830669257427502e-06 0 0.033996247763147053 0.00051497860244302269 0 0.034176765461484161 0.00018850014405411591 0 0.034173079018183054 0.00021890784518988662 0 0.034183809441317006 0.00021695458401424817 0 0.033775588016155378 0.00066387013916742454 0 0.03381887495090103 0.00071888932752521909 0 0.033802556499227865 0.00067404455021970416 0 0.033775588016155378 0.00066387013916742454 0 0.03381887495090103 0.00071888932752521909 0 0.033689982589721418 0.00065698845843079957 0 0.034173079018183054 0.00021890784518988662 0 0.034182645637881807 0.00022874103891309947 0 0.034185924164341672 0.00023622708342737868 0 0.033996247763147053 0.00051497860244302269 0 0.034148780074082979 0.00023841217148909183 0 0.034173079018183054 0.00021890784518988662 0 0.034179742987578088 0.00022517566060589405 0 0.034183809441317006 0.00021695458401424817 0 0.034173079018183054 0.00021890784518988662 0 0.034179742987578088 0.00022517566060589405 0 0.034182645637881807 0.00022874103891309947 0 0.033910651311157239 -0.00072835056709200747 0 0.034017362466830847 -0.00062165489954450195 0 0.034024975104598815 -0.00052191835573909043 0 0.034179742987578088 0.00022517566060589405 0 0.034183809441317006 0.00021695458401424817 0 0.034176264958538261 0.00022675206813086397 0 0.034033041485057806 -0.00032933269262940673 0 0.034417525472659506 -0.0001140332534582405 0 0.034080483831252617 -0.00065431278581211622 0 0.034021759495330428 -0.0007384601926214544 0 0.034006633973978559 -0.00069045660346670184 0 0.034080483831252617 -0.00065431278581211622 0 0.034006633973978559 -0.00069045660346670184 0 0.034064084326535633 -0.0006130303730123765 0 0.034006633973978559 -0.00069045660346670184 0 0.033910651311157239 -0.00072835056709200747 0 0.034017362466830847 -0.00062165489954450195 0 0.034017362466830847 -0.00062165489954450195 0 0.034064084326535633 -0.0006130303730123765 0 0.034091589890076129 -0.000542143963480001 0 0.034006633973978559 -0.00069045660346670184 0 0.034017362466830847 -0.00062165489954450195 0 0.034064084326535633 -0.0006130303730123765 0 0.034120449303924508 -0.00058512612497184412 0 0.034080483831252617 -0.00065431278581211622 0 0.034064084326535633 -0.0006130303730123765 0 0.034120449303924508 -0.00058512612497184412 0 0.034064084326535633 -0.0006130303730123765 0 0.034091589890076129 -0.000542143963480001 0 0.034091589890076129 -0.000542143963480001 0 0.034188815923644603 -0.00045685352846348305 0 0.034174253810240383 -0.00052587401500581101 0 0.034120449303924508 -0.00058512612497184412 0 0.034091589890076129 -0.000542143963480001 0 0.034174253810240383 -0.00052587401500581101 0 0.034091589890076129 -0.000542143963480001 0 0.034024975104598815 -0.00052191835573909043 0 0.034188815923644603 -0.00045685352846348305 0 0.034024975104598815 -0.00052191835573909043 0 0.034188815923644603 -0.00045685352846348305 0 0.034218832558275729 -0.00032673549350443999 0 0.034017362466830847 -0.00062165489954450195 0 0.034091589890076129 -0.000542143963480001 0 0.034024975104598815 -0.00052191835573909043 0 0.034417525472659506 -0.0001140332534582405 0 0.034594952334435852 4.0501250212393411e-05 0 0.034189072159140382 0.00021320703911892667 0 0.034185924164341672 0.00023622708342737868 0 0.034297917550662887 0.00012304678601254287 0 0.034182645637881807 0.00022874103891309947 0 0.034189072159140382 0.00021320703911892667 0 0.034185924164341672 0.00023622708342737868 0 0.034179742987578088 0.00022517566060589405 0 0.034182645637881807 0.00022874103891309947 0 0.034176452975448281 0.00022698118824334204 0 0.034179742987578088 0.00022517566060589405 0 0.034176264958538261 0.00022675206813086397 0 0.034176452975448281 0.00022698118824334204 0 0.034182645637881807 0.00022874103891309947 0 0.034176452975448281 0.00022698118824334204 0 0.034189072159140382 0.00021320703911892667 0 0.034234944277538509 0.00028619255089414719 0 0.034594952334435852 4.0501250212393411e-05 0 0.034176264958538261 0.00022675206813086397 0 0.034176452975448281 0.00022698118824334204 0 0.034182260704564947 0.00021539438247325632 0 0.034176452975448281 0.00022698118824334204 0 0.034189072159140382 0.00021320703911892667 0 0.034172315270952436 0.00016513920349366432 0 0.034594952334435852 4.0501250212393411e-05 0 0.03466092917066127 -2.8361118304599639e-05 0 0.034976553008079683 -3.7521415123298389e-05 0 0.034986605732589875 -3.2357713220039643e-05 0 0.03498202288707191 -2.2039186662311977e-05 0 0.034594952334435852 4.0501250212393411e-05 0 0.03502493240153063 -9.1534074237879741e-05 0 0.034172315270952436 0.00016513920349366432 0 0.034297917550662887 0.00012304678601254287 0 0.034365323567748372 2.8014971772847954e-05 0 0.034189072159140382 0.00021320703911892667 0 0.034172315270952436 0.00016513920349366432 0 0.034297917550662887 0.00012304678601254287 0 0.034417525472659506 -0.0001140332534582405 0 0.034605051500390768 -0.00022251648403195145 0 0.034977307768949313 -4.5108522043093394e-05 0 0.034976553008079683 -3.7521415123298389e-05 0 0.034986605732589875 -3.2357713220039643e-05 0 0.034188815923644603 -0.00045685352846348305 0 0.034218832558275729 -0.00032673549350443999 0 0.034309613393889993 -0.00036928339532957716 0 0.034218832558275729 -0.00032673549350443999 0 0.034309613393889993 -0.00036928339532957716 0 0.034399079692040882 -0.00027885020216501322 0 0.034309613393889993 -0.00036928339532957716 0 0.034445528341781613 -0.00034613421340168798 0 0.034279842547356866 -0.00046515513935942041 0 0.034309613393889993 -0.00036928339532957716 0 0.034445528341781613 -0.00034613421340168798 0 0.034399079692040882 -0.00027885020216501322 0 0.034445528341781613 -0.00034613421340168798 0 0.034604820821184462 -0.0002574579654499556 0 0.034540458428674488 -0.00034689825423331338 0 0.034445528341781613 -0.00034613421340168798 0 0.034473817834620807 -0.00043803165155345943 0 0.034540458428674488 -0.00034689825423331338 0 0.034445528341781613 -0.00034613421340168798 0 0.034371334125028748 -0.00046584586407408441 0 0.034473817834620807 -0.00043803165155345943 0 0.034445528341781613 -0.00034613421340168798 0 0.034371334125028748 -0.00046584586407408441 0 0.034279842547356866 -0.00046515513935942041 0 0.034371334125028748 -0.00046584586407408441 0 0.034365392887475428 -0.00054349274000918015 0 0.034473817834620807 -0.00043803165155345943 0 0.034371334125028748 -0.00046584586407408441 0 0.034365392887475428 -0.00054349274000918015 0 0.03428806110151042 -0.00054061912047018157 0 0.034371334125028748 -0.00046584586407408441 0 0.03428806110151042 -0.00054061912047018157 0 0.034279842547356866 -0.00046515513935942041 0 0.034186641648049791 -0.00058689542150539356 0 0.03428806110151042 -0.00054061912047018157 0 0.034279842547356866 -0.00046515513935942041 0 0.034120449303924508 -0.00058512612497184412 0 0.034186641648049791 -0.00058689542150539356 0 0.034174253810240383 -0.00052587401500581101 0 0.034186641648049791 -0.00058689542150539356 0 0.034174253810240383 -0.00052587401500581101 0 0.034279842547356866 -0.00046515513935942041 0 0.034188815923644603 -0.00045685352846348305 0 0.034309613393889993 -0.00036928339532957716 0 0.034279842547356866 -0.00046515513935942041 0 0.034188815923644603 -0.00045685352846348305 0 0.034174253810240383 -0.00052587401500581101 0 0.034279842547356866 -0.00046515513935942041 0 0.033687090788167208 0.00053218672132624388 0 0.033620948239658839 0.00096177726476861527 0 0.033377593853396441 0.00065687093424230726 0 0.033687090788167208 0.00053218672132624388 0 0.033377593853396441 0.00065687093424230726 0 0.033381496879917934 0.00045290876815386172 0 0.033377593853396441 0.00065687093424230726 0 0.033319345717572744 0.0006842161183188562 0 0.033381496879917934 0.00045290876815386172 0 0.033172657915804989 0.00078828665985848406 0 0.033377593853396441 0.00065687093424230726 0 0.033319345717572744 0.0006842161183188562 0 0.033929322203116667 0.00057542185853792251 0 0.034041532892579822 0.00034008685744695927 0 0.033319345717572744 0.0006842161183188562 0 0.033385300270363766 0.00069956517009146704 0 0.033381496879917934 0.00045290876815386172 0 0.033319345717572744 0.0006842161183188562 0 0.033385300270363766 0.00069956517009146704 0 0.03352099339705459 0.00066780009516141962 0 0.033465261645125761 0.0005821226545716546 0 0.033319345717572744 0.0006842161183188562 0 0.03352099339705459 0.00066780009516141962 0 0.03381887495090103 0.00071888932752521909 0 0.033385300270363766 0.00069956517009146704 0 0.03352099339705459 0.00066780009516141962 0 0.033659150715115653 0.00060149660604574069 0 0.033775588016155378 0.00066387013916742454 0 0.033689982589721418 0.00065698845843079957 0 0.033659150715115653 0.00060149660604574069 0 0.03352099339705459 0.00066780009516141962 0 0.033689982589721418 0.00065698845843079957 0 0.03381887495090103 0.00071888932752521909 0 0.03352099339705459 0.00066780009516141962 0 0.033689982589721418 0.00065698845843079957 0 0.033835721530069696 0.00069653659430884713 0 0.033929322203116667 0.00057542185853792251 0 0.03381887495090103 0.00071888932752521909 0 0.033802556499227865 0.00067404455021970416 0 0.034464297518595963 0.00047719897006212781 0 0.033802556499227865 0.00067404455021970416 0 0.034464297518595963 0.00047719897006212781 0 0.034185924164341672 0.00023622708342737868 0 0.034185924164341672 0.00023622708342737868 0 0.034432777097163345 0.000125440753436366 0 0.034555349722692641 0.00020872956852329585 0 0.034464297518595963 0.00047719897006212781 0 0.034185924164341672 0.00023622708342737868 0 0.034555349722692641 0.00020872956852329585 0 0.034185924164341672 0.00023622708342737868 0 0.034297917550662887 0.00012304678601254287 0 0.034432777097163345 0.000125440753436366 0 0.034297917550662887 0.00012304678601254287 0 0.034432777097163345 0.000125440753436366 0 0.034365323567748372 2.8014971772847954e-05 0 0.034432777097163345 0.000125440753436366 0 0.034644824246592341 7.6313314957175831e-05 0 0.034555349722692641 0.00020872956852329585 0 0.034432777097163345 0.000125440753436366 0 0.034644824246592341 7.6313314957175831e-05 0 0.034577352658276654 3.2892314949259065e-05 0 0.034464297518595963 0.00047719897006212781 0 0.034555349722692641 0.00020872956852329585 0 0.034696231906215624 0.00022387754311996194 0 0.034555349722692641 0.00020872956852329585 0 0.034696231906215624 0.00022387754311996194 0 0.034712123866846828 8.9424022408568426e-05 0 0.034644824246592341 7.6313314957175831e-05 0 0.034555349722692641 0.00020872956852329585 0 0.034712123866846828 8.9424022408568426e-05 0 0.034644824246592341 7.6313314957175831e-05 0 0.034712123866846828 8.9424022408568426e-05 0 0.034740198662470884 6.6048933192349298e-05 0 0.034673813885309532 1.3794298395113105e-05 0 0.034712123866846828 8.9424022408568426e-05 0 0.034687972500156178 6.5669182558371426e-05 0 0.034712123866846828 8.9424022408568426e-05 0 0.034687972500156178 6.5669182558371426e-05 0 0.034740198662470884 6.6048933192349298e-05 0 0.03373640931169309 0.00018582352363204414 0 0.033687090788167208 0.00053218672132624388 0 0.033381496879917934 0.00045290876815386172 0 0.034199401352865672 0.00012138551499373999 0 0.034041532892579822 0.00034008685744695927 0 0.034673813885309532 1.3794298395113105e-05 0 0.034696231906215624 0.00022387754311996194 0 0.034712123866846828 8.9424022408568426e-05 0 0.034807673433121925 8.4064188334100295e-05 0 0.034767548622294649 1.455503357360375e-05 0 0.034885269527369721 1.8350431658022442e-06 0 0.034807673433121925 8.4064188334100295e-05 0 0.034740198662470884 6.6048933192349298e-05 0 0.034767548622294649 1.455503357360375e-05 0 0.034807673433121925 8.4064188334100295e-05 0 0.034687972500156178 6.5669182558371426e-05 0 0.034740198662470884 6.6048933192349298e-05 0 0.034644824246592341 7.6313314957175831e-05 0 0.034740198662470884 6.6048933192349298e-05 0 0.034767548622294649 1.455503357360375e-05 0 0.034767548622294649 1.455503357360375e-05 0 0.034613260672830028 -3.2578663954276005e-05 0 0.034872326632229687 -3.2754170619783823e-05 0 0.034767548622294649 1.455503357360375e-05 0 0.034577352658276654 3.2892314949259065e-05 0 0.034613260672830028 -3.2578663954276005e-05 0 0.034644824246592341 7.6313314957175831e-05 0 0.034767548622294649 1.455503357360375e-05 0 0.034577352658276654 3.2892314949259065e-05 0 0.034964468241191628 -0.00010326976399607606 0 0.03494089740931914 -8.4670799722940621e-05 0 0.034973128715442982 -9.8693605218529154e-05 0 0.034432777097163345 0.000125440753436366 0 0.034577352658276654 3.2892314949259065e-05 0 0.034365323567748372 2.8014971772847954e-05 0 0.03466092917066127 -2.8361118304599639e-05 0 0.03477210398293145 -4.6221240741628262e-05 0 0.034577352658276654 3.2892314949259065e-05 0 0.034365323567748372 2.8014971772847954e-05 0 0.034613260672830028 -3.2578663954276005e-05 0 0.03494089740931914 -8.4670799722940621e-05 0 0.034973128715442982 -9.8693605218529154e-05 0 0.034979282151276173 -4.3176191248368421e-05 0 0.03494089740931914 -8.4670799722940621e-05 0 0.034957136413156308 -1.6147656203198546e-05 0 0.034979282151276173 -4.3176191248368421e-05 0 0.03499999003672731 1.4590139279898997e-08 0 0.034957136413156308 -1.6147656203198546e-05 0 0.034979282151276173 -4.3176191248368421e-05 0 0.034999997089065552 -1.4468304853256669e-08 0 0.03497885684495753 -1.7331798924807292e-05 0 0.03499999003672731 1.4590139279898997e-08 0 0.034957136413156308 -1.6147656203198546e-05 0 0.034999813043829944 -8.3863178539030742e-09 0 0.034957136413156308 -1.6147656203198546e-05 0 0.034872326632229687 -3.2754170619783823e-05 0 0.034999813043829944 -8.3863178539030742e-09 0 0.03477210398293145 -4.6221240741628262e-05 0 0.034844860947815547 -3.2292986659676699e-05 0 0.03494089740931914 -8.4670799722940621e-05 0 0.034957136413156308 -1.6147656203198546e-05 0 0.034872326632229687 -3.2754170619783823e-05 0 0.034767548622294649 1.455503357360375e-05 0 0.034872326632229687 -3.2754170619783823e-05 0 0.034885269527369721 1.8350431658022442e-06 0 0.034999813043829944 -8.3863178539030742e-09 0 0.034999870690319138 -5.1514278830123465e-09 0 0.034885269527369721 1.8350431658022442e-06 0 0.034872326632229687 -3.2754170619783823e-05 0 0.034999813043829944 -8.3863178539030742e-09 0 0.034885269527369721 1.8350431658022442e-06 0 0.034916821085725545 2.5677968132847471e-05 0 0.034999870690319138 -5.1514278830123465e-09 0 0.034885269527369721 1.8350431658022442e-06 0 0.034916821085725545 2.5677968132847471e-05 0 0.034807673433121925 8.4064188334100295e-05 0 0.034885269527369721 1.8350431658022442e-06 0 0.034640644214528879 -0.00011029312112206799 0 0.034439133930898681 -0.00016658289689747182 0 0.034697458536494627 -5.1474489522775704e-05 0 0.034640644214528879 -0.00011029312112206799 0 0.034570599303601554 -0.00019735922928791012 0 0.034439133930898681 -0.00016658289689747182 0 0.034717574511761842 -9.6661737817725361e-05 0 0.034847159216135543 -4.9101675923467733e-05 0 0.034640644214528879 -0.00011029312112206799 0 0.034720035575958166 -0.00011009185328158034 0 0.034570599303601554 -0.00019735922928791012 0 0.034720035575958166 -0.00011009185328158034 0 0.034570599303601554 -0.00019735922928791012 0 0.034700541434262086 -0.00016878802876507033 0 0.034445528341781613 -0.00034613421340168798 0 0.034570599303601554 -0.00019735922928791012 0 0.034604820821184462 -0.0002574579654499556 0 0.034570599303601554 -0.00019735922928791012 0 0.034700541434262086 -0.00016878802876507033 0 0.034604820821184462 -0.0002574579654499556 0 0.034445528341781613 -0.00034613421340168798 0 0.034570599303601554 -0.00019735922928791012 0 0.034399079692040882 -0.00027885020216501322 0 0.034570599303601554 -0.00019735922928791012 0 0.034399079692040882 -0.00027885020216501322 0 0.034439133930898681 -0.00016658289689747182 0 0.034986605732589875 -3.2357713220039643e-05 0 0.03498202288707191 -2.2039186662311977e-05 0 0.034995175218362692 -1.8474164555702621e-05 0 0.034605051500390768 -0.00022251648403195145 0 0.034717574511761842 -9.6661737817725361e-05 0 0.034218832558275729 -0.00032673549350443999 0 0.034399079692040882 -0.00027885020216501322 0 0.034439133930898681 -0.00016658289689747182 0 0.034961058157811101 -0.00010615744028163929 0 0.034964468241191628 -0.00010326976399607606 0 0.034973128715442982 -9.8693605218529154e-05 0 0.03502493240153063 -9.1534074237879741e-05 0 0.03497885684495753 -1.7331798924807292e-05 0 0.03498202288707191 -2.2039186662311977e-05 0 0.034992670943121772 -1.1192538395785688e-05 0 0.034989988373980437 -7.4941243826005825e-06 0 0.034992670943121772 -1.1192538395785688e-05 0 0.034995175218362692 -1.8474164555702621e-05 0 0.034999472438641974 -6.5104788557267244e-06 0 0.03498202288707191 -2.2039186662311977e-05 0 0.034992670943121772 -1.1192538395785688e-05 0 0.034995175218362692 -1.8474164555702621e-05 0 0.034992670943121772 -1.1192538395785688e-05 0 0.03499594607494428 -4.5400008703038592e-06 0 0.034999472438641974 -6.5104788557267244e-06 0 0.034992670943121772 -1.1192538395785688e-05 0 0.03499594607494428 -4.5400008703038592e-06 0 0.034989988373980437 -7.4941243826005825e-06 0 0.034999988552545117 1.0437299550673383e-09 0 0.03499594607494428 -4.5400008703038592e-06 0 0.034999993741913454 -4.655309278222296e-09 0 0.034999988552545117 1.0437299550673383e-09 0 0.03499594607494428 -4.5400008703038592e-06 0 0.034989988373980437 -7.4941243826005825e-06 0 0.03499594607494428 -4.5400008703038592e-06 0 0.035000006927533252 1.0708266997029184e-09 0 0.034999472438641974 -6.5104788557267244e-06 0 0.03499594607494428 -4.5400008703038592e-06 0 0.034999993741913454 -4.655309278222296e-09 0 0.035000006927533252 1.0708266997029184e-09 0 0.034999925375003474 -4.4436195547262363e-08 0 0.034847159216135543 -4.9101675923467733e-05 0 0.034999485077204691 3.2251181934673498e-08 0 0.034697458536494627 -5.1474489522775704e-05 0 0.034827585824927204 -4.2264840060515651e-05 0 0.034640644214528879 -0.00011029312112206799 0 0.034697458536494627 -5.1474489522775704e-05 0 0.034827585824927204 -4.2264840060515651e-05 0 0.034720035575958166 -0.00011009185328158034 0 0.034827585824927204 -4.2264840060515651e-05 0 0.034799161215865265 -9.7187664400303562e-05 0 0.034640644214528879 -0.00011029312112206799 0 0.034720035575958166 -0.00011009185328158034 0 0.034827585824927204 -4.2264840060515651e-05 0 0.034999485077204691 3.2251181934673498e-08 0 0.034827585824927204 -4.2264840060515651e-05 0 0.034999849037467522 -2.7704903746505192e-08 0 0.034827585824927204 -4.2264840060515651e-05 0 0.034999849037467522 -2.7704903746505192e-08 0 0.034895727341810165 -4.6000245948636613e-05 0 0.034999849037467522 -2.7704903746505192e-08 0 0.034935053260399175 -3.1718698493740688e-05 0 0.034999874270480152 -2.9437296794722332e-08 0 0.034999849037467522 -2.7704903746505192e-08 0 0.034935053260399175 -3.1718698493740688e-05 0 0.034895727341810165 -4.6000245948636613e-05 0 0.034860430863645285 -9.0835303506496174e-05 0 0.034895727341810165 -4.6000245948636613e-05 0 0.034799161215865265 -9.7187664400303562e-05 0 0.034935053260399175 -3.1718698493740688e-05 0 0.034860430863645285 -9.0835303506496174e-05 0 0.034905066686339928 -8.0546537252312135e-05 0 0.034935053260399175 -3.1718698493740688e-05 0 0.034860430863645285 -9.0835303506496174e-05 0 0.034895727341810165 -4.6000245948636613e-05 0 0.034827585824927204 -4.2264840060515651e-05 0 0.034895727341810165 -4.6000245948636613e-05 0 0.034799161215865265 -9.7187664400303562e-05 0 0.034720035575958166 -0.00011009185328158034 0 0.034799161215865265 -9.7187664400303562e-05 0 0.034700541434262086 -0.00016878802876507033 0 0.034700541434262086 -0.00016878802876507033 0 0.03478256646666493 -0.00015242606598110569 0 0.034696424925959861 -0.0002310948506950679 0 0.034799161215865265 -9.7187664400303562e-05 0 0.034700541434262086 -0.00016878802876507033 0 0.03478256646666493 -0.00015242606598110569 0 0.034860430863645285 -9.0835303506496174e-05 0 0.034799161215865265 -9.7187664400303562e-05 0 0.03478256646666493 -0.00015242606598110569 0 0.034860430863645285 -9.0835303506496174e-05 0 0.03478256646666493 -0.00015242606598110569 0 0.034836898231776291 -0.00015537641674015506 0 0.03478256646666493 -0.00015242606598110569 0 0.034761723714674723 -0.00022007542377337782 0 0.034836898231776291 -0.00015537641674015506 0 0.034761723714674723 -0.00022007542377337782 0 0.034694748374934095 -0.00029457500820242251 0 0.034696424925959861 -0.0002310948506950679 0 0.03478256646666493 -0.00015242606598110569 0 0.034761723714674723 -0.00022007542377337782 0 0.034696424925959861 -0.0002310948506950679 0 0.034761723714674723 -0.00022007542377337782 0 0.034694748374934095 -0.00029457500820242251 0 0.034750788983622459 -0.00028775610376336429 0 0.034694748374934095 -0.00029457500820242251 0 0.034696424925959861 -0.0002310948506950679 0 0.034624751049372321 -0.00031513123642516923 0 0.034604820821184462 -0.0002574579654499556 0 0.034696424925959861 -0.0002310948506950679 0 0.034624751049372321 -0.00031513123642516923 0 0.034700541434262086 -0.00016878802876507033 0 0.034604820821184462 -0.0002574579654499556 0 0.034696424925959861 -0.0002310948506950679 0 0.034882742900705636 -0.00020880495792336258 0 0.034826889165077833 -0.00026868328856197019 0 0.034852236202246041 -0.00019594414778525835 0 0.034882742900705636 -0.00020880495792336258 0 0.034870127602058668 -0.0002975572810774301 0 0.034935159600814975 -0.00022367578428488492 0 0.034870127602058668 -0.0002975572810774301 0 0.034826889165077833 -0.00026868328856197019 0 0.034824667980655075 -0.00031833641223418186 0 0.034882742900705636 -0.00020880495792336258 0 0.034870127602058668 -0.0002975572810774301 0 0.034826889165077833 -0.00026868328856197019 0 0.034826889165077833 -0.00026868328856197019 0 0.03477402258495621 -0.00032312380363820088 0 0.034824667980655075 -0.00031833641223418186 0 0.03479011392648064 -0.00027667662514303489 0 0.034826889165077833 -0.00026868328856197019 0 0.034808213918949692 -0.00022823085040186183 0 0.03479011392648064 -0.00027667662514303489 0 0.034826889165077833 -0.00026868328856197019 0 0.03477402258495621 -0.00032312380363820088 0 0.03479011392648064 -0.00027667662514303489 0 0.034750788983622459 -0.00028775610376336429 0 0.034808213918949692 -0.00022823085040186183 0 0.03479011392648064 -0.00027667662514303489 0 0.034750788983622459 -0.00028775610376336429 0 0.03477402258495621 -0.00032312380363820088 0 0.034761723714674723 -0.00022007542377337782 0 0.034808213918949692 -0.00022823085040186183 0 0.034836898231776291 -0.00015537641674015506 0 0.034761723714674723 -0.00022007542377337782 0 0.034750788983622459 -0.00028775610376336429 0 0.034808213918949692 -0.00022823085040186183 0 0.034826889165077833 -0.00026868328856197019 0 0.034808213918949692 -0.00022823085040186183 0 0.034852236202246041 -0.00019594414778525835 0 0.034852236202246041 -0.00019594414778525835 0 0.034836898231776291 -0.00015537641674015506 0 0.034882088498765791 -0.00014385420345880347 0 0.034808213918949692 -0.00022823085040186183 0 0.034852236202246041 -0.00019594414778525835 0 0.034836898231776291 -0.00015537641674015506 0 0.034836898231776291 -0.00015537641674015506 0 0.034882088498765791 -0.00014385420345880347 0 0.034905066686339928 -8.0546537252312135e-05 0 0.034882088498765791 -0.00014385420345880347 0 0.034932708294499813 -0.00014138962984797451 0 0.034924160950088282 -0.000101011516326711 0 0.034882742900705636 -0.00020880495792336258 0 0.034882088498765791 -0.00014385420345880347 0 0.034932708294499813 -0.00014138962984797451 0 0.034882742900705636 -0.00020880495792336258 0 0.034852236202246041 -0.00019594414778525835 0 0.034882088498765791 -0.00014385420345880347 0 0.034882742900705636 -0.00020880495792336258 0 0.034932708294499813 -0.00014138962984797451 0 0.034935159600814975 -0.00022367578428488492 0 0.034932708294499813 -0.00014138962984797451 0 0.034962707763865619 -7.3090726237637715e-05 0 0.034924160950088282 -0.000101011516326711 0 0.034962707763865619 -7.3090726237637715e-05 0 0.034924160950088282 -0.000101011516326711 0 0.034949296797500855 -5.5434445278941084e-05 0 0.034962707763865619 -7.3090726237637715e-05 0 0.034949296797500855 -5.5434445278941084e-05 0 0.034983215389995055 -1.5448103063782665e-05 0 0.034949296797500855 -5.5434445278941084e-05 0 0.034905066686339928 -8.0546537252312135e-05 0 0.034973941033916336 -1.7817984495371089e-05 0 0.034935053260399175 -3.1718698493740688e-05 0 0.034905066686339928 -8.0546537252312135e-05 0 0.034973941033916336 -1.7817984495371089e-05 0 0.034860430863645285 -9.0835303506496174e-05 0 0.034836898231776291 -0.00015537641674015506 0 0.034905066686339928 -8.0546537252312135e-05 0 0.034882088498765791 -0.00014385420345880347 0 0.034924160950088282 -0.000101011516326711 0 0.034905066686339928 -8.0546537252312135e-05 0 0.034924160950088282 -0.000101011516326711 0 0.034949296797500855 -5.5434445278941084e-05 0 0.034905066686339928 -8.0546537252312135e-05 0 0.034935053260399175 -3.1718698493740688e-05 0 0.034973941033916336 -1.7817984495371089e-05 0 0.034999874270480152 -2.9437296794722332e-08 0 0.034973941033916336 -1.7817984495371089e-05 0 0.034983215389995055 -1.5448103063782665e-05 0 0.034999971791522762 -1.1350461222675046e-08 0 0.034973941033916336 -1.7817984495371089e-05 0 0.034999874270480152 -2.9437296794722332e-08 0 0.034999971791522762 -1.1350461222675046e-08 0 0.034949296797500855 -5.5434445278941084e-05 0 0.034973941033916336 -1.7817984495371089e-05 0 0.034983215389995055 -1.5448103063782665e-05 0 0.034983215389995055 -1.5448103063782665e-05 0 0.034999971791522762 -1.1350461222675046e-08 0 0.035002357874829707 -8.4265933089873415e-08 0 0.034983215389995055 -1.5448103063782665e-05 0 0.035036191201765002 -4.6014591429256411e-06 0 0.035022686542105073 -2.6771479435036195e-05 0 0.034985078634383826 -1.342760734755944e-05 0 0.035017469155992999 -3.30300409043086e-06 0 0.034999971791522762 -1.1350461222675046e-08 0 0.035000025563730927 1.397156364446819e-09 0 0.035002357874829707 -8.4265933089873415e-08 0 0.035036191201765002 -4.6014591429256411e-06 0 0.035029040159400823 1.374645946328519e-05 0 0.035007872637909485 1.6423554306299301e-05 0 0.035036191201765002 -4.6014591429256411e-06 0 0.035029040159400823 1.374645946328519e-05 0 0.035022686542105073 -2.6771479435036195e-05 0 0.035029040159400823 1.374645946328519e-05 0 0.035022686542105073 -2.6771479435036195e-05 0 0.035040508396860931 8.9103198972840771e-05 0 0.035022686542105073 -2.6771479435036195e-05 0 0.035067039336392963 -0.00018330049212353169 0 0.034992660190145207 -0.00012089008135464207 0 0.03501916484245398 -2.0238783736601586e-05 0 0.035051394835296346 -4.5426485994922727e-05 0 0.034962707763865619 -7.3090726237637715e-05 0 0.034983215389995055 -1.5448103063782665e-05 0 0.035022686542105073 -2.6771479435036195e-05 0 0.034932708294499813 -0.00014138962984797451 0 0.034962707763865619 -7.3090726237637715e-05 0 0.034992660190145207 -0.00012089008135464207 0 0.034962707763865619 -7.3090726237637715e-05 0 0.035022686542105073 -2.6771479435036195e-05 0 0.034992660190145207 -0.00012089008135464207 0 0.035000025563730927 1.397156364446819e-09 0 0.034999964386088864 4.7493162306736129e-10 0 0.034999583927496761 -2.7765053740560288e-07 0 0.034974145284196137 5.6641362297678563e-06 0 0.034961752584226305 3.8772771110570607e-05 0 0.034927116933289926 4.0992944244135081e-05 0 0.034974145284196137 5.6641362297678563e-06 0 0.035007872637909485 1.6423554306299301e-05 0 0.034981123225215426 3.0304061753315501e-05 0 0.034974145284196137 5.6641362297678563e-06 0 0.034981123225215426 3.0304061753315501e-05 0 0.034961752584226305 3.8772771110570607e-05 0 0.035036191201765002 -4.6014591429256411e-06 0 0.034974145284196137 5.6641362297678563e-06 0 0.035007872637909485 1.6423554306299301e-05 0 0.035000025563730927 1.397156364446819e-09 0 0.035002357874829707 -8.4265933089873415e-08 0 0.034999583927496761 -2.7765053740560288e-07 0 0.035017469155992999 -3.30300409043086e-06 0 0.03498789569906529 4.2028352490936337e-06 0 0.035029040159400823 1.374645946328519e-05 0 0.035007872637909485 1.6423554306299301e-05 0 0.035040508396860931 8.9103198972840771e-05 0 0.035007872637909485 1.6423554306299301e-05 0 0.034979559664672977 6.2358562923416907e-05 0 0.035040508396860931 8.9103198972840771e-05 0 0.035007872637909485 1.6423554306299301e-05 0 0.034981123225215426 3.0304061753315501e-05 0 0.034979559664672977 6.2358562923416907e-05 0 0.034981123225215426 3.0304061753315501e-05 0 0.034979559664672977 6.2358562923416907e-05 0 0.034961752584226305 3.8772771110570607e-05 0 0.034979559664672977 6.2358562923416907e-05 0 0.034942144453011657 5.971488264097259e-05 0 0.034932326950451884 9.3805213126862174e-05 0 0.034979559664672977 6.2358562923416907e-05 0 0.034961752584226305 3.8772771110570607e-05 0 0.034942144453011657 5.971488264097259e-05 0 0.034979559664672977 6.2358562923416907e-05 0 0.034977770241696092 0.00012269795252522448 0 0.034932326950451884 9.3805213126862174e-05 0 0.034979559664672977 6.2358562923416907e-05 0 0.034977770241696092 0.00012269795252522448 0 0.035040508396860931 8.9103198972840771e-05 0 0.035067039336392963 -0.00018330049212353169 0 0.035110118990168013 -0.00031302690260775069 0 0.035030615332090856 -0.00031235505876608315 0 0.034977770241696092 0.00012269795252522448 0 0.035040508396860931 8.9103198972840771e-05 0 0.035001226651862317 0.00020963296121990111 0 0.035051394835296346 -4.5426485994922727e-05 0 0.035039507509089574 -3.8238110500380468e-05 0 0.034977770241696092 0.00012269795252522448 0 0.035001226651862317 0.00020963296121990111 0 0.034915719595619225 0.00015177216566137456 0 0.034932708294499813 -0.00014138962984797451 0 0.034991223327655245 -0.00018830449872812605 0 0.034992660190145207 -0.00012089008135464207 0 0.034932708294499813 -0.00014138962984797451 0 0.034991223327655245 -0.00018830449872812605 0 0.034935159600814975 -0.00022367578428488492 0 0.035067039336392963 -0.00018330049212353169 0 0.034991223327655245 -0.00018830449872812605 0 0.034984343146245267 -0.00026204630793994496 0 0.035067039336392963 -0.00018330049212353169 0 0.034991223327655245 -0.00018830449872812605 0 0.034992660190145207 -0.00012089008135464207 0 0.035067039336392963 -0.00018330049212353169 0 0.034984343146245267 -0.00026204630793994496 0 0.035030615332090856 -0.00031235505876608315 0 0.034984343146245267 -0.00026204630793994496 0 0.03495621728430616 -0.00033652489898792148 0 0.035030615332090856 -0.00031235505876608315 0 0.034984343146245267 -0.00026204630793994496 0 0.034925906937551938 -0.0002904110188978314 0 0.03495621728430616 -0.00033652489898792148 0 0.034984343146245267 -0.00026204630793994496 0 0.034935159600814975 -0.00022367578428488492 0 0.034925906937551938 -0.0002904110188978314 0 0.034991223327655245 -0.00018830449872812605 0 0.034984343146245267 -0.00026204630793994496 0 0.034935159600814975 -0.00022367578428488492 0 0.034870127602058668 -0.0002975572810774301 0 0.034935159600814975 -0.00022367578428488492 0 0.034925906937551938 -0.0002904110188978314 0 0.034870127602058668 -0.0002975572810774301 0 0.034925906937551938 -0.0002904110188978314 0 0.034894713816327444 -0.00035046137928902314 0 0.034894713816327444 -0.00035046137928902314 0 0.034857587668963144 -0.00042565248208068716 0 0.034924880406738135 -0.00040556307873155584 0 0.034894713816327444 -0.00035046137928902314 0 0.034857587668963144 -0.00042565248208068716 0 0.034834770606330612 -0.00037334902580721669 0 0.034894713816327444 -0.00035046137928902314 0 0.034924880406738135 -0.00040556307873155584 0 0.03495621728430616 -0.00033652489898792148 0 0.034925906937551938 -0.0002904110188978314 0 0.034894713816327444 -0.00035046137928902314 0 0.03495621728430616 -0.00033652489898792148 0 0.035030615332090856 -0.00031235505876608315 0 0.034968273356828061 -0.00040711084628508609 0 0.03506368143560061 -0.00038333819193323509 0 0.03495621728430616 -0.00033652489898792148 0 0.035030615332090856 -0.00031235505876608315 0 0.034968273356828061 -0.00040711084628508609 0 0.034924880406738135 -0.00040556307873155584 0 0.03495621728430616 -0.00033652489898792148 0 0.034968273356828061 -0.00040711084628508609 0 0.034924880406738135 -0.00040556307873155584 0 0.034968273356828061 -0.00040711084628508609 0 0.034987014976919528 -0.00048423845906654602 0 0.034968273356828061 -0.00040711084628508609 0 0.034999531804258556 -0.00048243499588948764 0 0.034987014976919528 -0.00048423845906654602 0 0.034882091880228193 -0.00042540928697194514 0 0.035092125267647711 -0.00047682583913449459 0 0.034924880406738135 -0.00040556307873155584 0 0.034895912705799399 -0.00058160800930569571 0 0.034950543800909048 -0.00060510525033800693 0 0.034901779933666451 -0.0003913329098364444 0 0.035223928953789493 -0.00045077737856169417 0 0.034924880406738135 -0.00040556307873155584 0 0.034866103823637126 -0.00054578194488126108 0 0.034895912705799399 -0.00058160800930569571 0 0.034924880406738135 -0.00040556307873155584 0 0.034866103823637126 -0.00054578194488126108 0 0.034854085222727191 -0.00049055269205997931 0 0.034866103823637126 -0.00054578194488126108 0 0.034854085222727191 -0.00049055269205997931 0 0.034809971585184958 -0.00057524465798407395 0 0.034854085222727191 -0.00049055269205997931 0 0.034809971585184958 -0.00057524465798407395 0 0.034810029174007953 -0.0005007174237959556 0 0.034857587668963144 -0.00042565248208068716 0 0.034924880406738135 -0.00040556307873155584 0 0.034854085222727191 -0.00049055269205997931 0 0.034857587668963144 -0.00042565248208068716 0 0.034854085222727191 -0.00049055269205997931 0 0.034810029174007953 -0.0005007174237959556 0 0.035039507509089574 -3.8238110500380468e-05 0 0.035085177769067291 -5.7235661519945135e-05 0 0.035110118990168013 -0.00031302690260775069 0 0.035097887212448962 -0.00039091159534209357 0 0.035128175053940863 -0.0003989792708036294 0 0.035110118990168013 -0.00031302690260775069 0 0.03506368143560061 -0.00038333819193323509 0 0.035097887212448962 -0.00039091159534209357 0 0.035110118990168013 -0.00031302690260775069 0 0.035030615332090856 -0.00031235505876608315 0 0.03506368143560061 -0.00038333819193323509 0 0.034968273356828061 -0.00040711084628508609 0 0.03506368143560061 -0.00038333819193323509 0 0.035061430190064649 -0.00043726888199810106 0 0.03506368143560061 -0.00038333819193323509 0 0.035082090748883583 -0.00041337244026631766 0 0.035061430190064649 -0.00043726888199810106 0 0.035082090748883583 -0.00041337244026631766 0 0.035098682840263511 -0.00042866138338123642 0 0.035061430190064649 -0.00043726888199810106 0 0.035097887212448962 -0.00039091159534209357 0 0.035098682840263511 -0.00042866138338123642 0 0.035128175053940863 -0.0003989792708036294 0 0.03506368143560061 -0.00038333819193323509 0 0.035097887212448962 -0.00039091159534209357 0 0.035082090748883583 -0.00041337244026631766 0 0.035097887212448962 -0.00039091159534209357 0 0.035082090748883583 -0.00041337244026631766 0 0.035098682840263511 -0.00042866138338123642 0 0.035223928953789493 -0.00045077737856169417 0 0.033844883732328968 -0.00092743818429437755 0 0.035098682840263511 -0.00042866138338123642 0 0.035096978278409539 -0.0004631801151677383 0 0.035110905970857302 -0.00043886410946173191 0 0.035098682840263511 -0.00042866138338123642 0 0.035061430190064649 -0.00043726888199810106 0 0.035096978278409539 -0.0004631801151677383 0 0.034999531804258556 -0.00048243499588948764 0 0.03498758692711381 -0.00050923516761161862 0 0.034987014976919528 -0.00048423845906654602 0 0.035097800223967329 -0.00079758593321559634 0 0.03494471131605871 -0.00073029738070577808 0 0.034910836197532553 -0.00081984209415590398 0 0.034229110781515297 -0.0011620704974556002 0 0.035092125267647711 -0.00047682583913449459 0 0.035097800223967329 -0.00079758593321559634 0 0.034950543800909048 -0.00060510525033800693 0 0.03494471131605871 -0.00073029738070577808 0 0.034999531804258556 -0.00048243499588948764 0 0.03498758692711381 -0.00050923516761161862 0 0.034989990872348498 -0.0005044110331509159 0 0.034229110781515297 -0.0011620704974556002 0 0.033844883732328968 -0.00092743818429437755 0 0.032975484752593848 -0.0013026701567026393 0 0.032442913795250584 -0.001274648127678341 0 0.032387298274374005 -0.0017229048719293791 0 0.03482646543397034 -0.00064936518362902513 0 0.034809971585184958 -0.00057524465798407395 0 0.034750474840615067 -0.00065708438058390353 0 0.03482646543397034 -0.00064936518362902513 0 0.034736680075604577 -0.00075621417045772601 0 0.034750474840615067 -0.00065708438058390353 0 0.034866103823637126 -0.00054578194488126108 0 0.03482646543397034 -0.00064936518362902513 0 0.034895912705799399 -0.00058160800930569571 0 0.034866103823637126 -0.00054578194488126108 0 0.03482646543397034 -0.00064936518362902513 0 0.034809971585184958 -0.00057524465798407395 0 0.034895912705799399 -0.00058160800930569571 0 0.034950543800909048 -0.00060510525033800693 0 0.034892484834360603 -0.00066616948858064294 0 0.034950543800909048 -0.00060510525033800693 0 0.034892484834360603 -0.00066616948858064294 0 0.03494471131605871 -0.00073029738070577808 0 0.03482646543397034 -0.00064936518362902513 0 0.034895912705799399 -0.00058160800930569571 0 0.034892484834360603 -0.00066616948858064294 0 0.03482646543397034 -0.00064936518362902513 0 0.034892484834360603 -0.00066616948858064294 0 0.034827166068394262 -0.00076048081218536823 0 0.034892484834360603 -0.00066616948858064294 0 0.03494471131605871 -0.00073029738070577808 0 0.034827166068394262 -0.00076048081218536823 0 0.03494471131605871 -0.00073029738070577808 0 0.034910836197532553 -0.00081984209415590398 0 0.034827166068394262 -0.00076048081218536823 0 0.034910836197532553 -0.00081984209415590398 0 0.034827166068394262 -0.00076048081218536823 0 0.034777587214401752 -0.00089178963150987763 0 0.034827166068394262 -0.00076048081218536823 0 0.034736680075604577 -0.00075621417045772601 0 0.034674879041133554 -0.0008971751830192206 0 0.03482646543397034 -0.00064936518362902513 0 0.034827166068394262 -0.00076048081218536823 0 0.034736680075604577 -0.00075621417045772601 0 0.034736680075604577 -0.00075621417045772601 0 0.034695043525601758 -0.00073695317284562393 0 0.034750474840615067 -0.00065708438058390353 0 0.034736680075604577 -0.00075621417045772601 0 0.034643761804916948 -0.00085650779012058263 0 0.034674879041133554 -0.0008971751830192206 0 0.034640730858504547 -0.00076866551376894479 0 0.034695043525601758 -0.00073695317284562393 0 0.034643761804916948 -0.00085650779012058263 0 0.034736680075604577 -0.00075621417045772601 0 0.034695043525601758 -0.00073695317284562393 0 0.034643761804916948 -0.00085650779012058263 0 0.034640730858504547 -0.00076866551376894479 0 0.03459710474800249 -0.0008538770187873603 0 0.034643761804916948 -0.00085650779012058263 0 0.034640730858504547 -0.00076866551376894479 0 0.034695043525601758 -0.00073695317284562393 0 0.034684208964534814 -0.00065039764257760488 0 0.034695043525601758 -0.00073695317284562393 0 0.034750474840615067 -0.00065708438058390353 0 0.034684208964534814 -0.00065039764257760488 0 0.034750474840615067 -0.00065708438058390353 0 0.034684208964534814 -0.00065039764257760488 0 0.034753496052909803 -0.00057760892646428828 0 0.034684208964534814 -0.00065039764257760488 0 0.034753496052909803 -0.00057760892646428828 0 0.03471548721544037 -0.00055182743002978453 0 0.034809971585184958 -0.00057524465798407395 0 0.034750474840615067 -0.00065708438058390353 0 0.034753496052909803 -0.00057760892646428828 0 0.034622328383212109 -0.00056093180589811677 0 0.034666954579189439 -0.00055897907680362664 0 0.034630857863148179 -0.00063269428968736117 0 0.034622328383212109 -0.00056093180589811677 0 0.034630857863148179 -0.00063269428968736117 0 0.0345859550637257 -0.00061478480633051478 0 0.034666954579189439 -0.00055897907680362664 0 0.034674277911485168 -0.00059859599196718173 0 0.03471548721544037 -0.00055182743002978453 0 0.034666954579189439 -0.00055897907680362664 0 0.034674277911485168 -0.00059859599196718173 0 0.034630857863148179 -0.00063269428968736117 0 0.034684208964534814 -0.00065039764257760488 0 0.034674277911485168 -0.00059859599196718173 0 0.03471548721544037 -0.00055182743002978453 0 0.034684208964534814 -0.00065039764257760488 0 0.034674277911485168 -0.00059859599196718173 0 0.034630857863148179 -0.00063269428968736117 0 0.034684208964534814 -0.00065039764257760488 0 0.034630857863148179 -0.00063269428968736117 0 0.034613735402459253 -0.0007159652448218421 0 0.034630857863148179 -0.00063269428968736117 0 0.034571710764754064 -0.00068024931278409372 0 0.0345859550637257 -0.00061478480633051478 0 0.034630857863148179 -0.00063269428968736117 0 0.034613735402459253 -0.0007159652448218421 0 0.034571710764754064 -0.00068024931278409372 0 0.034613735402459253 -0.0007159652448218421 0 0.034554400294185786 -0.00076317203440315405 0 0.034571710764754064 -0.00068024931278409372 0 0.034613735402459253 -0.0007159652448218421 0 0.034594205433669846 -0.00079151918273682488 0 0.034554400294185786 -0.00076317203440315405 0 0.034640730858504547 -0.00076866551376894479 0 0.034684208964534814 -0.00065039764257760488 0 0.034613735402459253 -0.0007159652448218421 0 0.034640730858504547 -0.00076866551376894479 0 0.034613735402459253 -0.0007159652448218421 0 0.034594205433669846 -0.00079151918273682488 0 0.034640730858504547 -0.00076866551376894479 0 0.034594205433669846 -0.00079151918273682488 0 0.03459710474800249 -0.0008538770187873603 0 0.034594205433669846 -0.00079151918273682488 0 0.034554400294185786 -0.00076317203440315405 0 0.034553121460886758 -0.00084157115693442698 0 0.034554400294185786 -0.00076317203440315405 0 0.034486142582534594 -0.00081700243911822577 0 0.034553121460886758 -0.00084157115693442698 0 0.034554400294185786 -0.00076317203440315405 0 0.034486142582534594 -0.00081700243911822577 0 0.034504056101655654 -0.00072437210855560681 0 0.034486142582534594 -0.00081700243911822577 0 0.034504056101655654 -0.00072437210855560681 0 0.034427794377436954 -0.0007366095445935437 0 0.034554400294185786 -0.00076317203440315405 0 0.034504056101655654 -0.00072437210855560681 0 0.034571710764754064 -0.00068024931278409372 0 0.034339999439807346 -0.00076887188225245096 0 0.034427794377436954 -0.0007366095445935437 0 0.03438847556001691 -0.00084178156895901662 0 0.034486142582534594 -0.00081700243911822577 0 0.034427794377436954 -0.0007366095445935437 0 0.03438847556001691 -0.00084178156895901662 0 0.034427794377436954 -0.0007366095445935437 0 0.034376852834646553 -0.00067761891325539996 0 0.034453070323308771 -0.00065789853539087646 0 0.034504056101655654 -0.00072437210855560681 0 0.034427794377436954 -0.0007366095445935437 0 0.034453070323308771 -0.00065789853539087646 0 0.034288844152636652 -0.00070966850644568042 0 0.034339999439807346 -0.00076887188225245096 0 0.034376852834646553 -0.00067761891325539996 0 0.034339999439807346 -0.00076887188225245096 0 0.034427794377436954 -0.0007366095445935437 0 0.034376852834646553 -0.00067761891325539996 0 0.034324452362799719 -0.00063566194194891496 0 0.034376852834646553 -0.00067761891325539996 0 0.034426642234522478 -0.00059174245691136532 0 0.034376852834646553 -0.00067761891325539996 0 0.034453070323308771 -0.00065789853539087646 0 0.034426642234522478 -0.00059174245691136532 0 0.034453070323308771 -0.00065789853539087646 0 0.034490904329193037 -0.00059645410756770253 0 0.034533010314937614 -0.00062853925582695728 0 0.034453070323308771 -0.00065789853539087646 0 0.034490904329193037 -0.00059645410756770253 0 0.034426642234522478 -0.00059174245691136532 0 0.034490904329193037 -0.00059645410756770253 0 0.034426642234522478 -0.00059174245691136532 0 0.034500929914709245 -0.00054051888712870842 0 0.034490904329193037 -0.00059645410756770253 0 0.034544205040915411 -0.0005592546005754028 0 0.034500929914709245 -0.00054051888712870842 0 0.034365392887475428 -0.00054349274000918015 0 0.034426642234522478 -0.00059174245691136532 0 0.034461790946123332 -0.00051496709664678125 0 0.034571710764754064 -0.00068024931278409372 0 0.034533010314937614 -0.00062853925582695728 0 0.0345859550637257 -0.00061478480633051478 0 0.034504056101655654 -0.00072437210855560681 0 0.034571710764754064 -0.00068024931278409372 0 0.034533010314937614 -0.00062853925582695728 0 0.034504056101655654 -0.00072437210855560681 0 0.034453070323308771 -0.00065789853539087646 0 0.034533010314937614 -0.00062853925582695728 0 0.034533010314937614 -0.00062853925582695728 0 0.034544205040915411 -0.0005592546005754028 0 0.034580374620165374 -0.00057112798845999056 0 0.034490904329193037 -0.00059645410756770253 0 0.034533010314937614 -0.00062853925582695728 0 0.034544205040915411 -0.0005592546005754028 0 0.034533010314937614 -0.00062853925582695728 0 0.034580374620165374 -0.00057112798845999056 0 0.0345859550637257 -0.00061478480633051478 0 0.034622328383212109 -0.00056093180589811677 0 0.034580374620165374 -0.00057112798845999056 0 0.0345859550637257 -0.00061478480633051478 0 0.034603833631565932 -0.00050590750501404999 0 0.034654510043844414 -0.0004611924972154939 0 0.034655148896898594 -0.00050747962138102912 0 0.034622328383212109 -0.00056093180589811677 0 0.034603833631565932 -0.00050590750501404999 0 0.034655148896898594 -0.00050747962138102912 0 0.034622328383212109 -0.00056093180589811677 0 0.034580374620165374 -0.00057112798845999056 0 0.034603833631565932 -0.00050590750501404999 0 0.034544205040915411 -0.0005592546005754028 0 0.034603833631565932 -0.00050590750501404999 0 0.034553605110240415 -0.00050759205981188913 0 0.034544205040915411 -0.0005592546005754028 0 0.034580374620165374 -0.00057112798845999056 0 0.034603833631565932 -0.00050590750501404999 0 0.034544205040915411 -0.0005592546005754028 0 0.034553605110240415 -0.00050759205981188913 0 0.034500929914709245 -0.00054051888712870842 0 0.034603833631565932 -0.00050590750501404999 0 0.034553605110240415 -0.00050759205981188913 0 0.034586495591310711 -0.0004526304401139296 0 0.034586495591310711 -0.0004526304401139296 0 0.034631544980276922 -0.00043933343178387599 0 0.034635652119593886 -0.00038214587636094455 0 0.034603833631565932 -0.00050590750501404999 0 0.034586495591310711 -0.0004526304401139296 0 0.034631544980276922 -0.00043933343178387599 0 0.034631544980276922 -0.00043933343178387599 0 0.034654510043844414 -0.0004611924972154939 0 0.034673548865325365 -0.0003960579147051776 0 0.034603833631565932 -0.00050590750501404999 0 0.034631544980276922 -0.00043933343178387599 0 0.034654510043844414 -0.0004611924972154939 0 0.034426642234522478 -0.00059174245691136532 0 0.034461790946123332 -0.00051496709664678125 0 0.034500929914709245 -0.00054051888712870842 0 0.034365392887475428 -0.00054349274000918015 0 0.034461790946123332 -0.00051496709664678125 0 0.034473817834620807 -0.00043803165155345943 0 0.034553605110240415 -0.00050759205981188913 0 0.034500929914709245 -0.00054051888712870842 0 0.034530822228649824 -0.00047044350174034694 0 0.034461790946123332 -0.00051496709664678125 0 0.034500929914709245 -0.00054051888712870842 0 0.034530822228649824 -0.00047044350174034694 0 0.034586495591310711 -0.0004526304401139296 0 0.034530822228649824 -0.00047044350174034694 0 0.034570559379113894 -0.00039805779717655865 0 0.034553605110240415 -0.00050759205981188913 0 0.034586495591310711 -0.0004526304401139296 0 0.034530822228649824 -0.00047044350174034694 0 0.034530822228649824 -0.00047044350174034694 0 0.034473817834620807 -0.00043803165155345943 0 0.034570559379113894 -0.00039805779717655865 0 0.034461790946123332 -0.00051496709664678125 0 0.034530822228649824 -0.00047044350174034694 0 0.034473817834620807 -0.00043803165155345943 0 0.034473817834620807 -0.00043803165155345943 0 0.034570559379113894 -0.00039805779717655865 0 0.034540458428674488 -0.00034689825423331338 0 0.034570559379113894 -0.00039805779717655865 0 0.034624751049372321 -0.00031513123642516923 0 0.034635652119593886 -0.00038214587636094455 0 0.034570559379113894 -0.00039805779717655865 0 0.034624751049372321 -0.00031513123642516923 0 0.034540458428674488 -0.00034689825423331338 0 0.034604820821184462 -0.0002574579654499556 0 0.034624751049372321 -0.00031513123642516923 0 0.034540458428674488 -0.00034689825423331338 0 0.034631544980276922 -0.00043933343178387599 0 0.034673548865325365 -0.0003960579147051776 0 0.034635652119593886 -0.00038214587636094455 0 0.034654510043844414 -0.0004611924972154939 0 0.034673548865325365 -0.0003960579147051776 0 0.034706207304112072 -0.00040233612263379948 0 0.034673548865325365 -0.0003960579147051776 0 0.034635652119593886 -0.00038214587636094455 0 0.034695379695130701 -0.00034153486696146979 0 0.034586495591310711 -0.0004526304401139296 0 0.034570559379113894 -0.00039805779717655865 0 0.034635652119593886 -0.00038214587636094455 0 0.034694748374934095 -0.00029457500820242251 0 0.034635652119593886 -0.00038214587636094455 0 0.034695379695130701 -0.00034153486696146979 0 0.034694748374934095 -0.00029457500820242251 0 0.034624751049372321 -0.00031513123642516923 0 0.034635652119593886 -0.00038214587636094455 0 0.034750788983622459 -0.00028775610376336429 0 0.034695379695130701 -0.00034153486696146979 0 0.034724962937162492 -0.00035512099999926542 0 0.034694748374934095 -0.00029457500820242251 0 0.034750788983622459 -0.00028775610376336429 0 0.034695379695130701 -0.00034153486696146979 0 0.034673548865325365 -0.0003960579147051776 0 0.034695379695130701 -0.00034153486696146979 0 0.034724962937162492 -0.00035512099999926542 0 0.034750788983622459 -0.00028775610376336429 0 0.034724962937162492 -0.00035512099999926542 0 0.03477402258495621 -0.00032312380363820088 0 0.034724962937162492 -0.00035512099999926542 0 0.034748558985658831 -0.00038400057907026522 0 0.03477402258495621 -0.00032312380363820088 0 0.034706207304112072 -0.00040233612263379948 0 0.034748558985658831 -0.00038400057907026522 0 0.034702581603170635 -0.00044817560140893772 0 0.034673548865325365 -0.0003960579147051776 0 0.034724962937162492 -0.00035512099999926542 0 0.034706207304112072 -0.00040233612263379948 0 0.034724962937162492 -0.00035512099999926542 0 0.034706207304112072 -0.00040233612263379948 0 0.034748558985658831 -0.00038400057907026522 0 0.034748558985658831 -0.00038400057907026522 0 0.034702581603170635 -0.00044817560140893772 0 0.034746851191577492 -0.00043616294024962065 0 0.034748558985658831 -0.00038400057907026522 0 0.034792646340989671 -0.00036737241694276501 0 0.034746851191577492 -0.00043616294024962065 0 0.034748558985658831 -0.00038400057907026522 0 0.03477402258495621 -0.00032312380363820088 0 0.034792646340989671 -0.00036737241694276501 0 0.03477402258495621 -0.00032312380363820088 0 0.034824667980655075 -0.00031833641223418186 0 0.034792646340989671 -0.00036737241694276501 0 0.034824667980655075 -0.00031833641223418186 0 0.034834770606330612 -0.00037334902580721669 0 0.034792646340989671 -0.00036737241694276501 0 0.034870127602058668 -0.0002975572810774301 0 0.034824667980655075 -0.00031833641223418186 0 0.034834770606330612 -0.00037334902580721669 0 0.034870127602058668 -0.0002975572810774301 0 0.034894713816327444 -0.00035046137928902314 0 0.034834770606330612 -0.00037334902580721669 0 0.034857587668963144 -0.00042565248208068716 0 0.034834770606330612 -0.00037334902580721669 0 0.034806510945629865 -0.00045358721197266949 0 0.034834770606330612 -0.00037334902580721669 0 0.034788655120156178 -0.00042283983090224154 0 0.034806510945629865 -0.00045358721197266949 0 0.034834770606330612 -0.00037334902580721669 0 0.034792646340989671 -0.00036737241694276501 0 0.034788655120156178 -0.00042283983090224154 0 0.034792646340989671 -0.00036737241694276501 0 0.034788655120156178 -0.00042283983090224154 0 0.034746851191577492 -0.00043616294024962065 0 0.034788655120156178 -0.00042283983090224154 0 0.034762915408275606 -0.00048608702371294053 0 0.034746851191577492 -0.00043616294024962065 0 0.034788655120156178 -0.00042283983090224154 0 0.034762915408275606 -0.00048608702371294053 0 0.034806510945629865 -0.00045358721197266949 0 0.034857587668963144 -0.00042565248208068716 0 0.034806510945629865 -0.00045358721197266949 0 0.034810029174007953 -0.0005007174237959556 0 0.034762915408275606 -0.00048608702371294053 0 0.034806510945629865 -0.00045358721197266949 0 0.034810029174007953 -0.0005007174237959556 0 0.034809971585184958 -0.00057524465798407395 0 0.034753496052909803 -0.00057760892646428828 0 0.034810029174007953 -0.0005007174237959556 0 0.034753496052909803 -0.00057760892646428828 0 0.034762915408275606 -0.00048608702371294053 0 0.034810029174007953 -0.0005007174237959556 0 0.034762915408275606 -0.00048608702371294053 0 0.03471548721544037 -0.00055182743002978453 0 0.034702656650420362 -0.00050076541242811924 0 0.034753496052909803 -0.00057760892646428828 0 0.034762915408275606 -0.00048608702371294053 0 0.03471548721544037 -0.00055182743002978453 0 0.034666954579189439 -0.00055897907680362664 0 0.03471548721544037 -0.00055182743002978453 0 0.034702656650420362 -0.00050076541242811924 0 0.034666954579189439 -0.00055897907680362664 0 0.034702656650420362 -0.00050076541242811924 0 0.034655148896898594 -0.00050747962138102912 0 0.034622328383212109 -0.00056093180589811677 0 0.034666954579189439 -0.00055897907680362664 0 0.034655148896898594 -0.00050747962138102912 0 0.034702656650420362 -0.00050076541242811924 0 0.034655148896898594 -0.00050747962138102912 0 0.034702581603170635 -0.00044817560140893772 0 0.034654510043844414 -0.0004611924972154939 0 0.034655148896898594 -0.00050747962138102912 0 0.034702581603170635 -0.00044817560140893772 0 0.034654510043844414 -0.0004611924972154939 0 0.034706207304112072 -0.00040233612263379948 0 0.034702581603170635 -0.00044817560140893772 0 0.034762915408275606 -0.00048608702371294053 0 0.034702656650420362 -0.00050076541242811924 0 0.034746851191577492 -0.00043616294024962065 0 0.034702656650420362 -0.00050076541242811924 0 0.034702581603170635 -0.00044817560140893772 0 0.034746851191577492 -0.00043616294024962065 0 0.031801857891375435 1.4050180774112448e-05 0 0.031854157133144677 2.6915855416096146e-07 0 0.029705582487153239 5.7790476882186466e-06 0 0.034295726820176599 0.00031437129518229129 0 0.03434753025248901 0.00036823874067102555 0 0.034240800727206755 0.00043043946132180369 0 0.034295726820176599 0.00031437129518229129 0 0.03434753025248901 0.00036823874067102555 0 0.034392096785440744 0.00032484984488352468 0 0.03434753025248901 0.00036823874067102555 0 0.034431717030763524 0.00035031860485545242 0 0.034392096785440744 0.00032484984488352468 0 0.034295726820176599 0.00031437129518229129 0 0.034392096785440744 0.00032484984488352468 0 0.034483690848131736 0.00027171138608462922 0 0.034431717030763524 0.00035031860485545242 0 0.034392096785440744 0.00032484984488352468 0 0.034483690848131736 0.00027171138608462922 0 0.031801857891375435 1.4050180774112448e-05 0 0.031854157133144677 2.6915855416096146e-07 0 0.034244700253213439 -1.0115730234319089e-05 0 0.034295726820176599 0.00031437129518229129 0 0.034483690848131736 0.00027171138608462922 0 0.034244700253213439 -1.0115730234319089e-05 0 0.033062359077834898 8.2194121587875977e-05 0 0.034079914486046518 -0.00013545845557931969 0 0.031854157133144677 2.6915855416096146e-07 0 0.034998855477738323 -2.7560579847918392e-07 0 0.034244700253213439 -1.0115730234319089e-05 0 0.034998855477738323 -2.7560579847918392e-07 0 0.034244700253213439 -1.0115730234319089e-05 0 0.034999531836947241 -1.4889977833690188e-07 0 0.034244700253213439 -1.0115730234319089e-05 0 0.034716684899099418 0.00010923490955579433 0 0.034999531836947241 -1.4889977833690188e-07 0 0.034483690848131736 0.00027171138608462922 0 0.034244700253213439 -1.0115730234319089e-05 0 0.034716684899099418 0.00010923490955579433 0 0.034716684899099418 0.00010923490955579433 0 0.034966771468517899 6.161847588120241e-05 0 0.034735144228372816 0.00026262058527961392 0 0.034716684899099418 0.00010923490955579433 0 0.034999531836947241 -1.4889977833690188e-07 0 0.034966771468517899 6.161847588120241e-05 0 0.034999531836947241 -1.4889977833690188e-07 0 0.034966771468517899 6.161847588120241e-05 0 0.035000238728989358 1.117210381206489e-07 0 0.034837000031029443 6.2750389383026128e-05 0 0.034636263268275486 0.00020788815865939819 0 0.034716918203879829 3.9745879658028588e-05 0 0.034672262240614281 0.00015950317953734107 0 0.034536755996893174 0.00016634095451602022 0 0.034672262240614281 0.00015950317953734107 0 0.034536755996893174 0.00016634095451602022 0 0.034623448792248677 0.0002502537872843359 0 0.034672262240614281 0.00015950317953734107 0 0.034623448792248677 0.0002502537872843359 0 0.034706290368481503 0.00020494314936627184 0 0.034483690848131736 0.00027171138608462922 0 0.034716684899099418 0.00010923490955579433 0 0.034735144228372816 0.00026262058527961392 0 0.034431717030763524 0.00035031860485545242 0 0.034483690848131736 0.00027171138608462922 0 0.034735144228372816 0.00026262058527961392 0 0.034462485170492427 0.00033882558274580025 0 0.034636263268275486 0.00020788815865939819 0 0.034431717030763524 0.00035031860485545242 0 0.034536755996893174 0.00016634095451602022 0 0.034528563560317957 0.00029476050593891493 0 0.034431717030763524 0.00035031860485545242 0 0.034528563560317957 0.00029476050593891493 0 0.034487477264209615 0.00036721642451061109 0 0.034536755996893174 0.00016634095451602022 0 0.034528563560317957 0.00029476050593891493 0 0.034623448792248677 0.0002502537872843359 0 0.034528563560317957 0.00029476050593891493 0 0.034623448792248677 0.0002502537872843359 0 0.03458194972882745 0.00032784767408056907 0 0.034623448792248677 0.0002502537872843359 0 0.034676436140584993 0.00026285188624622466 0 0.03458194972882745 0.00032784767408056907 0 0.034706290368481503 0.00020494314936627184 0 0.034676436140584993 0.00026285188624622466 0 0.034766236248867224 0.00019501269716128367 0 0.034623448792248677 0.0002502537872843359 0 0.034706290368481503 0.00020494314936627184 0 0.034676436140584993 0.00026285188624622466 0 0.034676436140584993 0.00026285188624622466 0 0.034766236248867224 0.00019501269716128367 0 0.034744775900508999 0.00026320373600560162 0 0.034766236248867224 0.00019501269716128367 0 0.034830220493317403 0.00019007167952038198 0 0.034744775900508999 0.00026320373600560162 0 0.034830220493317403 0.00019007167952038198 0 0.034806497432817947 0.00027173671155396328 0 0.034744775900508999 0.00026320373600560162 0 0.034766236248867224 0.00019501269716128367 0 0.034824801627990808 0.00013835211308520774 0 0.034830220493317403 0.00019007167952038198 0 0.034766236248867224 0.00019501269716128367 0 0.034824801627990808 0.00013835211308520774 0 0.034790554484263811 0.00012075692603372006 0 0.034824801627990808 0.00013835211308520774 0 0.034845735862309699 9.1397706228902133e-05 0 0.034870564465796713 8.0770039132654203e-05 0 0.034824801627990808 0.00013835211308520774 0 0.034790554484263811 0.00012075692603372006 0 0.034845735862309699 9.1397706228902133e-05 0 0.034706290368481503 0.00020494314936627184 0 0.034766236248867224 0.00019501269716128367 0 0.034790554484263811 0.00012075692603372006 0 0.034672262240614281 0.00015950317953734107 0 0.034706290368481503 0.00020494314936627184 0 0.034790554484263811 0.00012075692603372006 0 0.034716918203879829 3.9745879658028588e-05 0 0.034672262240614281 0.00015950317953734107 0 0.034790554484263811 0.00012075692603372006 0 0.034716918203879829 3.9745879658028588e-05 0 0.034790554484263811 0.00012075692603372006 0 0.034850392815287831 4.6925043956830237e-05 0 0.034790554484263811 0.00012075692603372006 0 0.034850392815287831 4.6925043956830237e-05 0 0.034866824368308159 5.8965004012498289e-05 0 0.034716918203879829 3.9745879658028588e-05 0 0.034999453099472735 -9.7391829317412023e-09 0 0.034970775637937185 9.5271986848844853e-06 0 0.034716918203879829 3.9745879658028588e-05 0 0.034850392815287831 4.6925043956830237e-05 0 0.034970775637937185 9.5271986848844853e-06 0 0.034837000031029443 6.2750389383026128e-05 0 0.034999928471110678 2.7323264701806429e-08 0 0.034850392815287831 4.6925043956830237e-05 0 0.034970775637937185 9.5271986848844853e-06 0 0.034907580640988554 2.8564220400599538e-05 0 0.034999453099472735 -9.7391829317412023e-09 0 0.034970775637937185 9.5271986848844853e-06 0 0.035000124683414159 4.1763414092618372e-09 0 0.034970775637937185 9.5271986848844853e-06 0 0.035000124683414159 4.1763414092618372e-09 0 0.03500227590327188 2.3238702812656583e-06 0 0.034970775637937185 9.5271986848844853e-06 0 0.034908219505846008 2.7600415064853039e-05 0 0.03487990184504746 3.8594349529692797e-05 0 0.034966184753158928 1.1884029145493654e-05 0 0.034943226983439921 1.7720995966574817e-05 0 0.034970775637937185 9.5271986848844853e-06 0 0.034907580640988554 2.8564220400599538e-05 0 0.034908219505846008 2.7600415064853039e-05 0 0.034907580640988554 2.8564220400599538e-05 0 0.034908219505846008 2.7600415064853039e-05 0 0.034884098542966084 4.8689605294619766e-05 0 0.034908219505846008 2.7600415064853039e-05 0 0.034884098542966084 4.8689605294619766e-05 0 0.034891860550830885 3.6822745267788293e-05 0 0.034850392815287831 4.6925043956830237e-05 0 0.034907580640988554 2.8564220400599538e-05 0 0.034866824368308159 5.8965004012498289e-05 0 0.034907580640988554 2.8564220400599538e-05 0 0.034884098542966084 4.8689605294619766e-05 0 0.034866824368308159 5.8965004012498289e-05 0 0.034884098542966084 4.8689605294619766e-05 0 0.034866824368308159 5.8965004012498289e-05 0 0.034845735862309699 9.1397706228902133e-05 0 0.034790554484263811 0.00012075692603372006 0 0.034866824368308159 5.8965004012498289e-05 0 0.034845735862309699 9.1397706228902133e-05 0 0.034884098542966084 4.8689605294619766e-05 0 0.034845735862309699 9.1397706228902133e-05 0 0.034870564465796713 8.0770039132654203e-05 0 0.034870564465796713 8.0770039132654203e-05 0 0.034891109123128081 5.7574987640008718e-05 0 0.03488337268426954 5.5523412688660951e-05 0 0.034870564465796713 8.0770039132654203e-05 0 0.034891109123128081 5.7574987640008718e-05 0 0.034882937597461569 0.00010565599767478128 0 0.034891109123128081 5.7574987640008718e-05 0 0.034912720694403925 6.5492930575557898e-05 0 0.034882937597461569 0.00010565599767478128 0 0.034891109123128081 5.7574987640008718e-05 0 0.034899798806976266 4.5527810560025518e-05 0 0.034912720694403925 6.5492930575557898e-05 0 0.034891109123128081 5.7574987640008718e-05 0 0.034891860550830885 3.6822745267788293e-05 0 0.034888815001435834 4.0308229219881209e-05 0 0.034891109123128081 5.7574987640008718e-05 0 0.034888815001435834 4.0308229219881209e-05 0 0.034899798806976266 4.5527810560025518e-05 0 0.034884098542966084 4.8689605294619766e-05 0 0.034870564465796713 8.0770039132654203e-05 0 0.03488337268426954 5.5523412688660951e-05 0 0.034884098542966084 4.8689605294619766e-05 0 0.03488337268426954 5.5523412688660951e-05 0 0.034891860550830885 3.6822745267788293e-05 0 0.034891109123128081 5.7574987640008718e-05 0 0.03488337268426954 5.5523412688660951e-05 0 0.034891860550830885 3.6822745267788293e-05 0 0.034908219505846008 2.7600415064853039e-05 0 0.034891860550830885 3.6822745267788293e-05 0 0.03487990184504746 3.8594349529692797e-05 0 0.034891860550830885 3.6822745267788293e-05 0 0.034888815001435834 4.0308229219881209e-05 0 0.03487990184504746 3.8594349529692797e-05 0 0.034888815001435834 4.0308229219881209e-05 0 0.03487990184504746 3.8594349529692797e-05 0 0.034899798806976266 4.5527810560025518e-05 0 0.034999964386088864 4.7493162306736129e-10 0 0.034999583927496761 -2.7765053740560288e-07 0 0.03500227590327188 2.3238702812656583e-06 0 0.034974145284196137 5.6641362297678563e-06 0 0.03487990184504746 3.8594349529692797e-05 0 0.034927116933289926 4.0992944244135081e-05 0 0.034999964386088864 4.7493162306736129e-10 0 0.035000124683414159 4.1763414092618372e-09 0 0.03500227590327188 2.3238702812656583e-06 0 0.03498789569906529 4.2028352490936337e-06 0 0.034943226983439921 1.7720995966574817e-05 0 0.03487990184504746 3.8594349529692797e-05 0 0.034899798806976266 4.5527810560025518e-05 0 0.034927116933289926 4.0992944244135081e-05 0 0.034961752584226305 3.8772771110570607e-05 0 0.034927116933289926 4.0992944244135081e-05 0 0.034942144453011657 5.971488264097259e-05 0 0.034912720694403925 6.5492930575557898e-05 0 0.034932326950451884 9.3805213126862174e-05 0 0.034882937597461569 0.00010565599767478128 0 0.034927116933289926 4.0992944244135081e-05 0 0.034942144453011657 5.971488264097259e-05 0 0.034912720694403925 6.5492930575557898e-05 0 0.034899798806976266 4.5527810560025518e-05 0 0.034927116933289926 4.0992944244135081e-05 0 0.034912720694403925 6.5492930575557898e-05 0 0.034942144453011657 5.971488264097259e-05 0 0.034912720694403925 6.5492930575557898e-05 0 0.034932326950451884 9.3805213126862174e-05 0 0.034977770241696092 0.00012269795252522448 0 0.034915719595619225 0.00015177216566137456 0 0.034932326950451884 9.3805213126862174e-05 0 0.034915719595619225 0.00015177216566137456 0 0.034932326950451884 9.3805213126862174e-05 0 0.034882937597461569 0.00010565599767478128 0 0.034824801627990808 0.00013835211308520774 0 0.034870564465796713 8.0770039132654203e-05 0 0.034882937597461569 0.00010565599767478128 0 0.034915719595619225 0.00015177216566137456 0 0.034882937597461569 0.00010565599767478128 0 0.034830220493317403 0.00019007167952038198 0 0.034824801627990808 0.00013835211308520774 0 0.034882937597461569 0.00010565599767478128 0 0.034830220493317403 0.00019007167952038198 0 0.034915719595619225 0.00015177216566137456 0 0.034830220493317403 0.00019007167952038198 0 0.034874131513339228 0.00021149791912501755 0 0.034830220493317403 0.00019007167952038198 0 0.034874131513339228 0.00021149791912501755 0 0.034806497432817947 0.00027173671155396328 0 0.035001226651862317 0.00020963296121990111 0 0.034915719595619225 0.00015177216566137456 0 0.034874131513339228 0.00021149791912501755 0 0.035001226651862317 0.00020963296121990111 0 0.034885408446383492 0.00028126511576324182 0 0.034918629698309063 0.00035541805188415569 0 0.035001226651862317 0.00020963296121990111 0 0.034874131513339228 0.00021149791912501755 0 0.034885408446383492 0.00028126511576324182 0 0.034874131513339228 0.00021149791912501755 0 0.034885408446383492 0.00028126511576324182 0 0.034806497432817947 0.00027173671155396328 0 0.034885408446383492 0.00028126511576324182 0 0.034806497432817947 0.00027173671155396328 0 0.03478084958963102 0.00037515727456622201 0 0.03478084958963102 0.00037515727456622201 0 0.034918629698309063 0.00035541805188415569 0 0.034829636219182766 0.00046462872260799782 0 0.034885408446383492 0.00028126511576324182 0 0.03478084958963102 0.00037515727456622201 0 0.034918629698309063 0.00035541805188415569 0 0.035128175053940863 -0.0003989792708036294 0 0.035117721285190882 -0.00042546837651313358 0 0.03513553299315858 -0.00042919861852662114 0 0.035085177769067291 -5.7235661519945135e-05 0 0.033909552699714546 -0.00031422839988383151 0 0.035098682840263511 -0.00042866138338123642 0 0.035128175053940863 -0.0003989792708036294 0 0.035117721285190882 -0.00042546837651313358 0 0.035096978278409539 -0.0004631801151677383 0 0.035110905970857302 -0.00043886410946173191 0 0.03513553299315858 -0.00042919861852662114 0 0.032345461911933382 -0.00084587756318145848 0 0.032604300980302835 -0.0007818424811987803 0 0.032712010380343395 -0.00057739607782485299 0 0.035098682840263511 -0.00042866138338123642 0 0.035117721285190882 -0.00042546837651313358 0 0.035110905970857302 -0.00043886410946173191 0 0.033844883732328968 -0.00092743818429437755 0 0.033909552699714546 -0.00031422839988383151 0 0.035117721285190882 -0.00042546837651313358 0 0.035110905970857302 -0.00043886410946173191 0 0.03513553299315858 -0.00042919861852662114 0 0.032345461911933382 -0.00084587756318145848 0 0.032604300980302835 -0.0007818424811987803 0 0.032506319047389744 -0.00098726982030718962 0 0.033844883732328968 -0.00092743818429437755 0 0.030494809827216633 -0.0014708213919160985 0 0.030494809827216633 -0.0014708213919160985 0 0.028748514278883575 -0.00086220293300786526 0 0.032442913795250584 -0.001274648127678341 0 0.032387298274374005 -0.0017229048719293791 0 0.03188977826344068 -0.0013197569292569538 0 0.029176513595279577 -0.0015790719596059215 0 0.027935119722551069 -0.0015479697453244922 0 0.028540359571124933 -0.00106548626202466 0 0.027935119722551069 -0.0015479697453244922 0 0.027878430966028038 -0.0027645200613731252 0 0.026832194005804222 -0.0016451914098384072 0 0.030494809827216633 -0.0014708213919160985 0 0.032184188323660018 -0.00043360452351080402 0 0.032604300980302835 -0.0007818424811987803 0 0.032506319047389744 -0.00098726982030718962 0 0.032819593433489933 -0.00070384148914950462 0 0.029176513595279577 -0.0015790719596059215 0 0.027935119722551069 -0.0015479697453244922 0 0.027878430966028038 -0.0027645200613731252 0 0.03478084958963102 0.00037515727456622201 0 0.034774924500873043 0.000523254406441869 0 0.034829636219182766 0.00046462872260799782 0 0.032604300980302835 -0.0007818424811987803 0 0.032819593433489933 -0.00070384148914950462 0 0.032712010380343395 -0.00057739607782485299 0 0.032184188323660018 -0.00043360452351080402 0 0.033909552699714546 -0.00031422839988383151 0 0.032184188323660018 -0.00043360452351080402 0 0.035572909673865234 0.00090184581972597251 0 0.034538793411287454 0.00041352249187919779 0 0.03453513883766704 0.00041819101121824643 0 0.0346056701021214 0.00038663805294988907 0 0.034538793411287454 0.00041352249187919779 0 0.03453513883766704 0.00041819101121824643 0 0.034518064876093262 0.00048148555605276267 0 0.032184188323660018 -0.00043360452351080402 0 0.030717287212906761 -0.00067905316159729196 0 0.03453513883766704 0.00041819101121824643 0 0.034518064876093262 0.00048148555605276267 0 0.034466544166439683 0.00046620348335133606 0 0.027935119722551069 -0.0015479697453244922 0 0.026832194005804222 -0.0016451914098384072 0 0.027590950715241504 -0.0006789642734754645 0 0.034466544166439683 0.00046620348335133606 0 0.034522802113880237 0.0003994004045525366 0 0.034357816231697633 0.00050033771754129819 0 0.034466544166439683 0.00046620348335133606 0 0.034357816231697633 0.00050033771754129819 0 0.03440258552315905 0.00058564405047177288 0 0.034518064876093262 0.00048148555605276267 0 0.034466544166439683 0.00046620348335133606 0 0.03440258552315905 0.00058564405047177288 0 0.03453513883766704 0.00041819101121824643 0 0.034522802113880237 0.0003994004045525366 0 0.0346056701021214 0.00038663805294988907 0 0.03453513883766704 0.00041819101121824643 0 0.034466544166439683 0.00046620348335133606 0 0.034522802113880237 0.0003994004045525366 0 0.034522802113880237 0.0003994004045525366 0 0.0346056701021214 0.00038663805294988907 0 0.034545491726735336 0.00040361902676333355 0 0.0346056701021214 0.00038663805294988907 0 0.034640049560381837 0.0003303599203026214 0 0.034545491726735336 0.00040361902676333355 0 0.03478084958963102 0.00037515727456622201 0 0.034774924500873043 0.000523254406441869 0 0.0346056701021214 0.00038663805294988907 0 0.03478084958963102 0.00037515727456622201 0 0.0346056701021214 0.00038663805294988907 0 0.034712913540753142 0.00032097960037712772 0 0.034806497432817947 0.00027173671155396328 0 0.03478084958963102 0.00037515727456622201 0 0.034712913540753142 0.00032097960037712772 0 0.0346056701021214 0.00038663805294988907 0 0.034712913540753142 0.00032097960037712772 0 0.034640049560381837 0.0003303599203026214 0 0.034806497432817947 0.00027173671155396328 0 0.034712913540753142 0.00032097960037712772 0 0.034744775900508999 0.00026320373600560162 0 0.034712913540753142 0.00032097960037712772 0 0.034744775900508999 0.00026320373600560162 0 0.034640049560381837 0.0003303599203026214 0 0.034676436140584993 0.00026285188624622466 0 0.034744775900508999 0.00026320373600560162 0 0.034640049560381837 0.0003303599203026214 0 0.034676436140584993 0.00026285188624622466 0 0.034640049560381837 0.0003303599203026214 0 0.03458194972882745 0.00032784767408056907 0 0.034640049560381837 0.0003303599203026214 0 0.03458194972882745 0.00032784767408056907 0 0.034545491726735336 0.00040361902676333355 0 0.034520244796702411 0.00038827902295583564 0 0.03458194972882745 0.00032784767408056907 0 0.034545491726735336 0.00040361902676333355 0 0.034520244796702411 0.00038827902295583564 0 0.03458194972882745 0.00032784767408056907 0 0.034487477264209615 0.00036721642451061109 0 0.034520244796702411 0.00038827902295583564 0 0.034487477264209615 0.00036721642451061109 0 0.034483077122889214 0.00042566843710874891 0 0.034528563560317957 0.00029476050593891493 0 0.03458194972882745 0.00032784767408056907 0 0.034487477264209615 0.00036721642451061109 0 0.034487477264209615 0.00036721642451061109 0 0.034483077122889214 0.00042566843710874891 0 0.034375758333502579 0.00040172361343362648 0 0.034520244796702411 0.00038827902295583564 0 0.034483077122889214 0.00042566843710874891 0 0.034545491726735336 0.00040361902676333355 0 0.034483077122889214 0.00042566843710874891 0 0.034545491726735336 0.00040361902676333355 0 0.034513244483678394 0.00042478955767486599 0 0.035536638588558808 0.00043337205405552987 0 0.03186888451689518 3.0742975123329202e-05 0 0.034522802113880237 0.0003994004045525366 0 0.034245715983701991 0.00036671987201693934 0 0.034357816231697633 0.00050033771754129819 0 0.034522802113880237 0.0003994004045525366 0 0.034545491726735336 0.00040361902676333355 0 0.034513244483678394 0.00042478955767486599 0 0.025567529975918393 -6.7839107839753985e-05 0 0.025517587002477863 -4.8236952083131033e-05 0 0.025592246675984788 -7.8300614019001963e-05 0 0.03186888451689518 3.0742975123329202e-05 0 0.029902725627040997 0.0002236706446971948 0 0.02553003036928651 9.9874678638375299e-05 0 0.025567529975918393 -6.7839107839753985e-05 0 0.025517587002477863 -4.8236952083131033e-05 0 0.03431071901635923 0.00046721140577451776 0 0.034284536383325577 0.00048760524641030113 0 0.034263241359782398 0.00050820646460400531 0 0.034639826639844683 0.00068558204477614157 0 0.03186888451689518 3.0742975123329202e-05 0 0.03186888451689518 3.0742975123329202e-05 0 0.0298161026021562 0.00043144829941267274 0 0.02553003036928651 9.9874678638375299e-05 0 0.025517587002477863 -4.8236952083131033e-05 0 0.025671874580773392 0.00027706242215753382 0 0.034263241359782398 0.00050820646460400531 0 0.034240623668132089 0.00048604744280390035 0 0.034287831198553637 0.00046411262812541071 0 0.025671874580773392 0.00027706242215753382 0 0.025620433798896426 -0.00010389720733206093 0 0.026102365270198231 -2.6799030815727e-05 0 0.025517587002477863 -4.8236952083131033e-05 0 0.025671874580773392 0.00027706242215753382 0 0.025620433798896426 -0.00010389720733206093 0 0.026941307271453656 2.6527052660689467e-05 0 0.027578150496091341 7.2626932108725109e-07 0 0.026157364455146527 -3.4596617464657372e-07 0 0.026102365270198231 -2.6799030815727e-05 0 0.026941307271453656 2.6527052660689467e-05 0 0.026157364455146527 -3.4596617464657372e-07 0 0.026102365270198231 -2.6799030815727e-05 0 0.026941307271453656 2.6527052660689467e-05 0 0.026718852898124566 0.00046494927539241003 0 0.0298161026021562 0.00043144829941267274 0 0.029381730850806309 0.00040131321078156168 0 0.027580353228114744 2.7820525966528338e-08 0 0.027652667642397089 5.7332175579231453e-06 0 0.029705582487153239 5.7790476882186466e-06 0 0.025671874580773392 0.00027706242215753382 0 0.026102365270198231 -2.6799030815727e-05 0 0.026718852898124566 0.00046494927539241003 0 0.028521307209595181 0.0001609368273732472 0 0.029381730850806309 0.00040131321078156168 0 0.034263241359782398 0.00050820646460400531 0 0.034161854285328357 0.00053272631004095089 0 0.034240623668132089 0.00048604744280390035 0 0.026941307271453656 2.6527052660689467e-05 0 0.027578150496091341 7.2626932108725109e-07 0 0.027516376811584673 1.0064123859415138e-05 0 0.027583454548565586 2.0321084766269368e-06 0 0.029381730850806309 0.00040131321078156168 0 0.034161854285328357 0.00053272631004095089 0 0.034240623668132089 0.00048604744280390035 0 0.034240800727206755 0.00043043946132180369 0 0.029381730850806309 0.00040131321078156168 0 0.032196447222274854 7.0120299913231307e-05 0 0.031854157133144677 2.6915855416096146e-07 0 0.027580353228114744 2.7820525966528338e-08 0 0.029705582487153239 5.7790476882186466e-06 0 0.034240623668132089 0.00048604744280390035 0 0.034287831198553637 0.00046411262812541071 0 0.034240800727206755 0.00043043946132180369 0 0.034639826639844683 0.00068558204477614157 0 0.034296156621708242 0.0002965694882770084 0 0.03431071901635923 0.00046721140577451776 0 0.034263241359782398 0.00050820646460400531 0 0.034287831198553637 0.00046411262812541071 0 0.03431071901635923 0.00046721140577451776 0 0.034287831198553637 0.00046411262812541071 0 0.034375758333502579 0.00040172361343362648 0 0.03434753025248901 0.00036823874067102555 0 0.034375758333502579 0.00040172361343362648 0 0.034240800727206755 0.00043043946132180369 0 0.034287831198553637 0.00046411262812541071 0 0.034375758333502579 0.00040172361343362648 0 0.034240800727206755 0.00043043946132180369 0 0.03434753025248901 0.00036823874067102555 0 0.034431717030763524 0.00035031860485545242 0 0.034375758333502579 0.00040172361343362648 0 0.034431717030763524 0.00035031860485545242 0 0.034487477264209615 0.00036721642451061109 0 0.034375758333502579 0.00040172361343362648 0 0.033062359077834898 8.2194121587875977e-05 0 0.032196447222274854 7.0120299913231307e-05 0 0.021158010555209081 0.00015240833634236635 0 0.023308799308405844 1.9928810260314241e-06 0 0.021501170995371188 -1.0763018920738622e-06 0 0.025175543578953602 0.00058076604212343975 0 0.025004248468258314 -0.00011322672651733417 0 0.025440075044485241 0.00010768113521030767 0 0.025175543578953602 0.00058076604212343975 0 0.023316632768863126 1.544232876023034e-06 0 0.025004248468258314 -0.00011322672651733417 0 0.023345574138952507 0.00042730789606904333 0 0.023312693212113607 2.8991325328135722e-08 0 0.024734591868712123 -7.7970282261113109e-07 0 0.025444541886021074 -0.00016537489057225906 0 0.025004248468258314 -0.00011322672651733417 0 0.023316632768863126 1.544232876023034e-06 0 0.024734591868712123 -7.7970282261113109e-07 0 0.025004248468258314 -0.00011322672651733417 0 0.026102365270198231 -2.6799030815727e-05 0 0.025444541886021074 -0.00016537489057225906 0 0.026157364455146527 -3.4596617464657372e-07 0 0.024734591868712123 -7.7970282261113109e-07 0 0.025444541886021074 -0.00016537489057225906 0 0.026157364455146527 -3.4596617464657372e-07 0 0.025620433798896426 -0.00010389720733206093 0 0.025444541886021074 -0.00016537489057225906 0 0.025434926689568375 -0.00013488795758676106 0 0.025620433798896426 -0.00010389720733206093 0 0.026102365270198231 -2.6799030815727e-05 0 0.025444541886021074 -0.00016537489057225906 0 0.025444541886021074 -0.00016537489057225906 0 0.025004248468258314 -0.00011322672651733417 0 0.025434926689568375 -0.00013488795758676106 0 0.025440075044485241 0.00010768113521030767 0 0.025434926689568375 -0.00013488795758676106 0 0.025557606333787914 -1.8051066084704912e-05 0 0.025004248468258314 -0.00011322672651733417 0 0.025440075044485241 0.00010768113521030767 0 0.025434926689568375 -0.00013488795758676106 0 0.025517587002477863 -4.8236952083131033e-05 0 0.025620433798896426 -0.00010389720733206093 0 0.025434926689568375 -0.00013488795758676106 0 0.025434926689568375 -0.00013488795758676106 0 0.025592246675984788 -7.8300614019001963e-05 0 0.025557606333787914 -1.8051066084704912e-05 0 0.025517587002477863 -4.8236952083131033e-05 0 0.025434926689568375 -0.00013488795758676106 0 0.025592246675984788 -7.8300614019001963e-05 0 0.025567529975918393 -6.7839107839753985e-05 0 0.025592246675984788 -7.8300614019001963e-05 0 0.025729054105262036 -7.4736238327912361e-05 0 0.025592246675984788 -7.8300614019001963e-05 0 0.025637325624125719 -2.1002960688787561e-05 0 0.025557606333787914 -1.8051066084704912e-05 0 0.025592246675984788 -7.8300614019001963e-05 0 0.025637325624125719 -2.1002960688787561e-05 0 0.025731628410872794 -5.2655263732965462e-05 0 0.025440075044485241 0.00010768113521030767 0 0.025557606333787914 -1.8051066084704912e-05 0 0.025674581132424507 0.00020193236845333687 0 0.025637325624125719 -2.1002960688787561e-05 0 0.025557606333787914 -1.8051066084704912e-05 0 0.025702384491720468 7.994048916575678e-05 0 0.025637325624125719 -2.1002960688787561e-05 0 0.025702384491720468 7.994048916575678e-05 0 0.025731628410872794 -5.2655263732965462e-05 0 0.025557606333787914 -1.8051066084704912e-05 0 0.025702384491720468 7.994048916575678e-05 0 0.025674581132424507 0.00020193236845333687 0 0.025702384491720468 7.994048916575678e-05 0 0.025674581132424507 0.00020193236845333687 0 0.025849499947939027 0.00021733452892562074 0 0.025674581132424507 0.00020193236845333687 0 0.025506551111704846 0.00035363342471786321 0 0.025661202526736621 0.00055100419850639612 0 0.022255530132653259 -0.00030544152423313557 0 0.024658595393127807 0.00011506870604580509 0 0.025440075044485241 0.00010768113521030767 0 0.025674581132424507 0.00020193236845333687 0 0.025506551111704846 0.00035363342471786321 0 0.025674581132424507 0.00020193236845333687 0 0.025661202526736621 0.00055100419850639612 0 0.025839694258154054 0.0001601840141942776 0 0.025175543578953602 0.00058076604212343975 0 0.025440075044485241 0.00010768113521030767 0 0.025506551111704846 0.00035363342471786321 0 0.025175543578953602 0.00058076604212343975 0 0.025506551111704846 0.00035363342471786321 0 0.025661202526736621 0.00055100419850639612 0 0.023345574138952507 0.00042730789606904333 0 0.022255530132653259 -0.00030544152423313557 0 0.021158010555209081 0.00015240833634236635 0 0.020815217510231868 -8.0756649990967161e-05 0 0.020535759648986907 4.9029765791223885e-05 0 0.020866451683311655 -0.00058021835029452859 0 0.020684112618271071 -0.00062224991553459015 0 0.020857345662478047 -0.00032297935918797882 0 0.021167745221893811 -0.0005344752484037924 0 0.022255530132653259 -0.00030544152423313557 0 0.021149405631029527 -0.00060393805029766115 0 0.021478289011841678 -0.0007036021078878047 0 0.021118094311153909 -0.00084646651863679056 0 0.020866451683311655 -0.00058021835029452859 0 0.021149405631029527 -0.00060393805029766115 0 0.021118094311153909 -0.00084646651863679056 0 0.020866451683311655 -0.00058021835029452859 0 0.020710389473716631 -0.00061341865678714975 0 0.021118094311153909 -0.00084646651863679056 0 0.021149405631029527 -0.00060393805029766115 0 0.02121081855928254 -0.00030286680156226242 0 0.020857345662478047 -0.00032297935918797882 0 0.020866451683311655 -0.00058021835029452859 0 0.021149405631029527 -0.00060393805029766115 0 0.020857345662478047 -0.00032297935918797882 0 0.021149405631029527 -0.00060393805029766115 0 0.021478289011841678 -0.0007036021078878047 0 0.02121081855928254 -0.00030286680156226242 0 0.022221161424394086 -0.00080938971834524298 0 0.022680150058785695 0.00039339452607650775 0 0.023380412867360922 -0.00046974467570480707 0 0.023198662004899631 -0.0016399863669620122 0 0.024123682503099677 -0.0010628764704620414 0 0.022221161424394086 -0.00080938971834524298 0 0.024288074363797919 -0.00063090344864797591 0 0.021478289011841678 -0.0007036021078878047 0 0.021118094311153909 -0.00084646651863679056 0 0.021400947866338973 -0.0013194118079911722 0 0.021118094311153909 -0.00084646651863679056 0 0.021104900755451992 -0.0012558866571403672 0 0.021400947866338973 -0.0013194118079911722 0 0.020710389473716631 -0.00061341865678714975 0 0.021118094311153909 -0.00084646651863679056 0 0.021104900755451992 -0.0012558866571403672 0 0.025895758855141466 6.9443004299396213e-05 0 0.024658595393127807 0.00011506870604580509 0 0.025702384491720468 7.994048916575678e-05 0 0.025849499947939027 0.00021733452892562074 0 0.025851621427200742 4.8767154603828142e-05 0 0.026104075241186849 -1.1491433821497691e-05 0 0.026274132749561651 -0.00043359940892607161 0 0.026350233418546181 0.0005583100027102087 0 0.025849499947939027 0.00021733452892562074 0 0.026104075241186849 -1.1491433821497691e-05 0 0.025851621427200742 4.8767154603828142e-05 0 0.025687193090129776 0.0007013788654365511 0 0.026104075241186849 -1.1491433821497691e-05 0 0.026350233418546181 0.0005583100027102087 0 0.024658595393127807 0.00011506870604580509 0 0.02586411238905565 -0.00010106076729072042 0 0.024658595393127807 0.00011506870604580509 0 0.024288074363797919 -0.00063090344864797591 0 0.026056777845321281 -8.2819792449232666e-05 0 0.0259265497839569 -7.5972926776752493e-05 0 0.026104075241186849 -1.1491433821497691e-05 0 0.0259265497839569 -7.5972926776752493e-05 0 0.026104075241186849 -1.1491433821497691e-05 0 0.025851621427200742 4.8767154603828142e-05 0 0.026056777845321281 -8.2819792449232666e-05 0 0.026104075241186849 -1.1491433821497691e-05 0 0.026274132749561651 -0.00043359940892607161 0 0.025702384491720468 7.994048916575678e-05 0 0.025851621427200742 4.8767154603828142e-05 0 0.025731628410872794 -5.2655263732965462e-05 0 0.0259265497839569 -7.5972926776752493e-05 0 0.025851621427200742 4.8767154603828142e-05 0 0.025731628410872794 -5.2655263732965462e-05 0 0.030717287212906761 -0.00067905316159729196 0 0.029101787867279405 3.3699210859832135e-05 0 0.029902725627040997 0.0002236706446971948 0 0.029101787867279405 3.3699210859832135e-05 0 0.026832194005804222 -0.0016451914098384072 0 0.025769736484279871 -0.00049907539911240814 0 0.026274132749561651 -0.00043359940892607161 0 0.025592246675984788 -7.8300614019001963e-05 0 0.025731628410872794 -5.2655263732965462e-05 0 0.025729054105262036 -7.4736238327912361e-05 0 0.026977696033652288 0.00076296010413884861 0 0.029101787867279405 3.3699210859832135e-05 0 0.0259265497839569 -7.5972926776752493e-05 0 0.025731628410872794 -5.2655263732965462e-05 0 0.025915902387444862 -0.00028214520974465066 0 0.027308580523266891 -0.00083777098198309754 0 0.029101787867279405 3.3699210859832135e-05 0 0.026056777845321281 -8.2819792449232666e-05 0 0.0259265497839569 -7.5972926776752493e-05 0 0.025915902387444862 -0.00028214520974465066 0 0.026056777845321281 -8.2819792449232666e-05 0 0.025769736484279871 -0.00049907539911240814 0 0.026274132749561651 -0.00043359940892607161 0 0.026832194005804222 -0.0016451914098384072 0 0.026274132749561651 -0.00043359940892607161 0 0.026886101612889429 -0.00059959856177369821 0 0.026832194005804222 -0.0016451914098384072 0 0.026886101612889429 -0.00059959856177369821 0 0.027590950715241504 -0.0006789642734754645 0 0.026274132749561651 -0.00043359940892607161 0 0.026886101612889429 -0.00059959856177369821 0 0.026684423231633794 -9.2188283234656817e-05 0 0.026886101612889429 -0.00059959856177369821 0 0.027106417941857509 -5.639040711403955e-05 0 0.026684423231633794 -9.2188283234656817e-05 0 0.026886101612889429 -0.00059959856177369821 0 0.027106417941857509 -5.639040711403955e-05 0 0.027590950715241504 -0.0006789642734754645 0 0.026269054562387949 0.00020208989100596426 0 0.024288074363797919 -0.00063090344864797591 0 0.023198662004899631 -0.0016399863669620122 0 0.024251268758383022 -0.0018818191803735944 0 0.024123682503099677 -0.0010628764704620414 0 0.024288074363797919 -0.00063090344864797591 0 0.026247276926318092 -0.00074028147729510141 0 0.026274132749561651 -0.00043359940892607161 0 0.026684423231633794 -9.2188283234656817e-05 0 0.026471794479442999 0.00072071243911911095 0 0.027106417941857509 -5.639040711403955e-05 0 0.026471794479442999 0.00072071243911911095 0 0.027973321163362801 0.0003826621520844417 0 0.027106417941857509 -5.639040711403955e-05 0 0.026684423231633794 -9.2188283234656817e-05 0 0.026471794479442999 0.00072071243911911095 0 0.024251268758383022 -0.0018818191803735944 0 0.024814137611604902 -0.0015115646003775736 0 0.024123682503099677 -0.0010628764704620414 0 0.027106417941857509 -5.639040711403955e-05 0 0.027973321163362801 0.0003826621520844417 0 0.027590950715241504 -0.0006789642734754645 0 0.027973321163362801 0.0003826621520844417 0 0.027590950715241504 -0.0006789642734754645 0 0.028527533446906714 -0.00041228587544995724 0 0.027590950715241504 -0.0006789642734754645 0 0.028527533446906714 -0.00041228587544995724 0 0.028540359571124933 -0.00106548626202466 0 0.027935119722551069 -0.0015479697453244922 0 0.027590950715241504 -0.0006789642734754645 0 0.028540359571124933 -0.00106548626202466 0 0.029161071407751021 -0.0015766144543681779 0 0.029080247730733727 -0.00074439886566155693 0 0.030085640296441826 -0.00074165352192249318 0 0.030494809827216633 -0.0014708213919160985 0 0.031263234470438828 -0.0013380336615349774 0 0.032442913795250584 -0.001274648127678341 0 0.03188977826344068 -0.0013197569292569538 0 0.032518751293465771 -0.00075316671767357117 0 0.029161071407751021 -0.0015766144543681779 0 0.028540359571124933 -0.00106548626202466 0 0.029080247730733727 -0.00074439886566155693 0 0.028527533446906714 -0.00041228587544995724 0 0.028540359571124933 -0.00106548626202466 0 0.029080247730733727 -0.00074439886566155693 0 0.028527533446906714 -0.00041228587544995724 0 0.029080247730733727 -0.00074439886566155693 0 0.029442490200931579 4.4688527805857488e-05 0 0.029080247730733727 -0.00074439886566155693 0 0.029442490200931579 4.4688527805857488e-05 0 0.030085640296441826 -0.00074165352192249318 0 0.027973321163362801 0.0003826621520844417 0 0.028527533446906714 -0.00041228587544995724 0 0.029442490200931579 4.4688527805857488e-05 0 0.024251268758383022 -0.0018818191803735944 0 0.025331621401747086 -0.0021212692511796711 0 0.024814137611604902 -0.0015115646003775736 0 0.025331168267039759 -0.0021326882255242327 0 0.024814137611604902 -0.0015115646003775736 0 0.025708973207900276 -0.00097306889922126646 0 0.026247276926318092 -0.00074028147729510141 0 0.02712863894805019 -0.0013507157551356343 0 0.02712863894805019 -0.0013507157551356343 0 0.024927555923783519 -0.0013679132885893387 0 0.024814137611604902 -0.0015115646003775736 0 0.025009217147247863 -0.0008308292341867292 0 0.025708973207900276 -0.00097306889922126646 0 0.025009217147247863 -0.0008308292341867292 0 0.024123682503099677 -0.0010628764704620414 0 0.024571094719391555 -0.00030868397508879592 0 0.024814137611604902 -0.0015115646003775736 0 0.025009217147247863 -0.0008308292341867292 0 0.024123682503099677 -0.0010628764704620414 0 0.023380412867360922 -0.00046974467570480707 0 0.024123682503099677 -0.0010628764704620414 0 0.024571094719391555 -0.00030868397508879592 0 0.023380412867360922 -0.00046974467570480707 0 0.024571094719391555 -0.00030868397508879592 0 0.024132147681210487 0.00026380411127429216 0 0.025009217147247863 -0.0008308292341867292 0 0.024571094719391555 -0.00030868397508879592 0 0.02554923383229793 0.00027635421863170088 0 0.025009217147247863 -0.0008308292341867292 0 0.025708973207900276 -0.00097306889922126646 0 0.02554923383229793 0.00027635421863170088 0 0.024686734209191135 0.00075234762767306543 0 0.025398311153699702 0.0015361650257314857 0 0.02554923383229793 0.00027635421863170088 0 0.024571094719391555 -0.00030868397508879592 0 0.024686734209191135 0.00075234762767306543 0 0.02554923383229793 0.00027635421863170088 0 0.024571094719391555 -0.00030868397508879592 0 0.024686734209191135 0.00075234762767306543 0 0.024132147681210487 0.00026380411127429216 0 0.024686734209191135 0.00075234762767306543 0 0.024132147681210487 0.00026380411127429216 0 0.024098404418077684 0.0010881250343990326 0 0.024132147681210487 0.00026380411127429216 0 0.024098404418077684 0.0010881250343990326 0 0.023559501250339596 0.00069587460773538282 0 0.024686734209191135 0.00075234762767306543 0 0.024098404418077684 0.0010881250343990326 0 0.024214333223687285 0.0017409186790247628 0 0.025179215739408334 0.00076059161647887611 0 0.020909438817598797 0.0010821669957322563 0 0.024098404418077684 0.0010881250343990326 0 0.024214333223687285 0.0017409186790247628 0 0.023731552691215473 0.0018430012767841658 0 0.022460197720782525 0.00047799379403089406 0 0.020909438817598797 0.0010821669957322563 0 0.024686734209191135 0.00075234762767306543 0 0.025398311153699702 0.0015361650257314857 0 0.024172629750005101 0.0017972929567709817 0 0.022460197720782525 0.00047799379403089406 0 0.016635804844198007 -0.0013895912820239432 0 0.016897787192128783 -0.00066875803145491916 0 0.016806528167353469 -0.00032339739028904431 0 0.016559203134447444 -0.00035222625843155044 0 0.016897787192128783 -0.00066875803145491916 0 0.016559203134447444 -0.00035222625843155044 0 0.01648247719037119 -0.00058505331498130177 0 0.016806528167353469 -0.00032339739028904431 0 0.016527754180888726 -0.00012297925611337847 0 0.016717417473883573 -2.2143356290899054e-06 0 0.016635804844198007 -0.0013895912820239432 0 0.016801332097289026 -0.00011589341827179709 0 0.016806528167353469 -0.00032339739028904431 0 0.016527754180888726 -0.00012297925611337847 0 0.016559203134447444 -0.00035222625843155044 0 0.016527754180888726 -0.00012297925611337847 0 0.016289525036441824 -0.00023235982047812374 0 0.016330547271063995 -8.2789677000858036e-06 0 0.016527754180888726 -0.00012297925611337847 0 0.016559203134447444 -0.00035222625843155044 0 0.016289525036441824 -0.00023235982047812374 0 0.019842209678920752 0.00087870534765231061 0 0.019864438725620631 0.00084631472768851256 0 0.019854157474224501 0.00080128743948493513 0 0.016559203134447444 -0.00035222625843155044 0 0.01648247719037119 -0.00058505331498130177 0 0.016289525036441824 -0.00023235982047812374 0 0.020909438817598797 0.0010821669957322563 0 0.017877949563281488 0.00027332864832489121 0 0.019842209678920752 0.00087870534765231061 0 0.019870599235720706 0.00087136911961950667 0 0.019864438725620631 0.00084631472768851256 0 0.020909438817598797 0.0010821669957322563 0 0.02173527804724008 0.0011841914592522682 0 0.02173527804724008 0.0011841914592522682 0 0.020216096742469322 0.00076064035821197401 0 0.019870599235720706 0.00087136911961950667 0 0.019895273139696818 0.00083670406429822697 0 0.019970896912949235 0.00085183326369499875 0 0.021682900679315158 0.00060910794316278031 0 0.020888078423486924 0.00075816830206923002 0 0.021302419481262443 0.00032360885707482747 0 0.019870599235720706 0.00087136911961950667 0 0.019895273139696818 0.00083670406429822697 0 0.019864438725620631 0.00084631472768851256 0 0.019895273139696818 0.00083670406429822697 0 0.019864438725620631 0.00084631472768851256 0 0.019854157474224501 0.00080128743948493513 0 0.019895273139696818 0.00083670406429822697 0 0.019854157474224501 0.00080128743948493513 0 0.019934100023452635 0.00078953442893489058 0 0.019854157474224501 0.00080128743948493513 0 0.019934100023452635 0.00078953442893489058 0 0.019874292369359708 0.00071455777951003475 0 0.019934100023452635 0.00078953442893489058 0 0.019970896912949235 0.00085183326369499875 0 0.020018547794196276 0.00079842576670534045 0 0.019895273139696818 0.00083670406429822697 0 0.019934100023452635 0.00078953442893489058 0 0.019970896912949235 0.00085183326369499875 0 0.020931479301424225 0.00013435818224116105 0 0.021302419481262443 0.00032360885707482747 0 0.02157504663756564 -6.02394770378359e-05 0 0.020888078423486924 0.00075816830206923002 0 0.020931479301424225 0.00013435818224116105 0 0.021302419481262443 0.00032360885707482747 0 0.024098404418077684 0.0010881250343990326 0 0.023731552691215473 0.0018430012767841658 0 0.023559501250339596 0.00069587460773538282 0 0.021682900679315158 0.00060910794316278031 0 0.021302419481262443 0.00032360885707482747 0 0.02157504663756564 -6.02394770378359e-05 0 0.02173527804724008 0.0011841914592522682 0 0.022680150058785695 0.00039339452607650775 0 0.023380412867360922 -0.00046974467570480707 0 0.024132147681210487 0.00026380411127429216 0 0.023559501250339596 0.00069587460773538282 0 0.021478289011841678 -0.0007036021078878047 0 0.02157504663756564 -6.02394770378359e-05 0 0.02121081855928254 -0.00030286680156226242 0 0.020931479301424225 0.00013435818224116105 0 0.02121081855928254 -0.00030286680156226242 0 0.020857345662478047 -0.00032297935918797882 0 0.020931479301424225 0.00013435818224116105 0 0.02157504663756564 -6.02394770378359e-05 0 0.02121081855928254 -0.00030286680156226242 0 0.020684112618271071 -0.00062224991553459015 0 0.020857345662478047 -0.00032297935918797882 0 0.020278273223285265 4.2469536788733339e-05 0 0.020931479301424225 0.00013435818224116105 0 0.020857345662478047 -0.00032297935918797882 0 0.020278273223285265 4.2469536788733339e-05 0 0.022255530132653259 -0.00030544152423313557 0 0.020232891616482711 -1.4267304553310128e-05 0 0.020815217510231868 -8.0756649990967161e-05 0 0.020535759648986907 4.9029765791223885e-05 0 0.020713197308953813 -0.00023055498286144479 0 0.020815217510231868 -8.0756649990967161e-05 0 0.020713197308953813 -0.00023055498286144479 0 0.020664618749494573 -0.00025809322355011249 0 0.020278273223285265 4.2469536788733339e-05 0 0.020355508220755329 0.0004893352524645056 0 0.019978265663039077 0.00069102658744397071 0 0.020232891616482711 -1.4267304553310128e-05 0 0.020374031942637066 0.00024416366218995048 0 0.020713197308953813 -0.00023055498286144479 0 0.020375946426817202 -0.00012730787271763555 0 0.020664618749494573 -0.00025809322355011249 0 0.020888078423486924 0.00075816830206923002 0 0.020931479301424225 0.00013435818224116105 0 0.020355508220755329 0.0004893352524645056 0 0.020931479301424225 0.00013435818224116105 0 0.020278273223285265 4.2469536788733339e-05 0 0.020355508220755329 0.0004893352524645056 0 0.020216096742469322 0.00076064035821197401 0 0.020190106928910736 0.00081459075848318817 0 0.020888078423486924 0.00075816830206923002 0 0.020355508220755329 0.0004893352524645056 0 0.020076806182327142 0.00080365925275448376 0 0.019970896912949235 0.00085183326369499875 0 0.020018547794196276 0.00079842576670534045 0 0.020076806182327142 0.00080365925275448376 0 0.019934100023452635 0.00078953442893489058 0 0.020018547794196276 0.00079842576670534045 0 0.019995833940815978 0.00075968426721449505 0 0.020018547794196276 0.00079842576670534045 0 0.02002103180813938 0.00083482045265271924 0 0.019995833940815978 0.00075968426721449505 0 0.020018547794196276 0.00079842576670534045 0 0.020076806182327142 0.00080365925275448376 0 0.02002103180813938 0.00083482045265271924 0 0.020076806182327142 0.00080365925275448376 0 0.019978265663039077 0.00069102658744397071 0 0.02002103180813938 0.00083482045265271924 0 0.020355508220755329 0.0004893352524645056 0 0.020076806182327142 0.00080365925275448376 0 0.019978265663039077 0.00069102658744397071 0 0.020056177039496439 -0.00012737669462953299 0 0.020375946426817202 -0.00012730787271763555 0 0.019521687533401111 -6.5378447314603689e-05 0 0.019978265663039077 0.00069102658744397071 0 0.019959041291064468 0.00082269380599590846 0 0.02002103180813938 0.00083482045265271924 0 0.020374031942637066 0.00024416366218995048 0 0.018588065665527703 0.00047201688613567017 0 0.020375946426817202 -0.00012730787271763555 0 0.019557889296189165 0.00068214711475164647 0 0.019521687533401111 -6.5378447314603689e-05 0 0.018588065665527703 0.00047201688613567017 0 0.017945099308623851 0.00043505694706101004 0 0.019557889296189165 0.00068214711475164647 0 0.017877055875146118 1.8671353749932809e-06 0 0.019521687533401111 -6.5378447314603689e-05 0 0.018588065665527703 0.00047201688613567017 0 0.017873371400197624 1.3168046110443964e-07 0 0.020056177039496439 -0.00012737669462953299 0 0.019686698071112931 -8.5019068364806502e-07 0 0.019521687533401111 -6.5378447314603689e-05 0 0.017877055875146118 1.8671353749932809e-06 0 0.019686698071112931 -8.5019068364806502e-07 0 0.019521687533401111 -6.5378447314603689e-05 0 0.020056177039496439 -0.00012737669462953299 0 0.019686698071112931 -8.5019068364806502e-07 0 0.020664618749494573 -0.00025809322355011249 0 0.019686698071112931 -8.5019068364806502e-07 0 0.020664618749494573 -0.00025809322355011249 0 0.021501170995371188 -1.0763018920738622e-06 0 0.020056177039496439 -0.00012737669462953299 0 0.020375946426817202 -0.00012730787271763555 0 0.020664618749494573 -0.00025809322355011249 0 0.021158010555209081 0.00015240833634236635 0 0.020664618749494573 -0.00025809322355011249 0 0.021501170995371188 -1.0763018920738622e-06 0 0.021158010555209081 0.00015240833634236635 0 0.020815217510231868 -8.0756649990967161e-05 0 0.020664618749494573 -0.00025809322355011249 0 0.034506966811529795 -0.00099118017184648488 0 0.03450193202926994 -0.00097409537227252576 0 0.034542451089048111 -0.00096761947783548566 0 0.034506966811529795 -0.00099118017184648488 0 0.034536529975522257 -0.00096635418345819677 0 0.034542451089048111 -0.00096761947783548566 0 0.034536529975522257 -0.00096635418345819677 0 0.034542451089048111 -0.00096761947783548566 0 0.034561867039331395 -0.00097115518321783762 0 0.034532920434750973 -0.00093613477155271422 0 0.034536529975522257 -0.00096635418345819677 0 0.034561867039331395 -0.00097115518321783762 0 0.034547176866397911 -0.00095564106333035498 0 0.034532920434750973 -0.00093613477155271422 0 0.034561867039331395 -0.00097115518321783762 0 0.034547176866397911 -0.00095564106333035498 0 0.034532920434750973 -0.00093613477155271422 0 0.034528566193312682 -0.00091076365028022136 0 0.034532920434750973 -0.00093613477155271422 0 0.034519647674384792 -0.00095620325046688864 0 0.034520413824161038 -0.0009131428715741974 0 0.034532920434750973 -0.00093613477155271422 0 0.034536529975522257 -0.00096635418345819677 0 0.034519647674384792 -0.00095620325046688864 0 0.034519647674384792 -0.00095620325046688864 0 0.034520413824161038 -0.0009131428715741974 0 0.034516629292421677 -0.00091478025737716214 0 0.033139155775249042 -0.0012013465228233986 0 0.032883774493359899 0.00054243437279938474 0 0.03155743383742847 -0.00099483709949595438 0 0.032197653374634788 -0.00080674796861610152 0 0.032697962084003683 -0.0012813851398200519 0 0.034506966811529795 -0.00099118017184648488 0 0.034536529975522257 -0.00096635418345819677 0 0.034519647674384792 -0.00095620325046688864 0 0.034506966811529795 -0.00099118017184648488 0 0.034519647674384792 -0.00095620325046688864 0 0.034468266457452129 -0.0010252455798113657 0 0.033139155775249042 -0.0012013465228233986 0 0.032849614336882577 -0.00068332460871764489 0 0.031739140836095574 -9.3570179175863965e-05 0 0.032148889796164537 0.00012643821127904009 0 0.031751212623961862 0.00037111422830528068 0 0.031757036279803204 -0.0002520350421081566 0 0.032849614336882577 -0.00068332460871764489 0 0.031412258211112751 0.00021335320802657391 0 0.031739140836095574 -9.3570179175863965e-05 0 0.031751212623961862 0.00037111422830528068 0 0.032589026705315445 -3.5237036665795049e-05 0 0.032480998791001019 0.00024624604590100141 0 0.032148889796164537 0.00012643821127904009 0 0.032480998791001019 0.00024624604590100141 0 0.032148889796164537 0.00012643821127904009 0 0.032206453215030406 0.0004301891475446038 0 0.031739140836095574 -9.3570179175863965e-05 0 0.032148889796164537 0.00012643821127904009 0 0.032334611249091663 -0.00018641803147993659 0 0.032849614336882577 -0.00068332460871764489 0 0.031932925001598687 -0.00012007159081588521 0 0.032589026705315445 -3.5237036665795049e-05 0 0.032148889796164537 0.00012643821127904009 0 0.032334611249091663 -0.00018641803147993659 0 0.032589026705315445 -3.5237036665795049e-05 0 0.032739640694521795 -0.00031605971770464408 0 0.032334611249091663 -0.00018641803147993659 0 0.032739640694521795 -0.00031605971770464408 0 0.032334611249091663 -0.00018641803147993659 0 0.032372891353557504 -0.0004601768518717993 0 0.032849614336882577 -0.00068332460871764489 0 0.033414221517186052 -0.00075022111134201875 0 0.031954266294087846 -9.0718558363544821e-05 0 0.032334611249091663 -0.00018641803147993659 0 0.032372891353557504 -0.0004601768518717993 0 0.034385262041151096 -0.0010459627967774202 0 0.034462054707037726 -0.0010087160419376274 0 0.034428175654498919 -0.00098518782931395865 0 0.034506966811529795 -0.00099118017184648488 0 0.034462054707037726 -0.0010087160419376274 0 0.03450193202926994 -0.00097409537227252576 0 0.034506966811529795 -0.00099118017184648488 0 0.034468266457452129 -0.0010252455798113657 0 0.034462054707037726 -0.0010087160419376274 0 0.034468266457452129 -0.0010252455798113657 0 0.034385262041151096 -0.0010459627967774202 0 0.034462054707037726 -0.0010087160419376274 0 0.034462054707037726 -0.0010087160419376274 0 0.03450193202926994 -0.00097409537227252576 0 0.034428175654498919 -0.00098518782931395865 0 0.034428175654498919 -0.00098518782931395865 0 0.034498167169511762 -0.0009146661635167228 0 0.034437442527919644 -0.00090523480526875715 0 0.03450193202926994 -0.00097409537227252576 0 0.034428175654498919 -0.00098518782931395865 0 0.034498167169511762 -0.0009146661635167228 0 0.034205362659538718 -0.0010617517310375045 0 0.034385262041151096 -0.0010459627967774202 0 0.034344739096903582 -0.001013823069024531 0 0.033609723011551816 -0.00089204552994444938 0 0.033414221517186052 -0.00075022111134201875 0 0.034385262041151096 -0.0010459627967774202 0 0.034428175654498919 -0.00098518782931395865 0 0.034344739096903582 -0.001013823069024531 0 0.034428175654498919 -0.00098518782931395865 0 0.034344077163824455 -0.00094531445034574089 0 0.034437442527919644 -0.00090523480526875715 0 0.034428175654498919 -0.00098518782931395865 0 0.034344739096903582 -0.001013823069024531 0 0.034344077163824455 -0.00094531445034574089 0 0.034205362659538718 -0.0010617517310375045 0 0.034344739096903582 -0.001013823069024531 0 0.034344077163824455 -0.00094531445034574089 0 0.034257433674416929 -0.00088000750292277995 0 0.034344077163824455 -0.00094531445034574089 0 0.03438847556001691 -0.00084178156895901662 0 0.034344077163824455 -0.00094531445034574089 0 0.03438847556001691 -0.00084178156895901662 0 0.034437442527919644 -0.00090523480526875715 0 0.034257433674416929 -0.00088000750292277995 0 0.034339999439807346 -0.00076887188225245096 0 0.03438847556001691 -0.00084178156895901662 0 0.034486142582534594 -0.00081700243911822577 0 0.034498167169511762 -0.0009146661635167228 0 0.034437442527919644 -0.00090523480526875715 0 0.034486142582534594 -0.00081700243911822577 0 0.03438847556001691 -0.00084178156895901662 0 0.034437442527919644 -0.00090523480526875715 0 0.034486142582534594 -0.00081700243911822577 0 0.034498167169511762 -0.0009146661635167228 0 0.034553121460886758 -0.00084157115693442698 0 0.034553121460886758 -0.00084157115693442698 0 0.03459710474800249 -0.0008538770187873603 0 0.034547039255590072 -0.00092458343336696892 0 0.034594205433669846 -0.00079151918273682488 0 0.034553121460886758 -0.00084157115693442698 0 0.03459710474800249 -0.0008538770187873603 0 0.03459710474800249 -0.0008538770187873603 0 0.034547039255590072 -0.00092458343336696892 0 0.034578720178499708 -0.00094092448742184626 0 0.034498167169511762 -0.0009146661635167228 0 0.034553121460886758 -0.00084157115693442698 0 0.034547039255590072 -0.00092458343336696892 0 0.03450193202926994 -0.00097409537227252576 0 0.034547039255590072 -0.00092458343336696892 0 0.034542451089048111 -0.00096761947783548566 0 0.03450193202926994 -0.00097409537227252576 0 0.034498167169511762 -0.0009146661635167228 0 0.034547039255590072 -0.00092458343336696892 0 0.034547039255590072 -0.00092458343336696892 0 0.034542451089048111 -0.00096761947783548566 0 0.034578720178499708 -0.00094092448742184626 0 0.034547176866397911 -0.00095564106333035498 0 0.034561867039331395 -0.00097115518321783762 0 0.034581125888984578 -0.0010083975540119677 0 0.034542451089048111 -0.00096761947783548566 0 0.034561867039331395 -0.00097115518321783762 0 0.034578720178499708 -0.00094092448742184626 0 0.034561867039331395 -0.00097115518321783762 0 0.034578720178499708 -0.00094092448742184626 0 0.034581125888984578 -0.0010083975540119677 0 0.034578720178499708 -0.00094092448742184626 0 0.034643761804916948 -0.00085650779012058263 0 0.034581125888984578 -0.0010083975540119677 0 0.03459710474800249 -0.0008538770187873603 0 0.034578720178499708 -0.00094092448742184626 0 0.034643761804916948 -0.00085650779012058263 0 0.034643761804916948 -0.00085650779012058263 0 0.034674879041133554 -0.0008971751830192206 0 0.034581125888984578 -0.0010083975540119677 0 0.034674879041133554 -0.0008971751830192206 0 0.034777587214401752 -0.00089178963150987763 0 0.034533178390538287 -0.0010874295240096983 0 0.034777587214401752 -0.00089178963150987763 0 0.03493008441309698 -0.00094256097123862365 0 0.034533178390538287 -0.0010874295240096983 0 0.034827166068394262 -0.00076048081218536823 0 0.034674879041133554 -0.0008971751830192206 0 0.034777587214401752 -0.00089178963150987763 0 0.034910836197532553 -0.00081984209415590398 0 0.034777587214401752 -0.00089178963150987763 0 0.03493008441309698 -0.00094256097123862365 0 0.034494660839033554 -0.0012203151198975715 0 0.034543606851392968 -0.0011028196365430742 0 0.034533178390538287 -0.0010874295240096983 0 0.033966850332066589 -0.0012264128683832491 0 0.034282889659702213 -0.00096475970834646572 0 0.034063445140454868 -0.0014878424567378687 0 0.034533178390538287 -0.0010874295240096983 0 0.033966850332066589 -0.0012264128683832491 0 0.033966850332066589 -0.0012264128683832491 0 0.033989815971496494 -0.0010066921968080456 0 0.034282889659702213 -0.00096475970834646572 0 0.034533178390538287 -0.0010874295240096983 0 0.034501982916784364 -0.00095490655437262901 0 0.034282889659702213 -0.00096475970834646572 0 0.034674879041133554 -0.0008971751830192206 0 0.034581125888984578 -0.0010083975540119677 0 0.034533178390538287 -0.0010874295240096983 0 0.034581125888984578 -0.0010083975540119677 0 0.034533178390538287 -0.0010874295240096983 0 0.034501982916784364 -0.00095490655437262901 0 0.034547176866397911 -0.00095564106333035498 0 0.034581125888984578 -0.0010083975540119677 0 0.034501982916784364 -0.00095490655437262901 0 0.02712863894805019 -0.0013507157551356343 0 0.031263234470438828 -0.0013380336615349774 0 0.029895353414891784 -0.0022810616020379772 0 0.029679844209751626 -0.0024763827532992525 0 0.029805373188530822 -0.0013446529744758256 0 0.02851604201092775 -0.0010609342160463949 0 0.029679844209751626 -0.0024763827532992525 0 0.029805373188530822 -0.0013446529744758256 0 0.03114635832339788 -0.0017448175555758671 0 0.029156828845169153 -0.0024480213626873479 0 0.033328207091342966 -0.001489199148579777 0 0.033335226597228977 -0.0015601293728154781 0 0.033446469611741671 -0.0014974215441220387 0 0.03114635832339788 -0.0017448175555758671 0 0.031276365582001281 -0.0017312266323503028 0 0.033324611025402809 -0.0014898834223838343 0 0.03327821138331067 -0.0015335481454617221 0 0.033335226597228977 -0.0015601293728154781 0 0.03114635832339788 -0.0017448175555758671 0 0.031263234470438828 -0.0013380336615349774 0 0.032975484752593848 -0.0013026701567026393 0 0.032442913795250584 -0.001274648127678341 0 0.032518751293465771 -0.00075316671767357117 0 0.034229110781515297 -0.0011620704974556002 0 0.031263234470438828 -0.0013380336615349774 0 0.03356014368683425 -0.0018549856742933438 0 0.033335226597228977 -0.0015601293728154781 0 0.033577757599440747 -0.0015503080817529358 0 0.03356014368683425 -0.0018549856742933438 0 0.03327821138331067 -0.0015335481454617221 0 0.033335226597228977 -0.0015601293728154781 0 0.033335226597228977 -0.0015601293728154781 0 0.033577757599440747 -0.0015503080817529358 0 0.033446469611741671 -0.0014974215441220387 0 0.033577757599440747 -0.0015503080817529358 0 0.033446469611741671 -0.0014974215441220387 0 0.033515322624808261 -0.0013256599417551705 0 0.033328207091342966 -0.001489199148579777 0 0.033446469611741671 -0.0014974215441220387 0 0.033515322624808261 -0.0013256599417551705 0 0.030653673944022321 -0.0023453477159016464 0 0.030716212329868556 -0.0022923632215802832 0 0.030645028876772937 -0.0022774285580327131 0 0.03114635832339788 -0.0017448175555758671 0 0.031860576251021969 -0.0021415380052418544 0 0.035097800223967329 -0.00079758593321559634 0 0.034910836197532553 -0.00081984209415590398 0 0.03493008441309698 -0.00094256097123862365 0 0.03356014368683425 -0.0018549856742933438 0 0.034063445140454868 -0.0014878424567378687 0 0.033577757599440747 -0.0015503080817529358 0 0.034229110781515297 -0.0011620704974556002 0 0.034494660839033554 -0.0012203151198975715 0 0.034063445140454868 -0.0014878424567378687 0 0.033577757599440747 -0.0015503080817529358 0 0.033727537058714299 -0.0013746913746859964 0 0.033577757599440747 -0.0015503080817529358 0 0.033515322624808261 -0.0013256599417551705 0 0.033727537058714299 -0.0013746913746859964 0 0.031860576251021969 -0.0021415380052418544 0 0.033319148036426605 -0.0020033530989899853 0 0.034063445140454868 -0.0014878424567378687 0 0.033727537058714299 -0.0013746913746859964 0 0.033966850332066589 -0.0012264128683832491 0 0.033546675019236347 -0.001330529084584956 0 0.033966850332066589 -0.0012264128683832491 0 0.033989815971496494 -0.0010066921968080456 0 0.031860576251021969 -0.0021415380052418544 0 0.033102172119131461 -0.0017239220657195809 0 0.033546675019236347 -0.001330529084584956 0 0.033727537058714299 -0.0013746913746859964 0 0.033966850332066589 -0.0012264128683832491 0 0.03046410933162565 -0.003918398440312683 0 0.032216921720411101 -0.0023732362596480677 0 0.030408341367791858 -0.0024028042628763892 0 0.025331168267039759 -0.0021326882255242327 0 0.025866785850575148 -0.0022509787593820323 0 0.025708973207900276 -0.00097306889922126646 0 0.030408341367791858 -0.0024028042628763892 0 0.029722370812344624 -0.003756506589104936 0 0.029474230182631664 -0.0011781064582886574 0 0.029156828845169153 -0.0024480213626873479 0 0.027416797713069114 -0.0012541003701895923 0 0.03046410933162565 -0.003918398440312683 0 0.030408341367791858 -0.0024028042628763892 0 0.029722370812344624 -0.003756506589104936 0 0.031860576251021969 -0.0021415380052418544 0 0.029156828845169153 -0.0024480213626873479 0 0.02712863894805019 -0.0013507157551356343 0 0.029156828845169153 -0.0024480213626873479 0 0.030408341367791858 -0.0024028042628763892 0 0.029474230182631664 -0.0011781064582886574 0 0.031765260884781127 -0.00035324803195368012 0 0.032216921720411101 -0.0023732362596480677 0 0.030408341367791858 -0.0024028042628763892 0 0.031765260884781127 -0.00035324803195368012 0 0.032216921720411101 -0.0023732362596480677 0 0.031765260884781127 -0.00035324803195368012 0 0.032983326260456781 -0.00040668438082566282 0 0.031765260884781127 -0.00035324803195368012 0 0.03064234721905534 0.0007213301584820986 0 0.032707781448445251 0.0017359523622381533 0 0.029474230182631664 -0.0011781064582886574 0 0.031765260884781127 -0.00035324803195368012 0 0.03064234721905534 0.0007213301584820986 0 0.029474230182631664 -0.0011781064582886574 0 0.03064234721905534 0.0007213301584820986 0 0.029310101477084148 0.0013440929162208224 0 0.027416797713069114 -0.0012541003701895923 0 0.027923147358279943 0.0011814927626152753 0 0.034511758641392581 -0.00087461771630325061 0 0.034282889659702213 -0.00096475970834646572 0 0.034111715415838774 -0.0007227216422594783 0 0.034511758641392581 -0.00087461771630325061 0 0.034528566193312682 -0.00091076365028022136 0 0.034501982916784364 -0.00095490655437262901 0 0.034511758641392581 -0.00087461771630325061 0 0.034528566193312682 -0.00091076365028022136 0 0.034520413824161038 -0.0009131428715741974 0 0.034547176866397911 -0.00095564106333035498 0 0.034528566193312682 -0.00091076365028022136 0 0.034501982916784364 -0.00095490655437262901 0 0.034511758641392581 -0.00087461771630325061 0 0.034501982916784364 -0.00095490655437262901 0 0.034282889659702213 -0.00096475970834646572 0 0.033989815971496494 -0.0010066921968080456 0 0.034282889659702213 -0.00096475970834646572 0 0.034111715415838774 -0.0007227216422594783 0 0.032216921720411101 -0.0023732362596480677 0 0.034111715415838774 -0.0007227216422594783 0 0.032983326260456781 -0.00040668438082566282 0 0.033102172119131461 -0.0017239220657195809 0 0.034059985173646445 -0.00077719338648568539 0 0.031765260884781127 -0.00035324803195368012 0 0.033474523416092167 0.00052578302538355511 0 0.032707781448445251 0.0017359523622381533 0 0.034111715415838774 -0.0007227216422594783 0 0.032983326260456781 -0.00040668438082566282 0 0.033474523416092167 0.00052578302538355511 0 0.034111715415838774 -0.0007227216422594783 0 0.033474523416092167 0.00052578302538355511 0 0.034642872585897627 0.0011811380893832232 0 0.031765260884781127 -0.00035324803195368012 0 0.032983326260456781 -0.00040668438082566282 0 0.033474523416092167 0.00052578302538355511 0 0.034511758641392581 -0.00087461771630325061 0 0.034520413824161038 -0.0009131428715741974 0 0.034516629292421677 -0.00091478025737716214 0 0.034749574725926498 -0.00094279023118717606 0 0.032883774493359899 0.00054243437279938474 0 0.034511758641392581 -0.00087461771630325061 0 0.034111715415838774 -0.0007227216422594783 0 0.034642872585897627 0.0011811380893832232 0 0.034532920434750973 -0.00093613477155271422 0 0.034528566193312682 -0.00091076365028022136 0 0.034520413824161038 -0.0009131428715741974 0 0.030402544886802982 -0.00069696212604485725 0 0.030398992528168817 -5.7468348693382212e-05 0 0.031013173906635834 -0.00051947095784763482 0 0.032883774493359899 0.00054243437279938474 0 0.027411076963157911 -0.001248228859553157 0 0.032883774493359899 0.00054243437279938474 0 0.032155460333805078 0.0018404897682829692 0 0.033474523416092167 0.00052578302538355511 0 0.034642872585897627 0.0011811380893832232 0 0.032707781448445251 0.0017359523622381533 0 0.031536895614738936 0.0019533721655409582 0 0.032328919830883235 0.0023462673448334877 0 0.031158306019316472 0.0027282209632635097 0 0.03232191539153309 0.0017293248375783706 0 0.031536895614738936 0.0019533721655409582 0 0.032328919830883235 0.0023462673448334877 0 0.027411076963157911 -0.001248228859553157 0 0.025072026409660737 -0.0003274841021150296 0 0.020200770097251918 -0.0030733242018310958 0 0.02098856034051207 -0.0038748559880693333 0 0.019011616483377177 -0.0034350196294811752 0 0.020200770097251918 -0.0030733242018310958 0 0.019011616483377177 -0.0034350196294811752 0 0.019654825581887476 -0.0026901740618021641 0 0.027411076963157911 -0.001248228859553157 0 0.025496376637111524 -0.00056820543060576145 0 0.027534759433213749 -0.0010756857309432283 0 0.027558308662441692 0.00073108448929192849 0 0.028788301926924966 -0.00042775156779712771 0 0.020200770097251918 -0.0030733242018310958 0 0.02098856034051207 -0.0038748559880693333 0 0.020988546973561933 -0.0023755122038187776 0 0.025496376637111524 -0.00056820543060576145 0 0.029696279555218665 0.00018243047910519145 0 0.029238896028853135 0.0033121850815073938 0 0.029310101477084148 0.0013440929162208224 0 0.030605983082500062 0.0021227189177515588 0 0.022460197720782525 0.00047799379403089406 0 0.027923147358279943 0.0011814927626152753 0 0.03064234721905534 0.0007213301584820986 0 0.029310101477084148 0.0013440929162208224 0 0.030605983082500062 0.0021227189177515588 0 0.032155460333805078 0.0018404897682829692 0 0.030753449606797715 0.0021190717895234598 0 0.03064234721905534 0.0007213301584820986 0 0.032707781448445251 0.0017359523622381533 0 0.030605983082500062 0.0021227189177515588 0 0.031536895614738936 0.0019533721655409582 0 0.030605983082500062 0.0021227189177515588 0 0.031158306019316472 0.0027282209632635097 0 0.019011616483377177 -0.0034350196294811752 0 0.019067851692479227 -0.0024255107726167623 0 0.019654825581887476 -0.0026901740618021641 0 0.022460197720782525 0.00047799379403089406 0 0.025072026409660737 -0.0003274841021150296 0 0.017222707933435243 -0.0030072355696339043 0 0.019011616483377177 -0.0034350196294811752 0 0.0182108113907649 -0.0022149592397596829 0 0.029238896028853135 0.0033121850815073938 0 0.030605983082500062 0.0021227189177515588 0 0.031158306019316472 0.0027282209632635097 0 0.017222707933435243 -0.0030072355696339043 0 0.017062276792150378 -0.0016642537309002334 0 0.0182108113907649 -0.0022149592397596829 0 0.019011616483377177 -0.0034350196294811752 0 0.0182108113907649 -0.0022149592397596829 0 0.019067851692479227 -0.0024255107726167623 0 0.0182108113907649 -0.0022149592397596829 0 0.019067851692479227 -0.0024255107726167623 0 0.019042820646170123 -0.0017606757093093272 0 0.019067851692479227 -0.0024255107726167623 0 0.019042820646170123 -0.0017606757093093272 0 0.019763211874494504 -0.0021435188248217062 0 0.0182108113907649 -0.0022149592397596829 0 0.019042820646170123 -0.0017606757093093272 0 0.018014393698365366 -0.0011416494773481302 0 0.019042820646170123 -0.0017606757093093272 0 0.019072725070813139 -0.0008807462183642934 0 0.018014393698365366 -0.0011416494773481302 0 0.017062276792150378 -0.0016642537309002334 0 0.0182108113907649 -0.0022149592397596829 0 0.018014393698365366 -0.0011416494773481302 0 0.017062276792150378 -0.0016642537309002334 0 0.018014393698365366 -0.0011416494773481302 0 0.016876574422678182 -0.0004098511779032011 0 0.023511986648665932 -0.0010011949467315494 0 0.022456871488788006 4.8945338192902387e-06 0 0.023543004748138457 0.00095871719752229408 0 0.029720123855132109 0.0013287740636131736 0 0.029708948570099657 0.0019572637817479575 0 0.030193349802149213 0.0017655100417402121 0 0.025496376637111524 -0.00056820543060576145 0 0.023546047671199642 0.0013624930621643579 0 0.025496376637111524 -0.00056820543060576145 0 0.019660278868249521 -0.00079280727302101647 0 0.020200770097251918 -0.0030733242018310958 0 0.020988546973561933 -0.0023755122038187776 0 0.020266180352199705 -0.0023619753075494196 0 0.020200770097251918 -0.0030733242018310958 0 0.020266180352199705 -0.0023619753075494196 0 0.019654825581887476 -0.0026901740618021641 0 0.019042820646170123 -0.0017606757093093272 0 0.019763211874494504 -0.0021435188248217062 0 0.020159888509548782 -0.0017844563851521823 0 0.020266180352199705 -0.0023619753075494196 0 0.019654825581887476 -0.0026901740618021641 0 0.019763211874494504 -0.0021435188248217062 0 0.019067851692479227 -0.0024255107726167623 0 0.019654825581887476 -0.0026901740618021641 0 0.019763211874494504 -0.0021435188248217062 0 0.020988546973561933 -0.0023755122038187776 0 0.020266180352199705 -0.0023619753075494196 0 0.020263875233285076 -0.0016949583540982868 0 0.020266180352199705 -0.0023619753075494196 0 0.019763211874494504 -0.0021435188248217062 0 0.020263875233285076 -0.0016949583540982868 0 0.019550877478294346 -0.0015773897012072761 0 0.019660278868249521 -0.00079280727302101647 0 0.017529677011892311 0.00013738391359776147 0 0.017558750988721446 0.00024457704557634511 0 0.017486464149817655 0.00029837314189255863 0 0.019042820646170123 -0.0017606757093093272 0 0.019072725070813139 -0.0008807462183642934 0 0.020159888509548782 -0.0017844563851521823 0 0.018090568839323608 -0.00023883367577030883 0 0.019660278868249521 -0.00079280727302101647 0 0.01731094862753621 0.00032004867987886883 0 0.017529677011892311 0.00013738391359776147 0 0.017486464149817655 0.00029837314189255863 0 0.01731094862753621 0.00032004867987886883 0 0.017486464149817655 0.00029837314189255863 0 0.017423767340515303 0.00043594452810765446 0 0.017558750988721446 0.00024457704557634511 0 0.017486464149817655 0.00029837314189255863 0 0.017580440210123661 0.00030931601272428052 0 0.017486464149817655 0.00029837314189255863 0 0.017580440210123661 0.00030931601272428052 0 0.017541620924871285 0.00039745003603355302 0 0.017602201109268391 0.00036236082453366985 0 0.017580440210123661 0.00030931601272428052 0 0.017541620924871285 0.00039745003603355302 0 0.017602201109268391 0.00036236082453366985 0 0.01762979329303509 0.00033385217275623639 0 0.017580440210123661 0.00030931601272428052 0 0.017602201109268391 0.00036236082453366985 0 0.017652713194686368 0.00036832148668688053 0 0.01762979329303509 0.00033385217275623639 0 0.020643875762841723 0.0012389678507636385 0 0.023546047671199642 0.0013624930621643579 0 0.01762979329303509 0.00033385217275623639 0 0.017580440210123661 0.00030931601272428052 0 0.017665511283663591 0.0002618400048696322 0 0.017652713194686368 0.00036832148668688053 0 0.01762979329303509 0.00033385217275623639 0 0.017665511283663591 0.0002618400048696322 0 0.017558750988721446 0.00024457704557634511 0 0.017580440210123661 0.00030931601272428052 0 0.017665511283663591 0.0002618400048696322 0 0.019660278868249521 -0.00079280727302101647 0 0.023546047671199642 0.0013624930621643579 0 0.017529677011892311 0.00013738391359776147 0 0.017558750988721446 0.00024457704557634511 0 0.017665511283663591 0.0002618400048696322 0 0.029708948570099657 0.0019572637817479575 0 0.030193349802149213 0.0017655100417402121 0 0.030080898888337742 0.0022786379076088189 0 0.022689109788185072 0.0011121953343974395 0 0.022687754773028184 0.00093460070769750591 0 0.022935106606445231 0.0011468552589656918 0 0.023546047671199642 0.0013624930621643579 0 0.023533888597748725 0.0012534857842999279 0 0.030193349802149213 0.0017655100417402121 0 0.030646030112279836 0.0020047195726576087 0 0.030080898888337742 0.0022786379076088189 0 0.030646030112279836 0.0020047195726576087 0 0.031014193709425191 0.0023727538401270266 0 0.030080898888337742 0.0022786379076088189 0 0.030193349802149213 0.0017655100417402121 0 0.030646030112279836 0.0020047195726576087 0 0.030781093847509204 0.0015934338118874013 0 0.031037096550125928 0.0019275162292935642 0 0.031467111040387588 0.0019991003255509926 0 0.031014193709425191 0.0023727538401270266 0 0.030646030112279836 0.0020047195726576087 0 0.031037096550125928 0.0019275162292935642 0 0.031014193709425191 0.0023727538401270266 0 0.030646030112279836 0.0020047195726576087 0 0.031037096550125928 0.0019275162292935642 0 0.030781093847509204 0.0015934338118874013 0 0.031037096550125928 0.0019275162292935642 0 0.030781093847509204 0.0015934338118874013 0 0.031249581938647082 0.0016649300976668681 0 0.030781093847509204 0.0015934338118874013 0 0.031214192871037345 0.0013102688360628846 0 0.030807416259940802 0.0010431126346961584 0 0.030781093847509204 0.0015934338118874013 0 0.031214192871037345 0.0013102688360628846 0 0.031249581938647082 0.0016649300976668681 0 0.029720123855132109 0.0013287740636131736 0 0.030193349802149213 0.0017655100417402121 0 0.030354228094158546 0.0013225223827521327 0 0.029720123855132109 0.0013287740636131736 0 0.030354228094158546 0.0013225223827521327 0 0.030258211068204786 0.00088028013681139131 0 0.030781093847509204 0.0015934338118874013 0 0.030354228094158546 0.0013225223827521327 0 0.030807416259940802 0.0010431126346961584 0 0.030193349802149213 0.0017655100417402121 0 0.030781093847509204 0.0015934338118874013 0 0.030354228094158546 0.0013225223827521327 0 0.030258211068204786 0.00088028013681139131 0 0.030807416259940802 0.0010431126346961584 0 0.030792766557584887 0.00043593478719390508 0 0.027534759433213749 -0.0010756857309432283 0 0.028788301926924966 -0.00042775156779712771 0 0.030016150966095854 -0.0015869309958710099 0 0.029696279555218665 0.00018243047910519145 0 0.031089475162873418 -0.00026732131931346938 0 0.030354228094158546 0.0013225223827521327 0 0.030258211068204786 0.00088028013681139131 0 0.030807416259940802 0.0010431126346961584 0 0.030807416259940802 0.0010431126346961584 0 0.031220760564271314 0.00073021293178497887 0 0.030792766557584887 0.00043593478719390508 0 0.031214192871037345 0.0013102688360628846 0 0.030807416259940802 0.0010431126346961584 0 0.031174633908460078 0.001014605178782105 0 0.030807416259940802 0.0010431126346961584 0 0.031174633908460078 0.001014605178782105 0 0.031220760564271314 0.00073021293178497887 0 0.031412258211112751 0.00021335320802657391 0 0.031126425705314979 0.00047923680618869969 0 0.031751212623961862 0.00037111422830528068 0 0.031220760564271314 0.00073021293178497887 0 0.030792766557584887 0.00043593478719390508 0 0.031751212623961862 0.00037111422830528068 0 0.031089475162873418 -0.00026732131931346938 0 0.031610758380712568 0.00052449882442801325 0 0.031757036279803204 -0.0002520350421081566 0 0.031089475162873418 -0.00026732131931346938 0 0.03155743383742847 -0.00099483709949595438 0 0.032197653374634788 -0.00080674796861610152 0 0.03169465993234416 -0.00032676052012447213 0 0.027411076963157911 -0.001248228859553157 0 0.031089475162873418 -0.00026732131931346938 0 0.030398992528168817 -5.7468348693382212e-05 0 0.03169465993234416 -0.00032676052012447213 0 0.031013173906635834 -0.00051947095784763482 0 0.03155743383742847 -0.00099483709949595438 0 0.030402544886802982 -0.00069696212604485725 0 0.031013173906635834 -0.00051947095784763482 0 0.03155743383742847 -0.00099483709949595438 0 0.03169465993234416 -0.00032676052012447213 0 0.031013173906635834 -0.00051947095784763482 0 0.031986767235843247 0.00067821499053829191 0 0.032206453215030406 0.0004301891475446038 0 0.031751212623961862 0.00037111422830528068 0 0.031986767235843247 0.00067821499053829191 0 0.03234390902416015 0.00067506285642384106 0 0.032206453215030406 0.0004301891475446038 0 0.032550784860825049 0.00051503943329508429 0 0.03234390902416015 0.00067506285642384106 0 0.032206453215030406 0.0004301891475446038 0 0.032550784860825049 0.00051503943329508429 0 0.032480998791001019 0.00024624604590100141 0 0.032206453215030406 0.0004301891475446038 0 0.032148889796164537 0.00012643821127904009 0 0.032206453215030406 0.0004301891475446038 0 0.031751212623961862 0.00037111422830528068 0 0.031220760564271314 0.00073021293178497887 0 0.031751212623961862 0.00037111422830528068 0 0.031576017131208105 0.00079498687977803354 0 0.031986767235843247 0.00067821499053829191 0 0.031751212623961862 0.00037111422830528068 0 0.031576017131208105 0.00079498687977803354 0 0.031986767235843247 0.00067821499053829191 0 0.031576017131208105 0.00079498687977803354 0 0.031854082576541161 0.00092895147405721191 0 0.031576017131208105 0.00079498687977803354 0 0.031567801759706769 0.0011147159102882183 0 0.031854082576541161 0.00092895147405721191 0 0.031174633908460078 0.001014605178782105 0 0.031220760564271314 0.00073021293178497887 0 0.031576017131208105 0.00079498687977803354 0 0.031214192871037345 0.0013102688360628846 0 0.031174633908460078 0.001014605178782105 0 0.031567801759706769 0.0011147159102882183 0 0.031174633908460078 0.001014605178782105 0 0.031576017131208105 0.00079498687977803354 0 0.031567801759706769 0.0011147159102882183 0 0.031567801759706769 0.0011147159102882183 0 0.032029997032459089 0.0011695561773377879 0 0.031854082576541161 0.00092895147405721191 0 0.032029997032459089 0.0011695561773377879 0 0.031854082576541161 0.00092895147405721191 0 0.032118685909642765 0.00090166484065030061 0 0.031986767235843247 0.00067821499053829191 0 0.031854082576541161 0.00092895147405721191 0 0.032118685909642765 0.00090166484065030061 0 0.032344927804031011 0.0010685947837442919 0 0.03234390902416015 0.00067506285642384106 0 0.032118685909642765 0.00090166484065030061 0 0.031986767235843247 0.00067821499053829191 0 0.03234390902416015 0.00067506285642384106 0 0.032118685909642765 0.00090166484065030061 0 0.032344927804031011 0.0010685947837442919 0 0.032029997032459089 0.0011695561773377879 0 0.032118685909642765 0.00090166484065030061 0 0.032344927804031011 0.0010685947837442919 0 0.032029997032459089 0.0011695561773377879 0 0.032090281019224121 0.0014576508721591758 0 0.032029997032459089 0.0011695561773377879 0 0.032090281019224121 0.0014576508721591758 0 0.031661855625152571 0.0014151543565972893 0 0.032090281019224121 0.0014576508721591758 0 0.0320504521305887 0.0017625687681937818 0 0.031773708400354636 0.001734254172835611 0 0.032090281019224121 0.0014576508721591758 0 0.031661855625152571 0.0014151543565972893 0 0.031773708400354636 0.001734254172835611 0 0.032342979507864182 0.0016827423302975709 0 0.032090281019224121 0.0014576508721591758 0 0.0320504521305887 0.0017625687681937818 0 0.031661855625152571 0.0014151543565972893 0 0.031249581938647082 0.0016649300976668681 0 0.031773708400354636 0.001734254172835611 0 0.031214192871037345 0.0013102688360628846 0 0.031567801759706769 0.0011147159102882183 0 0.031661855625152571 0.0014151543565972893 0 0.031567801759706769 0.0011147159102882183 0 0.032029997032459089 0.0011695561773377879 0 0.031661855625152571 0.0014151543565972893 0 0.031214192871037345 0.0013102688360628846 0 0.031661855625152571 0.0014151543565972893 0 0.031249581938647082 0.0016649300976668681 0 0.031249581938647082 0.0016649300976668681 0 0.031467111040387588 0.0019991003255509926 0 0.031773708400354636 0.001734254172835611 0 0.031467111040387588 0.0019991003255509926 0 0.031638107785613295 0.0021950530187977691 0 0.031014193709425191 0.0023727538401270266 0 0.031037096550125928 0.0019275162292935642 0 0.031249581938647082 0.0016649300976668681 0 0.031467111040387588 0.0019991003255509926 0 0.031467111040387588 0.0019991003255509926 0 0.031773708400354636 0.001734254172835611 0 0.031852164721230564 0.0019880528258197552 0 0.031467111040387588 0.0019991003255509926 0 0.031852164721230564 0.0019880528258197552 0 0.031638107785613295 0.0021950530187977691 0 0.0320504521305887 0.0017625687681937818 0 0.031852164721230564 0.0019880528258197552 0 0.032113469704620728 0.00197732911744407 0 0.032342979507864182 0.0016827423302975709 0 0.0320504521305887 0.0017625687681937818 0 0.032113469704620728 0.00197732911744407 0 0.0320504521305887 0.0017625687681937818 0 0.031773708400354636 0.001734254172835611 0 0.031852164721230564 0.0019880528258197552 0 0.031852164721230564 0.0019880528258197552 0 0.031928013965620498 0.0021655073563043737 0 0.031638107785613295 0.0021950530187977691 0 0.032113469704620728 0.00197732911744407 0 0.031928013965620498 0.0021655073563043737 0 0.032154999773814176 0.0022396863070502115 0 0.031852164721230564 0.0019880528258197552 0 0.032113469704620728 0.00197732911744407 0 0.031928013965620498 0.0021655073563043737 0 0.031822895848571647 0.0023980327309129981 0 0.032063881999430291 0.0024058433975467698 0 0.032154999773814176 0.0022396863070502115 0 0.030054083186573693 0.0020460958225585885 0 0.027196634837648458 0.0028533093025143712 0 0.030317508610968446 0.0037198029820545171 0 0.031928013965620498 0.0021655073563043737 0 0.031822895848571647 0.0023980327309129981 0 0.032154999773814176 0.0022396863070502115 0 0.031928013965620498 0.0021655073563043737 0 0.031822895848571647 0.0023980327309129981 0 0.031638107785613295 0.0021950530187977691 0 0.027243548326811109 0.0011359578183384295 0 0.028552369818448792 0.0013372289907800186 0 0.026704651695840458 0.0019983435008113872 0 0.03009810101258804 0.0020277543365929038 0 0.027345847045727664 0.002213483034050976 0 0.0293967928846177 0.0017876102018480385 0 0.03009810101258804 0.0020277543365929038 0 0.0293967928846177 0.0017876102018480385 0 0.02809214582486955 0.0016003979664641033 0 0.031822895848571647 0.0023980327309129981 0 0.031638107785613295 0.0021950530187977691 0 0.031014193709425191 0.0023727538401270266 0 0.027243548326811109 0.0011359578183384295 0 0.025556609007757761 0.0015225083707386636 0 0.024184446969843419 0.0007499136321878773 0 0.026704651695840458 0.0019983435008113872 0 0.025556609007757761 0.0015225083707386636 0 0.025149855706313663 0.0019951731029509614 0 0.027243548326811109 0.0011359578183384295 0 0.026704651695840458 0.0019983435008113872 0 0.025556609007757761 0.0015225083707386636 0 0.025556609007757761 0.0015225083707386636 0 0.025149855706313663 0.0019951731029509614 0 0.024662280752400886 0.0016614497937154911 0 0.025149855706313663 0.0019951731029509614 0 0.024608839760398155 0.0023113931039159437 0 0.024662280752400886 0.0016614497937154911 0 0.026704651695840458 0.0019983435008113872 0 0.025149855706313663 0.0019951731029509614 0 0.024913622717482053 0.0025711643527330874 0 0.025149855706313663 0.0019951731029509614 0 0.024913622717482053 0.0025711643527330874 0 0.024608839760398155 0.0023113931039159437 0 0.027196634837648458 0.0028533093025143712 0 0.024175813893452622 0.0038019674515687618 0 0.026209553748122477 0.0054267174064579109 0 0.027345847045727664 0.002213483034050976 0 0.020059714162878405 0.0018455597542849076 0 0.017946210071487549 0.0012404054447355103 0 0.013419812106454975 0.0018334931321339098 0 0.010561691180961829 -0.00053441281964723198 0 0.010955327844904683 -0.00024700525343290044 0 0.010713943946559038 -0.0001641761212632562 0 0.010561691180961829 -0.00053441281964723198 0 0.010713943946559038 -0.0001641761212632562 0 0.010538889612325858 -0.00022430353025597712 0 0.020059714162878405 0.0018455597542849076 0 0.017946210071487549 0.0012404054447355103 0 0.019120367859669699 0.0013098958932741991 0 0.021294819482193219 0.00044724806537302364 0 0.021342279061316978 0.0031215287321836498 0 0.027196634837648458 0.0028533093025143712 0 0.026209553748122477 0.0054267174064579109 0 0.030317508610968446 0.0037198029820545171 0 0.017946210071487549 0.0012404054447355103 0 0.026555723714344091 0.0020737495117479324 0 0.017946210071487549 0.0012404054447355103 0 0.015675163357291483 0.0008191071055952859 0 0.011070402638990571 -0.00031321463738666594 0 0.010991484150511261 0.00048786300970787166 0 0.012453542263836742 0.00078099319834901875 0 0.011070402638990571 -0.00031321463738666594 0 0.010713943946559038 -0.0001641761212632562 0 0.010991484150511261 0.00048786300970787166 0 0.010713943946559038 -0.0001641761212632562 0 0.010448802908868682 0.00017649468078820236 0 0.010991484150511261 0.00048786300970787166 0 0.010713943946559038 -0.0001641761212632562 0 0.010538889612325858 -0.00022430353025597712 0 0.010448802908868682 0.00017649468078820236 0 0.010448802908868682 0.00017649468078820236 0 0.010307638237701654 0.00077003739556964518 0 0.010991484150511261 0.00048786300970787166 0 0.010307638237701654 0.00077003739556964518 0 0.010986747164671167 0.0017001068295769211 0 0.0098662280540132256 0.0015495866970608651 0 0.010307638237701654 0.00077003739556964518 0 0.010991484150511261 0.00048786300970787166 0 0.010986747164671167 0.0017001068295769211 0 0.010183938586779436 0.0017247346789810993 0 0.015675163357291483 0.0008191071055952859 0 0.010676685228805827 0.0014607608811927509 0 0.011956479938194662 0.00145276253369119 0 0.012169215887061423 0.00040630827817666668 0 0.010991484150511261 0.00048786300970787166 0 0.010986747164671167 0.0017001068295769211 0 0.012453542263836742 0.00078099319834901875 0 0.0087388750366179553 0.0012755172252423206 0 0.0080703408627596975 0.0010176745909103951 0 0.0081765845076076059 0.0018860548458756201 0 0.0087388750366179553 0.0012755172252423206 0 0.0095114577083716262 0.00098454835156065409 0 0.0088799064394836664 0.00068112832650003916 0 0.0087388750366179553 0.0012755172252423206 0 0.0088799064394836664 0.00068112832650003916 0 0.0080703408627596975 0.0010176745909103951 0 0.0087388750366179553 0.0012755172252423206 0 0.0081765845076076059 0.0018860548458756201 0 0.0091003079989707657 0.0017936042313754835 0 0.0087388750366179553 0.0012755172252423206 0 0.0095114577083716262 0.00098454835156065409 0 0.0091003079989707657 0.0017936042313754835 0 0.0098662280540132256 0.0015495866970608651 0 0.0095114577083716262 0.00098454835156065409 0 0.0091003079989707657 0.0017936042313754835 0 0.010307638237701654 0.00077003739556964518 0 0.0098662280540132256 0.0015495866970608651 0 0.0095114577083716262 0.00098454835156065409 0 0.0095114577083716262 0.00098454835156065409 0 0.0097484575299539265 0.00013641581438260809 0 0.0088799064394836664 0.00068112832650003916 0 0.010307638237701654 0.00077003739556964518 0 0.0095114577083716262 0.00098454835156065409 0 0.0097484575299539265 0.00013641581438260809 0 0.010538889612325858 -0.00022430353025597712 0 0.010448802908868682 0.00017649468078820236 0 0.0097484575299539265 0.00013641581438260809 0 0.010448802908868682 0.00017649468078820236 0 0.010307638237701654 0.00077003739556964518 0 0.0097484575299539265 0.00013641581438260809 0 0.0097484575299539265 0.00013641581438260809 0 0.0088799064394836664 0.00068112832650003916 0 0.0082957840106800736 -5.2241760297836402e-06 0 0.0088799064394836664 0.00068112832650003916 0 0.0082957840106800736 -5.2241760297836402e-06 0 0.0080703408627596975 0.0010176745909103951 0 0.017962283451474773 0.00065026285540478626 0 0.01785756028428833 0.0005360814210999031 0 0.017680207038009023 0.00075307148739821523 0 0.0097484575299539265 0.00013641581438260809 0 0.01001691414415282 -0.00066745569269859994 0 0.0082957840106800736 -5.2241760297836402e-06 0 0.01785756028428833 0.0005360814210999031 0 0.017704181581705412 0.00057347140283225473 0 0.017680207038009023 0.00075307148739821523 0 0.016069852877040852 0.0010400332246463685 0 0.012572592409734214 0.0002855682909106552 0 0.010538889612325858 -0.00022430353025597712 0 0.0097484575299539265 0.00013641581438260809 0 0.01001691414415282 -0.00066745569269859994 0 0.010561691180961829 -0.00053441281964723198 0 0.010538889612325858 -0.00022430353025597712 0 0.010363542046619269 -0.00044734909627069339 0 0.010774132828499119 -0.0014509845582953188 0 0.016069852877040852 0.0010400332246463685 0 0.024111330825633305 0.0027763089418001599 0 0.02384549504488688 0.0017213516823497835 0 0.022772928749705615 0.0015478923046554518 0 0.016069852877040852 0.0010400332246463685 0 0.020382629569866983 0.0011263579885164182 0 0.024111330825633305 0.0027763089418001599 0 0.024608839760398155 0.0023113931039159437 0 0.02384549504488688 0.0017213516823497835 0 0.020059714162878405 0.0018455597542849076 0 0.021189754447483455 0.0024563071965094264 0 0.020059714162878405 0.0018455597542849076 0 0.016069852877040852 0.0010400332246463685 0 0.024870568880627691 0.0025286959506568849 0 0.024111330825633305 0.0027763089418001599 0 0.024608839760398155 0.0023113931039159437 0 0.024662280752400886 0.0016614497937154911 0 0.02384549504488688 0.0017213516823497835 0 0.024184446969843419 0.0007499136321878773 0 0.025556609007757761 0.0015225083707386636 0 0.024662280752400886 0.0016614497937154911 0 0.024184446969843419 0.0007499136321878773 0 0.024608839760398155 0.0023113931039159437 0 0.024662280752400886 0.0016614497937154911 0 0.02384549504488688 0.0017213516823497835 0 0.02384549504488688 0.0017213516823497835 0 0.024184446969843419 0.0007499136321878773 0 0.022772928749705615 0.0015478923046554518 0 0.024184446969843419 0.0007499136321878773 0 0.022772928749705615 0.0015478923046554518 0 0.021453971772343042 0.00039423398090430062 0 0.01785756028428833 0.0005360814210999031 0 0.017754994131614209 0.00041457785662998137 0 0.017701236753438973 0.00048624441426117635 0 0.02809214582486955 0.0016003979664641033 0 0.023533888597748725 0.0012534857842999279 0 0.01785756028428833 0.0005360814210999031 0 0.017701236753438973 0.00048624441426117635 0 0.017704181581705412 0.00057347140283225473 0 0.020382629569866983 0.0011263579885164182 0 0.023533888597748725 0.0012534857842999279 0 0.017701236753438973 0.00048624441426117635 0 0.017594314103862682 0.00052736027997250996 0 0.017644215511438226 0.00040538640268432202 0 0.017754994131614209 0.00041457785662998137 0 0.017701236753438973 0.00048624441426117635 0 0.017644215511438226 0.00040538640268432202 0 0.017647757404168414 0.00038383373579994201 0 0.017754994131614209 0.00041457785662998137 0 0.017644215511438226 0.00040538640268432202 0 0.020643875762841723 0.0012389678507636385 0 0.023533888597748725 0.0012534857842999279 0 0.017701236753438973 0.00048624441426117635 0 0.017594314103862682 0.00052736027997250996 0 0.017704181581705412 0.00057347140283225473 0 0.017594314103862682 0.00052736027997250996 0 0.017644215511438226 0.00040538640268432202 0 0.017541620924871285 0.00039745003603355302 0 0.017602201109268391 0.00036236082453366985 0 0.017652713194686368 0.00036832148668688053 0 0.017644215511438226 0.00040538640268432202 0 0.020643875762841723 0.0012389678507636385 0 0.020486289982651219 0.0010723226259796621 0 0.017602201109268391 0.00036236082453366985 0 0.017644215511438226 0.00040538640268432202 0 0.017541620924871285 0.00039745003603355302 0 0.01731094862753621 0.00032004867987886883 0 0.017423767340515303 0.00043594452810765446 0 0.017302926722390678 0.00056392145691690134 0 0.017486464149817655 0.00029837314189255863 0 0.017541620924871285 0.00039745003603355302 0 0.017423767340515303 0.00043594452810765446 0 0.017541620924871285 0.00039745003603355302 0 0.017423767340515303 0.00043594452810765446 0 0.017478471089255751 0.00059188131453832718 0 0.017594314103862682 0.00052736027997250996 0 0.017541620924871285 0.00039745003603355302 0 0.017478471089255751 0.00059188131453832718 0 0.017423767340515303 0.00043594452810765446 0 0.017478471089255751 0.00059188131453832718 0 0.017302926722390678 0.00056392145691690134 0 0.017478471089255751 0.00059188131453832718 0 0.017302926722390678 0.00056392145691690134 0 0.017369855565260932 0.00088913506202475848 0 0.017478471089255751 0.00059188131453832718 0 0.017680207038009023 0.00075307148739821523 0 0.017369855565260932 0.00088913506202475848 0 0.017594314103862682 0.00052736027997250996 0 0.017704181581705412 0.00057347140283225473 0 0.017680207038009023 0.00075307148739821523 0 0.017594314103862682 0.00052736027997250996 0 0.017478471089255751 0.00059188131453832718 0 0.017680207038009023 0.00075307148739821523 0 0.017958341368148147 -6.8507611453722141e-05 0 0.016876574422678182 -0.0004098511779032011 0 0.016853063146763547 0.00056186661251484175 0 0.018014393698365366 -0.0011416494773481302 0 0.017958341368148147 -6.8507611453722141e-05 0 0.016876574422678182 -0.0004098511779032011 0 0.019072725070813139 -0.0008807462183642934 0 0.018014393698365366 -0.0011416494773481302 0 0.017958341368148147 -6.8507611453722141e-05 0 0.01731094862753621 0.00032004867987886883 0 0.017092275418552585 0.00046971762032828633 0 0.017302926722390678 0.00056392145691690134 0 0.018090568839323608 -0.00023883367577030883 0 0.01753453189950447 0.00017456586194999625 0 0.017092275418552585 0.00046971762032828633 0 0.017144466117705794 0.00074081906969360872 0 0.017302926722390678 0.00056392145691690134 0 0.017144466117705794 0.00074081906969360872 0 0.017302926722390678 0.00056392145691690134 0 0.017369855565260932 0.00088913506202475848 0 0.017092275418552585 0.00046971762032828633 0 0.016965197097778436 0.00074257698283049082 0 0.016853063146763547 0.00056186661251484175 0 0.017092275418552585 0.00046971762032828633 0 0.017144466117705794 0.00074081906969360872 0 0.016965197097778436 0.00074257698283049082 0 0.016965197097778436 0.00074257698283049082 0 0.016853063146763547 0.00056186661251484175 0 0.016738304990153965 0.00071678229361698208 0 0.01753453189950447 0.00017456586194999625 0 0.016938589748554798 0.00055487324852406721 0 0.017144466117705794 0.00074081906969360872 0 0.016965197097778436 0.00074257698283049082 0 0.016990188360317425 0.0011929351767267101 0 0.016965197097778436 0.00074257698283049082 0 0.016990188360317425 0.0011929351767267101 0 0.016731589785643729 0.00092930097484721801 0 0.016965197097778436 0.00074257698283049082 0 0.016738304990153965 0.00071678229361698208 0 0.016731589785643729 0.00092930097484721801 0 0.011295263421538023 0.0012515908660316328 0 0.012227265772006673 0.00078414093168820294 0 0.017144466117705794 0.00074081906969360872 0 0.016990188360317425 0.0011929351767267101 0 0.017369855565260932 0.00088913506202475848 0 0.0057169053738123816 0.0012765250557066885 0 0.0068730525992180564 0.00067803700757132913 0 0.0067334906720795127 0.0016937095584941841 0 0.0057169053738123816 0.0012765250557066885 0 0.0067334906720795127 0.0016937095584941841 0 0.0060855228714852359 0.002106104993450457 0 0.012572592409734214 0.0002855682909106552 0 0.012227265772006673 0.00078414093168820294 0 0.0082957840106800736 -5.2241760297836402e-06 0 0.0068730525992180564 0.00067803700757132913 0 0.0080703408627596975 0.0010176745909103951 0 0.0068730525992180564 0.00067803700757132913 0 0.0067334906720795127 0.0016937095584941841 0 0.0075130771470425673 0.001692145893740452 0 0.0068730525992180564 0.00067803700757132913 0 0.0075130771470425673 0.001692145893740452 0 0.0080703408627596975 0.0010176745909103951 0 0.0075130771470425673 0.001692145893740452 0 0.0080703408627596975 0.0010176745909103951 0 0.0081765845076076059 0.0018860548458756201 0 0.0081765845076076059 0.0018860548458756201 0 0.0073127754884127318 0.0023503050970265656 0 0.0079040899277314572 0.0026072308094361183 0 0.0075130771470425673 0.001692145893740452 0 0.0081765845076076059 0.0018860548458756201 0 0.0073127754884127318 0.0023503050970265656 0 0.0067334906720795127 0.0016937095584941841 0 0.0075130771470425673 0.001692145893740452 0 0.0073127754884127318 0.0023503050970265656 0 0.0067334906720795127 0.0016937095584941841 0 0.0073127754884127318 0.0023503050970265656 0 0.006586064953407556 0.0024813435267522135 0 0.0073127754884127318 0.0023503050970265656 0 0.0069200232779568606 0.0029389065993570113 0 0.0074822082734058801 0.0030119370722118343 0 0.0073127754884127318 0.0023503050970265656 0 0.0069200232779568606 0.0029389065993570113 0 0.006586064953407556 0.0024813435267522135 0 0.0069200232779568606 0.0029389065993570113 0 0.006586064953407556 0.0024813435267522135 0 0.0063913894707423903 0.0030695593649058828 0 0.0069200232779568606 0.0029389065993570113 0 0.0063913894707423903 0.0030695593649058828 0 0.0067054712840302804 0.0032926239814785969 0 0.0069200232779568606 0.0029389065993570113 0 0.0074822082734058801 0.0030119370722118343 0 0.0071063623265674733 0.0033893687769083309 0 0.0074822082734058801 0.0030119370722118343 0 0.0079571477799398761 0.0031894047154997439 0 0.0079040899277314572 0.0026072308094361183 0 0.0074822082734058801 0.0030119370722118343 0 0.0079571477799398761 0.0031894047154997439 0 0.0075510056827385102 0.0033883499402275162 0 0.0073127754884127318 0.0023503050970265656 0 0.0074822082734058801 0.0030119370722118343 0 0.0079040899277314572 0.0026072308094361183 0 0.0057169053738123816 0.0012765250557066885 0 0.0060855228714852359 0.002106104993450457 0 0.0053829002561244709 0.0023341374711956216 0 0.0060855228714852359 0.002106104993450457 0 0.0059713129551039494 0.0027412554987933024 0 0.0053829002561244709 0.0023341374711956216 0 0.0067334906720795127 0.0016937095584941841 0 0.0060855228714852359 0.002106104993450457 0 0.006586064953407556 0.0024813435267522135 0 0.0060855228714852359 0.002106104993450457 0 0.006586064953407556 0.0024813435267522135 0 0.0059713129551039494 0.0027412554987933024 0 0.006586064953407556 0.0024813435267522135 0 0.0063913894707423903 0.0030695593649058828 0 0.0059713129551039494 0.0027412554987933024 0 0.0063913894707423903 0.0030695593649058828 0 0.0059713129551039494 0.0027412554987933024 0 0.0059505320678511055 0.0032213751807583573 0 0.0059713129551039494 0.0027412554987933024 0 0.0054741955948513481 0.0032100389928909978 0 0.0053829002561244709 0.0023341374711956216 0 0.0059713129551039494 0.0027412554987933024 0 0.0054741955948513481 0.0032100389928909978 0 0.0059505320678511055 0.0032213751807583573 0 0.0054248637707561406 0.0037059185976211647 0 0.0054741955948513481 0.0032100389928909978 0 0.0057672559723118992 0.0035610186518220135 0 0.0054248637707561406 0.0037059185976211647 0 0.0054741955948513481 0.0032100389928909978 0 0.0052021858730708003 0.0035952348859489901 0 0.0054741955948513481 0.0032100389928909978 0 0.0057672559723118992 0.0035610186518220135 0 0.0059505320678511055 0.0032213751807583573 0 0.0054248637707561406 0.0037059185976211647 0 0.0057672559723118992 0.0035610186518220135 0 0.0055540276455774426 0.0040106362788686605 0 0.0057672559723118992 0.0035610186518220135 0 0.006246248824498318 0.0034230020166578458 0 0.0061002093198051091 0.0037676799052998792 0 0.0057672559723118992 0.0035610186518220135 0 0.0059505320678511055 0.0032213751807583573 0 0.006246248824498318 0.0034230020166578458 0 0.0063913894707423903 0.0030695593649058828 0 0.0059505320678511055 0.0032213751807583573 0 0.006246248824498318 0.0034230020166578458 0 0.0063913894707423903 0.0030695593649058828 0 0.006246248824498318 0.0034230020166578458 0 0.0067054712840302804 0.0032926239814785969 0 0.006246248824498318 0.0034230020166578458 0 0.0067054712840302804 0.0032926239814785969 0 0.0065879040988254482 0.0036158977409916659 0 0.006246248824498318 0.0034230020166578458 0 0.0061002093198051091 0.0037676799052998792 0 0.0065879040988254482 0.0036158977409916659 0 0.0061002093198051091 0.0037676799052998792 0 0.0065879040988254482 0.0036158977409916659 0 0.0064708694394223394 0.0039961473013283722 0 0.0060484516396375034 0.0041065290182037114 0 0.0061002093198051091 0.0037676799052998792 0 0.0064708694394223394 0.0039961473013283722 0 0.0060484516396375034 0.0041065290182037114 0 0.0064708694394223394 0.0039961473013283722 0 0.0062458416692277282 0.0044147953335444308 0 0.0060484516396375034 0.0041065290182037114 0 0.0055540276455774426 0.0040106362788686605 0 0.0057797388216634365 0.0043770154413629329 0 0.0060484516396375034 0.0041065290182037114 0 0.0061002093198051091 0.0037676799052998792 0 0.0055540276455774426 0.0040106362788686605 0 0.0057672559723118992 0.0035610186518220135 0 0.0061002093198051091 0.0037676799052998792 0 0.0055540276455774426 0.0040106362788686605 0 0.0055540276455774426 0.0040106362788686605 0 0.0053761278742772423 0.0043496501175981526 0 0.0057797388216634365 0.0043770154413629329 0 0.0055540276455774426 0.0040106362788686605 0 0.0050986928806330189 0.0042362313285644344 0 0.0053761278742772423 0.0043496501175981526 0 0.0055540276455774426 0.0040106362788686605 0 0.0050724637725312119 0.0039087181747578682 0 0.0050986928806330189 0.0042362313285644344 0 0.0054248637707561406 0.0037059185976211647 0 0.0055540276455774426 0.0040106362788686605 0 0.0050724637725312119 0.0039087181747578682 0 0.007219363643464408 0.0036662812032417389 0 0.0075510056827385102 0.0033883499402275162 0 0.0073032970309466353 0.0040441792824227442 0 0.0079571477799398761 0.0031894047154997439 0 0.0075510056827385102 0.0033883499402275162 0 0.0073032970309466353 0.0040441792824227442 0 0.0079571477799398761 0.0031894047154997439 0 0.0070728638706170684 0.0041991913439454239 0 0.0078894100579812946 0.0035641380492447195 0 0.0078663628523686288 0.0032357888362111197 0 0.00721194195884391 0.0041136311926727636 0 0.0074822082734058801 0.0030119370722118343 0 0.0075510056827385102 0.0033883499402275162 0 0.0071063623265674733 0.0033893687769083309 0 0.007219363643464408 0.0036662812032417389 0 0.0075510056827385102 0.0033883499402275162 0 0.0071063623265674733 0.0033893687769083309 0 0.0069200232779568606 0.0029389065993570113 0 0.0071063623265674733 0.0033893687769083309 0 0.0067054712840302804 0.0032926239814785969 0 0.0071063623265674733 0.0033893687769083309 0 0.0067054712840302804 0.0032926239814785969 0 0.0065879040988254482 0.0036158977409916659 0 0.0071063623265674733 0.0033893687769083309 0 0.0065879040988254482 0.0036158977409916659 0 0.0069161395720407871 0.0038372812396116102 0 0.007219363643464408 0.0036662812032417389 0 0.0071063623265674733 0.0033893687769083309 0 0.0069161395720407871 0.0038372812396116102 0 0.0065879040988254482 0.0036158977409916659 0 0.0069161395720407871 0.0038372812396116102 0 0.0064708694394223394 0.0039961473013283722 0 0.0069161395720407871 0.0038372812396116102 0 0.0064708694394223394 0.0039961473013283722 0 0.006679504480196552 0.0043012222785111165 0 0.0064708694394223394 0.0039961473013283722 0 0.006679504480196552 0.0043012222785111165 0 0.0062458416692277282 0.0044147953335444308 0 0.0069161395720407871 0.0038372812396116102 0 0.006679504480196552 0.0043012222785111165 0 0.0073032970309466353 0.0040441792824227442 0 0.0081950027210646974 0.0036973645350141335 0 0.0077713379170331852 0.0049343464905571869 0 0.0086327729887862269 0.0046042941251574106 0 0.0084894344161375937 0.0039154519808751757 0 0.0082480406758189528 0.0051358490023320734 0 0.0070728638706170684 0.0041991913439454239 0 0.0078894100579812946 0.0035641380492447195 0 0.0071644119798840913 0.0047468704987608844 0 0.007219363643464408 0.0036662812032417389 0 0.0069161395720407871 0.0038372812396116102 0 0.0073032970309466353 0.0040441792824227442 0 0.0086327729887862269 0.0046042941251574106 0 0.0092155077995933476 0.0047045995013692329 0 0.0088712137589380853 0.0052623624652584572 0 0.0088717956775794839 0.0043283571044582698 0 0.0091413962100312211 0.0040809303920188219 0 0.0092155077995933476 0.0047045995013692329 0 0.0086327729887862269 0.0046042941251574106 0 0.0088717956775794839 0.0043283571044582698 0 0.0092155077995933476 0.0047045995013692329 0 0.0086327729887862269 0.0046042941251574106 0 0.0088717956775794839 0.0043283571044582698 0 0.0084894344161375937 0.0039154519808751757 0 0.0088717956775794839 0.0043283571044582698 0 0.0084894344161375937 0.0039154519808751757 0 0.0091413962100312211 0.0040809303920188219 0 0.0084894344161375937 0.0039154519808751757 0 0.0091413962100312211 0.0040809303920188219 0 0.0090084181348159542 0.0034077111574392664 0 0.0094157907271356089 0.0035567573575563099 0 0.009724524129689275 0.0039386112039572685 0 0.01009537373588189 0.0035958483850986223 0 0.0091413962100312211 0.0040809303920188219 0 0.0094157907271356089 0.0035567573575563099 0 0.009724524129689275 0.0039386112039572685 0 0.0091413962100312211 0.0040809303920188219 0 0.0094157907271356089 0.0035567573575563099 0 0.0090084181348159542 0.0034077111574392664 0 0.0091413962100312211 0.0040809303920188219 0 0.009724524129689275 0.0039386112039572685 0 0.0096718496282181873 0.0043609192450604281 0 0.009724524129689275 0.0039386112039572685 0 0.0096718496282181873 0.0043609192450604281 0 0.010200691938599103 0.004190995831640688 0 0.0096718496282181873 0.0043609192450604281 0 0.0092155077995933476 0.0047045995013692329 0 0.010045005741648726 0.0048426575253737135 0 0.0092155077995933476 0.0047045995013692329 0 0.010045005741648726 0.0048426575253737135 0 0.0094188751500663397 0.0052394731978108473 0 0.0091413962100312211 0.0040809303920188219 0 0.0096718496282181873 0.0043609192450604281 0 0.0092155077995933476 0.0047045995013692329 0 0.010045005741648726 0.0048426575253737135 0 0.010747722468074077 0.004640010947413487 0 0.010642247105491796 0.0051763910008226352 0 0.0096718496282181873 0.0043609192450604281 0 0.010045005741648726 0.0048426575253737135 0 0.010200691938599103 0.004190995831640688 0 0.010045005741648726 0.0048426575253737135 0 0.010747722468074077 0.004640010947413487 0 0.010200691938599103 0.004190995831640688 0 0.010747722468074077 0.004640010947413487 0 0.010836600103066935 0.0041773677012266345 0 0.010200691938599103 0.004190995831640688 0 0.010747722468074077 0.004640010947413487 0 0.010836600103066935 0.0041773677012266345 0 0.011222018554584273 0.0044803444146009081 0 0.010958886101982436 0.0038972762040654415 0 0.010544419277484248 0.0037882977582974859 0 0.010893270733813345 0.0036575847390998705 0 0.010836600103066935 0.0041773677012266345 0 0.010958886101982436 0.0038972762040654415 0 0.010544419277484248 0.0037882977582974859 0 0.010836600103066935 0.0041773677012266345 0 0.010958886101982436 0.0038972762040654415 0 0.011355831813353907 0.0041136090099548181 0 0.010958886101982436 0.0038972762040654415 0 0.010893270733813345 0.0036575847390998705 0 0.0111816382991117 0.0037618828600670716 0 0.010836600103066935 0.0041773677012266345 0 0.010200691938599103 0.004190995831640688 0 0.010544419277484248 0.0037882977582974859 0 0.010336468221243612 0.004078251552466064 0 0.010610713965146247 0.0038522445912325038 0 0.010200691938599103 0.004190995831640688 0 0.010911184901400542 0.0035822527435105454 0 0.01009537373588189 0.0035958483850986223 0 0.009724524129689275 0.0039386112039572685 0 0.010200691938599103 0.004190995831640688 0 0.01009537373588189 0.0035958483850986223 0 0.01009537373588189 0.0035958483850986223 0 0.010602992355350891 0.0032003122780881244 0 0.010273774666166767 0.0029742260748222508 0 0.01009537373588189 0.0035958483850986223 0 0.010273774666166767 0.0029742260748222508 0 0.0097145695961621432 0.0030439747546597458 0 0.010911184901400542 0.0035822527435105454 0 0.010602992355350891 0.0032003122780881244 0 0.011083836617850548 0.0030519433506838545 0 0.010911184901400542 0.0035822527435105454 0 0.01009537373588189 0.0035958483850986223 0 0.010602992355350891 0.0032003122780881244 0 0.010794039035612095 0.0028713825437705074 0 0.010273774666166767 0.0029742260748222508 0 0.010632414968394628 0.0024770438894594995 0 0.010602992355350891 0.0032003122780881244 0 0.010794039035612095 0.0028713825437705074 0 0.010273774666166767 0.0029742260748222508 0 0.010602992355350891 0.0032003122780881244 0 0.010794039035612095 0.0028713825437705074 0 0.011083836617850548 0.0030519433506838545 0 0.010794039035612095 0.0028713825437705074 0 0.011086402107183164 0.0026036581778502732 0 0.010632414968394628 0.0024770438894594995 0 0.010273774666166767 0.0029742260748222508 0 0.010148362664323882 0.0024976837789773797 0 0.010632414968394628 0.0024770438894594995 0 0.010273774666166767 0.0029742260748222508 0 0.010148362664323882 0.0024976837789773797 0 0.0097145695961621432 0.0030439747546597458 0 0.010893270733813345 0.0036575847390998705 0 0.010906428716158578 0.0033087236437572376 0 0.011165347903328855 0.0035867028007311613 0 0.010893270733813345 0.0036575847390998705 0 0.011165347903328855 0.0035867028007311613 0 0.0111816382991117 0.0037618828600670716 0 0.010911184901400542 0.0035822527435105454 0 0.011083836617850548 0.0030519433506838545 0 0.011626614752619962 0.002903878046203684 0 0.010544419277484248 0.0037882977582974859 0 0.010893270733813345 0.0036575847390998705 0 0.010906428716158578 0.0033087236437572376 0 0.010610713965146247 0.0038522445912325038 0 0.012599841097812547 0.0025059810732621004 0 0.011156828200837368 0.0028536251790743741 0 0.011083836617850548 0.0030519433506838545 0 0.011626614752619962 0.002903878046203684 0 0.010794039035612095 0.0028713825437705074 0 0.011156828200837368 0.0028536251790743741 0 0.011083836617850548 0.0030519433506838545 0 0.011156828200837368 0.0028536251790743741 0 0.011336707579073122 0.0027411561945247759 0 0.011086402107183164 0.0026036581778502732 0 0.010794039035612095 0.0028713825437705074 0 0.011156828200837368 0.0028536251790743741 0 0.011086402107183164 0.0026036581778502732 0 0.011336707579073122 0.0027411561945247759 0 0.011562644021502188 0.0025615705313465189 0 0.011086402107183164 0.0026036581778502732 0 0.011156828200837368 0.0028536251790743741 0 0.011336707579073122 0.0027411561945247759 0 0.011626614752619962 0.002903878046203684 0 0.011336707579073122 0.0027411561945247759 0 0.011626614752619962 0.002903878046203684 0 0.011562644021502188 0.0025615705313465189 0 0.010676685228805827 0.0014607608811927509 0 0.011956479938194662 0.00145276253369119 0 0.011390209160368583 0.0020924477821209811 0 0.011626614752619962 0.002903878046203684 0 0.011562644021502188 0.0025615705313465189 0 0.012406302538152492 0.0020880952103922395 0 0.012599841097812547 0.0025059810732621004 0 0.014590371552550375 0.0013288665676838233 0 0.011562644021502188 0.0025615705313465189 0 0.011390209160368583 0.0020924477821209811 0 0.012406302538152492 0.0020880952103922395 0 0.011086402107183164 0.0026036581778502732 0 0.011390209160368583 0.0020924477821209811 0 0.010632414968394628 0.0024770438894594995 0 0.011562644021502188 0.0025615705313465189 0 0.011086402107183164 0.0026036581778502732 0 0.011390209160368583 0.0020924477821209811 0 0.011956479938194662 0.00145276253369119 0 0.011390209160368583 0.0020924477821209811 0 0.012406302538152492 0.0020880952103922395 0 0.010676685228805827 0.0014607608811927509 0 0.011390209160368583 0.0020924477821209811 0 0.010632414968394628 0.0024770438894594995 0 0.010676685228805827 0.0014607608811927509 0 0.010148362664323882 0.0024976837789773797 0 0.0094632137188481198 0.0024648428878701937 0 0.010676685228805827 0.0014607608811927509 0 0.010148362664323882 0.0024976837789773797 0 0.010632414968394628 0.0024770438894594995 0 0.010183938586779436 0.0017247346789810993 0 0.0098051342103767213 0.0023080398331351993 0 0.010986747164671167 0.0017001068295769211 0 0.0098662280540132256 0.0015495866970608651 0 0.0094632137188481198 0.0024648428878701937 0 0.0098662280540132256 0.0015495866970608651 0 0.0094632137188481198 0.0024648428878701937 0 0.0091003079989707657 0.0017936042313754835 0 0.0081765845076076059 0.0018860548458756201 0 0.0091003079989707657 0.0017936042313754835 0 0.0087071185959416899 0.0023950650177017975 0 0.0081765845076076059 0.0018860548458756201 0 0.0079040899277314572 0.0026072308094361183 0 0.0087071185959416899 0.0023950650177017975 0 0.0094632137188481198 0.0024648428878701937 0 0.0091003079989707657 0.0017936042313754835 0 0.0087071185959416899 0.0023950650177017975 0 0.0094632137188481198 0.0024648428878701937 0 0.0087071185959416899 0.0023950650177017975 0 0.0092398122619603614 0.0030081796398812744 0 0.0079571477799398761 0.0031894047154997439 0 0.0078894100579812946 0.0035641380492447195 0 0.0087071185959416899 0.0023950650177017975 0 0.0079571477799398761 0.0031894047154997439 0 0.0079040899277314572 0.0026072308094361183 0 0.0087071185959416899 0.0023950650177017975 0 0.0087071185959416899 0.0023950650177017975 0 0.0090084181348159542 0.0034077111574392664 0 0.0092398122619603614 0.0030081796398812744 0 0.0081950027210646974 0.0036973645350141335 0 0.0086737844050485263 0.0024267683719454364 0 0.0084894344161375937 0.0039154519808751757 0 0.0087071185959416899 0.0023950650177017975 0 0.0090084181348159542 0.0034077111574392664 0 0.0094157907271356089 0.0035567573575563099 0 0.0090084181348159542 0.0034077111574392664 0 0.0092398122619603614 0.0030081796398812744 0 0.0094157907271356089 0.0035567573575563099 0 0.0097145695961621432 0.0030439747546597458 0 0.0092398122619603614 0.0030081796398812744 0 0.0094157907271356089 0.0035567573575563099 0 0.01009537373588189 0.0035958483850986223 0 0.0097145695961621432 0.0030439747546597458 0 0.010148362664323882 0.0024976837789773797 0 0.0094632137188481198 0.0024648428878701937 0 0.0097145695961621432 0.0030439747546597458 0 0.0094632137188481198 0.0024648428878701937 0 0.0097145695961621432 0.0030439747546597458 0 0.0092398122619603614 0.0030081796398812744 0 0.013830650139880154 1.6563697971626531e-06 0 0.015403418494755945 -0.00010678246242647468 0 0.015296877936135279 0.00068449319724718505 0 0.013826842097594234 5.3314525973280894e-08 0 0.013972277196349928 0.00021552349398469564 0 0.015403418494755945 -0.00010678246242647468 0 0.015686081331774571 0.00020794687822434582 0 0.015296877936135279 0.00068449319724718505 0 0.013830650139880154 1.6563697971626531e-06 0 0.015403418494755945 -0.00010678246242647468 0 0.015850200839609457 -1.4162330926032853e-06 0 0.015403418494755945 -0.00010678246242647468 0 0.015850200839609457 -1.4162330926032853e-06 0 0.015885299172226891 -0.00011753601010966475 0 0.016317395415151616 0.00027176803644990281 0 0.017871336793054696 1.4821575271414269e-06 0 0.015885299172226891 -0.00011753601010966475 0 0.017871336793054696 1.4821575271414269e-06 0 0.015850200839609457 -1.4162330926032853e-06 0 0.015885299172226891 -0.00011753601010966475 0 0.016317395415151616 0.00027176803644990281 0 0.015925479074129865 0.00011382033385724693 0 0.015885299172226891 -0.00011753601010966475 0 0.015925479074129865 0.00011382033385724693 0 0.015885299172226891 -0.00011753601010966475 0 0.015785928080452392 -2.6910542283185429e-05 0 0.015403418494755945 -0.00010678246242647468 0 0.015885299172226891 -0.00011753601010966475 0 0.015785928080452392 -2.6910542283185429e-05 0 0.015925479074129865 0.00011382033385724693 0 0.015785928080452392 -2.6910542283185429e-05 0 0.015860601381976563 -3.0554863897068261e-05 0 0.017945099308623851 0.00043505694706101004 0 0.018067068030815748 0.00042845260393648352 0 0.015785928080452392 -2.6910542283185429e-05 0 0.015860601381976563 -3.0554863897068261e-05 0 0.015991690313783752 0.00014512233417537706 0 0.015785928080452392 -2.6910542283185429e-05 0 0.015906138847652126 0.00022132176139100273 0 0.015991690313783752 0.00014512233417537706 0 0.015785928080452392 -2.6910542283185429e-05 0 0.015906138847652126 0.00022132176139100273 0 0.015686081331774571 0.00020794687822434582 0 0.015403418494755945 -0.00010678246242647468 0 0.015785928080452392 -2.6910542283185429e-05 0 0.015686081331774571 0.00020794687822434582 0 0.015686081331774571 0.00020794687822434582 0 0.015866431772929963 0.00052725213299453604 0 0.015296877936135279 0.00068449319724718505 0 0.015906138847652126 0.00022132176139100273 0 0.015686081331774571 0.00020794687822434582 0 0.015866431772929963 0.00052725213299453604 0 0.015906138847652126 0.00022132176139100273 0 0.015866431772929963 0.00052725213299453604 0 0.016176777661775082 0.00054586148000630122 0 0.015906138847652126 0.00022132176139100273 0 0.016062029535227198 0.0004735468712505926 0 0.016081284842779507 0.00028396971230302095 0 0.016326435797032704 0.0001666282995863382 0 0.014582251899287064 0.001195238784421462 0 0.014316804778305809 0.0018718772026533742 0 0.015459570815501441 0.0010008742023827767 0 0.014635159108092904 0.0022266393174194803 0 0.016062029535227198 0.0004735468712505926 0 0.016081284842779507 0.00028396971230302095 0 0.016277717787166319 0.00033904769271038041 0 0.014582251899287064 0.001195238784421462 0 0.016001949506884643 0.00064831038153670688 0 0.015459570815501441 0.0010008742023827767 0 0.015993465980847697 0.0017485561351175925 0 0.014635159108092904 0.0022266393174194803 0 0.016163914417905045 0.00023450071772902609 0 0.016234085851573068 0.00019307392027516143 0 0.016277717787166319 0.00033904769271038041 0 0.016163914417905045 0.00023450071772902609 0 0.016081284842779507 0.00028396971230302095 0 0.016277717787166319 0.00033904769271038041 0 0.015906138847652126 0.00022132176139100273 0 0.016081284842779507 0.00028396971230302095 0 0.015991690313783752 0.00014512233417537706 0 0.016163914417905045 0.00023450071772902609 0 0.016081284842779507 0.00028396971230302095 0 0.015991690313783752 0.00014512233417537706 0 0.015860601381976563 -3.0554863897068261e-05 0 0.015991690313783752 0.00014512233417537706 0 0.016117320536927732 0.00013139881551105047 0 0.016163914417905045 0.00023450071772902609 0 0.015991690313783752 0.00014512233417537706 0 0.016117320536927732 0.00013139881551105047 0 0.019934100023452635 0.00078953442893489058 0 0.019995833940815978 0.00075968426721449505 0 0.019874292369359708 0.00071455777951003475 0 0.018067068030815748 0.00042845260393648352 0 0.017450809774063762 5.1753527485317799e-05 0 0.015860601381976563 -3.0554863897068261e-05 0 0.016117320536927732 0.00013139881551105047 0 0.016180843207665128 9.3092110482082778e-06 0 0.016289525036441824 -0.00023235982047812374 0 0.016147795678966938 8.0497915002595283e-05 0 0.016330547271063995 -8.2789677000858036e-06 0 0.017877949563281488 0.00027332864832489121 0 0.017450809774063762 5.1753527485317799e-05 0 0.017450809774063762 5.1753527485317799e-05 0 0.016521533083993605 -4.6786995513374612e-05 0 0.016147795678966938 8.0497915002595283e-05 0 0.016232111869694969 9.4849697413179222e-05 0 0.016330547271063995 -8.2789677000858036e-06 0 0.016232111869694969 9.4849697413179222e-05 0 0.016327241991905668 8.2798613542721554e-05 0 0.016330547271063995 -8.2789677000858036e-06 0 0.016232111869694969 9.4849697413179222e-05 0 0.016315702564147008 0.00015477070544183991 0 0.016327241991905668 8.2798613542721554e-05 0 0.01617486819650632 7.1618640748104508e-05 0 0.016232111869694969 9.4849697413179222e-05 0 0.016234085851573068 0.00019307392027516143 0 0.016232111869694969 9.4849697413179222e-05 0 0.016234085851573068 0.00019307392027516143 0 0.016315702564147008 0.00015477070544183991 0 0.016117320536927732 0.00013139881551105047 0 0.01617486819650632 7.1618640748104508e-05 0 0.016234085851573068 0.00019307392027516143 0 0.016355707274570377 0.00032860632397258314 0 0.017450809774063762 5.1753527485317799e-05 0 0.016163914417905045 0.00023450071772902609 0 0.016117320536927732 0.00013139881551105047 0 0.016234085851573068 0.00019307392027516143 0 0.016234085851573068 0.00019307392027516143 0 0.016357832015393127 0.00026309155235631956 0 0.016277717787166319 0.00033904769271038041 0 0.016357832015393127 0.00026309155235631956 0 0.016547114872598349 0.00039446940907354006 0 0.016277717787166319 0.00033904769271038041 0 0.016357832015393127 0.00026309155235631956 0 0.016434199681910285 0.00011422132596020725 0 0.016547114872598349 0.00039446940907354006 0 0.016357832015393127 0.00026309155235631956 0 0.016315702564147008 0.00015477070544183991 0 0.016434199681910285 0.00011422132596020725 0 0.016234085851573068 0.00019307392027516143 0 0.016357832015393127 0.00026309155235631956 0 0.016315702564147008 0.00015477070544183991 0 0.016327241991905668 8.2798613542721554e-05 0 0.016434199681910285 0.00011422132596020725 0 0.016330547271063995 -8.2789677000858036e-06 0 0.016315702564147008 0.00015477070544183991 0 0.016327241991905668 8.2798613542721554e-05 0 0.016434199681910285 0.00011422132596020725 0 0.016527754180888726 -0.00012297925611337847 0 0.016434199681910285 0.00011422132596020725 0 0.016330547271063995 -8.2789677000858036e-06 0 0.016434199681910285 0.00011422132596020725 0 0.016717417473883573 -2.2143356290899054e-06 0 0.016547114872598349 0.00039446940907354006 0 0.016527754180888726 -0.00012297925611337847 0 0.016434199681910285 0.00011422132596020725 0 0.016717417473883573 -2.2143356290899054e-06 0 0.016717417473883573 -2.2143356290899054e-06 0 0.016547114872598349 0.00039446940907354006 0 0.016619971168805672 0.00052527283821150381 0 0.016801332097289026 -0.00011589341827179709 0 0.016653939928907402 0.00044536490430543453 0 0.016876574422678182 -0.0004098511779032011 0 0.016853063146763547 0.00056186661251484175 0 0.016619971168805672 0.00052527283821150381 0 0.016547114872598349 0.00039446940907354006 0 0.016619971168805672 0.00052527283821150381 0 0.016555244286437207 0.00075793696287451944 0 0.016853063146763547 0.00056186661251484175 0 0.016619971168805672 0.00052527283821150381 0 0.016738304990153965 0.00071678229361698208 0 0.016555244286437207 0.00075793696287451944 0 0.016731589785643729 0.00092930097484721801 0 0.016244797851703449 0.0010582631204590228 0 0.016547114872598349 0.00039446940907354006 0 0.016555244286437207 0.00075793696287451944 0 0.016244797851703449 0.0010582631204590228 0 0.016990188360317425 0.0011929351767267101 0 0.016731589785643729 0.00092930097484721801 0 0.016244797851703449 0.0010582631204590228 0 0.016619971168805672 0.00052527283821150381 0 0.016738304990153965 0.00071678229361698208 0 0.016555244286437207 0.00075793696287451944 0 0.016738304990153965 0.00071678229361698208 0 0.016555244286437207 0.00075793696287451944 0 0.016731589785643729 0.00092930097484721801 0 0.01644824484418517 0.00040650833200100701 0 0.016001949506884643 0.00064831038153670688 0 0.016547114872598349 0.00039446940907354006 0 0.016244797851703449 0.0010582631204590228 0 0.015459570815501441 0.0010008742023827767 0 0.016244797851703449 0.0010582631204590228 0 0.015459570815501441 0.0010008742023827767 0 0.015993465980847697 0.0017485561351175925 0 0.011295263421538023 0.0012515908660316328 0 0.010484664946469659 0.0016882545141793221 0 0.0057169053738123816 0.0012765250557066885 0 0.0047068157329960879 0.0017611449877350915 0 0.0053829002561244709 0.0023341374711956216 0 0.016990188360317425 0.0011929351767267101 0 0.016244797851703449 0.0010582631204590228 0 0.015993465980847697 0.0017485561351175925 0 0.0047068157329960879 0.0017611449877350915 0 0.0053829002561244709 0.0023341374711956216 0 0.0046653757082594661 0.0023857024776374196 0 0.0053829002561244709 0.0023341374711956216 0 0.0046653757082594661 0.0023857024776374196 0 0.0049959488897791489 0.0028530532205478772 0 0.0047068157329960879 0.0017611449877350915 0 0.0046653757082594661 0.0023857024776374196 0 0.0037540029965200633 0.0021394498307668905 0 0.0046653757082594661 0.0023857024776374196 0 0.004318298736353361 0.0028690673508429678 0 0.0037540029965200633 0.0021394498307668905 0 0.004318298736353361 0.0028690673508429678 0 0.0049959488897791489 0.0028530532205478772 0 0.0050312787708993402 0.0032688815045125645 0 0.0046653757082594661 0.0023857024776374196 0 0.004318298736353361 0.0028690673508429678 0 0.0049959488897791489 0.0028530532205478772 0 0.0054741955948513481 0.0032100389928909978 0 0.0053829002561244709 0.0023341374711956216 0 0.0049959488897791489 0.0028530532205478772 0 0.0054741955948513481 0.0032100389928909978 0 0.0049959488897791489 0.0028530532205478772 0 0.0050312787708993402 0.0032688815045125645 0 0.0050450441915286161 0.0037444381066660255 0 0.0050724637725312119 0.0039087181747578682 0 0.0050423271260509033 0.0035921662056798203 0 0.0054741955948513481 0.0032100389928909978 0 0.0050312787708993402 0.0032688815045125645 0 0.0052021858730708003 0.0035952348859489901 0 0.0050490893637029364 0.003944802386374794 0 0.0050526085556300178 0.0040180077663808066 0 0.0050724637725312119 0.0039087181747578682 0 0.0048779902597459431 0.0041900404726783105 0 0.0047588003394625463 0.0044212906696015162 0 0.0050312787708993402 0.0032688815045125645 0 0.0050450441915286161 0.0037444381066660255 0 0.0052021858730708003 0.0035952348859489901 0 0.0054248637707561406 0.0037059185976211647 0 0.0052021858730708003 0.0035952348859489901 0 0.0050724637725312119 0.0039087181747578682 0 0.0050450441915286161 0.0037444381066660255 0 0.0052021858730708003 0.0035952348859489901 0 0.0050724637725312119 0.0039087181747578682 0 0.0050724637725312119 0.0039087181747578682 0 0.0048779902597459431 0.0041900404726783105 0 0.0050986928806330189 0.0042362313285644344 0 0.0048779902597459431 0.0041900404726783105 0 0.0050986928806330189 0.0042362313285644344 0 0.0048357015881587287 0.0044070232198959516 0 0.0048779902597459431 0.0041900404726783105 0 0.0047976126427996544 0.0043076893591647543 0 0.0047588003394625463 0.0044212906696015162 0 0.0047976126427996544 0.0043076893591647543 0 0.0047588003394625463 0.0044212906696015162 0 0.004840018832482332 0.0043856230205538416 0 0.0047976126427996544 0.0043076893591647543 0 0.004840018832482332 0.0043856230205538416 0 0.0047570194373629544 0.0044255179733623425 0 0.0048779902597459431 0.0041900404726783105 0 0.0047976126427996544 0.0043076893591647543 0 0.0048357015881587287 0.0044070232198959516 0 0.004318298736353361 0.0028690673508429678 0 0.0050312787708993402 0.0032688815045125645 0 0.0050450441915286161 0.0037444381066660255 0 0.0040939572894295373 0.003186017566663191 0 0.0052302184595186948 0.0038001135260476077 0 0.0050882463392118585 0.0036751988400658777 0 0.0050450441915286161 0.0037444381066660255 0 0.0050423271260509033 0.0035921662056798203 0 0.0047588003394625463 0.0044212906696015162 0 0.004840018832482332 0.0043856230205538416 0 0.0050504296050445652 0.0045532349987725158 0 0.0050526085556300178 0.0040180077663808066 0 0.0048560979189093099 0.0042960167096561816 0 0.0047588003394625463 0.0044212906696015162 0 0.0050504296050445652 0.0045532349987725158 0 0.005073238926076416 0.0047791471623461401 0 0.004840018832482332 0.0043856230205538416 0 0.0050504296050445652 0.0045532349987725158 0 0.0049504864169419337 0.0043222666954580132 0 0.004840018832482332 0.0043856230205538416 0 0.0049504864169419337 0.0043222666954580132 0 0.0047570194373629544 0.0044255179733623425 0 0.0054025188713923171 0.0046132207119646872 0 0.0051976520531401994 0.0045987799000560383 0 0.0050504296050445652 0.0045532349987725158 0 0.005428884602310737 0.0046038870058407256 0 0.0049504864169419337 0.0043222666954580132 0 0.0050504296050445652 0.0045532349987725158 0 0.0053866339826434779 0.0047490373568501946 0 0.005428884602310737 0.0046038870058407256 0 0.0050504296050445652 0.0045532349987725158 0 0.005073238926076416 0.0047791471623461401 0 0.0053866339826434779 0.0047490373568501946 0 0.0048560979189093099 0.0042960167096561816 0 0.0086861913559343838 0.0027317770011945691 0 0.0050882463392118585 0.0036751988400658777 0 0.0055950694210128871 0.0035974765309489867 0 0.0055311813637390081 0.0041596045763828684 0 0.0050882463392118585 0.0036751988400658777 0 0.0050423271260509033 0.0035921662056798203 0 0.0055950694210128871 0.0035974765309489867 0 0.010484664946469659 0.0016882545141793221 0 0.0086075268884329703 0.0024590906499388984 0 0.0040939572894295373 0.003186017566663191 0 0.0086075268884329703 0.0024590906499388984 0 0.014582251899287064 0.001195238784421462 0 0.010245016492085037 0.002236332931775953 0 0.014582251899287064 0.001195238784421462 0 0.0086075268884329703 0.0024590906499388984 0 0.0086075268884329703 0.0024590906499388984 0 0.010245016492085037 0.002236332931775953 0 0.0055950694210128871 0.0035974765309489867 0 0.0055311813637390081 0.0041596045763828684 0 0.0062586198734430705 0.003940079199680209 0 0.011333194369376316 0.0018298461282510337 0 0.011539074552235375 0.0020670895832178341 0 0.010723304661959473 0.002349087688993748 0 0.015866431772929963 0.00052725213299453604 0 0.016176777661775082 0.00054586148000630122 0 0.015859941135407563 0.00082676194995495722 0 0.015866431772929963 0.00052725213299453604 0 0.015706679050953479 0.00081936395602845327 0 0.015859941135407563 0.00082676194995495722 0 0.010487746556179858 0.0022653584445616022 0 0.010295364932981983 0.0021721608174720456 0 0.0096177282600472865 0.0024035715674533996 0 0.012035671590370223 0.0018229005079788733 0 0.011849242798410445 0.0017341803555647175 0 0.012096672429477437 0.0016522029747215014 0 0.010790146059228903 0.0023393146640445293 0 0.01126426568564709 0.001812966220506077 0 0.01305124702102756 0.0012090815825058494 0 0.010790146059228903 0.0023393146640445293 0 0.015706679050953479 0.00081936395602845327 0 0.015780607929631221 0.00085630047202159504 0 0.015859941135407563 0.00082676194995495722 0 0.0086861913559343838 0.0027317770011945691 0 0.010790146059228903 0.0023393146640445293 0 0.0086861913559343838 0.0027317770011945691 0 0.010245016492085037 0.002236332931775953 0 0.010790146059228903 0.0023393146640445293 0 0.010245016492085037 0.002236332931775953 0 0.0092810715919408801 0.0026111464176426821 0 0.0088685108640047874 0.0024125557495153506 0 0.0099435463035480245 0.0020444384324868926 0 0.015896121936044453 0.000162802723007675 0 0.01305124702102756 0.0012090815825058494 0 0.012329626291418285 -3.8690812531996659e-05 0 0.012309928536319209 -4.6070915239219412e-05 0 0.012339618667667905 -4.5262760986211093e-05 0 0.01305124702102756 0.0012090815825058494 0 0.013972277196349928 0.00021552349398469564 0 0.015866431772929963 0.00052725213299453604 0 0.01574347274772395 0.00085082769098942591 0 0.015296877936135279 0.00068449319724718505 0 0.012329626291418285 -3.8690812531996659e-05 0 0.012332037373779053 -3.3978921252710543e-05 0 0.012309928536319209 -4.6070915239219412e-05 0 0.01305124702102756 0.0012090815825058494 0 0.01126426568564709 0.001812966220506077 0 0.0094881050277060147 0.0025390984773696152 0 0.0093338718981394904 0.0026679540671643775 0 0.0090779266983155756 0.0025737028905753042 0 0.01126426568564709 0.001812966220506077 0 0.010381594732081528 0.0010158595604788008 0 0.0095334956347455056 0.0024213216541412431 0 0.0094881050277060147 0.0025390984773696152 0 0.0090779266983155756 0.0025737028905753042 0 0.012332037373779053 -3.3978921252710543e-05 0 0.012259069390959037 -1.2934036204213684e-05 0 0.012309928536319209 -4.6070915239219412e-05 0 0.01126426568564709 0.001812966220506077 0 0.0085370310973156439 0.0036299242512646008 0 0.0085370310973156439 0.0036299242512646008 0 0.0095743188321074646 0.0025567346326465638 0 0.0055523743927400849 0.0048055308080294009 0 0.0054768195394046511 0.0047882160880229957 0 0.0054880881034184885 0.0046968709016057793 0 0.0054768195394046511 0.0047882160880229957 0 0.0053866339826434779 0.0047490373568501946 0 0.0054880881034184885 0.0046968709016057793 0 0.005073238926076416 0.0047791471623461401 0 0.005468308380410839 0.0049308402750730482 0 0.0053866339826434779 0.0047490373568501946 0 0.005468308380410839 0.0049308402750730482 0 0.0054768195394046511 0.0047882160880229957 0 0.0053866339826434779 0.0047490373568501946 0 0.0055950694210128871 0.0035974765309489867 0 0.0063329135038360527 0.0038772931428386159 0 0.0062586198734430705 0.003940079199680209 0 0.005468308380410839 0.0049308402750730482 0 0.0055523743927400849 0.0048055308080294009 0 0.0054768195394046511 0.0047882160880229957 0 0.010487746556179858 0.0022653584445616022 0 0.0096177282600472865 0.0024035715674533996 0 0.0093032612245186538 0.0032791791396595354 0 0.0086861913559343838 0.0027317770011945691 0 0.0085370310973156439 0.0036299242512646008 0 0.0053866339826434779 0.0047490373568501946 0 0.0054880881034184885 0.0046968709016057793 0 0.005428884602310737 0.0046038870058407256 0 0.0054880881034184885 0.0046968709016057793 0 0.005428884602310737 0.0046038870058407256 0 0.0054946474159954552 0.0046409982315223875 0 0.005428884602310737 0.0046038870058407256 0 0.0055134533883441023 0.0047107134713328521 0 0.0054558567278985438 0.0048533397752792756 0 0.005428884602310737 0.0046038870058407256 0 0.0055134533883441023 0.0047107134713328521 0 0.0054946474159954552 0.0046409982315223875 0 0.0055134533883441023 0.0047107134713328521 0 0.0055090325967733491 0.0046676316692685089 0 0.0054946474159954552 0.0046409982315223875 0 0.0082314360610357875 0.0028687975903400318 0 0.0082043181212995524 0.0028181575637548132 0 0.0081830284912004642 0.0028807832185598343 0 0.0055090325967733491 0.0046676316692685089 0 0.0054946474159954552 0.0046409982315223875 0 0.005538575472797202 0.0046404117207164749 0 0.0077570611919990087 0.0044821538239279051 0 0.0079641847919937649 0.0036147205068352718 0 0.0080307794995843063 0.0042019557613507614 0 0.0076944689910594987 0.0035443593611657965 0 0.0078072879406913976 0.0032285328871695675 0 0.0077570611919990087 0.0044821538239279051 0 0.0083285081943596552 0.0029120319471799658 0 0.0083285081943596552 0.0029120319471799658 0 0.0087752762115303213 0.0010614414236132671 0 0.0083285081943596552 0.0029120319471799658 0 0.0079641847919937649 0.0036147205068352718 0 0.0093338718981394904 0.0026679540671643775 0 0.0093177690757838497 0.0029555023821707005 0 0.0092853625053787442 0.0027913120152868172 0 0.0055523743927400849 0.0048055308080294009 0 0.0054880881034184885 0.0046968709016057793 0 0.005538575472797202 0.0046404117207164749 0 0.0093013197643624316 0.0030096508375532993 0 0.0093192496726330707 0.0029614325023068931 0 0.0092853625053787442 0.0027913120152868172 0 0.0094660926686878991 0.0025557117883982607 0 0.0093338718981394904 0.0026679540671643775 0 0.0093177690757838497 0.0029555023821707005 0 0.0085370310973156439 0.0036299242512646008 0 0.0079641847919937649 0.0036147205068352718 0 0.0079641847919937649 0.0036147205068352718 0 0.008734599737033704 0.0029268018998923465 0 0.0054880881034184885 0.0046968709016057793 0 0.0054946474159954552 0.0046409982315223875 0 0.005538575472797202 0.0046404117207164749 0 0.0092910604434228716 0.0015201940633815527 0 0.0092688752503701736 0.0014845661883925122 0 0.0092617567791434922 0.0014201709157185694 0 0.0088861178349011489 1.9964135957460585e-05 0 0.0094187233807121219 -0.00013395843035134581 0 0.0092186007368809716 0.00076613300236799892 0 0.0093013197643624316 0.0030096508375532993 0 0.0092853625053787442 0.0027913120152868172 0 0.0090779266983155756 0.0025737028905753042 0 0.0083285081943596552 0.0029120319471799658 0 0.010381594732081528 0.0010158595604788008 0 0.0090623195496141312 0.00068333992719823002 0 0.010381594732081528 0.0010158595604788008 0 0.0088861178349011489 1.9964135957460585e-05 0 0.0088765448889587522 -0.00012392665182209506 0 0.0094187233807121219 -0.00013395843035134581 0 0.0092910604434228716 0.0015201940633815527 0 0.0092688752503701736 0.0014845661883925122 0 0.0092792979666555357 0.0015460844382181121 0 0.0088861178349011489 1.9964135957460585e-05 0 0.0088765448889587522 -0.00012392665182209506 0 0.008863950252645152 -0.00011195016430458637 0 0.0090623195496141312 0.00068333992719823002 0 0.0087752762115303213 0.0010614414236132671 0 0.0088765448889587522 -0.00012392665182209506 0 0.0087228671708493577 -4.0160039198723242e-05 0 0.0094187233807121219 -0.00013395843035134581 0 0.0088765448889587522 -0.00012392665182209506 0 0.0087228671708493577 -4.0160039198723242e-05 0 0.008579485894730789 6.0880466455701491e-05 0 0.0088765448889587522 -0.00012392665182209506 0 0.008863950252645152 -0.00011195016430458637 0 0.008579485894730789 6.0880466455701491e-05 0 0.0088587803047592614 -5.9443994085520122e-07 0 0.0087228671708493577 -4.0160039198723242e-05 0 0.0094187233807121219 -0.00013395843035134581 0 0.0088587803047592614 -5.9443994085520122e-07 0 0.010890733938248838 1.5481161841372948e-06 0 0.0094187233807121219 -0.00013395843035134581 0 0.010890733938248838 1.5481161841372948e-06 0 0.0094187233807121219 -0.00013395843035134581 0 0.0092186007368809716 0.00076613300236799892 0 0.010894401191850931 -9.0087925630559581e-08 0 0.010381594732081528 0.0010158595604788008 0 0.010895596833100103 9.206876814486647e-07 0 0.012246406539358309 0.00021212417783052136 0 0.012218925174902704 -9.1674722401579071e-05 0 0.010895596833100103 9.206876814486647e-07 0 0.012361036839794028 -9.0197368251304313e-07 0 0.012218925174902704 -9.1674722401579071e-05 0 0.0093338718981394904 0.0026679540671643775 0 0.0092853625053787442 0.0027913120152868172 0 0.0090779266983155756 0.0025737028905753042 0 0.010381594732081528 0.0010158595604788008 0 0.011630328585510181 0.00016713738753080688 0 0.012259069390959037 -1.2934036204213684e-05 0 0.012309928536319209 -4.6070915239219412e-05 0 0.012218925174902704 -9.1674722401579071e-05 0 0.012309928536319209 -4.6070915239219412e-05 0 0.012339618667667905 -4.5262760986211093e-05 0 0.012218925174902704 -9.1674722401579071e-05 0 0.012339618667667905 -4.5262760986211093e-05 0 0.012361036839794028 -9.0197368251304313e-07 0 0.012218925174902704 -9.1674722401579071e-05 0 0.013824220051190056 9.4072170980893979e-07 0 0.012339618667667905 -4.5262760986211093e-05 0 0.012361036839794028 -9.0197368251304313e-07 0 0.0047884440251487583 -2.6057864344746561e-07 0 0.006143198092964092 -1.9913963414811165e-05 0 0.0043009954514795614 1.1748427405555655e-05 0 0.0075792582212130775 0.0026527325846884644 0 0.0072912204123113961 0.0022712681007921918 0 0.0074708737134754327 0.003061575404327293 0 0.0069603097436325275 0.00092908745159146788 0 0.0043949499916815403 0.0017985678455264646 0 0.0076654975948609629 0.0029174303094531696 0 0.0075792582212130775 0.0026527325846884644 0 0.0074708737134754327 0.003061575404327293 0 0.0076654975948609629 0.0029174303094531696 0 0.0078347881833007692 0.0028925114817461186 0 0.0078169010422332631 0.0028312004968978214 0 0.0076654975948609629 0.0029174303094531696 0 0.0078169010422332631 0.0028312004968978214 0 0.0076885580824979094 0.0027475791215311081 0 0.0078347881833007692 0.0028925114817461186 0 0.0078169010422332631 0.0028312004968978214 0 0.0078956240491902478 0.002940168064650998 0 0.0078347881833007692 0.0028925114817461186 0 0.0078956240491902478 0.002940168064650998 0 0.0079289497479409186 0.0028661442898689242 0 0.0078169010422332631 0.0028312004968978214 0 0.0079118806181037882 0.0027926875810481266 0 0.0078956240491902478 0.002940168064650998 0 0.0078169010422332631 0.0028312004968978214 0 0.0079118806181037882 0.0027926875810481266 0 0.0077948181208753707 0.0026848683277186421 0 0.0079118806181037882 0.0027926875810481266 0 0.0077948181208753707 0.0026848683277186421 0 0.0079127225050770883 0.0026235656034789127 0 0.0076654975948609629 0.0029174303094531696 0 0.0076885580824979094 0.0027475791215311081 0 0.0075792582212130775 0.0026527325846884644 0 0.0078169010422332631 0.0028312004968978214 0 0.0076885580824979094 0.0027475791215311081 0 0.0077948181208753707 0.0026848683277186421 0 0.0077948181208753707 0.0026848683277186421 0 0.0075792582212130775 0.0026527325846884644 0 0.0077874135230866746 0.0024910855351540293 0 0.0076885580824979094 0.0027475791215311081 0 0.0077948181208753707 0.0026848683277186421 0 0.0075792582212130775 0.0026527325846884644 0 0.0075792582212130775 0.0026527325846884644 0 0.0077874135230866746 0.0024910855351540293 0 0.0072912204123113961 0.0022712681007921918 0 0.0077874135230866746 0.0024910855351540293 0 0.0079169541936209634 0.0021405223114175304 0 0.0072912204123113961 0.0022712681007921918 0 0.0079127225050770883 0.0026235656034789127 0 0.0080338510326693341 0.0024043006687714343 0 0.0079987141679934582 0.0026897122303796419 0 0.0079118806181037882 0.0027926875810481266 0 0.0079127225050770883 0.0026235656034789127 0 0.0079987141679934582 0.0026897122303796419 0 0.0077948181208753707 0.0026848683277186421 0 0.0077874135230866746 0.0024910855351540293 0 0.0079127225050770883 0.0026235656034789127 0 0.0077874135230866746 0.0024910855351540293 0 0.0079127225050770883 0.0026235656034789127 0 0.0080338510326693341 0.0024043006687714343 0 0.0077874135230866746 0.0024910855351540293 0 0.0080338510326693341 0.0024043006687714343 0 0.0079169541936209634 0.0021405223114175304 0 0.0081825923542289455 0.0019548189879722141 0 0.0079169541936209634 0.0021405223114175304 0 0.0081679235052092968 0.0015106420895733739 0 0.0080338510326693341 0.0024043006687714343 0 0.0081825923542289455 0.0019548189879722141 0 0.0081956789380445271 0.0022390933014017201 0 0.0080338510326693341 0.0024043006687714343 0 0.0081825923542289455 0.0019548189879722141 0 0.0079169541936209634 0.0021405223114175304 0 0.0079169541936209634 0.0021405223114175304 0 0.0072912204123113961 0.0022712681007921918 0 0.0081679235052092968 0.0015106420895733739 0 0.0047884440251487583 -2.6057864344746561e-07 0 0.006143198092964092 -1.9913963414811165e-05 0 0.0068233994282140397 4.4710905434478798e-07 0 0.006143198092964092 -1.9913963414811165e-05 0 0.0068233994282140397 4.4710905434478798e-07 0 0.0078886651687553044 0.00021238607662081493 0 0.0072912204123113961 0.0022712681007921918 0 0.0078886651687553044 0.00021238607662081493 0 0.008062241509999301 0.00098915119385798844 0 0.0069603097436325275 0.00092908745159146788 0 0.0076353396551317836 0.00025060034677634209 0 0.0088587803047592614 -5.9443994085520122e-07 0 0.0068233994282140397 4.4710905434478798e-07 0 0.0078886651687553044 0.00021238607662081493 0 0.0088587803047592614 -5.9443994085520122e-07 0 0.0087228671708493577 -4.0160039198723242e-05 0 0.0078886651687553044 0.00021238607662081493 0 0.0087752762115303213 0.0010614414236132671 0 0.0086333671268556834 5.5623376056956218e-05 0 0.008863950252645152 -0.00011195016430458637 0 0.008579485894730789 6.0880466455701491e-05 0 0.00842981164593006 0.00051322690573262538 0 0.0086800613557623339 -0.00028747578481227488 0 0.00842981164593006 0.00051322690573262538 0 0.0086383299154098037 0.00073419485275838558 0 0.0087228671708493577 -4.0160039198723242e-05 0 0.0078886651687553044 0.00021238607662081493 0 0.008579485894730789 6.0880466455701491e-05 0 0.0078886651687553044 0.00021238607662081493 0 0.00842981164593006 0.00051322690573262538 0 0.008062241509999301 0.00098915119385798844 0 0.0078886651687553044 0.00021238607662081493 0 0.008579485894730789 6.0880466455701491e-05 0 0.00842981164593006 0.00051322690573262538 0 0.00842981164593006 0.00051322690573262538 0 0.0084340737747849222 0.0010283118655078219 0 0.0086383299154098037 0.00073419485275838558 0 0.00842981164593006 0.00051322690573262538 0 0.0084340737747849222 0.0010283118655078219 0 0.008062241509999301 0.00098915119385798844 0 0.0072912204123113961 0.0022712681007921918 0 0.008062241509999301 0.00098915119385798844 0 0.0081679235052092968 0.0015106420895733739 0 0.0084340737747849222 0.0010283118655078219 0 0.008062241509999301 0.00098915119385798844 0 0.0081679235052092968 0.0015106420895733739 0 0.0084340737747849222 0.0010283118655078219 0 0.0081679235052092968 0.0015106420895733739 0 0.0084665735260151236 0.0014638258356351654 0 0.0081825923542289455 0.0019548189879722141 0 0.0081679235052092968 0.0015106420895733739 0 0.0084665735260151236 0.0014638258356351654 0 0.0081825923542289455 0.0019548189879722141 0 0.0084665735260151236 0.0014638258356351654 0 0.0083824846616486481 0.0019589888434907747 0 0.0085945878372522266 0.0016398600645013519 0 0.0084665735260151236 0.0014638258356351654 0 0.0083824846616486481 0.0019589888434907747 0 0.0085386183165042599 0.0018533784242559777 0 0.0085945878372522266 0.0016398600645013519 0 0.0083824846616486481 0.0019589888434907747 0 0.0085386183165042599 0.0018533784242559777 0 0.0085945878372522266 0.0016398600645013519 0 0.0089517591301997573 0.0013212085509057402 0 0.0086484681603261736 0.0014078416004661561 0 0.0085945878372522266 0.0016398600645013519 0 0.0089517591301997573 0.0013212085509057402 0 0.0086484681603261736 0.0014078416004661561 0 0.0085945878372522266 0.0016398600645013519 0 0.0084665735260151236 0.0014638258356351654 0 0.0085386183165042599 0.0018533784242559777 0 0.0089517591301997573 0.0013212085509057402 0 0.0084412147074367505 0.002074195724346813 0 0.0089517591301997573 0.0013212085509057402 0 0.0086237669749197002 0.001183866608286132 0 0.0086383299154098037 0.00073419485275838558 0 0.0086484681603261736 0.0014078416004661561 0 0.0084665735260151236 0.0014638258356351654 0 0.0086237669749197002 0.001183866608286132 0 0.0084340737747849222 0.0010283118655078219 0 0.0084665735260151236 0.0014638258356351654 0 0.0086237669749197002 0.001183866608286132 0 0.0086484681603261736 0.0014078416004661561 0 0.0089517591301997573 0.0013212085509057402 0 0.0086237669749197002 0.001183866608286132 0 0.0084340737747849222 0.0010283118655078219 0 0.0086237669749197002 0.001183866608286132 0 0.0086383299154098037 0.00073419485275838558 0 0.0077570611919990087 0.0044821538239279051 0 0.0066323319469232559 0.0053138106669110285 0 0.0082314360610357875 0.0028687975903400318 0 0.0081830284912004642 0.0028807832185598343 0 0.0082646964694139385 0.0031132596167580042 0 0.0081548303403573569 0.0064927842888318574 0 0.0079389603151194549 0.0052488163660192383 0 0.0077372204726770862 0.0056148524340427098 0 0.0082314360610357875 0.0028687975903400318 0 0.0082898469560861079 0.0031089721938368365 0 0.0082646964694139385 0.0031132596167580042 0 0.0055134533883441023 0.0047107134713328521 0 0.0055090325967733491 0.0046676316692685089 0 0.0056162718469243656 0.0047340418102383899 0 0.0077570611919990087 0.0044821538239279051 0 0.00817376852343598 0.0042345959624797425 0 0.0087752762115303213 0.0010614414236132671 0 0.0084823826008371267 0.0022331008747894297 0 0.0086800613557623339 -0.00028747578481227488 0 0.0089517591301997573 0.0013212085509057402 0 0.0086383299154098037 0.00073419485275838558 0 0.0055585564200429927 0.0047449715410798317 0 0.0056162718469243656 0.0047340418102383899 0 0.0055585451817503229 0.0047270549019590496 0 0.0055134533883441023 0.0047107134713328521 0 0.0055585564200429927 0.0047449715410798317 0 0.0056162718469243656 0.0047340418102383899 0 0.0055134533883441023 0.0047107134713328521 0 0.0055585564200429927 0.0047449715410798317 0 0.0054558567278985438 0.0048533397752792756 0 0.0079389603151194549 0.0052488163660192383 0 0.0077372204726770862 0.0056148524340427098 0 0.0070811756064880311 0.0045139358013255677 0 0.0056162718469243656 0.0047340418102383899 0 0.0058302626584435394 0.0044721781087333819 0 0.0055585451817503229 0.0047270549019590496 0 0.0066323319469232559 0.0053138106669110285 0 0.0064136760852242271 0.0044131839443344529 0 0.0079389603151194549 0.0052488163660192383 0 0.0070811756064880311 0.0045139358013255677 0 0.0076939541324026819 0.0034276401107406775 0 0.0070811756064880311 0.0045139358013255677 0 0.0069678574696047492 0.0035598407162607737 0 0.0076939541324026819 0.0034276401107406775 0 0.0089517591301997573 0.0013212085509057402 0 0.0082322889884604532 0.0024915836432485303 0 0.0076939541324026819 0.0034276401107406775 0 0.0082898469560861079 0.0031089721938368365 0 0.0082646964694139385 0.0031132596167580042 0 0.008335220387335163 0.0033195360930875278 0 0.00817376852343598 0.0042345959624797425 0 0.0080666800996086856 0.0032778848742550364 0 0.0084823826008371267 0.0022331008747894297 0 0.0080666800996086856 0.0032778848742550364 0 0.0089517591301997573 0.0013212085509057402 0 0.0084412147074367505 0.002074195724346813 0 0.0082322889884604532 0.0024915836432485303 0 0.0085386183165042599 0.0018533784242559777 0 0.0084412147074367505 0.002074195724346813 0 0.0084125564284239316 0.0020415307030338149 0 0.0084412147074367505 0.002074195724346813 0 0.0082952039572269393 0.0023254999120077033 0 0.0082875339635515247 0.0022726801563176793 0 0.0084412147074367505 0.002074195724346813 0 0.0082952039572269393 0.0023254999120077033 0 0.0082322889884604532 0.0024915836432485303 0 0.0082952039572269393 0.0023254999120077033 0 0.0082150200830450933 0.002455677246203586 0 0.0082875339635515247 0.0022726801563176793 0 0.0082952039572269393 0.0023254999120077033 0 0.0082150200830450933 0.002455677246203586 0 0.0082322889884604532 0.0024915836432485303 0 0.0081825923542289455 0.0019548189879722141 0 0.0083824846616486481 0.0019589888434907747 0 0.0081956789380445271 0.0022390933014017201 0 0.0083824846616486481 0.0019589888434907747 0 0.0082875339635515247 0.0022726801563176793 0 0.0081956789380445271 0.0022390933014017201 0 0.0083824846616486481 0.0019589888434907747 0 0.0084125564284239316 0.0020415307030338149 0 0.0082875339635515247 0.0022726801563176793 0 0.0085386183165042599 0.0018533784242559777 0 0.0083824846616486481 0.0019589888434907747 0 0.0084125564284239316 0.0020415307030338149 0 0.0084412147074367505 0.002074195724346813 0 0.0084125564284239316 0.0020415307030338149 0 0.0082875339635515247 0.0022726801563176793 0 0.0082875339635515247 0.0022726801563176793 0 0.0081956789380445271 0.0022390933014017201 0 0.008127451963016832 0.0025334260252327235 0 0.0082150200830450933 0.002455677246203586 0 0.0082875339635515247 0.0022726801563176793 0 0.008127451963016832 0.0025334260252327235 0 0.0080338510326693341 0.0024043006687714343 0 0.0081956789380445271 0.0022390933014017201 0 0.008127451963016832 0.0025334260252327235 0 0.0080338510326693341 0.0024043006687714343 0 0.008127451963016832 0.0025334260252327235 0 0.0079987141679934582 0.0026897122303796419 0 0.008127451963016832 0.0025334260252327235 0 0.0080281613230446473 0.0027843661249742939 0 0.0081251746406191226 0.0026265711889237259 0 0.008127451963016832 0.0025334260252327235 0 0.0080281613230446473 0.0027843661249742939 0 0.0079987141679934582 0.0026897122303796419 0 0.0080281613230446473 0.0027843661249742939 0 0.0079987141679934582 0.0026897122303796419 0 0.0079441878271259599 0.0029235323676969518 0 0.0082322889884604532 0.0024915836432485303 0 0.0079129290507385947 0.0030466174245096962 0 0.0076939541324026819 0.0034276401107406775 0 0.0082322889884604532 0.0024915836432485303 0 0.0080211305785095003 0.0028424677287450574 0 0.0079129290507385947 0.0030466174245096962 0 0.0082322889884604532 0.0024915836432485303 0 0.0081251746406191226 0.0026265711889237259 0 0.0080211305785095003 0.0028424677287450574 0 0.0082150200830450933 0.002455677246203586 0 0.0082322889884604532 0.0024915836432485303 0 0.0081251746406191226 0.0026265711889237259 0 0.0082150200830450933 0.002455677246203586 0 0.008127451963016832 0.0025334260252327235 0 0.0081251746406191226 0.0026265711889237259 0 0.0080281613230446473 0.0027843661249742939 0 0.0081251746406191226 0.0026265711889237259 0 0.0080211305785095003 0.0028424677287450574 0 0.0080281613230446473 0.0027843661249742939 0 0.0080211305785095003 0.0028424677287450574 0 0.0079491389188820014 0.0029656402954678944 0 0.0080211305785095003 0.0028424677287450574 0 0.0079129290507385947 0.0030466174245096962 0 0.0079491389188820014 0.0029656402954678944 0 0.0079129290507385947 0.0030466174245096962 0 0.007861205171661995 0.0031151222911313509 0 0.0077778838291632686 0.0032620652226051632 0 0.0079129290507385947 0.0030466174245096962 0 0.007861205171661995 0.0031151222911313509 0 0.0079491389188820014 0.0029656402954678944 0 0.0080281613230446473 0.0027843661249742939 0 0.0079491389188820014 0.0029656402954678944 0 0.0079441878271259599 0.0029235323676969518 0 0.0079491389188820014 0.0029656402954678944 0 0.0078573210228925685 0.0030490108837496598 0 0.0079441878271259599 0.0029235323676969518 0 0.007861205171661995 0.0031151222911313509 0 0.0079491389188820014 0.0029656402954678944 0 0.0078573210228925685 0.0030490108837496598 0 0.007861205171661995 0.0031151222911313509 0 0.0078573210228925685 0.0030490108837496598 0 0.0076796863894842823 0.0031753972095217835 0 0.007861205171661995 0.0031151222911313509 0 0.0076796863894842823 0.0031753972095217835 0 0.0077778838291632686 0.0032620652226051632 0 0.0079118806181037882 0.0027926875810481266 0 0.0079987141679934582 0.0026897122303796419 0 0.0079441878271259599 0.0029235323676969518 0 0.0078573210228925685 0.0030490108837496598 0 0.0079441878271259599 0.0029235323676969518 0 0.0078956240491902478 0.002940168064650998 0 0.0079118806181037882 0.0027926875810481266 0 0.0079441878271259599 0.0029235323676969518 0 0.0078956240491902478 0.002940168064650998 0 0.0078573210228925685 0.0030490108837496598 0 0.0077007715863452167 0.0029568677763455427 0 0.0076796863894842823 0.0031753972095217835 0 0.0078573210228925685 0.0030490108837496598 0 0.0078956240491902478 0.002940168064650998 0 0.0077007715863452167 0.0029568677763455427 0 0.0070811756064880311 0.0045139358013255677 0 0.0069678574696047492 0.0035598407162607737 0 0.0060299690546701179 0.0036110618387463112 0 0.0077007715863452167 0.0029568677763455427 0 0.0076796863894842823 0.0031753972095217835 0 0.0070052105089320593 0.0030897891040655343 0 0.0076796863894842823 0.0031753972095217835 0 0.0072742231245229334 0.0032702787912256672 0 0.0070052105089320593 0.0030897891040655343 0 0.0070052105089320593 0.0030897891040655343 0 0.0069678574696047492 0.0035598407162607737 0 0.0060299690546701179 0.0036110618387463112 0 0.0072742231245229334 0.0032702787912256672 0 0.0070052105089320593 0.0030897891040655343 0 0.0069678574696047492 0.0035598407162607737 0 0.0072742231245229334 0.0032702787912256672 0 0.0069678574696047492 0.0035598407162607737 0 0.0076939541324026819 0.0034276401107406775 0 0.0079129290507385947 0.0030466174245096962 0 0.0076939541324026819 0.0034276401107406775 0 0.0077778838291632686 0.0032620652226051632 0 0.0076796863894842823 0.0031753972095217835 0 0.0076939541324026819 0.0034276401107406775 0 0.0077778838291632686 0.0032620652226051632 0 0.0076796863894842823 0.0031753972095217835 0 0.0072742231245229334 0.0032702787912256672 0 0.0076939541324026819 0.0034276401107406775 0 0.0060299690546701179 0.0036110618387463112 0 0.005192265018988439 0.0039558368156187348 0 0.0053705754111059633 0.004458816723716179 0 0.0060299690546701179 0.0036110618387463112 0 0.005192265018988439 0.0039558368156187348 0 0.0050572805992314456 0.0032843295424729159 0 0.0070052105089320593 0.0030897891040655343 0 0.0060299690546701179 0.0036110618387463112 0 0.0061920661469235527 0.0029183676888868441 0 0.0046581615533321805 0.0038875403291933281 0 0.005192265018988439 0.0039558368156187348 0 0.0050572805992314456 0.0032843295424729159 0 0.0046581615533321805 0.0038875403291933281 0 0.0041479236569999184 0.0035643423115024257 0 0.0050572805992314456 0.0032843295424729159 0 0.0046581615533321805 0.0038875403291933281 0 0.005192265018988439 0.0039558368156187348 0 0.0047823791354840179 0.0043491021178698706 0 0.0047823791354840179 0.0043491021178698706 0 0.0053705754111059633 0.004458816723716179 0 0.0049648915591736648 0.0048078001545206108 0 0.005192265018988439 0.0039558368156187348 0 0.0047823791354840179 0.0043491021178698706 0 0.0053705754111059633 0.004458816723716179 0 0.0058302626584435394 0.0044721781087333819 0 0.0060299690546701179 0.0036110618387463112 0 0.0053705754111059633 0.004458816723716179 0 0.0064136760852242271 0.0044131839443344529 0 0.0060339638170998425 0.0036288937782252371 0 0.0058302626584435394 0.0044721781087333819 0 0.0053705754111059633 0.004458816723716179 0 0.0055585451817503229 0.0047270549019590496 0 0.0055585564200429927 0.0047449715410798317 0 0.0055585451817503229 0.0047270549019590496 0 0.0054558567278985438 0.0048533397752792756 0 0.0055585451817503229 0.0047270549019590496 0 0.0054558567278985438 0.0048533397752792756 0 0.0049648915591736648 0.0048078001545206108 0 0.0049504864169419337 0.0043222666954580132 0 0.0047418116436488932 0.0045322212494096018 0 0.0047570194373629544 0.0044255179733623425 0 0.0051976520531401994 0.0045987799000560383 0 0.0048410032113187975 0.0046612170916583533 0 0.0053705754111059633 0.004458816723716179 0 0.0055585451817503229 0.0047270549019590496 0 0.0049648915591736648 0.0048078001545206108 0 0.0047418116436488932 0.0045322212494096018 0 0.0046522070829170051 0.0046420538585139918 0 0.0043240956755235408 0.004540149167693833 0 0.0048410032113187975 0.0046612170916583533 0 0.0043861972251870102 0.0045264493528085837 0 0.0047418116436488932 0.0045322212494096018 0 0.0046522070829170051 0.0046420538585139918 0 0.0047570194373629544 0.0044255179733623425 0 0.0047976126427996544 0.0043076893591647543 0 0.0047570194373629544 0.0044255179733623425 0 0.0048357015881587287 0.0044070232198959516 0 0.0046522070829170051 0.0046420538585139918 0 0.0047570194373629544 0.0044255179733623425 0 0.0048357015881587287 0.0044070232198959516 0 0.0050986928806330189 0.0042362313285644344 0 0.0048357015881587287 0.0044070232198959516 0 0.0051072080197231626 0.004495287524225385 0 0.0046522070829170051 0.0046420538585139918 0 0.0048357015881587287 0.0044070232198959516 0 0.00483433426878293 0.0046333573956194359 0 0.0051072080197231626 0.004495287524225385 0 0.00483433426878293 0.0046333573956194359 0 0.005181712367237282 0.0048138504454043919 0 0.0048357015881587287 0.0044070232198959516 0 0.0051072080197231626 0.004495287524225385 0 0.00483433426878293 0.0046333573956194359 0 0.0046522070829170051 0.0046420538585139918 0 0.0045192606828835169 0.0047886406534711108 0 0.0043240956755235408 0.004540149167693833 0 0.00483433426878293 0.0046333573956194359 0 0.0045192606828835169 0.0047886406534711108 0 0.005181712367237282 0.0048138504454043919 0 0.0046522070829170051 0.0046420538585139918 0 0.00483433426878293 0.0046333573956194359 0 0.0045192606828835169 0.0047886406534711108 0 0.0045192606828835169 0.0047886406534711108 0 0.005181712367237282 0.0048138504454043919 0 0.0050477328678452298 0.0057389956756418179 0 0.0045192606828835169 0.0047886406534711108 0 0.0043240956755235408 0.004540149167693833 0 0.0034415096122517004 0.0041889069628919225 0 0.0044751429107628537 0.0043429842681322285 0 0.0037039476635256619 0.0062978982391497717 0 0.0047823791354840179 0.0043491021178698706 0 0.0043240956755235408 0.004540149167693833 0 0.0042227657448535624 0.0040114855548287641 0 0.0047823791354840179 0.0043491021178698706 0 0.0049648915591736648 0.0048078001545206108 0 0.0043240956755235408 0.004540149167693833 0 0.0046581615533321805 0.0038875403291933281 0 0.0047823791354840179 0.0043491021178698706 0 0.0042227657448535624 0.0040114855548287641 0 0.0046581615533321805 0.0038875403291933281 0 0.0042227657448535624 0.0040114855548287641 0 0.0041479236569999184 0.0035643423115024257 0 0.0042227657448535624 0.0040114855548287641 0 0.0036693640476285713 0.0036550924582856321 0 0.0041479236569999184 0.0035643423115024257 0 0.0037374360432363288 0.0039666532371482252 0 0.0034415096122517004 0.0041889069628919225 0 0.0031265034528902202 0.0034943318837982662 0 0.0043240956755235408 0.004540149167693833 0 0.0042227657448535624 0.0040114855548287641 0 0.0037374360432363288 0.0039666532371482252 0 0.0043240956755235408 0.004540149167693833 0 0.0037374360432363288 0.0039666532371482252 0 0.0034415096122517004 0.0041889069628919225 0 0.0042227657448535624 0.0040114855548287641 0 0.0037374360432363288 0.0039666532371482252 0 0.0036693640476285713 0.0036550924582856321 0 0.0037374360432363288 0.0039666532371482252 0 0.0036693640476285713 0.0036550924582856321 0 0.0031265034528902202 0.0034943318837982662 0 0.0033942437878651715 0.0034622351720514193 0 0.0036693640476285713 0.0036550924582856321 0 0.003634215814563334 0.0033610709685683465 0 0.0033942437878651715 0.0034622351720514193 0 0.003634215814563334 0.0033610709685683465 0 0.0032068285258730301 0.0033944602706532097 0 0.0033942437878651715 0.0034622351720514193 0 0.0036693640476285713 0.0036550924582856321 0 0.0031265034528902202 0.0034943318837982662 0 0.0033942437878651715 0.0034622351720514193 0 0.0032068285258730301 0.0033944602706532097 0 0.0031265034528902202 0.0034943318837982662 0 0.0036693640476285713 0.0036550924582856321 0 0.0041479236569999184 0.0035643423115024257 0 0.003634215814563334 0.0033610709685683465 0 0.0039775824629639115 0.0030267753583177463 0 0.003634215814563334 0.0033610709685683465 0 0.003603013047387305 0.0032537022928827912 0 0.0041479236569999184 0.0035643423115024257 0 0.0039775824629639115 0.0030267753583177463 0 0.003634215814563334 0.0033610709685683465 0 0.003603013047387305 0.0032537022928827912 0 0.0032768352083256342 0.0032807385417898912 0 0.0032068285258730301 0.0033944602706532097 0 0.003634215814563334 0.0033610709685683465 0 0.003603013047387305 0.0032537022928827912 0 0.0032068285258730301 0.0033944602706532097 0 0.0039775824629639115 0.0030267753583177463 0 0.0036437103894724253 0.0033002729208416273 0 0.0036760137265775582 0.0033151292242045941 0 0.0039775824629639115 0.0030267753583177463 0 0.003603013047387305 0.0032537022928827912 0 0.0036760137265775582 0.0033151292242045941 0 0.003204537841791475 0.002974337552135495 0 0.0022254012114708826 0.0017153860320666748 0 0.0022254012114708826 0.0017153860320666748 0 0.0024671671273441441 0.0018259640627104087 0 0.003603013047387305 0.0032537022928827912 0 0.0036760137265775582 0.0033151292242045941 0 0.0032768352083256342 0.0032807385417898912 0 0.0036760137265775582 0.0033151292242045941 0 0.0032768352083256342 0.0032807385417898912 0 0.0030758104918311088 0.0029392175678282602 0 0.0032768352083256342 0.0032807385417898912 0 0.0032068285258730301 0.0033944602706532097 0 0.002776716174194884 0.0033893603441772116 0 0.0032768352083256342 0.0032807385417898912 0 0.002776716174194884 0.0033893603441772116 0 0.0030758104918311088 0.0029392175678282602 0 0.002776716174194884 0.0033893603441772116 0 0.0031265034528902202 0.0034943318837982662 0 0.0018933039132814785 0.0033955305783334782 0 0.0032068285258730301 0.0033944602706532097 0 0.002776716174194884 0.0033893603441772116 0 0.0031265034528902202 0.0034943318837982662 0 0.002776716174194884 0.0033893603441772116 0 0.0030758104918311088 0.0029392175678282602 0 0.0018933039132814785 0.0033955305783334782 0 0.0027049316975314903 0.0021999686610085101 0 0.0030758104918311088 0.0029392175678282602 0 0.0018933039132814785 0.0033955305783334782 0 0.0027049316975314903 0.0021999686610085101 0 0.0028711620750771997 0.0011242277347785165 0 0.0012547490867631211 0.0016045634520559355 0 0.0027049316975314903 0.0021999686610085101 0 0.0018933039132814785 0.0033955305783334782 0 0.0012547490867631211 0.0016045634520559355 0 0.0034921039215629487 0.00057690897047878371 0 0.0028711620750771997 0.0011242277347785165 0 0.0040550480061445279 0.0019012984413969293 0 0.0027049316975314903 0.0021999686610085101 0 0.0028711620750771997 0.0011242277347785165 0 0.0040550480061445279 0.0019012984413969293 0 0.003774982200106409 0.0033403497951315334 0 0.0036760137265775582 0.0033151292242045941 0 0.0040550480061445279 0.0019012984413969293 0 0.0022254012114708826 0.0017153860320666748 0 0.0015229837657468402 0.00093912783577103462 0 0.0027049316975314903 0.0021999686610085101 0 0.0030758104918311088 0.0029392175678282602 0 0.0040550480061445279 0.0019012984413969293 0 0.0036760137265775582 0.0033151292242045941 0 0.0030758104918311088 0.0029392175678282602 0 0.0040550480061445279 0.0019012984413969293 0 -0.00098881738055418681 0.00049617073883278997 0 -0.00073509096025852296 0.00029165093120052003 0 -0.00092149875454754432 4.2641835710175894e-05 0 -0.00073509096025852296 0.00029165093120052003 0 -0.00092149875454754432 4.2641835710175894e-05 0 -0.0005526305417218497 -1.4109575324381797e-05 0 -0.00071468859446842262 -0.00015210649509997848 0 -0.00092149875454754432 4.2641835710175894e-05 0 -0.0005526305417218497 -1.4109575324381797e-05 0 -0.00073509096025852296 0.00029165093120052003 0 -0.0005526305417218497 -1.4109575324381797e-05 0 -0.00042590337729901732 0.00033733078743149094 0 0.0023683841660539547 0.0013948040900067268 0 0.0034674037032836752 0.0016633869270450102 0 -0.00073509096025852296 0.00029165093120052003 0 -0.00067828498312681479 0.00061800115519813719 0 -0.00042590337729901732 0.00033733078743149094 0 -0.00098881738055418681 0.00049617073883278997 0 -0.00073509096025852296 0.00029165093120052003 0 -0.00067828498312681479 0.00061800115519813719 0 0.0022254012114708826 0.0017153860320666748 0 0.0023683841660539547 0.0013948040900067268 0 0.0039775824629639115 0.0030267753583177463 0 0.0040566182766789954 0.0021938781054039644 0 0.005661245987498874 0.0022468320186151232 0 0.0039775824629639115 0.0030267753583177463 0 0.005661245987498874 0.0022468320186151232 0 0.0050572805992314456 0.0032843295424729159 0 0.0041479236569999184 0.0035643423115024257 0 0.0039775824629639115 0.0030267753583177463 0 0.0050572805992314456 0.0032843295424729159 0 0.0060299690546701179 0.0036110618387463112 0 0.0050572805992314456 0.0032843295424729159 0 0.0061920661469235527 0.0029183676888868441 0 0.005661245987498874 0.0022468320186151232 0 0.0061920661469235527 0.0029183676888868441 0 0.0071901988383139383 0.0024038388195269746 0 0.005661245987498874 0.0022468320186151232 0 0.0050572805992314456 0.0032843295424729159 0 0.0061920661469235527 0.0029183676888868441 0 0.0070052105089320593 0.0030897891040655343 0 0.0061920661469235527 0.0029183676888868441 0 0.0071901988383139383 0.0024038388195269746 0 0.0077007715863452167 0.0029568677763455427 0 0.0070052105089320593 0.0030897891040655343 0 0.0071901988383139383 0.0024038388195269746 0 0.0077007715863452167 0.0029568677763455427 0 0.0071901988383139383 0.0024038388195269746 0 0.0079289497479409186 0.0028661442898689242 0 0.0034674037032836752 0.0016633869270450102 0 0.0040936440078357663 0.0020626898760693364 0 0.0078956240491902478 0.002940168064650998 0 0.0077007715863452167 0.0029568677763455427 0 0.0079289497479409186 0.0028661442898689242 0 -0.00030703070891335149 0.00085019780253410039 0 -6.9950498145986666e-05 0.00051306434423020145 0 0.00031845537845449792 0.0012038579401306081 0 -6.9950498145986666e-05 0.00051306434423020145 0 0.00038799242920517415 0.00050393523432785297 0 0.00031845537845449792 0.0012038579401306081 0 -0.00030703070891335149 0.00085019780253410039 0 -6.9950498145986666e-05 0.00051306434423020145 0 -0.00042590337729901732 0.00033733078743149094 0 -0.00067828498312681479 0.00061800115519813719 0 -0.00030703070891335149 0.00085019780253410039 0 -0.00042590337729901732 0.00033733078743149094 0 -0.0005526305417218497 -1.4109575324381797e-05 0 -0.00042590337729901732 0.00033733078743149094 0 -0.00015241464361578848 7.7153600203594834e-06 0 -0.00035767879824677754 -0.00017705064607057892 0 -0.0005526305417218497 -1.4109575324381797e-05 0 -0.00015241464361578848 7.7153600203594834e-06 0 -0.00035767879824677754 -0.00017705064607057892 0 -0.00029245309472913477 -0.00028810089021411522 0 -0.00015241464361578848 7.7153600203594834e-06 0 -6.9950498145986666e-05 0.00051306434423020145 0 -0.00015241464361578848 7.7153600203594834e-06 0 0.00038799242920517415 0.00050393523432785297 0 -6.9950498145986666e-05 0.00051306434423020145 0 -0.00042590337729901732 0.00033733078743149094 0 -0.00015241464361578848 7.7153600203594834e-06 0 -0.00015241464361578848 7.7153600203594834e-06 0 0.00053114855461535771 2.6444985002009038e-05 0 0.00038799242920517415 0.00050393523432785297 0 0.00053114855461535771 2.6444985002009038e-05 0 0.00091392167145751388 0.00052490431646949652 0 0.00038799242920517415 0.00050393523432785297 0 -0.00029245309472913477 -0.00028810089021411522 0 -0.00015241464361578848 7.7153600203594834e-06 0 0.00053114855461535771 2.6444985002009038e-05 0 -0.00029245309472913477 -0.00028810089021411522 0 0.00053114855461535771 2.6444985002009038e-05 0 0.00071720098542046146 -2.8203858210834652e-07 0 0.00071720098542046146 -2.8203858210834652e-07 0 0.0015086340869015869 9.8775179795402676e-05 0 0.0027525773548177164 6.0949780737001177e-07 0 0.00053114855461535771 2.6444985002009038e-05 0 0.00071720098542046146 -2.8203858210834652e-07 0 0.0015086340869015869 9.8775179795402676e-05 0 0.00053114855461535771 2.6444985002009038e-05 0 0.0015086340869015869 9.8775179795402676e-05 0 0.00091392167145751388 0.00052490431646949652 0 0.0015086340869015869 9.8775179795402676e-05 0 0.0027525773548177164 6.0949780737001177e-07 0 0.0031322315719898523 1.210823272329997e-05 0 0.0015086340869015869 9.8775179795402676e-05 0 0.001245887802781754 0.00089917420412101217 0 0.00091392167145751388 0.00052490431646949652 0 0.0017638579398122961 6.0626296362837163e-05 0 0.0022227452288789027 0.00016435735371668608 0 0.001245887802781754 0.00089917420412101217 0 0.00091392167145751388 0.00052490431646949652 0 0.0008083226776029953 0.0010000151214402788 0 0.00038799242920517415 0.00050393523432785297 0 0.0008083226776029953 0.0010000151214402788 0 0.00031845537845449792 0.0012038579401306081 0 0.00091392167145751388 0.00052490431646949652 0 0.00038799242920517415 0.00050393523432785297 0 0.0008083226776029953 0.0010000151214402788 0 0.0008083226776029953 0.0010000151214402788 0 0.00031845537845449792 0.0012038579401306081 0 0.0011958324369350727 0.0015214047410626885 0 0.0076654975948609629 0.0029174303094531696 0 0.0079289497479409186 0.0028661442898689242 0 0.0074708737134754327 0.003061575404327293 0 0.0040936440078357663 0.0020626898760693364 0 0.0043949499916815403 0.0017985678455264646 0 0.0076654975948609629 0.0029174303094531696 0 0.0078347881833007692 0.0028925114817461186 0 0.0079289497479409186 0.0028661442898689242 0 0.0022227452288789027 0.00016435735371668608 0 0.0043949499916815403 0.0017985678455264646 0 0.0027525773548177164 6.0949780737001177e-07 0 0.0031322315719898523 1.210823272329997e-05 0 0.0043009954514795614 1.1748427405555655e-05 0 0.0047884440251487583 -2.6057864344746561e-07 0 0.0027525773548177164 6.0949780737001177e-07 0 0.0043009954514795614 1.1748427405555655e-05 0 0.001245887802781754 0.00089917420412101217 0 0.0008083226776029953 0.0010000151214402788 0 0.0011958324369350727 0.0015214047410626885 0 0.0098310698321873481 0.0067253312840858731 0 0.0088847338600838138 0.0065177651008605291 0 0.0094558212633521366 0.0061791601781820988 0 0.0066258028833304956 0.0057620882487923559 0 0.0063423198447132055 0.0056991515132194491 0 0.0064275157181578335 0.0059269121500857133 0 0.0077683023348148802 0.0065161238439380674 0 0.0077335193625616 0.0061061710779667846 0 0.0063423198447132055 0.0056991515132194491 0 0.0062150455475277503 0.0057350546743994988 0 0.0062194128254631931 0.0058667143562390073 0 0.0063423198447132055 0.0056991515132194491 0 0.0064275157181578335 0.0059269121500857133 0 0.0062194128254631931 0.0058667143562390073 0 0.0064275157181578335 0.0059269121500857133 0 0.0062194128254631931 0.0058667143562390073 0 0.0061241895857001103 0.0061225259170257142 0 0.005937973028180471 0.0063490657376870955 0 0.0058108618525452866 0.0062983169653238694 0 0.0059074482366987422 0.0062117915787720298 0 0.0058106733649595345 0.0064620541094513005 0 0.005937973028180471 0.0063490657376870955 0 0.0058108618525452866 0.0062983169653238694 0 0.0077683023348148802 0.0065161238439380674 0 0.0060112136119105852 0.0062014402057107426 0 0.0058106733649595345 0.0064620541094513005 0 0.0056213663761970102 0.0064114374657716676 0 0.0056734777716102233 0.0062919131404664645 0 0.0058106733649595345 0.0064620541094513005 0 0.0058108618525452866 0.0062983169653238694 0 0.0056734777716102233 0.0062919131404664645 0 0.0056213663761970102 0.0064114374657716676 0 0.0055542430554325079 0.0062196496641544396 0 0.0056734777716102233 0.0062919131404664645 0 0.0098651228982578106 0.0075885597898203176 0 0.0096826732947591643 0.0062661840863654124 0 0.010923619226354271 0.0065217688190622718 0 0.008562729907540801 0.007291197226225842 0 0.0098651228982578106 0.0075885597898203176 0 0.0096826732947591643 0.0062661840863654124 0 0.0077683023348148802 0.0065161238439380674 0 0.0077742557085812057 0.0069805116359865508 0 0.0077683023348148802 0.0065161238439380674 0 0.010431031902142564 0.006090770220898092 0 0.0098310698321873481 0.0067253312840858731 0 0.010013599218605961 0.0056443262848157013 0 0.010714643649295552 0.0058683996646144926 0 0.010431031902142564 0.006090770220898092 0 0.011104084271394683 0.0051475988348804692 0 0.010747722468074077 0.004640010947413487 0 0.010642247105491796 0.0051763910008226352 0 0.011477134378323138 0.0050112573825217598 0 0.010714643649295552 0.0058683996646144926 0 0.010642247105491796 0.0051763910008226352 0 0.011477134378323138 0.0050112573825217598 0 0.010013599218605961 0.0056443262848157013 0 0.010714643649295552 0.0058683996646144926 0 0.010642247105491796 0.0051763910008226352 0 0.010045005741648726 0.0048426575253737135 0 0.010013599218605961 0.0056443262848157013 0 0.010642247105491796 0.0051763910008226352 0 0.010045005741648726 0.0048426575253737135 0 0.010013599218605961 0.0056443262848157013 0 0.0094188751500663397 0.0052394731978108473 0 0.0094188751500663397 0.0052394731978108473 0 0.0095281908354283903 0.0057062537940397087 0 0.0091058199973484029 0.0057932570282626513 0 0.010013599218605961 0.0056443262848157013 0 0.0094188751500663397 0.0052394731978108473 0 0.0095281908354283903 0.0057062537940397087 0 0.0098310698321873481 0.0067253312840858731 0 0.010013599218605961 0.0056443262848157013 0 0.0094558212633521366 0.0061791601781820988 0 0.010013599218605961 0.0056443262848157013 0 0.0095281908354283903 0.0057062537940397087 0 0.0094558212633521366 0.0061791601781820988 0 0.0095281908354283903 0.0057062537940397087 0 0.0094558212633521366 0.0061791601781820988 0 0.0091058199973484029 0.0057932570282626513 0 0.0088847338600838138 0.0065177651008605291 0 0.0091058199973484029 0.0057932570282626513 0 0.0085693449865059303 0.0058230574273514437 0 0.0088847338600838138 0.0065177651008605291 0 0.0094558212633521366 0.0061791601781820988 0 0.0091058199973484029 0.0057932570282626513 0 0.0091058199973484029 0.0057932570282626513 0 0.0085693449865059303 0.0058230574273514437 0 0.0088712137589380853 0.0052623624652584572 0 0.0085693449865059303 0.0058230574273514437 0 0.0088712137589380853 0.0052623624652584572 0 0.0082480406758189528 0.0051358490023320734 0 0.0094188751500663397 0.0052394731978108473 0 0.0091058199973484029 0.0057932570282626513 0 0.0088712137589380853 0.0052623624652584572 0 0.0092155077995933476 0.0047045995013692329 0 0.0094188751500663397 0.0052394731978108473 0 0.0088712137589380853 0.0052623624652584572 0 0.0086327729887862269 0.0046042941251574106 0 0.0088712137589380853 0.0052623624652584572 0 0.0082480406758189528 0.0051358490023320734 0 0.0070728638706170684 0.0041991913439454239 0 0.0071644119798840913 0.0047468704987608844 0 0.0064469370308931082 0.005159804547774643 0 0.0071644119798840913 0.0047468704987608844 0 0.0064469370308931082 0.005159804547774643 0 0.00661305876221281 0.0052932211838697752 0 0.006679504480196552 0.0043012222785111165 0 0.0073032970309466353 0.0040441792824227442 0 0.0066987936151829122 0.0048261929693818812 0 0.00721194195884391 0.0041136311926727636 0 0.0065661681902936348 0.0049929594362526763 0 0.0066987936151829122 0.0048261929693818812 0 0.0062458416692277282 0.0044147953335444308 0 0.0060187881000399448 0.0047749880105861673 0 0.006679504480196552 0.0043012222785111165 0 0.0066987936151829122 0.0048261929693818812 0 0.0062458416692277282 0.0044147953335444308 0 0.0064469370308931082 0.005159804547774643 0 0.00661305876221281 0.0052932211838697752 0 0.0062660663293539571 0.005490606175328522 0 0.0066987936151829122 0.0048261929693818812 0 0.0061084657322814226 0.005121196527566204 0 0.0060587713459179437 0.0056451582033637086 0 0.0064469370308931082 0.005159804547774643 0 0.0062660663293539571 0.005490606175328522 0 0.0060587713459179437 0.0056451582033637086 0 0.0065661681902936348 0.0049929594362526763 0 0.0061152275228538297 0.0056149609683261428 0 0.0066987936151829122 0.0048261929693818812 0 0.0060187881000399448 0.0047749880105861673 0 0.0061084657322814226 0.005121196527566204 0 0.00661305876221281 0.0052932211838697752 0 0.0062660663293539571 0.005490606175328522 0 0.0066673238132813929 0.0056861277439008637 0 0.0061978673937026349 0.0055879910264616207 0 0.0068843746795827134 0.0059176433381401055 0 0.0077713379170331852 0.0049343464905571869 0 0.0068843746795827134 0.0059176433381401055 0 0.0071644119798840913 0.0047468704987608844 0 0.00661305876221281 0.0052932211838697752 0 0.0066673238132813929 0.0056861277439008637 0 0.0088847338600838138 0.0065177651008605291 0 0.0085693449865059303 0.0058230574273514437 0 0.0079417120849331786 0.0063058863854168895 0 0.0085693449865059303 0.0058230574273514437 0 0.0082480406758189528 0.0051358490023320734 0 0.0079417120849331786 0.0063058863854168895 0 0.0051072080197231626 0.004495287524225385 0 0.0053761278742772423 0.0043496501175981526 0 0.0055128045100315279 0.0046485677528944466 0 0.0051072080197231626 0.004495287524225385 0 0.0055128045100315279 0.0046485677528944466 0 0.005181712367237282 0.0048138504454043919 0 0.0050986928806330189 0.0042362313285644344 0 0.0051072080197231626 0.004495287524225385 0 0.0053761278742772423 0.0043496501175981526 0 0.0053761278742772423 0.0043496501175981526 0 0.0055128045100315279 0.0046485677528944466 0 0.0057797388216634365 0.0043770154413629329 0 0.0055128045100315279 0.0046485677528944466 0 0.0057797388216634365 0.0043770154413629329 0 0.0060187881000399448 0.0047749880105861673 0 0.0060484516396375034 0.0041065290182037114 0 0.0057797388216634365 0.0043770154413629329 0 0.0062458416692277282 0.0044147953335444308 0 0.0057797388216634365 0.0043770154413629329 0 0.0062458416692277282 0.0044147953335444308 0 0.0060187881000399448 0.0047749880105861673 0 0.0055128045100315279 0.0046485677528944466 0 0.0060187881000399448 0.0047749880105861673 0 0.0057158523858274433 0.0052185550601563761 0 0.0060187881000399448 0.0047749880105861673 0 0.0061084657322814226 0.005121196527566204 0 0.0057158523858274433 0.0052185550601563761 0 0.0061084657322814226 0.005121196527566204 0 0.0057158523858274433 0.0052185550601563761 0 0.0060587713459179437 0.0056451582033637086 0 0.0055128045100315279 0.0046485677528944466 0 0.0057158523858274433 0.0052185550601563761 0 0.005181712367237282 0.0048138504454043919 0 0.0055618293058122123 0.0046086764853175656 0 0.0037039476635256619 0.0062978982391497717 0 0.0057158523858274433 0.0052185550601563761 0 0.005181712367237282 0.0048138504454043919 0 0.0053100712751940667 0.0058155946164556186 0 0.0057158523858274433 0.0052185550601563761 0 0.0057681991325082447 0.0056773386440759814 0 0.0053100712751940667 0.0058155946164556186 0 0.0057158523858274433 0.0052185550601563761 0 0.0057681991325082447 0.0056773386440759814 0 0.0060587713459179437 0.0056451582033637086 0 0.0057681991325082447 0.0056773386440759814 0 0.0060587713459179437 0.0056451582033637086 0 0.00598824449661423 0.0058019574178368224 0 0.0057681991325082447 0.0056773386440759814 0 0.0058000983229846851 0.0059065030649217169 0 0.00598824449661423 0.0058019574178368224 0 0.0058000983229846851 0.0059065030649217169 0 0.00598824449661423 0.0058019574178368224 0 0.0059461521631858387 0.0059354657401426954 0 0.0058000983229846851 0.0059065030649217169 0 0.0059461521631858387 0.0059354657401426954 0 0.0058433401439956624 0.0060374849854723592 0 0.0037039476635256619 0.0062978982391497717 0 0.0022021711865310356 0.0053700322110550877 0 0.0058000983229846851 0.0059065030649217169 0 0.0053100712751940667 0.0058155946164556186 0 0.0056949406223795003 0.0061115568791438981 0 0.0057681991325082447 0.0056773386440759814 0 0.0058000983229846851 0.0059065030649217169 0 0.0053100712751940667 0.0058155946164556186 0 0.0037039476635256619 0.0062978982391497717 0 0.0028760365292471489 0.007037122591853958 0 0.0063423198447132055 0.0056991515132194491 0 0.0062150455475277503 0.0057350546743994988 0 0.0061852173387567499 0.0056548043815577978 0 0.0077335193625616 0.0061061710779667846 0 0.0068843746795827134 0.0059176433381401055 0 0.0062150455475277503 0.0057350546743994988 0 0.0061987800361415915 0.0056669345592021162 0 0.006157342466896352 0.0058040933512873982 0 0.0062150455475277503 0.0057350546743994988 0 0.0061987800361415915 0.0056669345592021162 0 0.0061852173387567499 0.0056548043815577978 0 0.0067492627653499013 0.0058289962050319111 0 0.0068843746795827134 0.0059176433381401055 0 0.0062660663293539571 0.005490606175328522 0 0.0062218177366909072 0.0056298813625013837 0 0.0062036339729253124 0.0056167207417905487 0 0.0061987800361415915 0.0056669345592021162 0 0.0062218177366909072 0.0056298813625013837 0 0.0062036339729253124 0.0056167207417905487 0 0.0061987800361415915 0.0056669345592021162 0 0.0062036339729253124 0.0056167207417905487 0 0.00613097296699099 0.0057257868777370116 0 0.0062660663293539571 0.005490606175328522 0 0.0060587713459179437 0.0056451582033637086 0 0.0062036339729253124 0.0056167207417905487 0 0.0060587713459179437 0.0056451582033637086 0 0.0062036339729253124 0.0056167207417905487 0 0.00613097296699099 0.0057257868777370116 0 0.0060587713459179437 0.0056451582033637086 0 0.00613097296699099 0.0057257868777370116 0 0.00598824449661423 0.0058019574178368224 0 0.0061987800361415915 0.0056669345592021162 0 0.00613097296699099 0.0057257868777370116 0 0.006157342466896352 0.0058040933512873982 0 0.00613097296699099 0.0057257868777370116 0 0.0060700507148013687 0.0058670542801283936 0 0.006157342466896352 0.0058040933512873982 0 0.00613097296699099 0.0057257868777370116 0 0.0060700507148013687 0.0058670542801283936 0 0.00598824449661423 0.0058019574178368224 0 0.0060700507148013687 0.0058670542801283936 0 0.00598824449661423 0.0058019574178368224 0 0.0059461521631858387 0.0059354657401426954 0 0.0060700507148013687 0.0058670542801283936 0 0.0059461521631858387 0.0059354657401426954 0 0.0059869410038847154 0.0060441272830655673 0 0.0060700507148013687 0.0058670542801283936 0 0.0061026566381673381 0.0059809233784975302 0 0.0059869410038847154 0.0060441272830655673 0 0.0061026566381673381 0.0059809233784975302 0 0.0062194128254631931 0.0058667143562390073 0 0.0061241895857001103 0.0061225259170257142 0 0.0060700507148013687 0.0058670542801283936 0 0.0061026566381673381 0.0059809233784975302 0 0.006157342466896352 0.0058040933512873982 0 0.0062150455475277503 0.0057350546743994988 0 0.006157342466896352 0.0058040933512873982 0 0.0062194128254631931 0.0058667143562390073 0 0.0061026566381673381 0.0059809233784975302 0 0.006157342466896352 0.0058040933512873982 0 0.0062194128254631931 0.0058667143562390073 0 0.0060615599212523116 0.0061131246307065661 0 0.0060020772605349545 0.0060984568859492449 0 0.0061241895857001103 0.0061225259170257142 0 0.0061026566381673381 0.0059809233784975302 0 0.0060615599212523116 0.0061131246307065661 0 0.0061241895857001103 0.0061225259170257142 0 0.0061026566381673381 0.0059809233784975302 0 0.0060615599212523116 0.0061131246307065661 0 0.0059869410038847154 0.0060441272830655673 0 0.0059869410038847154 0.0060441272830655673 0 0.0058433401439956624 0.0060374849854723592 0 0.005874906877647427 0.0061188303076775011 0 0.0059461521631858387 0.0059354657401426954 0 0.0059869410038847154 0.0060441272830655673 0 0.0058433401439956624 0.0060374849854723592 0 0.0059869410038847154 0.0060441272830655673 0 0.0059698266213201075 0.006135890395827878 0 0.005874906877647427 0.0061188303076775011 0 0.0060615599212523116 0.0061131246307065661 0 0.0059869410038847154 0.0060441272830655673 0 0.0059698266213201075 0.006135890395827878 0 0.00066598152416396175 0.0055114490603338845 0 0.0014701688681524798 0.0056015863191298809 0 0.0059698266213201075 0.006135890395827878 0 0.0060252851741787817 0.0061285369989272668 0 0.0058600086104071197 0.0062181021887337592 0 0.0059698266213201075 0.006135890395827878 0 0.005874906877647427 0.0061188303076775011 0 0.0058600086104071197 0.0062181021887337592 0 0.0060615599212523116 0.0061131246307065661 0 0.0060252851741787817 0.0061285369989272668 0 0.0060020772605349545 0.0060984568859492449 0 0.0060615599212523116 0.0061131246307065661 0 0.0059698266213201075 0.006135890395827878 0 0.0060252851741787817 0.0061285369989272668 0 0.0015256078600150115 0.010047110540216947 0 0.0016452078909965733 0.0069967541639390455 0 -0.00011461039230553979 0.0074311189302996216 0 0.0016452078909965733 0.0069967541639390455 0 -0.00011461039230553979 0.0074311189302996216 0 -7.9832798114615644e-06 0.0051049860128323087 0 0.0056949406223795003 0.0061115568791438981 0 0.0058433401439956624 0.0060374849854723592 0 0.005874906877647427 0.0061188303076775011 0 0.0058000983229846851 0.0059065030649217169 0 0.0056949406223795003 0.0061115568791438981 0 0.0058433401439956624 0.0060374849854723592 0 -0.00011461039230553979 0.0074311189302996216 0 -0.0018312634020088701 0.0047084822278136819 0 -7.9832798114615644e-06 0.0051049860128323087 0 0.0056949406223795003 0.0061115568791438981 0 0.005874906877647427 0.0061188303076775011 0 0.0058600086104071197 0.0062181021887337592 0 0.0028760365292471489 0.007037122591853958 0 0.0014701688681524798 0.0056015863191298809 0 -0.0018312634020088701 0.0047084822278136819 0 -0.0011182559286941436 0.0044163411572262995 0 -0.0017474965544293859 0.0043836126414170144 0 -0.0018312634020088701 0.0047084822278136819 0 -7.9832798114615644e-06 0.0051049860128323087 0 -0.0011182559286941436 0.0044163411572262995 0 -7.9832798114615644e-06 0.0051049860128323087 0 -0.00046314253454293546 0.0041521351749157498 0 -0.0011182559286941436 0.0044163411572262995 0 0.0016452078909965733 0.0069967541639390455 0 -7.9832798114615644e-06 0.0051049860128323087 0 0.0018933039132814785 0.0033955305783334782 0 0.0022021711865310356 0.0053700322110550877 0 0.0020416884328860584 0.0033549987215119037 0 -7.9832798114615644e-06 0.0051049860128323087 0 0.00029963183029290899 0.0039430969046280098 0 -0.00046314253454293546 0.0041521351749157498 0 0.0018933039132814785 0.0033955305783334782 0 -0.00018978759491000219 0.0031686952026627573 0 0.0012547490867631211 0.0016045634520559355 0 -7.9832798114615644e-06 0.0051049860128323087 0 0.0018933039132814785 0.0033955305783334782 0 0.00029963183029290899 0.0039430969046280098 0 0.0018933039132814785 0.0033955305783334782 0 0.00029963183029290899 0.0039430969046280098 0 -0.00018978759491000219 0.0031686952026627573 0 0.00029963183029290899 0.0039430969046280098 0 -0.00018978759491000219 0.0031686952026627573 0 -0.00046314253454293546 0.0041521351749157498 0 -0.00018978759491000219 0.0031686952026627573 0 -0.0015186145361983196 0.0038014599709956668 0 -0.0019706605198622448 0.0028628185981560859 0 -0.00046314253454293546 0.0041521351749157498 0 -0.0011182559286941436 0.0044163411572262995 0 -0.0015186145361983196 0.0038014599709956668 0 -0.00018978759491000219 0.0031686952026627573 0 -0.00046314253454293546 0.0041521351749157498 0 -0.0015186145361983196 0.0038014599709956668 0 -0.0015186145361983196 0.0038014599709956668 0 -0.0022500975383701605 0.004182590121805909 0 -0.0025727780381813252 0.0034414696535149192 0 -0.0011182559286941436 0.0044163411572262995 0 -0.0015186145361983196 0.0038014599709956668 0 -0.0017474965544293859 0.0043836126414170144 0 -0.0018312634020088701 0.0047084822278136819 0 -0.0017474965544293859 0.0043836126414170144 0 -0.0022500975383701605 0.004182590121805909 0 0.0014701688681524798 0.0056015863191298809 0 -0.00043187150919552641 0.0040200461842758942 0 -0.0015186145361983196 0.0038014599709956668 0 -0.0017474965544293859 0.0043836126414170144 0 -0.0022500975383701605 0.004182590121805909 0 -0.0015186145361983196 0.0038014599709956668 0 -0.0019706605198622448 0.0028628185981560859 0 -0.0025727780381813252 0.0034414696535149192 0 -0.0019706605198622448 0.0028628185981560859 0 -0.0024025633914522889 0.0017599431345194376 0 -0.0007874247035852376 0.001762206692784296 0 -0.0016006389996812943 0.00064571156635817866 0 -0.0024025633914522889 0.0017599431345194376 0 -0.0007874247035852376 0.001762206692784296 0 -0.00018978759491000219 0.0031686952026627573 0 -0.0019706605198622448 0.0028628185981560859 0 -0.0007874247035852376 0.001762206692784296 0 -4.1785081739655504e-06 0.00049099351814963985 0 -0.0007874247035852376 0.001762206692784296 0 0.0012547490867631211 0.0016045634520559355 0 -0.00018978759491000219 0.0031686952026627573 0 -0.0007874247035852376 0.001762206692784296 0 0.0012547490867631211 0.0016045634520559355 0 -0.0049762647180393608 0.0048530633470427412 0 -0.0033905207204470034 0.0033139099424928709 0 -0.0051129655914905307 0.0028912191949380817 0 -0.0049762647180393608 0.0048530633470427412 0 -0.0051129655914905307 0.0028912191949380817 0 -0.006460378226844107 0.0035573992030164753 0 -0.0049762647180393608 0.0048530633470427412 0 -0.0022500975383701605 0.004182590121805909 0 -0.0033905207204470034 0.0033139099424928709 0 -0.0049762647180393608 0.0048530633470427412 0 -0.00183201360348293 0.0048582687115767938 0 -0.0022500975383701605 0.004182590121805909 0 -0.0019706605198622448 0.0028628185981560859 0 -0.0025727780381813252 0.0034414696535149192 0 -0.0033905207204470034 0.0033139099424928709 0 -0.0022500975383701605 0.004182590121805909 0 -0.0025727780381813252 0.0034414696535149192 0 -0.0033905207204470034 0.0033139099424928709 0 -0.0024025633914522889 0.0017599431345194376 0 -0.0033905207204470034 0.0033139099424928709 0 -0.0041445140683613879 0.002005564604601523 0 -0.0019706605198622448 0.0028628185981560859 0 -0.0024025633914522889 0.0017599431345194376 0 -0.0033905207204470034 0.0033139099424928709 0 -0.0030600587125806703 0.00056342986608519136 0 -0.0024025633914522889 0.0017599431345194376 0 -0.0041445140683613879 0.002005564604601523 0 -0.0044668773213329951 0.0004594082735595683 0 -0.0041445140683613879 0.002005564604601523 0 -0.0052354992702786938 0.0015080909609653324 0 -0.0041445140683613879 0.002005564604601523 0 -0.0051129655914905307 0.0028912191949380817 0 -0.0052354992702786938 0.0015080909609653324 0 -0.0033905207204470034 0.0033139099424928709 0 -0.0041445140683613879 0.002005564604601523 0 -0.0051129655914905307 0.0028912191949380817 0 -0.0051129655914905307 0.0028912191949380817 0 -0.0052354992702786938 0.0015080909609653324 0 -0.0064621764111718865 0.0022318912466119992 0 -0.0060231417904960342 0.00055607554656675155 0 -0.0052354992702786938 0.0015080909609653324 0 -0.0064621764111718865 0.0022318912466119992 0 -0.0060231417904960342 0.00055607554656675155 0 -0.0064621764111718865 0.0022318912466119992 0 -0.0076204183296353957 0.0015317286913126731 0 -0.0064621764111718865 0.0022318912466119992 0 -0.0076204183296353957 0.0015317286913126731 0 -0.0074837961889734237 0.0028512183188555791 0 -0.0064621764111718865 0.0022318912466119992 0 -0.0074837961889734237 0.0028512183188555791 0 -0.006460378226844107 0.0035573992030164753 0 -0.0051129655914905307 0.0028912191949380817 0 -0.0064621764111718865 0.0022318912466119992 0 -0.006460378226844107 0.0035573992030164753 0 -0.0087411037677104942 0.00092145199166786349 0 -0.0076204183296353957 0.0015317286913126731 0 -0.0092148895415632842 0.0022993996665424121 0 -0.0076204183296353957 0.0015317286913126731 0 -0.0074837961889734237 0.0028512183188555791 0 -0.0092148895415632842 0.0022993996665424121 0 -0.009029332480920492 0.0036891750114379034 0 -0.0086952286521631544 0.0043921097178122844 0 -0.0093737445446022208 0.004162440543970046 0 -0.0090938053959712106 0.0030422627561982676 0 -0.0077574609840106367 0.0045882190606229894 0 -0.0080547221331355931 0.0048951763334318188 0 -0.0099632974822565293 0.004915884824647599 0 -0.009161627048793761 0.0045832610432546637 0 0.0058896144369209643 0.0060106850153614404 0 0.0057773769745965041 0.0060559607499947009 0 0.005624331315714509 0.0060102348215799965 0 -0.0074837961889734237 0.0028512183188555791 0 -0.0092148895415632842 0.0022993996665424121 0 -0.0076543672805379345 0.004648065794256963 0 -0.009029332480920492 0.0036891750114379034 0 -0.0086952286521631544 0.0043921097178122844 0 -0.0076543672805379345 0.004648065794256963 0 -0.0013398967631669319 0.0052585086917106075 0 -0.0011683612710485661 0.0070522534044308166 0 -0.0086952286521631544 0.0043921097178122844 0 -0.009161627048793761 0.0045832610432546637 0 -0.0093737445446022208 0.004162440543970046 0 -0.0086952286521631544 0.0043921097178122844 0 -0.0080547221331355931 0.0048951763334318188 0 -0.0076543672805379345 0.004648065794256963 0 -0.0086952286521631544 0.0043921097178122844 0 -0.0080547221331355931 0.0048951763334318188 0 -0.009161627048793761 0.0045832610432546637 0 -0.0049762647180393608 0.0048530633470427412 0 -0.006460378226844107 0.0035573992030164753 0 -0.0076543672805379345 0.004648065794256963 0 -0.0049762647180393608 0.0048530633470427412 0 -0.0080547221331355931 0.0048951763334318188 0 -0.0076543672805379345 0.004648065794256963 0 0.00066598152416396175 0.0055114490603338845 0 -0.0013398967631669319 0.0052585086917106075 0 -0.0074837961889734237 0.0028512183188555791 0 -0.006460378226844107 0.0035573992030164753 0 -0.0076543672805379345 0.004648065794256963 0 0.0060020772605349545 0.0060984568859492449 0 0.0059357435531549865 0.0061239784724733005 0 0.0061241895857001103 0.0061225259170257142 0 0.0060252851741787817 0.0061285369989272668 0 0.0058896144369209643 0.0060106850153614404 0 0.0060020772605349545 0.0060984568859492449 0 0.0060020772605349545 0.0060984568859492449 0 0.0059011375299069281 0.0060782730069722408 0 0.0059357435531549865 0.0061239784724733005 0 0.0058896144369209643 0.0060106850153614404 0 0.0060020772605349545 0.0060984568859492449 0 0.0059011375299069281 0.0060782730069722408 0 0.0058896144369209643 0.0060106850153614404 0 0.0058459868755277164 0.0060535429479288616 0 0.0057773769745965041 0.0060559607499947009 0 0.0058322609331507898 0.0060894992902340746 0 0.0059357435531549865 0.0061239784724733005 0 0.0057735877826282636 0.0061694188000051432 0 0.0058896144369209643 0.0060106850153614404 0 0.0058459868755277164 0.0060535429479288616 0 0.0059011375299069281 0.0060782730069722408 0 0.0058459868755277164 0.0060535429479288616 0 0.0059011375299069281 0.0060782730069722408 0 0.0058322609331507898 0.0060894992902340746 0 0.0058459868755277164 0.0060535429479288616 0 0.0057773769745965041 0.0060559607499947009 0 0.0058322609331507898 0.0060894992902340746 0 0.0057773769745965041 0.0060559607499947009 0 0.0058322609331507898 0.0060894992902340746 0 0.0057700920978762194 0.0060948146477719078 0 0.0058322609331507898 0.0060894992902340746 0 0.0057700920978762194 0.0060948146477719078 0 0.0057735877826282636 0.0061694188000051432 0 0.0059011375299069281 0.0060782730069722408 0 0.0058322609331507898 0.0060894992902340746 0 0.0059357435531549865 0.0061239784724733005 0 0.0059357435531549865 0.0061239784724733005 0 0.0059074482366987422 0.0062117915787720298 0 0.0057735877826282636 0.0061694188000051432 0 0.0058108618525452866 0.0062983169653238694 0 0.0059074482366987422 0.0062117915787720298 0 0.0057735877826282636 0.0061694188000051432 0 0.0059357435531549865 0.0061239784724733005 0 0.0059074482366987422 0.0062117915787720298 0 0.0061241895857001103 0.0061225259170257142 0 0.0060112136119105852 0.0062014402057107426 0 0.0061878240921032744 0.0060908440019376755 0 0.005937973028180471 0.0063490657376870955 0 0.0059074482366987422 0.0062117915787720298 0 0.0061241895857001103 0.0061225259170257142 0 0.0055542430554325079 0.0062196496641544396 0 0.0056734777716102233 0.0062919131404664645 0 0.0056652900542813623 0.0061578222937131747 0 0.0058108618525452866 0.0062983169653238694 0 0.0056734777716102233 0.0062919131404664645 0 0.0057735877826282636 0.0061694188000051432 0 0.0056734777716102233 0.0062919131404664645 0 0.0057735877826282636 0.0061694188000051432 0 0.0056652900542813623 0.0061578222937131747 0 0.0056652900542813623 0.0061578222937131747 0 0.0057084586364256531 0.00608767246167294 0 0.005624331315714509 0.0060102348215799965 0 0.0057700920978762194 0.0060948146477719078 0 0.0057735877826282636 0.0061694188000051432 0 0.0057084586364256531 0.00608767246167294 0 0.0057735877826282636 0.0061694188000051432 0 0.0056652900542813623 0.0061578222937131747 0 0.0057084586364256531 0.00608767246167294 0 0.0057773769745965041 0.0060559607499947009 0 0.0057084586364256531 0.00608767246167294 0 0.005624331315714509 0.0060102348215799965 0 0.0057773769745965041 0.0060559607499947009 0 0.0057700920978762194 0.0060948146477719078 0 0.0057084586364256531 0.00608767246167294 0 0.0055542430554325079 0.0062196496641544396 0 0.0056652900542813623 0.0061578222937131747 0 0.005624331315714509 0.0060102348215799965 0 0.0050630529167613588 0.010221352770629549 0 0.0049491123874660916 0.011118623591133216 0 0.0039545085806479835 0.011506800608364273 0 0.0059813509549880685 0.0083078765417455517 0 -0.0011683612710485661 0.0070522534044308166 0 -0.0099533817355478248 0.0047923056688120155 0 -0.0112055040846889 0.0044842497058215315 0 -0.010914163939406401 0.0042386632773437939 0 -0.010205130853366006 0.0043861597147379612 0 -0.0099533817355478248 0.0047923056688120155 0 -0.010914163939406401 0.0042386632773437939 0 -0.0011683612710485661 0.0070522534044308166 0 -0.0039553060104304833 0.0078840834833245263 0 0.0049491123874660916 0.011118623591133216 0 0.0039545085806479835 0.011506800608364273 0 0.0056828003413819219 0.011564116142983324 0 -0.010205130853366006 0.0043861597147379612 0 -0.0099306292850782456 0.0041184539875815359 0 -0.010392833536522256 0.0041677012132197008 0 -0.010205130853366006 0.0043861597147379612 0 -0.010392833536522256 0.0041677012132197008 0 -0.010914163939406401 0.0042386632773437939 0 -0.0099632974822565293 0.004915884824647599 0 -0.0097264551748889629 0.0045848171436416755 0 -0.009161627048793761 0.0045832610432546637 0 -0.0011683612710485661 0.0070522534044308166 0 -0.0042816465783958564 0.0076243295703738541 0 -0.010205130853366006 0.0043861597147379612 0 -0.0099533817355478248 0.0047923056688120155 0 -0.0097264551748889629 0.0045848171436416755 0 -0.0097264551748889629 0.0045848171436416755 0 -0.0093737445446022208 0.004162440543970046 0 -0.0099306292850782456 0.0041184539875815359 0 -0.010205130853366006 0.0043861597147379612 0 -0.0097264551748889629 0.0045848171436416755 0 -0.0099306292850782456 0.0041184539875815359 0 -0.0097264551748889629 0.0045848171436416755 0 -0.009161627048793761 0.0045832610432546637 0 -0.0093737445446022208 0.004162440543970046 0 -0.0099598855945522442 0.0028614934782744991 0 -0.009029332480920492 0.0036891750114379034 0 -0.0097416081156076681 0.003646226778802184 0 -0.0093737445446022208 0.004162440543970046 0 -0.0099306292850782456 0.0041184539875815359 0 -0.0097416081156076681 0.003646226778802184 0 -0.009029332480920492 0.0036891750114379034 0 -0.0093737445446022208 0.004162440543970046 0 -0.0097416081156076681 0.003646226778802184 0 -0.0099306292850782456 0.0041184539875815359 0 -0.010038359016744741 0.0037182593190214111 0 -0.0097416081156076681 0.003646226778802184 0 -0.0099306292850782456 0.0041184539875815359 0 -0.010038359016744741 0.0037182593190214111 0 -0.010268822822873053 0.0038936053712109496 0 -0.010118345691469048 0.0033972710117894734 0 -0.010038359016744741 0.0037182593190214111 0 -0.010340973000244868 0.0035933044898691056 0 -0.010118345691469048 0.0033972710117894734 0 -0.010038359016744741 0.0037182593190214111 0 -0.0097416081156076681 0.003646226778802184 0 -0.011298155824424982 0.0034723187219716065 0 -0.010653725406804704 0.0037694083937360409 0 -0.010914163939406401 0.0042386632773437939 0 -0.010392833536522256 0.0041677012132197008 0 -0.010653725406804704 0.0037694083937360409 0 -0.010914163939406401 0.0042386632773437939 0 -0.010392833536522256 0.0041677012132197008 0 -0.010268822822873053 0.0038936053712109496 0 -0.010653725406804704 0.0037694083937360409 0 -0.0099306292850782456 0.0041184539875815359 0 -0.010392833536522256 0.0041677012132197008 0 -0.010268822822873053 0.0038936053712109496 0 -0.010623031930892901 0.0031882495254826138 0 -0.010340973000244868 0.0035933044898691056 0 -0.010653725406804704 0.0037694083937360409 0 -0.010268822822873053 0.0038936053712109496 0 -0.010340973000244868 0.0035933044898691056 0 -0.010653725406804704 0.0037694083937360409 0 -0.010038359016744741 0.0037182593190214111 0 -0.010268822822873053 0.0038936053712109496 0 -0.010340973000244868 0.0035933044898691056 0 -0.011298155824424982 0.0034723187219716065 0 -0.011592191222387742 0.0039917706842547054 0 -0.010914163939406401 0.0042386632773437939 0 -0.010818890425961373 0.0033118629652407433 0 -0.013499890288261996 0.0042830446573011681 0 -0.011592191222387742 0.0039917706842547054 0 -0.0112055040846889 0.0044842497058215315 0 -0.011697108270791925 0.0043220363778376757 0 0.0056828003413819219 0.011564116142983324 0 0.0066639982856334162 0.011551019155905872 0 0.0059994645317036424 0.01089454119155722 0 -0.0039553060104304833 0.0078840834833245263 0 0.0011649858927403288 0.009833964968626081 0 -0.011592191222387742 0.0039917706842547054 0 -0.0112055040846889 0.0044842497058215315 0 -0.010914163939406401 0.0042386632773437939 0 -0.0047301014545843324 0.0057108770107999951 0 -0.0083127408020659561 0.004154087751444554 0 -0.013735837396562443 0.0032623855027806591 0 -0.013686669708390603 0.0044759179551743349 0 -0.014787784766013362 0.0035298335914184611 0 -0.013499890288261996 0.0042830446573011681 0 -0.0047301014545843324 0.0057108770107999951 0 -0.013735837396562443 0.0032623855027806591 0 -0.012671128600929539 0.0040267193293787558 0 -0.013686669708390603 0.0044759179551743349 0 -0.011592191222387742 0.0039917706842547054 0 -0.011697108270791925 0.0043220363778376757 0 -0.011758801047709036 0.0042635973336934531 0 0.0011649858927403288 0.009833964968626081 0 0.0017623894799498234 0.0099216942602862075 0 0.0079930040515819381 0.012210419710479127 0 0.0080379365354414228 0.011758448932789906 0 0.0073477184884340437 0.011135536208713754 0 0.0079930040515819381 0.012210419710479127 0 0.0080379365354414228 0.011758448932789906 0 0.0080838741212574169 0.012036032673621975 0 0.0079930040515819381 0.012210419710479127 0 0.0080838741212574169 0.012036032673621975 0 0.0080831211810204369 0.012187767581962976 0 0.0080838741212574169 0.012036032673621975 0 0.0082117172019598485 0.01197131188520858 0 0.0080831211810204369 0.012187767581962976 0 0.0082117172019598485 0.01197131188520858 0 0.008280489191943817 0.012150009840206795 0 0.0080831211810204369 0.012187767581962976 0 0.0084090545855582573 0.011967446209868607 0 0.0084200077715751581 0.012476872795978162 0 0.0087441101443717969 0.011785438001190019 0 0.0082117172019598485 0.01197131188520858 0 0.0083671367725108668 0.011662388934153623 0 0.0084090545855582573 0.011967446209868607 0 0.0082117172019598485 0.01197131188520858 0 0.0084090545855582573 0.011967446209868607 0 0.008280489191943817 0.012150009840206795 0 0.0080379365354414228 0.011758448932789906 0 0.0080838741212574169 0.012036032673621975 0 0.0082117172019598485 0.01197131188520858 0 0.0080379365354414228 0.011758448932789906 0 0.0082117172019598485 0.01197131188520858 0 0.0083671367725108668 0.011662388934153623 0 0.0083671367725108668 0.011662388934153623 0 0.0084090545855582573 0.011967446209868607 0 0.0087441101443717969 0.011785438001190019 0 0.0084090545855582573 0.011967446209868607 0 0.008280489191943817 0.012150009840206795 0 0.0084200077715751581 0.012476872795978162 0 0.008280489191943817 0.012150009840206795 0 0.0080831211810204369 0.012187767581962976 0 0.0084200077715751581 0.012476872795978162 0 0.0011649858927403288 0.009833964968626081 0 -0.0047301014545843324 0.0057108770107999951 0 0.0079749483591155142 0.012182352493586759 0 0.0080831211810204369 0.012187767581962976 0 0.0084200077715751581 0.012476872795978162 0 -0.0047301014545843324 0.0057108770107999951 0 0.0057469723114653296 0.0078811254267715566 0 0.0084200077715751581 0.012476872795978162 0 0.0087441101443717969 0.011785438001190019 0 0.0097346078774548268 0.011661124937672114 0 -0.001453528528108284 0.0048513232809124255 0 -0.00073983925292522487 0.0045046420834625109 0 -0.00068025682367594837 0.0053780352768424636 0 0.0087441101443717969 0.011785438001190019 0 0.0088681722029623905 0.011192023254543064 0 0.0097346078774548268 0.011661124937672114 0 0.0096540560803541203 0.010620111982837322 0 0.0088681722029623905 0.011192023254543064 0 0.0097346078774548268 0.011661124937672114 0 0.0083671367725108668 0.011662388934153623 0 0.0087441101443717969 0.011785438001190019 0 0.0088681722029623905 0.011192023254543064 0 0.0096540560803541203 0.010620111982837322 0 0.0088681722029623905 0.011192023254543064 0 0.0088990963099361883 0.010451940866583237 0 0.0088681722029623905 0.011192023254543064 0 0.0082211101151544019 0.010805226882166114 0 0.0088990963099361883 0.010451940866583237 0 0.0088681722029623905 0.011192023254543064 0 0.0082211101151544019 0.010805226882166114 0 0.0082343283698480905 0.011306031686858529 0 0.0083671367725108668 0.011662388934153623 0 0.0088681722029623905 0.011192023254543064 0 0.0082343283698480905 0.011306031686858529 0 0.0080379365354414228 0.011758448932789906 0 0.0083671367725108668 0.011662388934153623 0 0.0082343283698480905 0.011306031686858529 0 0.0082211101151544019 0.010805226882166114 0 0.0082343283698480905 0.011306031686858529 0 0.0078936672868813416 0.011101475959116347 0 0.0080379365354414228 0.011758448932789906 0 0.0078936672868813416 0.011101475959116347 0 0.0073477184884340437 0.011135536208713754 0 0.0080379365354414228 0.011758448932789906 0 0.0082343283698480905 0.011306031686858529 0 0.0078936672868813416 0.011101475959116347 0 0.0078936672868813416 0.011101475959116347 0 0.0076113758230616007 0.010566644673760764 0 0.0073477184884340437 0.011135536208713754 0 0.0082211101151544019 0.010805226882166114 0 0.0076113758230616007 0.010566644673760764 0 0.0080808577080446111 0.010056538073613008 0 0.0082211101151544019 0.010805226882166114 0 0.0078936672868813416 0.011101475959116347 0 0.0076113758230616007 0.010566644673760764 0 0.0076113758230616007 0.010566644673760764 0 0.0080808577080446111 0.010056538073613008 0 0.0072632472979496107 0.0098464847415355213 0 0.0080808577080446111 0.010056538073613008 0 0.0072632472979496107 0.0098464847415355213 0 0.0077641562059456151 0.0089064787000408471 0 0.0080808577080446111 0.010056538073613008 0 0.0086777641019910139 0.0097524174748525108 0 0.0077641562059456151 0.0089064787000408471 0 0.0082211101151544019 0.010805226882166114 0 0.0080808577080446111 0.010056538073613008 0 0.0088990963099361883 0.010451940866583237 0 0.0080808577080446111 0.010056538073613008 0 0.0086777641019910139 0.0097524174748525108 0 0.0088990963099361883 0.010451940866583237 0 0.0096540560803541203 0.010620111982837322 0 0.0092757866494780038 0.0099326935862065324 0 0.0099089454739794882 0.0094936443626717232 0 0.0096540560803541203 0.010620111982837322 0 0.0088990963099361883 0.010451940866583237 0 0.0092757866494780038 0.0099326935862065324 0 0.0086777641019910139 0.0097524174748525108 0 0.0088990963099361883 0.010451940866583237 0 0.0092757866494780038 0.0099326935862065324 0 0.0086777641019910139 0.0097524174748525108 0 0.0092757866494780038 0.0099326935862065324 0 0.0090711489405915068 0.0091748463748607036 0 0.0092757866494780038 0.0099326935862065324 0 0.0099089454739794882 0.0094936443626717232 0 0.0090711489405915068 0.0091748463748607036 0 0.0050630529167613588 0.010221352770629549 0 0.0049491123874660916 0.011118623591133216 0 0.0059994645317036424 0.01089454119155722 0 0.0049491123874660916 0.011118623591133216 0 0.0056828003413819219 0.011564116142983324 0 0.0059994645317036424 0.01089454119155722 0 0.0059994645317036424 0.01089454119155722 0 0.0073477184884340437 0.011135536208713754 0 0.0068415347832611866 0.010447952459974642 0 0.0011649858927403288 0.009833964968626081 0 0.0085676339385697166 0.012073826151291829 0 0.0079930040515819381 0.012210419710479127 0 0.0059994645317036424 0.01089454119155722 0 0.0073477184884340437 0.011135536208713754 0 0.0076113758230616007 0.010566644673760764 0 0.0073477184884340437 0.011135536208713754 0 0.0068415347832611866 0.010447952459974642 0 0.0059994645317036424 0.01089454119155722 0 0.0068415347832611866 0.010447952459974642 0 0.0062733034624580164 0.0099901348747875127 0 0.0068415347832611866 0.010447952459974642 0 0.0062733034624580164 0.0099901348747875127 0 0.0072632472979496107 0.0098464847415355213 0 0.0062733034624580164 0.0099901348747875127 0 0.0072632472979496107 0.0098464847415355213 0 0.0064214295183466262 0.0085833406767773304 0 0.0076113758230616007 0.010566644673760764 0 0.0068415347832611866 0.010447952459974642 0 0.0072632472979496107 0.0098464847415355213 0 0.0050630529167613588 0.010221352770629549 0 0.0062733034624580164 0.0099901348747875127 0 0.0064214295183466262 0.0085833406767773304 0 0.0050630529167613588 0.010221352770629549 0 0.0059994645317036424 0.01089454119155722 0 0.0062733034624580164 0.0099901348747875127 0 0.0059813509549880685 0.0083078765417455517 0 0.0075575458668672157 0.0077099348912708712 0 0.0056213663761970102 0.0064114374657716676 0 0.0055542430554325079 0.0062196496641544396 0 0.0054803269639167292 0.0063836905742270444 0 0.0077742557085812057 0.0069805116359865508 0 0.0075575458668672157 0.0077099348912708712 0 0.0098651228982578106 0.0075885597898203176 0 0.011146421308004351 0.0078781985399814704 0 0.010923619226354271 0.0065217688190622718 0 0.0075575458668672157 0.0077099348912708712 0 0.01020877445394424 0.0069423252330125407 0 0.011146421308004351 0.0078781985399814704 0 0.012069978996302206 0.0067813792896450308 0 0.010923619226354271 0.0065217688190622718 0 0.0065707190909988483 0.0086238219587041996 0 0.0077641562059456151 0.0089064787000408471 0 0.0079441093408736257 0.0070468999995015741 0 0.0072632472979496107 0.0098464847415355213 0 0.0064214295183466262 0.0085833406767773304 0 0.0077641562059456151 0.0089064787000408471 0 0.0075575458668672157 0.0077099348912708712 0 0.0073592024818395149 0.0087676753494587926 0 0.0077641562059456151 0.0089064787000408471 0 0.0090711489405915068 0.0091748463748607036 0 0.0089277704810303993 0.0083610233898950437 0 0.0086777641019910139 0.0097524174748525108 0 0.0077641562059456151 0.0089064787000408471 0 0.0090711489405915068 0.0091748463748607036 0 0.0099089454739794882 0.0094936443626717232 0 0.0090711489405915068 0.0091748463748607036 0 0.0099103981235099826 0.0085474617287053453 0 0.0090711489405915068 0.0091748463748607036 0 0.0089277704810303993 0.0083610233898950437 0 0.0099103981235099826 0.0085474617287053453 0 0.0099103981235099826 0.0085474617287053453 0 0.0091703270298311001 0.0073110857415616837 0 0.010452358828759424 0.0073315755497644301 0 0.0089277704810303993 0.0083610233898950437 0 0.0099103981235099826 0.0085474617287053453 0 0.0091703270298311001 0.0073110857415616837 0 0.0077641562059456151 0.0089064787000408471 0 0.0089277704810303993 0.0083610233898950437 0 0.0079441093408736257 0.0070468999995015741 0 0.0089277704810303993 0.0083610233898950437 0 0.0091703270298311001 0.0073110857415616837 0 0.0079441093408736257 0.0070468999995015741 0 0.01020877445394424 0.0069423252330125407 0 0.01108917430189435 0.0055925655641327144 0 0.012069978996302206 0.0067813792896450308 0 0.012936445462267385 0.0056994691580672463 0 0.011922731237643411 0.0054211629886520979 0 0.0091703270298311001 0.0073110857415616837 0 0.0079441093408736257 0.0070468999995015741 0 0.0095037117920835912 0.0053963382324602564 0 0.0095037117920835912 0.0053963382324602564 0 0.01121660781491801 0.0063410295586949243 0 0.010452358828759424 0.0073315755497644301 0 0.0091703270298311001 0.0073110857415616837 0 0.0095037117920835912 0.0053963382324602564 0 0.010452358828759424 0.0073315755497644301 0 0.01108917430189435 0.0055925655641327144 0 0.012989680759114617 0.0041668204122429411 0 0.012936445462267385 0.0056994691580672463 0 0.011922731237643411 0.0054211629886520979 0 0.01268567934945696 0.0048823837585090278 0 0.011922731237643411 0.0054211629886520979 0 0.010817253176996531 0.00526285294906803 0 0.010923619226354271 0.0065217688190622718 0 0.0096826732947591643 0.0062661840863654124 0 0.010817253176996531 0.00526285294906803 0 0.010923619226354271 0.0065217688190622718 0 0.012069978996302206 0.0067813792896450308 0 0.011922731237643411 0.0054211629886520979 0 0.010923619226354271 0.0065217688190622718 0 0.014349297953553075 0.0061166851333989787 0 0.013289297995877605 0.0059871049026078973 0 0.012726571054740125 0.0079623375748580482 0 0.014349297953553075 0.0061166851333989787 0 0.013289297995877605 0.0059871049026078973 0 0.014049578169986207 0.0053637389884858009 0 0.012939792881547727 0.0063376147660604825 0 0.013667772537805233 0.0068270465533026136 0 0.012847736132179204 0.0073076960589493244 0 0.01375861041542421 0.0069150185645113103 0 0.014040816381551529 0.0056529889298813866 0 0.012939792881547727 0.0063376147660604825 0 0.013667772537805233 0.0068270465533026136 0 0.014086383408979771 0.0055634515431239231 0 0.013628866246813118 0.0062380597387045019 0 0.014979136779515095 0.0046572033844332981 0 0.012939792881547727 0.0063376147660604825 0 0.014086383408979771 0.0055634515431239231 0 0.014383545760828807 0.0047910193876864893 0 0.014349297953553075 0.0061166851333989787 0 0.014653528464738403 0.0049493482865724941 0 0.014049578169986207 0.0053637389884858009 0 0.014349297953553075 0.0061166851333989787 0 0.014653528464738403 0.0049493482865724941 0 0.015589445629096447 0.0045008518922934363 0 0.014653528464738403 0.0049493482865724941 0 0.014049578169986207 0.0053637389884858009 0 0.014117092207956464 0.0046474715852728539 0 0.014049578169986207 0.0053637389884858009 0 0.013566044571712768 0.0050837405536397189 0 0.014117092207956464 0.0046474715852728539 0 0.013289297995877605 0.0059871049026078973 0 0.014049578169986207 0.0053637389884858009 0 0.013566044571712768 0.0050837405536397189 0 0.013566044571712768 0.0050837405536397189 0 0.012652153060447939 0.0052107478128690984 0 0.013423925653213263 0.0043592661161092408 0 0.013566044571712768 0.0050837405536397189 0 0.013423925653213263 0.0043592661161092408 0 0.014117092207956464 0.0046474715852728539 0 0.012652153060447939 0.0052107478128690984 0 0.011243317656183159 0.005214754304293856 0 0.012432885441298853 0.0043742629490423728 0 0.012652153060447939 0.0052107478128690984 0 0.012432885441298853 0.0043742629490423728 0 0.013423925653213263 0.0043592661161092408 0 0.012652153060447939 0.0052107478128690984 0 0.011243317656183159 0.005214754304293856 0 0.012229346730065198 0.0062923066359174568 0 0.013289297995877605 0.0059871049026078973 0 0.013566044571712768 0.0050837405536397189 0 0.012652153060447939 0.0052107478128690984 0 0.0095037117920835912 0.0053963382324602564 0 0.011243317656183159 0.005214754304293856 0 0.01121660781491801 0.0063410295586949243 0 0.0095037117920835912 0.0053963382324602564 0 0.011243317656183159 0.005214754304293856 0 0.011099228555229016 0.0037008232291090805 0 0.011243317656183159 0.005214754304293856 0 0.01121660781491801 0.0063410295586949243 0 0.012229346730065198 0.0062923066359174568 0 0.01121660781491801 0.0063410295586949243 0 0.012229346730065198 0.0062923066359174568 0 0.011544924746055531 0.0073632245921490648 0 0.013289297995877605 0.0059871049026078973 0 0.012229346730065198 0.0062923066359174568 0 0.012726571054740125 0.0079623375748580482 0 0.013289297995877605 0.0059871049026078973 0 0.012652153060447939 0.0052107478128690984 0 0.012229346730065198 0.0062923066359174568 0 0.012229346730065198 0.0062923066359174568 0 0.012726571054740125 0.0079623375748580482 0 0.011544924746055531 0.0073632245921490648 0 0.012726571054740125 0.0079623375748580482 0 0.011544924746055531 0.0073632245921490648 0 0.010937955166414557 0.0084642979722190977 0 0.01121660781491801 0.0063410295586949243 0 0.010452358828759424 0.0073315755497644301 0 0.011544924746055531 0.0073632245921490648 0 0.010452358828759424 0.0073315755497644301 0 0.011544924746055531 0.0073632245921490648 0 0.010937955166414557 0.0084642979722190977 0 0.0099103981235099826 0.0085474617287053453 0 0.010452358828759424 0.0073315755497644301 0 0.010937955166414557 0.0084642979722190977 0 0.0099089454739794882 0.0094936443626717232 0 0.010937955166414557 0.0084642979722190977 0 0.010904972652229301 0.0098758325164682425 0 0.012726571054740125 0.0079623375748580482 0 0.010937955166414557 0.0084642979722190977 0 0.010904972652229301 0.0098758325164682425 0 0.0099089454739794882 0.0094936443626717232 0 0.0099103981235099826 0.0085474617287053453 0 0.010937955166414557 0.0084642979722190977 0 0.01229525762112796 0.0078226192564044613 0 0.010452353582167706 0.0095647760892707233 0 0.011739694403772814 0.0077581981372923312 0 0.012279043372603901 0.0088689002057580398 0 0.011486785665459647 0.0093852819536528291 0 0.011739694403772814 0.0077581981372923312 0 0.01062698558302271 0.0090811248981187923 0 0.011486785665459647 0.0093852819536528291 0 0.012952615070889083 0.0083692870812460771 0 0.012475273670385421 0.0092566832358576042 0 0.012279043372603901 0.0088689002057580398 0 0.011739694403772814 0.0077581981372923312 0 0.012392187609721446 0.0082079971425815159 0 0.012279043372603901 0.0088689002057580398 0 0.012392187609721446 0.0082079971425815159 0 0.012952615070889083 0.0083692870812460771 0 0.012279043372603901 0.0088689002057580398 0 0.012392187609721446 0.0082079971425815159 0 0.012755672555325651 0.0078650619741638915 0 0.012952615070889083 0.0083692870812460771 0 0.011739694403772814 0.0077581981372923312 0 0.012392187609721446 0.0082079971425815159 0 0.012755672555325651 0.0078650619741638915 0 0.013628866246813118 0.0062380597387045019 0 0.01229525762112796 0.0078226192564044613 0 0.012939792881547727 0.0063376147660604825 0 0.011739694403772814 0.0077581981372923312 0 0.012847736132179204 0.0073076960589493244 0 0.011739694403772814 0.0077581981372923312 0 0.012755672555325651 0.0078650619741638915 0 0.012847736132179204 0.0073076960589493244 0 0.013757541985566136 0.0069099330249897698 0 0.013424803275176872 0.0082338567365517739 0 0.014452099154724689 0.0070178269780752011 0 0.01375861041542421 0.0069150185645113103 0 0.012198130593365719 0.007487804782318086 0 0.013667772537805233 0.0068270465533026136 0 0.012847736132179204 0.0073076960589493244 0 0.013312597526567639 0.0079863337397569883 0 0.012198130593365719 0.007487804782318086 0 0.011496125781191021 0.0056863679189301311 0 0.012755672555325651 0.0078650619741638915 0 0.012847736132179204 0.0073076960589493244 0 0.013312597526567639 0.0079863337397569883 0 0.0081508436108081971 0.0052610699814248313 0 0.0078757237996093972 0.0064205914140333361 0 0.0089931060753341511 0.005819683690194177 0 0.012198130593365719 0.007487804782318086 0 0.0076195914106168506 0.0065465299864734868 0 0.013263094001610291 0.0079936825150406579 0 0.012952615070889083 0.0083692870812460771 0 0.0128939798702059 0.0093760207520537583 0 0.012755672555325651 0.0078650619741638915 0 0.013312597526567639 0.0079863337397569883 0 0.012952615070889083 0.0083692870812460771 0 0.012198130593365719 0.007487804782318086 0 0.012610845753335494 0.0078680155259260778 0 0.0076195914106168506 0.0065465299864734868 0 0.006077209758525195 0.005115227309172801 0 0.0076195914106168506 0.0065465299864734868 0 0.0036231060638865602 0.0049327023593466034 0 0.012475273670385421 0.0092566832358576042 0 0.012328248945898752 0.009676273693749014 0 0.011486785665459647 0.0093852819536528291 0 0.012475273670385421 0.0092566832358576042 0 0.012279043372603901 0.0088689002057580398 0 0.011486785665459647 0.0093852819536528291 0 0.012952615070889083 0.0083692870812460771 0 0.0128939798702059 0.0093760207520537583 0 0.012475273670385421 0.0092566832358576042 0 0.0064405488025500073 0.006923001808027217 0 0.0064401952432700908 0.0069293722489502446 0 0.0064351049400189998 0.006923653407076521 0 0.0076195914106168506 0.0065465299864734868 0 0.0076593675663926544 0.0079024638261809173 0 0.0128939798702059 0.0093760207520537583 0 0.012475273670385421 0.0092566832358576042 0 0.012328248945898752 0.009676273693749014 0 0.00062073106316150198 0.0038673017775540147 0 0.00088244410772346277 0.0039617073813674976 0 0.00066640966328036615 0.0041106324863805482 0 0.0076593675663926544 0.0079024638261809173 0 0.0036231060638865602 0.0049327023593466034 0 0.00088244410772346277 0.0039617073813674976 0 0.00066640966328036615 0.0041106324863805482 0 0.00081035634338807679 0.0041927297798319474 0 0.0036231060638865602 0.0049327023593466034 0 0.0025737709756604014 0.0045383882243858692 0 0.00062073106316150198 0.0038673017775540147 0 0.00066640966328036615 0.0041106324863805482 0 0.00040776849449817448 0.004212521474126517 0 0.00040776849449817448 0.004212521474126517 0 0.00066062065888951858 0.0043579334355778425 0 0.00035883146009312657 0.0046088329247783427 0 0.00066640966328036615 0.0041106324863805482 0 0.00040776849449817448 0.004212521474126517 0 0.00066062065888951858 0.0043579334355778425 0 0.00086868793262447823 0.0039619585219548758 0 0.00081035634338807679 0.0041927297798319474 0 0.00094400015473152031 0.0043811337650616284 0 0.00081035634338807679 0.0041927297798319474 0 0.00066062065888951858 0.0043579334355778425 0 0.00094400015473152031 0.0043811337650616284 0 0.00066640966328036615 0.0041106324863805482 0 0.00081035634338807679 0.0041927297798319474 0 0.00066062065888951858 0.0043579334355778425 0 0.00505119996922634 0.0048646864062169013 0 0.0050895377301800613 0.0046714241841051647 0 0.0045151981938362108 0.0044662238340338863 0 0.00086868793262447823 0.0039619585219548758 0 0.00094400015473152031 0.0043811337650616284 0 0.0012654238422009434 0.0044302231440140278 0 0.00086868793262447823 0.0039619585219548758 0 0.0012654238422009434 0.0044302231440140278 0 0.0016581852190513035 0.0042369975789994536 0 0.0036231060638865602 0.0049327023593466034 0 0.0024745130409595823 0.0042373485768929563 0 0.0096540560803541203 0.010620111982837322 0 0.0099089454739794882 0.0094936443626717232 0 0.010574106359947997 0.0097464319768671634 0 0.0096876249149103547 0.010619012510225368 0 0.010452353582167706 0.0095647760892707233 0 0.0096540560803541203 0.010620111982837322 0 0.010124577018170034 0.010119194843847025 0 0.010206184727372525 0.010637590027251887 0 0.010171469154563991 0.009549372184076527 0 0.010452353582167706 0.0095647760892707233 0 0.010124577018170034 0.010119194843847025 0 0.010737910037724613 0.010362573239292509 0 0.010206184727372525 0.010637590027251887 0 0.010452353582167706 0.0095647760892707233 0 0.011777042678136602 0.010083657895511952 0 0.0076593675663926544 0.0079024638261809173 0 0.011777042678136602 0.010083657895511952 0 0.0076593675663926544 0.0079024638261809173 0 0.0048026623082922963 0.0077237479914437496 0 0.00062073106316150198 0.0038673017775540147 0 0.00040776849449817448 0.004212521474126517 0 -5.015276831182153e-05 0.0041835565550443808 0 0.011282972651333545 0.010553733179804048 0 0.010737910037724613 0.010362573239292509 0 0.010600418412895682 0.011008770716477273 0 0.00040776849449817448 0.004212521474126517 0 -5.015276831182153e-05 0.0041835565550443808 0 0.00035883146009312657 0.0046088329247783427 0 0.010737910037724613 0.010362573239292509 0 0.010600418412895682 0.011008770716477273 0 0.010206184727372525 0.010637590027251887 0 0.010600418412895682 0.011008770716477273 0 0.010206184727372525 0.010637590027251887 0 0.0097346078774548268 0.011661124937672114 0 0.0096540560803541203 0.010620111982837322 0 0.010206184727372525 0.010637590027251887 0 0.0097346078774548268 0.011661124937672114 0 0.0048026623082922963 0.0077237479914437496 0 0.0057469723114653296 0.0078811254267715566 0 -5.015276831182153e-05 0.0041835565550443808 0 -0.00073983925292522487 0.0045046420834625109 0 -0.00020363138958653693 0.0047798621293034301 0 -0.00073983925292522487 0.0045046420834625109 0 -0.00020363138958653693 0.0047798621293034301 0 -0.00068025682367594837 0.0053780352768424636 0 -0.00020363138958653693 0.0047798621293034301 0 7.8684329622924395e-05 0.0052309524293158429 0 0.00035883146009312657 0.0046088329247783427 0 -5.015276831182153e-05 0.0041835565550443808 0 -0.00020363138958653693 0.0047798621293034301 0 0.00035883146009312657 0.0046088329247783427 0 -0.00020363138958653693 0.0047798621293034301 0 7.8684329622924395e-05 0.0052309524293158429 0 -0.00068025682367594837 0.0053780352768424636 0 0.00098771659603595499 0.004914692619299138 0 0.0010821891531303774 0.0046165251967439959 0 0.0007750660213432241 0.0046460385238876415 0 0.00098771659603595499 0.004914692619299138 0 0.0012569431917474133 0.004789283156014611 0 0.0010821891531303774 0.0046165251967439959 0 0.0012569431917474133 0.004789283156014611 0 0.0012102506521679218 0.0051172830586303404 0 0.0016234018466310181 0.0048201821137925814 0 0.00098771659603595499 0.004914692619299138 0 0.0012569431917474133 0.004789283156014611 0 0.0012102506521679218 0.0051172830586303404 0 0.0012569431917474133 0.004789283156014611 0 0.0012654238422009434 0.0044302231440140278 0 0.0016234018466310181 0.0048201821137925814 0 0.0012569431917474133 0.004789283156014611 0 0.0012654238422009434 0.0044302231440140278 0 0.0010821891531303774 0.0046165251967439959 0 0.00094400015473152031 0.0043811337650616284 0 0.0010821891531303774 0.0046165251967439959 0 0.0007750660213432241 0.0046460385238876415 0 0.00094400015473152031 0.0043811337650616284 0 0.0012654238422009434 0.0044302231440140278 0 0.0010821891531303774 0.0046165251967439959 0 0.00066062065888951858 0.0043579334355778425 0 0.00094400015473152031 0.0043811337650616284 0 0.0007750660213432241 0.0046460385238876415 0 0.00066062065888951858 0.0043579334355778425 0 0.0007750660213432241 0.0046460385238876415 0 0.00035883146009312657 0.0046088329247783427 0 0.0007750660213432241 0.0046460385238876415 0 0.00035883146009312657 0.0046088329247783427 0 0.00064485060636310164 0.0050207196140455729 0 0.00098771659603595499 0.004914692619299138 0 0.0007750660213432241 0.0046460385238876415 0 0.00064485060636310164 0.0050207196140455729 0 7.8684329622924395e-05 0.0052309524293158429 0 0.00035883146009312657 0.0046088329247783427 0 0.00064485060636310164 0.0050207196140455729 0 7.8684329622924395e-05 0.0052309524293158429 0 0.00064485060636310164 0.0050207196140455729 0 0.0005391774192149007 0.0054095179358416637 0 0.00064485060636310164 0.0050207196140455729 0 0.0005391774192149007 0.0054095179358416637 0 0.00091563506390372653 0.0052614207723173439 0 0.00093189816378443525 0.0056532680306670561 0 0.0005391774192149007 0.0054095179358416637 0 0.00091563506390372653 0.0052614207723173439 0 0.00091563506390372653 0.0052614207723173439 0 0.0012102506521679218 0.0051172830586303404 0 0.0011768890307076972 0.005417893726026338 0 0.00093189816378443525 0.0056532680306670561 0 0.00091563506390372653 0.0052614207723173439 0 0.0011768890307076972 0.005417893726026338 0 0.00098771659603595499 0.004914692619299138 0 0.00091563506390372653 0.0052614207723173439 0 0.0012102506521679218 0.0051172830586303404 0 0.00098771659603595499 0.004914692619299138 0 0.00064485060636310164 0.0050207196140455729 0 0.00091563506390372653 0.0052614207723173439 0 0.0012102506521679218 0.0051172830586303404 0 0.0011768890307076972 0.005417893726026338 0 0.0013716234649481414 0.0053236832660905117 0 0.00137084815269752 0.0056105704885594894 0 0.0011768890307076972 0.005417893726026338 0 0.0013716234649481414 0.0053236832660905117 0 0.00137084815269752 0.0056105704885594894 0 0.0013716234649481414 0.0053236832660905117 0 0.0015859603426895067 0.0055263194727451954 0 0.0013716234649481414 0.0053236832660905117 0 0.0015859603426895067 0.0055263194727451954 0 0.0016234018466310181 0.0048201821137925814 0 0.0016269513486473306 0.0054685081781906536 0 0.0017167055644634372 0.005085112447927931 0 0.0015859603426895067 0.0055263194727451954 0 0.0017092531949746742 0.0054887131325443523 0 0.0018393710202307162 0.0052013391206377543 0 0.0015859603426895067 0.0055263194727451954 0 0.0017092531949746742 0.0054887131325443523 0 0.0016983162182030739 0.0055664048933673693 0 0.0017649901736648539 0.005613098667609632 0 0.0017943264309903642 0.0055422948867244453 0 0.0018501375041971009 0.0055702890809717709 0 0.0017649901736648539 0.005613098667609632 0 0.0016983162182030739 0.0055664048933673693 0 0.0017943264309903642 0.0055422948867244453 0 0.0017092531949746742 0.0054887131325443523 0 0.0016983162182030739 0.0055664048933673693 0 0.0017943264309903642 0.0055422948867244453 0 0.0017092531949746742 0.0054887131325443523 0 0.0017943264309903642 0.0055422948867244453 0 0.0019865780110549353 0.0055390420954992154 0 0.0012102506521679218 0.0051172830586303404 0 0.0013716234649481414 0.0053236832660905117 0 0.0016234018466310181 0.0048201821137925814 0 0.0017092531949746742 0.0054887131325443523 0 0.0021230184782086883 0.0054735552127107429 0 0.0019865780110549353 0.0055390420954992154 0 0.0017092531949746742 0.0054887131325443523 0 0.0018393710202307162 0.0052013391206377543 0 0.0022411506926533179 0.0049416632609505084 0 0.0018393710202307162 0.0052013391206377543 0 0.0022411506926533179 0.0049416632609505084 0 0.0020175372527370052 0.0047573497153418059 0 0.0017167055644634372 0.005085112447927931 0 0.0024745130409595823 0.0042373485768929563 0 0.0017665189688119019 0.0055015483425191461 0 0.0022052757812124533 0.005193474586481654 0 0.0018393710202307162 0.0052013391206377543 0 0.0019662542831578498 0.0047383228849650723 0 0.0020175372527370052 0.0047573497153418059 0 0.0012654238422009434 0.0044302231440140278 0 0.0016234018466310181 0.0048201821137925814 0 0.0016581852190513035 0.0042369975789994536 0 0.0022826686530265667 0.0055163289617619808 0 0.0019865780110549353 0.0055390420954992154 0 0.0025921827850091867 0.0056140044493904933 0 0.0024546794944809705 0.0054429451695447864 0 0.0022826686530265667 0.0055163289617619808 0 0.0025921827850091867 0.0056140044493904933 0 0.0022826686530265667 0.0055163289617619808 0 0.0021230184782086883 0.0054735552127107429 0 0.0019865780110549353 0.0055390420954992154 0 0.0024546794944809705 0.0054429451695447864 0 0.0022826686530265667 0.0055163289617619808 0 0.0021230184782086883 0.0054735552127107429 0 0.0019865780110549353 0.0055390420954992154 0 0.0018645984880267747 0.0056165394826706615 0 0.0025921827850091867 0.0056140044493904933 0 0.0019484758174086424 0.0055537787408322312 0 0.0020258212361489781 0.0054367774743785671 0 0.0017943264309903642 0.0055422948867244453 0 0.0019865780110549353 0.0055390420954992154 0 0.0018501375041971009 0.0055702890809717709 0 0.0019865780110549353 0.0055390420954992154 0 0.0018501375041971009 0.0055702890809717709 0 0.0018645984880267747 0.0056165394826706615 0 0.0017649901736648539 0.005613098667609632 0 0.0018501375041971009 0.0055702890809717709 0 0.0018645984880267747 0.0056165394826706615 0 0.0018645984880267747 0.0056165394826706615 0 0.0017672271518453702 0.0055984565127670232 0 0.0015940445102442078 0.0053293323146452092 0 0.0017672271518453702 0.0055984565127670232 0 0.0018587239811206778 0.0055575089576679329 0 0.0015940445102442078 0.0053293323146452092 0 0.0018587239811206778 0.0055575089576679329 0 0.0018658828308797195 0.0051295625211425465 0 0.0015940445102442078 0.0053293323146452092 0 0.0018587239811206778 0.0055575089576679329 0 0.0018658828308797195 0.0051295625211425465 0 0.0022510768633496256 0.0056266583766341766 0 0.0018658828308797195 0.0051295625211425465 0 0.0015940445102442078 0.0053293323146452092 0 0.0017038730278769059 0.0046879631861809273 0 0.0024546794944809705 0.0054429451695447864 0 0.0025921827850091867 0.0056140044493904933 0 0.0028525325087986712 0.0053368179191618532 0 0.0020258212361489781 0.0054367774743785671 0 0.0035446565427488417 0.005178210460960014 0 0.0025921827850091867 0.0056140044493904933 0 0.0028525325087986712 0.0053368179191618532 0 0.0033829734018191882 0.0052679207545012312 0 0.0032320104514698828 0.0052440115796166262 0 0.0037963271084542399 0.0054298676234601773 0 0.0036974812278877697 0.0045717484728850762 0 0.0028525325087986712 0.0053368179191618532 0 0.0032320104514698828 0.0052440115796166262 0 0.0033829734018191882 0.0052679207545012312 0 0.0034082250251257443 0.0051986886713489009 0 0.0035446565427488417 0.005178210460960014 0 0.0032320104514698828 0.0052440115796166262 0 0.0028798304511566315 0.0052025046267661088 0 0.0029155822349885437 0.0049852047197455757 0 0.0028525325087986712 0.0053368179191618532 0 0.0028798304511566315 0.0052025046267661088 0 0.0025854878723722079 0.0052093533614596876 0 0.0028798304511566315 0.0052025046267661088 0 0.0029155822349885437 0.0049852047197455757 0 0.0025854878723722079 0.0052093533614596876 0 0.0028525325087986712 0.0053368179191618532 0 0.0032320104514698828 0.0052440115796166262 0 0.0028798304511566315 0.0052025046267661088 0 0.0018658828308797195 0.0051295625211425465 0 0.0017038730278769059 0.0046879631861809273 0 0.0024288960193500999 0.0044539258766716728 0 0.0055642421574926002 0.0050532117534537553 0 0.0070128218718370737 0.0053225720922539209 0 0.0065287456118007462 0.0046657309736805293 0 0.0035446565427488417 0.005178210460960014 0 0.004778254762087826 0.004829621259050375 0 0.0037963271084542399 0.0054298676234601773 0 0.0036974812278877697 0.0045717484728850762 0 0.005152854590248771 0.0041788271445294799 0 0.0055642421574926002 0.0050532117534537553 0 0.0065287456118007462 0.0046657309736805293 0 0.0062368704134107443 0.0039051610895451628 0 0.0035446565427488417 0.005178210460960014 0 0.0058853151338643392 0.0039408975433132222 0 0.0029155822349885437 0.0049852047197455757 0 0.0036974812278877697 0.0045717484728850762 0 0.0024783397739096586 0.0046206477318711811 0 0.0032320104514698828 0.0052440115796166262 0 0.0029155822349885437 0.0049852047197455757 0 0.0036974812278877697 0.0045717484728850762 0 0.0029155822349885437 0.0049852047197455757 0 0.0024783397739096586 0.0046206477318711811 0 0.0025854878723722079 0.0052093533614596876 0 0.0024745130409595823 0.0042373485768929563 0 0.006077209758525195 0.005115227309172801 0 0.00505119996922634 0.0048646864062169013 0 0.0045151981938362108 0.0044662238340338863 0 0.0044940471742553386 0.0051605398717990136 0 0.0026868363621776717 0.004096026379751299 0 0.0019520712344679807 0.0047348390491411801 0 0.0020989894068545721 0.0036965175975119282 0 0.0026868363621776717 0.004096026379751299 0 0.0019520712344679807 0.0047348390491411801 0 0.0020175372527370052 0.0047573497153418059 0 0.0024745130409595823 0.0042373485768929563 0 0.002426897725727243 0.0042478499784873777 0 0.0021230184782086883 0.0054735552127107429 0 0.0024783397739096586 0.0046206477318711811 0 0.0025854878723722079 0.0052093533614596876 0 0.0022052757812124533 0.005193474586481654 0 0.0021788678701132997 0.0042548970584263025 0 0.0022411506926533179 0.0049416632609505084 0 0.0026868363621776717 0.004096026379751299 0 0.0020175372527370052 0.0047573497153418059 0 0.0024546794944809705 0.0054429451695447864 0 0.0021230184782086883 0.0054735552127107429 0 0.0025854878723722079 0.0052093533614596876 0 0.0024546794944809705 0.0054429451695447864 0 0.0028525325087986712 0.0053368179191618532 0 0.0025854878723722079 0.0052093533614596876 0 0.0090067246786724696 0.0052495017555038107 0 0.0072066594227342051 0.0063243022661060811 0 0.0048390446060930601 0.0041865198843959884 0 0.0090067246786724696 0.0052495017555038107 0 0.0084363830347314213 0.0053904962901362109 0 0.0089685815929538646 0.0050326924387769723 0 0.0088459746838073176 0.0052157205224402673 0 0.0066721118866784473 0.0048442669107166799 0 0.0042216478972147238 0.0056019107601784947 0 0.0046972467355494785 0.0051895375085163273 0 0.0033142103572424745 0.0052941012505095929 0 0.0042216478972147238 0.0056019107601784947 0 0.0038678532926513854 0.0057781824613941414 0 0.0033142103572424745 0.0052941012505095929 0 0.003584272215126587 0.0059128964438237199 0 0.0042881241822837826 0.0059593931554086698 0 0.0038678532926513854 0.0057781824613941414 0 0.003584272215126587 0.0059128964438237199 0 0.0038678532926513854 0.0057781824613941414 0 0.0033142103572424745 0.0052941012505095929 0 0.003584272215126587 0.0059128964438237199 0 0.0033142103572424745 0.0052941012505095929 0 0.0030258788181289653 0.0058499737405155452 0 0.0033142103572424745 0.0052941012505095929 0 0.0030258788181289653 0.0058499737405155452 0 0.0029213122652898562 0.0058765871649680253 0 0.0052754691007009524 0.0057407372578380678 0 0.0031231598243126766 0.0059052247739030299 0 0.0072066594227342051 0.0063243022661060811 0 0.0048390446060930601 0.0041865198843959884 0 0.0029213122652898562 0.0058765871649680253 0 0.0048390446060930601 0.0041865198843959884 0 0.0029213122652898562 0.0058765871649680253 0 0.0024288960193500999 0.0044539258766716728 0 0.0025086769480999914 0.0060651763695052591 0 0.0030258788181289653 0.0058499737405155452 0 0.0029213122652898562 0.0058765871649680253 0 0.0022190714650034056 0.0060855335172394906 0 0.0029213122652898562 0.0058765871649680253 0 0.0022510768633496256 0.0056266583766341766 0 0.0022190714650034056 0.0060855335172394906 0 0.0018587239811206778 0.0055575089576679329 0 0.0022510768633496256 0.0056266583766341766 0 0.0018658828308797195 0.0051295625211425465 0 0.0022510768633496256 0.0056266583766341766 0 0.0024288960193500999 0.0044539258766716728 0 0.0029213122652898562 0.0058765871649680253 0 0.0022510768633496256 0.0056266583766341766 0 0.0024288960193500999 0.0044539258766716728 0 0.0070128218718370737 0.0053225720922539209 0 0.0065287456118007462 0.0046657309736805293 0 0.0072665381436001243 0.0043695858024005553 0 0.0065287456118007462 0.0046657309736805293 0 0.0072665381436001243 0.0043695858024005553 0 0.0062368704134107443 0.0039051610895451628 0 0.0072665381436001243 0.0043695858024005553 0 0.0083262614978924909 0.0045670667759049851 0 0.0077372057461598037 0.0033716104969557792 0 0.0084363830347314213 0.0053904962901362109 0 0.0070128218718370737 0.0053225720922539209 0 0.0083262614978924909 0.0045670667759049851 0 0.0066721118866784473 0.0048442669107166799 0 0.004778254762087826 0.004829621259050375 0 0.0070128218718370737 0.0053225720922539209 0 0.0072665381436001243 0.0043695858024005553 0 0.0083262614978924909 0.0045670667759049851 0 0.0084363830347314213 0.0053904962901362109 0 0.0083262614978924909 0.0045670667759049851 0 0.0089685815929538646 0.0050326924387769723 0 0.0083262614978924909 0.0045670667759049851 0 0.0093599330187295951 0.0045574748235507447 0 0.0090846616845850822 0.0035112900136244243 0 0.0090067246786724696 0.0052495017555038107 0 0.0097750681474227576 0.0048433128361793287 0 0.0089685815929538646 0.0050326924387769723 0 0.0083262614978924909 0.0045670667759049851 0 0.0093599330187295951 0.0045574748235507447 0 0.0089685815929538646 0.0050326924387769723 0 0.0097750681474227576 0.0048433128361793287 0 0.0093599330187295951 0.0045574748235507447 0 0.0089685815929538646 0.0050326924387769723 0 0.010257842292155801 0.0032457922025730807 0 0.010727192973027115 0.0018812871617160715 0 0.0095110055809966704 0.002507663778602981 0 0.0095110055809966704 0.002507663778602981 0 0.0090846616845850822 0.0035112900136244243 0 0.0088345025226527398 0.0027962974155703482 0 0.010257842292155801 0.0032457922025730807 0 0.0095110055809966704 0.002507663778602981 0 0.0090846616845850822 0.0035112900136244243 0 0.01007004877592076 0.0040009681422473846 0 0.010257842292155801 0.0032457922025730807 0 0.0090846616845850822 0.0035112900136244243 0 0.01007004877592076 0.0040009681422473846 0 0.0093599330187295951 0.0045574748235507447 0 0.0090846616845850822 0.0035112900136244243 0 0.0083262614978924909 0.0045670667759049851 0 0.0090846616845850822 0.0035112900136244243 0 0.0077372057461598037 0.0033716104969557792 0 0.0088345025226527398 0.0027962974155703482 0 0.0081686939208716301 0.0023592521242556696 0 0.0077372057461598037 0.0033716104969557792 0 0.0090846616845850822 0.0035112900136244243 0 0.0088345025226527398 0.0027962974155703482 0 0.0077372057461598037 0.0033716104969557792 0 0.0095110055809966704 0.002507663778602981 0 0.0088345025226527398 0.0027962974155703482 0 0.0087902403718745064 0.0020246086057161242 0 0.0088345025226527398 0.0027962974155703482 0 0.0081686939208716301 0.0023592521242556696 0 0.0087902403718745064 0.0020246086057161242 0 0.0074041018334247482 0.0022996641950657633 0 0.0077372057461598037 0.0033716104969557792 0 0.0067307765166597826 0.0026857597730305304 0 0.0081686939208716301 0.0023592521242556696 0 0.0074041018334247482 0.0022996641950657633 0 0.0077372057461598037 0.0033716104969557792 0 0.0077372057461598037 0.0033716104969557792 0 0.0067307765166597826 0.0026857597730305304 0 0.0062368704134107443 0.0039051610895451628 0 0.0072665381436001243 0.0043695858024005553 0 0.0077372057461598037 0.0033716104969557792 0 0.0062368704134107443 0.0039051610895451628 0 0.0066201669162379651 0.002753097476325283 0 0.0058853151338643392 0.0039408975433132222 0 0.0067307765166597826 0.0026857597730305304 0 0.00690902500567535 0.0015888067895092415 0 0.0049756423675593846 0.0021908462137038868 0 0.0067307765166597826 0.0026857597730305304 0 0.005152854590248771 0.0041788271445294799 0 0.0049756423675593846 0.0021908462137038868 0 0.0074041018334247482 0.0022996641950657633 0 0.0067307765166597826 0.0026857597730305304 0 0.00690902500567535 0.0015888067895092415 0 0.012179466295672554 0.0040934226117955164 0 0.011400908565631633 0.0040008049077508755 0 0.011537627504312099 0.0033788648852865941 0 0.0091221486995295298 0.0030157418001738158 0 0.008167531914312803 0.0033799324596205018 0 0.012179466295672554 0.0040934226117955164 0 0.011188606646827975 0.004627885414913057 0 0.011400908565631633 0.0040008049077508755 0 0.012179466295672554 0.0040934226117955164 0 0.012412074865694489 0.003004809862600264 0 0.011537627504312099 0.0033788648852865941 0 0.012179466295672554 0.0040934226117955164 0 0.012412074865694489 0.003004809862600264 0 0.013151326850584398 0.0035667805199897512 0 0.015622064536904791 0.0015772052170732332 0 0.01272166484271697 0.0018067293779703139 0 0.018051362845610944 -0.00022751665685421672 0 0.017707933338157955 -0.00054392470232650641 0 0.017704951447482083 -0.00013072723571596348 0 0.00690902500567535 0.0015888067895092415 0 0.0078388538228858218 0.00180201719768262 0 0.0083511211937646861 0.0011563995191228946 0 0.0091221486995295298 0.0030157418001738158 0 0.01272166484271697 0.0018067293779703139 0 0.0074041018334247482 0.0022996641950657633 0 0.00690902500567535 0.0015888067895092415 0 0.0078388538228858218 0.00180201719768262 0 0.0081686939208716301 0.0023592521242556696 0 0.0074041018334247482 0.0022996641950657633 0 0.0078388538228858218 0.00180201719768262 0 0.0081686939208716301 0.0023592521242556696 0 0.0078388538228858218 0.00180201719768262 0 0.008382614539979575 0.0016700811429806578 0 0.0081686939208716301 0.0023592521242556696 0 0.0087902403718745064 0.0020246086057161242 0 0.008382614539979575 0.0016700811429806578 0 0.0087902403718745064 0.0020246086057161242 0 0.0084852207734143741 0.0012740841492334789 0 0.0094721966426905228 0.0016486253775182624 0 0.008382614539979575 0.0016700811429806578 0 0.0083511211937646861 0.0011563995191228946 0 0.0084852207734143741 0.0012740841492334789 0 0.0078388538228858218 0.00180201719768262 0 0.008382614539979575 0.0016700811429806578 0 0.0083511211937646861 0.0011563995191228946 0 0.0087902403718745064 0.0020246086057161242 0 0.008382614539979575 0.0016700811429806578 0 0.0084852207734143741 0.0012740841492334789 0 0.0083360224995277406 0.0011547559408865706 0 0.0084852207734143741 0.0012740841492334789 0 0.0099015106502669467 0.00051722175735568695 0 0.01272166484271697 0.0018067293779703139 0 0.013666625987166978 -0.00015376090361319891 0 0.017707933338157955 -0.00054392470232650641 0 0.017218482819957637 -0.00044160990221491853 0 0.017704951447482083 -0.00013072723571596348 0 0.01272166484271697 0.0018067293779703139 0 0.01187843575064389 0.0013567435406851083 0 0.0084852207734143741 0.0012740841492334789 0 0.0099015106502669467 0.00051722175735568695 0 0.0094721966426905228 0.0016486253775182624 0 0.010727192973027115 0.0018812871617160715 0 0.0099015106502669467 0.00051722175735568695 0 0.0094721966426905228 0.0016486253775182624 0 0.010727192973027115 0.0018812871617160715 0 0.0095110055809966704 0.002507663778602981 0 0.0094721966426905228 0.0016486253775182624 0 0.0095110055809966704 0.002507663778602981 0 0.0087902403718745064 0.0020246086057161242 0 0.0094721966426905228 0.0016486253775182624 0 0.0095220099955352303 0.0049912956512319908 0 0.010203428812658656 0.0051543565112776319 0 0.0096606329913198046 0.004436872708957585 0 0.0095220099955352303 0.0049912956512319908 0 0.009078265485470402 0.0046953349843359788 0 0.0096606329913198046 0.004436872708957585 0 0.009078265485470402 0.0046953349843359788 0 0.0096606329913198046 0.004436872708957585 0 0.0088294912180392343 0.0044039116613288198 0 0.0081508436108081971 0.0052610699814248313 0 0.009078265485470402 0.0046953349843359788 0 0.0088294912180392343 0.0044039116613288198 0 0.0095220099955352303 0.0049912956512319908 0 0.009078265485470402 0.0046953349843359788 0 0.0089630571235550065 0.0057927744625245262 0 0.0095791759675079961 0.0050028679895542444 0 0.006077209758525195 0.005115227309172801 0 0.0081508436108081971 0.0052610699814248313 0 0.009078265485470402 0.0046953349843359788 0 0.0089931060753341511 0.005819683690194177 0 0.006077209758525195 0.005115227309172801 0 0.0066003430478335521 0.0040970065415303521 0 0.0026868363621776717 0.004096026379751299 0 0.0020989894068545721 0.0036965175975119282 0 0.0030948154518155736 0.0031916511378562358 0 0.0021788678701132997 0.0042548970584263025 0 0.0066003430478335521 0.0040970065415303521 0 0.0095220099955352303 0.0049912956512319908 0 0.0089630571235550065 0.0057927744625245262 0 0.010203428812658656 0.0051543565112776319 0 0.0036974812278877697 0.0045717484728850762 0 0.005152854590248771 0.0041788271445294799 0 0.0031959953901843302 0.0029605162002275054 0 0.0036974812278877697 0.0045717484728850762 0 0.0024783397739096586 0.0046206477318711811 0 0.0031959953901843302 0.0029605162002275054 0 0.005152854590248771 0.0041788271445294799 0 0.0049756423675593846 0.0021908462137038868 0 0.0031959953901843302 0.0029605162002275054 0 0.0066003430478335521 0.0040970065415303521 0 0.011592765254253989 0.0041886003852923872 0 0.011188606646827975 0.004627885414913057 0 0.010150670922235471 0.0051521635034408493 0 0.01069636103298552 0.003904969434920854 0 0.008167531914312803 0.0033799324596205018 0 0.0066003430478335521 0.0040970065415303521 0 0.010203428812658656 0.0051543565112776319 0 0.01069636103298552 0.003904969434920854 0 0.0096606329913198046 0.004436872708957585 0 0.01069636103298552 0.003904969434920854 0 0.011400908565631633 0.0040008049077508755 0 0.011537627504312099 0.0033788648852865941 0 0.011188606646827975 0.004627885414913057 0 0.01069636103298552 0.003904969434920854 0 0.011400908565631633 0.0040008049077508755 0 0.01069636103298552 0.003904969434920854 0 0.011537627504312099 0.0033788648852865941 0 0.011019338068819752 0.0028553689591181114 0 0.01069636103298552 0.003904969434920854 0 0.010234535573723943 0.0026992998881391617 0 0.011019338068819752 0.0028553689591181114 0 0.01069636103298552 0.003904969434920854 0 0.0095259002197397111 0.003546884523735703 0 0.010234535573723943 0.0026992998881391617 0 0.012566208412258447 0.0046247534878719196 0 0.0131538455982866 0.0037932100186530713 0 0.015496623837987998 0.0057841085736323947 0 0.014823197308952894 0.0054897135885630752 0 0.015631870681666937 0.0045511815328898005 0 0.015496623837987998 0.0057841085736323947 0 0.015631870681666937 0.0045511815328898005 0 0.016508681277594577 0.0045831004387697034 0 0.01069636103298552 0.003904969434920854 0 0.0095259002197397111 0.003546884523735703 0 0.0096606329913198046 0.004436872708957585 0 0.0095259002197397111 0.003546884523735703 0 0.0096606329913198046 0.004436872708957585 0 0.0088294912180392343 0.0044039116613288198 0 0.015496623837987998 0.0057841085736323947 0 0.014452099154724689 0.0070178269780752011 0 0.014823197308952894 0.0054897135885630752 0 0.012566208412258447 0.0046247534878719196 0 0.011496125781191021 0.0056863679189301311 0 0.013757541985566136 0.0069099330249897698 0 0.014086383408979771 0.0055634515431239231 0 0.014452099154724689 0.0070178269780752011 0 0.014086383408979771 0.0055634515431239231 0 0.014452099154724689 0.0070178269780752011 0 0.014823197308952894 0.0054897135885630752 0 0.014086383408979771 0.0055634515431239231 0 0.014823197308952894 0.0054897135885630752 0 0.014383545760828807 0.0047910193876864893 0 0.014823197308952894 0.0054897135885630752 0 0.014383545760828807 0.0047910193876864893 0 0.015631870681666937 0.0045511815328898005 0 0.015589445629096447 0.0045008518922934363 0 0.015368244799911083 0.0040272352566492935 0 0.015880452024656329 0.0036210757844401804 0 0.015589445629096447 0.0045008518922934363 0 0.015880452024656329 0.0036210757844401804 0 0.016548775328494868 0.0032200845326941221 0 0.014979136779515095 0.0046572033844332981 0 0.016197481031267516 0.0032895413661878929 0 0.015368244799911083 0.0040272352566492935 0 0.015880452024656329 0.0036210757844401804 0 0.01508376502667164 0.0037266217746766378 0 0.015880452024656329 0.0036210757844401804 0 0.016548775328494868 0.0032200845326941221 0 0.015996179814119094 0.0028290341367397608 0 0.015880452024656329 0.0036210757844401804 0 0.01508376502667164 0.0037266217746766378 0 0.015245729184952846 0.0031424680484676442 0 0.015880452024656329 0.0036210757844401804 0 0.015996179814119094 0.0028290341367397608 0 0.015245729184952846 0.0031424680484676442 0 0.015839227171130493 0.0033342313508363548 0 0.015631870681666937 0.0045511815328898005 0 0.016577528381714248 0.0035894472331350637 0 0.015839227171130493 0.0033342313508363548 0 0.016577528381714248 0.0035894472331350637 0 0.016570263344710744 0.0028620057481173865 0 0.014383545760828807 0.0047910193876864893 0 0.015839227171130493 0.0033342313508363548 0 0.015631870681666937 0.0045511815328898005 0 0.015631870681666937 0.0045511815328898005 0 0.016508681277594577 0.0045831004387697034 0 0.016577528381714248 0.0035894472331350637 0 0.010234535573723943 0.0026992998881391617 0 0.011019338068819752 0.0028553689591181114 0 0.010947164529267469 0.0018654882547607633 0 0.0131538455982866 0.0037932100186530713 0 0.015568675923248274 0.0022812990126378024 0 0.011537627504312099 0.0033788648852865941 0 0.011019338068819752 0.0028553689591181114 0 0.011675991401340881 0.0024381638150045141 0 0.011019338068819752 0.0028553689591181114 0 0.010947164529267469 0.0018654882547607633 0 0.011675991401340881 0.0024381638150045141 0 0.018624480794769437 0.00032186894956462897 0 0.018406179499560377 0.00061347089075807209 0 0.01826029776067508 0.00035637817385687364 0 0.018624480794769437 0.00032186894956462897 0 0.018346601224130191 6.6673973212841414e-05 0 0.01826029776067508 0.00035637817385687364 0 0.015568675923248274 0.0022812990126378024 0 0.01852637198271993 0.0013880341815942672 0 0.015568675923248274 0.0022812990126378024 0 0.014757438910320927 0.0010334933699770485 0 0.016508681277594577 0.0045831004387697034 0 0.017369335377575602 0.0034750429872567007 0 0.016577528381714248 0.0035894472331350637 0 0.015568675923248274 0.0022812990126378024 0 0.017287396006122877 0.0033808016696326719 0 0.017369335377575602 0.0034750429872567007 0 0.016577528381714248 0.0035894472331350637 0 0.016570263344710744 0.0028620057481173865 0 0.015839227171130493 0.0033342313508363548 0 0.016570263344710744 0.0028620057481173865 0 0.017265138214148167 0.0022321893153970109 0 0.016197481031267516 0.0032895413661878929 0 0.017192326421250015 0.0022816675610419059 0 0.017478252040497268 0.003461998674182596 0 0.016570263344710744 0.0028620057481173865 0 0.01740985382265138 0.0027128337593419205 0 0.016570263344710744 0.0028620057481173865 0 0.01740985382265138 0.0027128337593419205 0 0.017265138214148167 0.0022321893153970109 0 0.017478252040497268 0.003461998674182596 0 0.018056765875540906 0.0026368404033599523 0 0.01740985382265138 0.0027128337593419205 0 0.018056765875540906 0.0026368404033599523 0 0.01740985382265138 0.0027128337593419205 0 0.01778216702126463 0.0020903451694523627 0 0.01740985382265138 0.0027128337593419205 0 0.01778216702126463 0.0020903451694523627 0 0.017265138214148167 0.0022321893153970109 0 0.01778216702126463 0.0020903451694523627 0 0.017265138214148167 0.0022321893153970109 0 0.017469699575753572 0.001742100999127087 0 0.01778216702126463 0.0020903451694523627 0 0.017469699575753572 0.001742100999127087 0 0.017951066458945321 0.0015884290763410751 0 0.017265138214148167 0.0022321893153970109 0 0.016555963656405069 0.0023931929626459575 0 0.016826661064796147 0.001699757568173908 0 0.017265138214148167 0.0022321893153970109 0 0.017469699575753572 0.001742100999127087 0 0.016826661064796147 0.001699757568173908 0 0.01607308673121512 0.0020879727325275716 0 0.016555963656405069 0.0023931929626459575 0 0.016826661064796147 0.001699757568173908 0 0.01607308673121512 0.0020879727325275716 0 0.01548699242143858 0.0024758373168370751 0 0.015293772912825616 0.0019980389189362697 0 0.01607308673121512 0.0020879727325275716 0 0.015662234205884792 0.0011085342039901919 0 0.015293772912825616 0.0019980389189362697 0 0.01607308673121512 0.0020879727325275716 0 0.01548699242143858 0.0024758373168370751 0 0.015996179814119094 0.0028290341367397608 0 0.01548699242143858 0.0024758373168370751 0 0.015996179814119094 0.0028290341367397608 0 0.015245729184952846 0.0031424680484676442 0 0.016548775328494868 0.0032200845326941221 0 0.015996179814119094 0.0028290341367397608 0 0.016555963656405069 0.0023931929626459575 0 0.016548775328494868 0.0032200845326941221 0 0.017265138214148167 0.0022321893153970109 0 0.016555963656405069 0.0023931929626459575 0 0.01607308673121512 0.0020879727325275716 0 0.015996179814119094 0.0028290341367397608 0 0.016555963656405069 0.0023931929626459575 0 0.016824828472443827 0.00041816545814916646 0 0.017412447330185574 0.00037762657962153593 0 0.017461377982127983 0.0011930155525629298 0 0.017218482819957637 -0.00044160990221491853 0 0.017412447330185574 0.00037762657962153593 0 0.017704951447482083 -0.00013072723571596348 0 0.016824828472443827 0.00041816545814916646 0 0.017218482819957637 -0.00044160990221491853 0 0.017412447330185574 0.00037762657962153593 0 0.017412447330185574 0.00037762657962153593 0 0.017704951447482083 -0.00013072723571596348 0 0.01797515068372536 0.00023214246280578877 0 0.017412447330185574 0.00037762657962153593 0 0.01797515068372536 0.00023214246280578877 0 0.017793009233194955 0.00061750972211554209 0 0.017445835832664836 0.00043068956882076186 0 0.017873604831312187 0.00079179198048622251 0 0.018051362845610944 -0.00022751665685421672 0 0.017704951447482083 -0.00013072723571596348 0 0.01797515068372536 0.00023214246280578877 0 0.018051362845610944 -0.00022751665685421672 0 0.01797515068372536 0.00023214246280578877 0 0.018346601224130191 6.6673973212841414e-05 0 0.015622064536904791 0.0015772052170732332 0 0.014757438910320927 0.0010334933699770485 0 0.012412074865694489 0.003004809862600264 0 0.011537627504312099 0.0033788648852865941 0 0.011675991401340881 0.0024381638150045141 0 0.01797515068372536 0.00023214246280578877 0 0.01826029776067508 0.00035637817385687364 0 0.018117856003162486 0.00056712931237258536 0 0.01797515068372536 0.00023214246280578877 0 0.018346601224130191 6.6673973212841414e-05 0 0.01826029776067508 0.00035637817385687364 0 0.01852637198271993 0.0013880341815942672 0 0.018334848584689548 0.0016603079389881073 0 0.018406179499560377 0.00061347089075807209 0 0.018117856003162486 0.00056712931237258536 0 0.018172454767194115 0.00091812389870829124 0 0.018406179499560377 0.00061347089075807209 0 0.01826029776067508 0.00035637817385687364 0 0.018117856003162486 0.00056712931237258536 0 0.018056765875540906 0.0026368404033599523 0 0.01778216702126463 0.0020903451694523627 0 0.018520708127913128 0.0019979713086591424 0 0.01778216702126463 0.0020903451694523627 0 0.018520708127913128 0.0019979713086591424 0 0.017951066458945321 0.0015884290763410751 0 0.018334848584689548 0.0016603079389881073 0 0.018053114759673201 0.0016575410750933489 0 0.018418896298622627 0.0015932118445194702 0 0.018050078077854192 0.0011328510464565023 0 0.017941095614271017 0.0016423997711916658 0 0.01797515068372536 0.00023214246280578877 0 0.018117856003162486 0.00056712931237258536 0 0.017793009233194955 0.00061750972211554209 0 0.018117856003162486 0.00056712931237258536 0 0.018172454767194115 0.00091812389870829124 0 0.017793009233194955 0.00061750972211554209 0 0.018334848584689548 0.0016603079389881073 0 0.017873604831312187 0.00079179198048622251 0 0.018050078077854192 0.0011328510464565023 0 0.017941095614271017 0.0016423997711916658 0 0.017461377982127983 0.0011930155525629298 0 0.017412447330185574 0.00037762657962153593 0 0.018050078077854192 0.0011328510464565023 0 0.017461377982127983 0.0011930155525629298 0 0.017941095614271017 0.0016423997711916658 0 0.017461377982127983 0.0011930155525629298 0 0.017511689161119916 0.0019359006530567627 0 0.017511689161119916 0.0019359006530567627 0 0.017890840650206252 0.001983177551703181 0 0.017548816051994771 0.0020102450976347383 0 0.01757403865686568 0.002124331194510414 0 0.017511689161119916 0.0019359006530567627 0 0.017548816051994771 0.0020102450976347383 0 0.017941095614271017 0.0016423997711916658 0 0.017511689161119916 0.0019359006530567627 0 0.017890840650206252 0.001983177551703181 0 0.018463216718069362 0.0016566302399885317 0 0.018468979671403093 0.0013675819426174224 0 0.018418896298622627 0.0015932118445194702 0 0.017941095614271017 0.0016423997711916658 0 0.017890840650206252 0.001983177551703181 0 0.018334848584689548 0.0016603079389881073 0 0.018463216718069362 0.0016566302399885317 0 0.018496839082524898 0.001975117749406949 0 0.018999352623026051 0.0013125918064617178 0 0.018450758618193123 0.0015041776137030337 0 0.018450758618193123 0.0015041776137030337 0 0.018220914512800626 0.0010799912129270072 0 0.018070868362728965 0.0016567142630619211 0 0.018999352623026051 0.0013125918064617178 0 0.018450758618193123 0.0015041776137030337 0 0.018220914512800626 0.0010799912129270072 0 0.018496839082524898 0.001975117749406949 0 0.018450758618193123 0.0015041776137030337 0 0.018070868362728965 0.0016567142630619211 0 0.018999352623026051 0.0013125918064617178 0 0.018220914512800626 0.0010799912129270072 0 0.018440344912305846 0.00061736372047867596 0 0.01859485292441275 0.00017620018528916357 0 0.018440344912305846 0.00061736372047867596 0 0.018979470791154012 0.00061296948845705518 0 0.01859485292441275 0.00017620018528916357 0 0.019199184853611696 0.00028484051854663019 0 0.018979470791154012 0.00061296948845705518 0 0.018999352623026051 0.0013125918064617178 0 0.018440344912305846 0.00061736372047867596 0 0.018979470791154012 0.00061296948845705518 0 0.018999352623026051 0.0013125918064617178 0 0.018979470791154012 0.00061296948845705518 0 0.019371330676829012 0.00075567476130385049 0 0.019199184853611696 0.00028484051854663019 0 0.018979470791154012 0.00061296948845705518 0 0.019371330676829012 0.00075567476130385049 0 0.019595523312641205 0.0003863289477859139 0 0.019199184853611696 0.00028484051854663019 0 0.019371330676829012 0.00075567476130385049 0 0.018837283587126094 0.00083922295639385239 0 0.018468979671403093 0.0013675819426174224 0 0.016892880927613513 0.0010546343586489916 0 0.017583903286090555 0.00075606652884130203 0 0.016679405533821783 0.0005388316972317614 0 0.01963427743059706 -0.00017115437316695428 0 0.019367240432496789 -3.8789336514911244e-05 0 0.019528756520171026 0.0002278431737296364 0 0.018143148846218364 0.00019981272803167737 0 0.017552655091304294 0.0007089331718314407 0 0.016892880927613513 0.0010546343586489916 0 0.016679405533821783 0.0005388316972317614 0 0.015662234205884792 0.0011085342039901919 0 0.01607308673121512 0.0020879727325275716 0 0.016826661064796147 0.001699757568173908 0 0.015662234205884792 0.0011085342039901919 0 0.016892880927613513 0.0010546343586489916 0 0.016826661064796147 0.001699757568173908 0 0.015662234205884792 0.0011085342039901919 0 0.017469699575753572 0.001742100999127087 0 0.016826661064796147 0.001699757568173908 0 0.017546945497308983 0.00126591014688521 0 0.016892880927613513 0.0010546343586489916 0 0.016826661064796147 0.001699757568173908 0 0.017546945497308983 0.00126591014688521 0 0.018220914512800626 0.0010799912129270072 0 0.017546945497308983 0.00126591014688521 0 0.018070868362728965 0.0016567142630619211 0 0.017469699575753572 0.001742100999127087 0 0.017546945497308983 0.00126591014688521 0 0.017951066458945321 0.0015884290763410751 0 0.017578028879264129 0.0012856765583801003 0 0.018053114759673201 0.0016575410750933489 0 0.018220914512800626 0.0010799912129270072 0 0.017546945497308983 0.00126591014688521 0 0.017583903286090555 0.00075606652884130203 0 0.016892880927613513 0.0010546343586489916 0 0.017546945497308983 0.00126591014688521 0 0.017583903286090555 0.00075606652884130203 0 0.017583903286090555 0.00075606652884130203 0 0.01757681069120821 0.00011343052993841902 0 0.016679405533821783 0.0005388316972317614 0 0.018440344912305846 0.00061736372047867596 0 0.017583903286090555 0.00075606652884130203 0 0.01757681069120821 0.00011343052993841902 0 0.01859485292441275 0.00017620018528916357 0 0.018440344912305846 0.00061736372047867596 0 0.01757681069120821 0.00011343052993841902 0 0.018220914512800626 0.0010799912129270072 0 0.018440344912305846 0.00061736372047867596 0 0.017583903286090555 0.00075606652884130203 0 0.018560957600987877 -0.00014402237517697962 0 0.018143148846218364 0.00019981272803167737 0 0.019585377372744829 -0.00044864664526527928 0 0.01963427743059706 -0.00017115437316695428 0 0.019547932753868395 -0.0003802322770756666 0 0.01963427743059706 -0.00017115437316695428 0 0.019547932753868395 -0.0003802322770756666 0 0.01939503301999615 -0.00030291114119547128 0 0.019470923282577202 -0.00047047609653261621 0 0.019547932753868395 -0.0003802322770756666 0 0.01939503301999615 -0.00030291114119547128 0 0.019222465294116069 -0.00055169814130048291 0 0.01939503301999615 -0.00030291114119547128 0 0.019088506831515778 -0.00024512780197683123 0 0.01939503301999615 -0.00030291114119547128 0 0.019367240432496789 -3.8789336514911244e-05 0 0.019088506831515778 -0.00024512780197683123 0 0.019367240432496789 -3.8789336514911244e-05 0 0.019081697996183089 1.915301015560507e-05 0 0.019088506831515778 -0.00024512780197683123 0 0.01963427743059706 -0.00017115437316695428 0 0.01939503301999615 -0.00030291114119547128 0 0.019367240432496789 -3.8789336514911244e-05 0 0.019367240432496789 -3.8789336514911244e-05 0 0.019528756520171026 0.0002278431737296364 0 0.019104375759570597 0.0003762470064171883 0 0.019367240432496789 -3.8789336514911244e-05 0 0.019104375759570597 0.0003762470064171883 0 0.019081697996183089 1.915301015560507e-05 0 0.019528756520171026 0.0002278431737296364 0 0.019104375759570597 0.0003762470064171883 0 0.019306991439431209 0.00071434548138377542 0 0.017552655091304294 0.0007089331718314407 0 0.01697611860298618 0.0012361959660396086 0 0.018776504422819033 0.00029377879278496291 0 0.018520842673349216 0.00046966747379417918 0 0.01876135892969593 0.00062506809168732104 0 0.018776504422819033 0.00029377879278496291 0 0.018448510224186403 0.00020492711110190294 0 0.018520842673349216 0.00046966747379417918 0 0.018776504422819033 0.00029377879278496291 0 0.019104375759570597 0.0003762470064171883 0 0.01876135892969593 0.00062506809168732104 0 0.018776504422819033 0.00029377879278496291 0 0.019104375759570597 0.0003762470064171883 0 0.019081697996183089 1.915301015560507e-05 0 0.018776504422819033 0.00029377879278496291 0 0.018770423319088458 1.3970622395395318e-05 0 0.018448510224186403 0.00020492711110190294 0 0.018776504422819033 0.00029377879278496291 0 0.019081697996183089 1.915301015560507e-05 0 0.018770423319088458 1.3970622395395318e-05 0 0.018770423319088458 1.3970622395395318e-05 0 0.019088506831515778 -0.00024512780197683123 0 0.018699699868688472 -0.00018172594295941529 0 0.019081697996183089 1.915301015560507e-05 0 0.018770423319088458 1.3970622395395318e-05 0 0.019088506831515778 -0.00024512780197683123 0 0.019088506831515778 -0.00024512780197683123 0 0.018853251442172023 -0.00042386241559079084 0 0.018699699868688472 -0.00018172594295941529 0 0.030643855105087547 0.00086893184099187291 0 0.03149428505398684 0.0010287404316171294 0 0.029870110769431107 0.0021251924113206435 0 0.025309745421882104 0.00038275862039808617 0 0.023217094543828753 0.00023169496453610258 0 0.030643855105087547 0.00086893184099187291 0 0.029586992986727928 0.0012619166418207223 0 0.029870110769431107 0.0021251924113206435 0 0.018853251442172023 -0.00042386241559079084 0 0.018479033964696887 -0.00022670971157179873 0 0.018699699868688472 -0.00018172594295941529 0 0.031177412707370279 0.00076954823074253727 0 0.02956810458429255 0.00095059513534646769 0 0.025606711639172639 -0.0012470444464728432 0 0.026018591239818974 1.0738032871228647e-05 0 0.023464614208055377 -0.00040412068471831942 0 0.02956810458429255 0.00095059513534646769 0 0.023217094543828753 0.00023169496453610258 0 0.023217094543828753 0.00023169496453610258 0 0.021068456479410611 0.00059507219417692919 0 0.018207460299599992 -0.00064121566630557928 0 0.018316887808451306 -0.00023162119573525195 0 0.017971655734843436 -0.00020605135085040343 0 0.018207460299599992 -0.00064121566630557928 0 0.017591682254226686 -0.0002452683190935028 0 0.017971655734843436 -0.00020605135085040343 0 0.018770423319088458 1.3970622395395318e-05 0 0.018699699868688472 -0.00018172594295941529 0 0.018491337705089875 -1.2023289182635134e-05 0 0.018479033964696887 -0.00022670971157179873 0 0.018699699868688472 -0.00018172594295941529 0 0.018491337705089875 -1.2023289182635134e-05 0 0.023217094543828753 0.00023169496453610258 0 0.018359779084734844 -0.00048253537742131309 0 0.032188106214710979 0.0026143000524398966 0 0.032970693965623889 0.0025040343661228391 0 0.030317508610968446 0.0037198029820545171 0 0.03009810101258804 0.0020277543365929038 0 0.03230545941306523 0.002538901529229874 0 0.030054083186573693 0.0020460958225585885 0 0.032188106214710979 0.0026143000524398966 0 0.030317508610968446 0.0037198029820545171 0 0.032063881999430291 0.0024058433975467698 0 0.032154999773814176 0.0022396863070502115 0 0.032188106214710979 0.0026143000524398966 0 0.032383098270302654 0.0019893065217599054 0 0.032154999773814176 0.0022396863070502115 0 0.032379397756772822 0.0022516048039237608 0 0.032154999773814176 0.0022396863070502115 0 0.032379397756772822 0.0022516048039237608 0 0.032188106214710979 0.0026143000524398966 0 0.032379397756772822 0.0022516048039237608 0 0.032188106214710979 0.0026143000524398966 0 0.032970693965623889 0.0025040343661228391 0 0.02956810458429255 0.00095059513534646769 0 0.028041801754908679 0.0010635923388949704 0 0.033409615622109826 0.0021953551813700613 0 0.032970693965623889 0.0025040343661228391 0 0.033099775093400501 0.0021658741666270146 0 0.032709447136454295 0.0020565792647928068 0 0.032379397756772822 0.0022516048039237608 0 0.032970693965623889 0.0025040343661228391 0 0.032709447136454295 0.0020565792647928068 0 0.032970693965623889 0.0025040343661228391 0 0.033099775093400501 0.0021658741666270146 0 0.026018591239818974 1.0738032871228647e-05 0 0.023464614208055377 -0.00040412068471831942 0 0.023696739855366036 0.0015614217736787115 0 0.028041801754908679 0.0010635923388949704 0 0.026555723714344091 0.0020737495117479324 0 0.023464614208055377 -0.00040412068471831942 0 0.023696739855366036 0.0015614217736787115 0 0.021294819482193219 0.00044724806537302364 0 0.017591682254226686 -0.0002452683190935028 0 0.016979670026297546 0.00015606693590649754 0 0.017379339052326085 0.00014812244145377497 0 0.023696739855366036 0.0015614217736787115 0 0.021294819482193219 0.00044724806537302364 0 0.021342279061316978 0.0031215287321836498 0 0.021068456479410611 0.00059507219417692919 0 0.015675163357291483 0.0008191071055952859 0 0.017591682254226686 -0.0002452683190935028 0 0.017379339052326085 0.00014812244145377497 0 0.017576677635850198 0.00021642764444498272 0 0.017766084478339113 -2.3336815511655003e-05 0 0.017576677635850198 0.00021642764444498272 0 0.017993965399940276 9.9837283321727488e-05 0 0.017591682254226686 -0.0002452683190935028 0 0.017766084478339113 -2.3336815511655003e-05 0 0.017576677635850198 0.00021642764444498272 0 0.017591682254226686 -0.0002452683190935028 0 0.017766084478339113 -2.3336815511655003e-05 0 0.017971655734843436 -0.00020605135085040343 0 0.017394275711626772 0.00042866949952574581 0 0.017780935289800237 0.00039239073352589064 0 0.017715778261748544 0.00071998047877762763 0 0.017576677635850198 0.00021642764444498272 0 0.017394275711626772 0.00042866949952574581 0 0.017780935289800237 0.00039239073352589064 0 0.017473156704791791 2.6312758220486059e-05 0 0.016319340475106772 0.00053431670351452069 0 0.017379339052326085 0.00014812244145377497 0 0.017576677635850198 0.00021642764444498272 0 0.01736831165990731 0.00046751738191899277 0 0.011956479938194662 0.00145276253369119 0 0.012169215887061423 0.00040630827817666668 0 0.013180759751992453 0.0012145576713629687 0 0.016979670026297546 0.00015606693590649754 0 0.017379339052326085 0.00014812244145377497 0 0.01736831165990731 0.00046751738191899277 0 0.015675163357291483 0.0008191071055952859 0 0.016319340475106772 0.00053431670351452069 0 0.018770423319088458 1.3970622395395318e-05 0 0.018491337705089875 -1.2023289182635134e-05 0 0.018448510224186403 0.00020492711110190294 0 0.018316887808451306 -0.00023162119573525195 0 0.018448510224186403 0.00020492711110190294 0 0.017993965399940276 9.9837283321727488e-05 0 0.018359779084734844 -0.00048253537742131309 0 0.018499115296666195 0.00027526764557351039 0 0.018316887808451306 -0.00023162119573525195 0 0.017971655734843436 -0.00020605135085040343 0 0.017993965399940276 9.9837283321727488e-05 0 0.017766084478339113 -2.3336815511655003e-05 0 0.017971655734843436 -0.00020605135085040343 0 0.017993965399940276 9.9837283321727488e-05 0 0.017576677635850198 0.00021642764444498272 0 0.017993965399940276 9.9837283321727488e-05 0 0.017780935289800237 0.00039239073352589064 0 0.017993965399940276 9.9837283321727488e-05 0 0.017780935289800237 0.00039239073352589064 0 0.018141060231178521 0.00045180232217703641 0 0.017780935289800237 0.00039239073352589064 0 0.018141060231178521 0.00045180232217703641 0 0.017715778261748544 0.00071998047877762763 0 0.018448510224186403 0.00020492711110190294 0 0.017993965399940276 9.9837283321727488e-05 0 0.018141060231178521 0.00045180232217703641 0 0.018448510224186403 0.00020492711110190294 0 0.018141060231178521 0.00045180232217703641 0 0.018520842673349216 0.00046966747379417918 0 0.018141060231178521 0.00045180232217703641 0 0.018520842673349216 0.00046966747379417918 0 0.01834261351653536 0.0007987307892120554 0 0.01834261351653536 0.0007987307892120554 0 0.017715778261748544 0.00071998047877762763 0 0.017995977226414283 0.0011354582901193205 0 0.018141060231178521 0.00045180232217703641 0 0.01834261351653536 0.0007987307892120554 0 0.017715778261748544 0.00071998047877762763 0 0.017715778261748544 0.00071998047877762763 0 0.017995977226414283 0.0011354582901193205 0 0.017526217452485653 0.0011653608218171203 0 0.017995977226414283 0.0011354582901193205 0 0.017526217452485653 0.0011653608218171203 0 0.017659651212620101 0.0016040074692172958 0 0.01834261351653536 0.0007987307892120554 0 0.017995977226414283 0.0011354582901193205 0 0.018401647473545481 0.0014138876964248466 0 0.01834261351653536 0.0007987307892120554 0 0.018401647473545481 0.0014138876964248466 0 0.018699303331433863 0.0009796834640403288 0 0.017101397294074051 0.00020112450520421403 0 0.016700613525514666 0.00066756449246063352 0 0.017201672952708781 0.00084507699725562936 0 0.011956479938194662 0.00145276253369119 0 0.013180759751992453 0.0012145576713629687 0 0.012406302538152492 0.0020880952103922395 0 0.016285867745564932 0.0011444200173866153 0 0.016700613525514666 0.00066756449246063352 0 0.016804994479302188 0.0010185982487070562 0 0.016319340475106772 0.00053431670351452069 0 0.014590371552550375 0.0013288665676838233 0 0.016700613525514666 0.00066756449246063352 0 0.017201672952708781 0.00084507699725562936 0 0.016804994479302188 0.0010185982487070562 0 0.017101397294074051 0.00020112450520421403 0 0.017715778261748544 0.00071998047877762763 0 0.017201672952708781 0.00084507699725562936 0 0.016319340475106772 0.00053431670351452069 0 0.017904078696091973 0.00075973082894406792 0 0.017715778261748544 0.00071998047877762763 0 0.017201672952708781 0.00084507699725562936 0 0.017526217452485653 0.0011653608218171203 0 0.017526217452485653 0.0011653608218171203 0 0.017019270752742795 0.0014132822775300437 0 0.017659651212620101 0.0016040074692172958 0 0.017201672952708781 0.00084507699725562936 0 0.017526217452485653 0.0011653608218171203 0 0.017019270752742795 0.0014132822775300437 0 0.010906428716158578 0.0033087236437572376 0 0.011704083683634561 0.0036079085947598412 0 0.011165347903328855 0.0035867028007311613 0 0.016285867745564932 0.0011444200173866153 0 0.017019270752742795 0.0014132822775300437 0 0.016804994479302188 0.0010185982487070562 0 0.012599841097812547 0.0025059810732621004 0 0.014646052460658643 0.0025555686771042072 0 0.017201672952708781 0.00084507699725562936 0 0.017019270752742795 0.0014132822775300437 0 0.016804994479302188 0.0010185982487070562 0 0.011704083683634561 0.0036079085947598412 0 0.011165347903328855 0.0035867028007311613 0 0.0111816382991117 0.0037618828600670716 0 0.010836600103066935 0.0041773677012266345 0 0.011355831813353907 0.0041136090099548181 0 0.011222018554584273 0.0044803444146009081 0 0.010958886101982436 0.0038972762040654415 0 0.011355831813353907 0.0041136090099548181 0 0.0111816382991117 0.0037618828600670716 0 0.011704083683634561 0.0036079085947598412 0 0.011355831813353907 0.0041136090099548181 0 0.0111816382991117 0.0037618828600670716 0 0.011355831813353907 0.0041136090099548181 0 0.011626111796004746 0.0043920576061078692 0 0.011222018554584273 0.0044803444146009081 0 0.011995645400202062 0.0043364356033909748 0 0.011626111796004746 0.0043920576061078692 0 0.012064707269341481 0.0040184009939890648 0 0.011704083683634561 0.0036079085947598412 0 0.011355831813353907 0.0041136090099548181 0 0.012668743803696182 0.0040206580210029284 0 0.010611323823285897 0.0043278376046627385 0 0.014250405401673225 0.0031846934180267353 0 0.011355831813353907 0.0041136090099548181 0 0.011626111796004746 0.0043920576061078692 0 0.012064707269341481 0.0040184009939890648 0 0.014646052460658643 0.0025555686771042072 0 0.014250405401673225 0.0031846934180267353 0 0.011104084271394683 0.0051475988348804692 0 0.011961141290602323 0.0043766879517299975 0 0.011477134378323138 0.0050112573825217598 0 0.011995645400202062 0.0043364356033909748 0 0.011626111796004746 0.0043920576061078692 0 0.011922731237643411 0.0054211629886520979 0 0.010817253176996531 0.00526285294906803 0 0.011995645400202062 0.0043364356033909748 0 0.011477134378323138 0.0050112573825217598 0 0.011626111796004746 0.0043920576061078692 0 0.011222018554584273 0.0044803444146009081 0 0.010747722468074077 0.004640010947413487 0 0.011477134378323138 0.0050112573825217598 0 0.011222018554584273 0.0044803444146009081 0 0.014873903212616779 0.0031248799540334392 0 0.015037429158606373 0.0029290536213826251 0 0.014546568649690842 0.0029799558727170517 0 0.014873903212616779 0.0031248799540334392 0 0.015037429158606373 0.0029290536213826251 0 0.01519427793809967 0.0032749165601623168 0 0.011995645400202062 0.0043364356033909748 0 0.012861695657458665 0.0043113798201524327 0 0.012064707269341481 0.0040184009939890648 0 0.017473700180005176 0.0019992552949181894 0 0.014250405401673225 0.0031846934180267353 0 0.013963419010298468 0.0037606530216495048 0 0.014250405401673225 0.0031846934180267353 0 0.017995977226414283 0.0011354582901193205 0 0.018401647473545481 0.0014138876964248466 0 0.017659651212620101 0.0016040074692172958 0 0.011995645400202062 0.0043364356033909748 0 0.012861695657458665 0.0043113798201524327 0 0.01268567934945696 0.0048823837585090278 0 0.011922731237643411 0.0054211629886520979 0 0.011995645400202062 0.0043364356033909748 0 0.01268567934945696 0.0048823837585090278 0 0.012861695657458665 0.0043113798201524327 0 0.01268567934945696 0.0048823837585090278 0 0.013728702560041347 0.0046902931557230645 0 0.012936445462267385 0.0056994691580672463 0 0.01268567934945696 0.0048823837585090278 0 0.013728702560041347 0.0046902931557230645 0 0.013963419010298468 0.0037606530216495048 0 0.012989680759114617 0.0041668204122429411 0 0.011243317656183159 0.005214754304293856 0 0.011099228555229016 0.0037008232291090805 0 0.012432885441298853 0.0043742629490423728 0 0.012989680759114617 0.0041668204122429411 0 0.011879063695744159 0.0040733505425469864 0 0.012989680759114617 0.0041668204122429411 0 0.015563433667860428 0.0023662858141315964 0 0.015037429158606373 0.0029290536213826251 0 0.01519427793809967 0.0032749165601623168 0 0.015521830046249649 0.0028797520256912132 0 0.017473700180005176 0.0019992552949181894 0 0.015563433667860428 0.0023662858141315964 0 0.012930688914120917 0.0028021743393811228 0 0.013142059521445752 0.0037566976297952392 0 0.013731735239810377 0.0033259375931598751 0 0.011679936809160227 0.0040430701452552464 0 0.012930688914120917 0.0028021743393811228 0 0.013142059521445752 0.0037566976297952392 0 0.015563433667860428 0.0023662858141315964 0 0.013217949309387121 0.002769586519415048 0 0.011679936809160227 0.0040430701452552464 0 0.013142059521445752 0.0037566976297952392 0 0.012432885441298853 0.0043742629490423728 0 0.013142059521445752 0.0037566976297952392 0 0.012432885441298853 0.0043742629490423728 0 0.013423925653213263 0.0043592661161092408 0 0.013142059521445752 0.0037566976297952392 0 0.013423925653213263 0.0043592661161092408 0 0.014211028123843745 0.0039718294988913454 0 0.013423925653213263 0.0043592661161092408 0 0.014117092207956464 0.0046474715852728539 0 0.014211028123843745 0.0039718294988913454 0 0.014653528464738403 0.0049493482865724941 0 0.015589445629096447 0.0045008518922934363 0 0.014881624768983357 0.0042869566521934414 0 0.015589445629096447 0.0045008518922934363 0 0.015368244799911083 0.0040272352566492935 0 0.014881624768983357 0.0042869566521934414 0 0.014117092207956464 0.0046474715852728539 0 0.014211028123843745 0.0039718294988913454 0 0.014881624768983357 0.0042869566521934414 0 0.014653528464738403 0.0049493482865724941 0 0.014117092207956464 0.0046474715852728539 0 0.014881624768983357 0.0042869566521934414 0 0.014211028123843745 0.0039718294988913454 0 0.014881624768983357 0.0042869566521934414 0 0.01508376502667164 0.0037266217746766378 0 0.015368244799911083 0.0040272352566492935 0 0.014881624768983357 0.0042869566521934414 0 0.01508376502667164 0.0037266217746766378 0 0.01508376502667164 0.0037266217746766378 0 0.015245729184952846 0.0031424680484676442 0 0.014450347434382371 0.0032687776716153381 0 0.014211028123843745 0.0039718294988913454 0 0.01508376502667164 0.0037266217746766378 0 0.014450347434382371 0.0032687776716153381 0 0.015245729184952846 0.0031424680484676442 0 0.014450347434382371 0.0032687776716153381 0 0.014742210693807279 0.0025244451809183278 0 0.013142059521445752 0.0037566976297952392 0 0.014211028123843745 0.0039718294988913454 0 0.013731735239810377 0.0033259375931598751 0 0.014211028123843745 0.0039718294988913454 0 0.013731735239810377 0.0033259375931598751 0 0.014450347434382371 0.0032687776716153381 0 0.014450347434382371 0.0032687776716153381 0 0.013810932432955021 0.002822165160840951 0 0.014742210693807279 0.0025244451809183278 0 0.013731735239810377 0.0033259375931598751 0 0.014450347434382371 0.0032687776716153381 0 0.013810932432955021 0.002822165160840951 0 0.012930688914120917 0.0028021743393811228 0 0.013731735239810377 0.0033259375931598751 0 0.013810932432955021 0.002822165160840951 0 0.015563433667860428 0.0023662858141315964 0 0.01697611860298618 0.0012361959660396086 0 0.013810932432955021 0.002822165160840951 0 0.014742210693807279 0.0025244451809183278 0 0.014451543610372495 0.0018781786945951517 0 0.013243169974314645 0.0028492492272646254 0 0.013810932432955021 0.002822165160840951 0 0.014451543610372495 0.0018781786945951517 0 0.01548699242143858 0.0024758373168370751 0 0.015245729184952846 0.0031424680484676442 0 0.014742210693807279 0.0025244451809183278 0 0.01548699242143858 0.0024758373168370751 0 0.014742210693807279 0.0025244451809183278 0 0.015293772912825616 0.0019980389189362697 0 0.015662234205884792 0.0011085342039901919 0 0.015293772912825616 0.0019980389189362697 0 0.014451543610372495 0.0018781786945951517 0 0.014742210693807279 0.0025244451809183278 0 0.015293772912825616 0.0019980389189362697 0 0.014451543610372495 0.0018781786945951517 0 0.019104375759570597 0.0003762470064171883 0 0.019306991439431209 0.00071434548138377542 0 0.018978714271509944 0.00079885154743654862 0 0.019104375759570597 0.0003762470064171883 0 0.018978714271509944 0.00079885154743654862 0 0.01876135892969593 0.00062506809168732104 0 0.01834261351653536 0.0007987307892120554 0 0.01876135892969593 0.00062506809168732104 0 0.018699303331433863 0.0009796834640403288 0 0.018520842673349216 0.00046966747379417918 0 0.01834261351653536 0.0007987307892120554 0 0.01876135892969593 0.00062506809168732104 0 0.018978714271509944 0.00079885154743654862 0 0.01876135892969593 0.00062506809168732104 0 0.018699303331433863 0.0009796834640403288 0 0.018401647473545481 0.0014138876964248466 0 0.018972064407818207 0.0012747134735446519 0 0.018699303331433863 0.0009796834640403288 0 0.018972064407818207 0.0012747134735446519 0 0.018978714271509944 0.00079885154743654862 0 0.018699303331433863 0.0009796834640403288 0 0.018972064407818207 0.0012747134735446519 0 0.019306991439431209 0.00071434548138377542 0 0.018978714271509944 0.00079885154743654862 0 
</DataArray>
</PointData>
<CellData Scalars="region_id,cross_section_updated," Vectors="" Tensors="stress,">
<DataArray type="Float64" Name="region_id" format="ascii">
5 5 5 5 5 6 5 5 5 5 5 5 5 5 5 5 6 5 5 5 5 5 5 5 5 6 6 5 6 5 5 6 5 5 6 5 6 5 6 5 5 5 6 5 6 5 6 5 5 5 5 5 5 5 5 5 5 5 5 5 6 5 5 6 5 5 5 5 5 5 6 5 5 5 5 5 5 6 5 5 5 5 5 5 5 5 6 5 5 5 5 5 5 5 5 5 5 6 5 5 5 5 5 5 5 5 5 6 5 6 5 5 5 5 5 5 5 5 5 5 5 5 5 5 5 6 5 6 6 5 6 5 5 5 6 6 5 5 5 5 5 5 5 5 5 5 5 5 5 5 5 5 5 5 5 5 5 5 5 6 5 5 5 5 5 5 5 5 5 5 5 5 5 5 5 5 5 5 5 5 5 5 5 5 5 5 5 5 5 5 5 5 5 5 5 5 5 5 5 5 5 5 5 5 5 5 5 5 6 5 6 5 5 5 5 5 5 5 5 5 5 5 5 5 5 5 5 5 5 5 6 5 5 5 5 5 6 5 5 6 6 5 5 5 6 5 5 5 5 5 6 6 5 6 5 5 5 5 5 5 5 5 5 5 5 5 6 5 5 5 5 5 5 5 5 5 5 6 5 5 5 5 5 5 5 5 5 5 5 5 5 6 5 5 5 5 5 5 5 5 5 5 5 5 5 5 5 5 5 5 5 5 5 5 5 5 5 5 5 5 5 5 5 5 5 5 5 5 5 5 5 5 6 5 6 5 5 6 5 5 6 5 5 5 5 6 5 5 6 5 5 5 5 5 5 6 5 5 6 5 5 5 5 6 5 5 5 6 5 6 6 5 5 6 6 5 5 5 5 5 5 5 5 5 5 5 5 5 5 5 5 5 5 5 6 5 5 5 5 5 5 5 5 5 6 5 5 5 5 5 5 5 5 5 5 5 5 5 5 5 5 5 5 5 5 5 5 5 5 5 5 5 5 5 5 5 5 5 5 5 5 5 5 5 5 5 5 5 5 5 5 5 5 5 5 5 5 5 5 5 5 6 5 5 5 5 5 5 5 5 5 5 5 5 5 5 5 5 5 5 5 5 5 5 5 5 5 5 5 5 5 5 5 5 5 5 5 5 5 5 5 5 5 5 5 5 5 5 5 5 5 5 5 5 5 5 5 5 5 5 5 5 5 5 5 5 5 5 5 5 5 5 5 6 5 6 5 5 5 5 5 5 5 5 5 5 5 5 5 5 5 5 5 6 5 5 5 5 5 6 5 5 5 5 5 5 5 5 5 5 5 5 5 5 5 5 5 5 5 5 5 5 5 5 5 5 5 5 5 5 5 5 5 5 5 5 5 6 5 5 5 6 5 5 5 5 5 5 5 5 5 5 5 6 5 6 5 5 5 6 5 6 5 5 5 5 5 5 5 5 5 5 5 5 5 5 5 5 5 5 5 5 5 5 5 5 5 5 5 5 5 5 5 5 5 5 5 5 5 5 5 5 5 5 5 6 5 5 5 5 5 6 5 5 5 5 5 5 6 5 5 5 5 5 5 6 5 5 5 5 5 5 5 5 6 5 5 5 5 5 5 5 5 5 5 6 5 5 5 5 6 5 5 5 5 5 6 6 5 6 5 5 5 5 6 5 6 6 6 5 5 5 5 5 6 5 5 5 5 5 6 5 5 6 5 5 5 5 5 5 5 5 5 5 5 5 5 5 5 5 5 5 5 5 5 5 5 6 5 5 5 5 5 5 6 5 5 5 5 5 5 5 5 5 5 5 5 5 6 5 5 5 5 5 5 5 5 6 5 5 5 5 5 5 5 5 5 5 5 5 5 5 5 5 5 5 5 5 5 5 5 5 5 5 5 5 5 5 5 5 5 5 5 5 5 5 5 5 5 5 5 5 5 5 5 5 5 5 5 5 5 5 5 5 5 5 5 5 5 5 5 5 5 5 5 5 5 5 5 5 5 5 5 5 5 5 5 5 5 5 5 5 5 5 5 5 5 5 5 5 5 5 5 5 5 5 5 6 5 5 5 5 5 5 6 5 5 5 5 5 5 5 5 5 5 5 5 5 5 5 5 5 5 5 5 5 5 5 5 5 5 5 6 5 6 5 5 5 5 5 5 6 6 5 5 5 5 5 5 5 5 5 6 5 5 6 5 5 5 5 5 5 5 5 6 5 5 6 6 5 5 5 5 5 5 5 6 5 5 6 5 5 5 5 5 5 6 5 5 5 5 5 5 5 5 5 5 5 5 5 5 5 5 5 6 5 6 5 5 5 5 5 5 5 5 5 5 5 6 5 5 5 5 5 5 5 5 5 5 5 5 5 5 5 5 5 5 5 5 5 5 5 5 5 5 5 5 5 5 5 5 5 5 5 5 5 5 5 5 5 5 5 5 5 5 5 5 5 5 5 5 5 5 5 6 5 5 5 5 5 5 5 5 5 6 5 5 5 6 6 5 6 5 6 5 6 5 5 5 5 5 6 5 5 6 5 5 6 5 5 5 5 5 5 6 5 6 6 5 5 5 5 5 5 5 5 5 6 5 5 5 5 5 6 5 5 5 5 6 5 5 5 5 5 6 5 5 6 5 5 6 5 5 5 5 5 5 5 5 6 5 5 5 5 5 5 5 6 5 5 6 6 5 5 5 5 5 5 5 5 5 6 5 6 5 5 5 5 5 5 5 5 5 5 5 5 5 5 5 5 5 5 5 5 6 5 5 5 6 5 5 5 5 6 6 6 5 5 5 6 5 5 5 6 5 6 5 6 6 5 5 5 6 5 5 5 6 5 5 6 5 6 5 5 6 5 5 5 5 5 5 5 5 5 5 5 5 5 5 6 5 5 5 5 5 5 6 5 6 5 5 5 6 5 5 6 5 5 6 5 5 5 5 5 5 5 5 6 5 5 5 5 6 5 5 5 5 6 5 5 5 5 5 5 5 5 6 5 5 5 6 5 5 5 5 5 5 5 5 5 5 5 5 5 5 5 5 5 5 5 6 5 5 6 5 5 5 5 5 5 5 5 5 6 5 5 5 5 5 6 5 5 5 6 5 5 6 5 6 6 5 5 5 5 5 5 6 5 6 5 5 5 6 5 5 5 6 5 5 5 5 5 5 5 5 5 5 5 5 5 5 5 5 5 5 5 5 6 5 5 5 5 6 5 5 5 5 5 5 5 5 5 5 6 5 5 5 5 5 5 5 5 5 5 5 5 5 5 5 5 5 5 6 5 5 5 5 5 5 5 5 5 5 5 5 5 5 6 5 5 5 5 6 5 5 5 5 5 5 5 6 5 5 5 5 5 5 5 5 5 5 5 5 5 5 5 5 5 6 5 5 5 5 6 5 5 5 5 5 5 5 5 6 5 5 6 5 5 6 5 5 5 5 5 5 5 5 5 5 6 5 5 5 6 5 5 5 5 5 5 5 5 5 5 5 5 5 5 5 5 5 5 5 5 5 5 5 5 5 5 6 5 5 5 5 5 5 5 5 5 5 6 5 6 5 5 5 5 5 5 5 6 5 6 5 5 6 5 6 5 6 5 5 5 5 5 6 5 5 5 5 5 5 5 6 5 5 5 5 5 5 5 5 5 5 5 5 5 5 5 5 5 5 5 5 5 5 5 5 5 5 5 5 5 5 5 5 6 5 5 5 5 5 5 5 6 5 5 5 5 5 5 5 6 5 5 5 5 5 6 5 5 5 5 5 5 5 5 5 5 5 5 6 5 5 5 5 5 6 5 6 5 5 5 5 5 5 5 5 6 5 5 5 5 5 5 6 5 5 6 5 5 5 5 5 5 5 5 5 5 5 5 5 5 5 5 5 5 5 5 5 6 5 5 5 6 5 5 5 5 6 6 5 6 6 6 5 5 5 6 6 5 5 5 5 5 5 5 5 5 6 5 6 5 5 5 5 6 5 5 5 5 6 5 6 5 5 5 6 5 5 5 5 5 6 5 5 6 5 5 5 5 5 6 5 5 5 5 5 5 5 5 5 5 5 5 5 5 5 5 5 5 5 5 5 5 5 5 5 5 5 5 5 5 5 5 5 5 5 5 5 5 5 5 5 5 6 5 5 5 5 5 5 6 5 6 5 5 5 5 5 5 5 5 5 6 5 6 5 5 5 5 5 5 5 6 5 5 5 5 6 5 5 6 5 5 5 5 5 5 5 5 5 5 5 6 6 5 5 5 6 6 5 5 5 5 5 5 5 5 5 5 5 5 5 5 5 5 5 5 5 5 5 5 5 5 5 5 5 6 5 5 5 5 6 5 5 5 5 5 5 5 6 6 5 6 5 5 5 5 5 5 5 5 5 5 5 5 6 5 5 5 5 5 5 5 5 6 5 5 5 5 5 6 5 5 5 6 5 5 5 5 5 5 6 5 5 5 5 5 5 5 5 5 5 5 5 5 5 5 5 5 5 5 5 5 5 5 5 5 5 5 5 5 6 5 5 5 5 5 5 5 5 5 5 5 5 5 5 5 5 5 5 5 5 5 5 5 5 5 5 5 5 5 5 5 5 5 5 5 5 5 5 5 5 5 5 5 5 5 5 5 5 5 5 5 5 6 5 5 5 5 5 5 5 5 5 5 5 5 5 5 5 5 5 5 5 6 5 5 6 5 5 5 5 5 5 5 5 5 5 5 5 5 5 5 5 5 5 5 5 5 5 5 5 5 5 5 5 5 5 5 5 5 5 5 5 5 5 5 5 5 5 5 5 5 5 5 5 5 5 5 6 5 5 5 5 5 5 5 6 5 5 5 5 5 6 5 5 5 5 5 5 5 5 5 5 5 5 5 5 5 5 5 5 5 6 5 5 5 5 5 5 5 5 6 5 6 5 5 5 5 5 6 6 5 5 6 5 5 5 5 5 5 5 6 5 5 5 5 5 5 5 5 5 5 5 5 5 5 5 5 5 5 6 5 5 5 5 5 5 5 5 6 5 5 5 5 5 5 5 5 5 5 5 5 5 5 5 5 5 5 5 5 5 5 5 5 6 5 5 5 5 5 5 5 5 5 5 5 5 5 5 5 5 5 5 5 5 5 5 5 5 5 5 6 5 6 5 5 5 5 5 5 5 5 5 5 5 5 5 5 5 5 5 5 5 5 5 5 5 5 5 5 5 6 5 5 6 5 5 5 5 5 5 6 5 5 5 5 6 5 6 6 5 5 5 5 5 5 5 5 5 5 5 5 5 5 5 5 5 5 5 5 6 6 5 5 5 5 6 5 5 5 5 5 5 5 5 5 5 5 5 5 5 5 6 6 5 5 6 5 5 5 5 5 5 5 5 5 5 5 5 5 5 5 5 5 5 6 5 5 5 5 5 5 6 6 5 6 5 5 5 5 5 5 5 5 5 5 5 5 5 6 5 5 5 5 5 5 5 5 5 5 5 5 5 5 5 5 5 5 5 5 5 5 5 5 5 5 5 6 5 6 5 5 5 5 5 5 5 5 5 5 5 5 5 6 5 5 5 6 5 5 5 6 5 5 5 5 5 5 6 5 5 6 5 5 5 5 5 5 5 5 5 5 5 5 5 5 5 5 5 5 6 5 5 5 5 6 5 6 5 5 6 5 5 5 5 5 5 5 5 5 5 5 5 5 6 6 5 5 6 5 6 6 5 5 5 5 5 5 5 5 5 5 5 6 5 5 6 5 5 5 5 6 6 5 6 5 6 6 5 5 5 6 6 6 5 5 6 6 5 6 5 5 6 5 5 5 6 5 5 5 6 5 5 6 5 5 6 5 6 5 5 5 6 5 6 5 5 6 6 6 6 5 6 5 5 5 6 5 5 5 6 6 5 5 6 5 6 5 5 6 6 5 6 5 5 5 6 5 5 5 5 5 5 6 5 5 5 6 5 5 5 5 5 5 5 5 5 5 5 5 6 5 5 5 5 5 5 5 5 5 5 5 5 5 5 5 6 5 5 5 6 5 5 6 5 5 5 5 5 5 5 5 5 5 5 5 5 5 5 5 5 6 5 5 6 5 5 5 6 5 6 5 5 6 5 5 5 6 5 5 5 6 5 5 5 5 5 5 5 5 5 5 5 6 5 6 5 6 5 5 5 5 5 5 5 6 5 5 5 5 6 5 6 5 6 5 5 5 6 5 6 5 5 6 5 6 6 5 5 5 5 5 5 5 6 5 5 6 5 5 5 5 5 5 6 5 5 5 5 5 5 5 5 6 5 5 5 5 6 5 6 5 5 6 5 6 5 5 5 5 5 5 5 5 6 5 5 5 5 5 5 5 5 5 5 5 5 5 5 5 5 5 6 5 6 6 5 5 5 5 5 6 5 5 5 5 5 5 5 5 6 5 5 6 5 5 5 5 5 6 5 5 5 5 5 5 5 5 6 5 5 6 5 5 5 5 5 5 6 5 5 6 6 5 6 5 6 6 6 5 5 5 6 6 5 5 6 6 5 6 5 5 6 6 5 5 6 5 5 5 6 5 6 6 5 5 5 5 5 5 5 5 6 5 5 5 5 5 5 5 5 5 5 6 5 5 6 5 6 5 5 5 5 5 5 5 5 6 5 5 5 6 5 5 5 5 5 5 5 6 5 5 5 5 5 5 6 5 5 5 5 5 5 6 5 5 5 6 5 5 5 6 5 6 5 6 5 5 5 5 6 6 5 5 5 5 5 5 5 5 5 5 5 5 5 5 5 5 5 5 5 5 6 5 5 6 5 5 5 6 6 5 6 5 5 5 5 5 5 5 5 5 6 5 5 5 5 5 5 6 5 5 5 5 5 5 5 5 6 5 5 5 6 6 5 5 5 5 5 5 5 5 5 5 5 5 5 5 6 5 5 5 5 5 5 5 5 5 6 5 6 5 5 5 5 5 5 5 5 5 5 5 5 5 5 5 5 5 5 5 5 5 5 5 5 5 5 5 5 5 5 5 5 5 5 5 5 5 5 5 5 5 5 5 5 5 5 5 5 5 5 5 5 5 6 5 6 5 6 5 5 5 5 5 5 5 6 5 5 5 5 6 5 5 5 5 5 5 5 5 6 5 5 5 5 5 6 6 5 5 5 5 6 5 5 6 5 5 5 6 5 5 6 5 5 5 5 5 6 5 6 6 5 5 6 6 5 5 5 6 5 6 5 6 5 5 5 6 6 5 5 5 6 6 5 6 5 5 5 6 6 5 5 5 6 6 5 6 6 5 6 6 5 5 5 5 6 5 6 5 6 5 6 5 5 5 5 5 5 5 5 5 5 6 5 5 6 5 6 5 5 5 6 6 5 5 5 6 5 6 5 6 6 5 5 5 5 5 5 5 5 5 5 5 5 6 5 5 5 5 5 5 6 5 5 6 5 5 5 5 5 5 5 5 5 6 5 5 6 5 5 5 5 5 5 5 5 5 5 5 5 5 5 5 5 5 5 5 5 5 5 5 5 5 5 5 5 5 5 5 5 5 5 5 5 5 5 5 6 5 5 5 5 5 5 6 5 5 5 5 5 5 5 5 5 5 5 5 6 5 6 5 5 5 5 5 5 5 5 5 5 5 5 5 5 5 5 5 5 5 5 6 5 5 6 5 5 5 6 6 5 5 5 5 5 5 5 5 6 5 5 5 5 5 5 5 5 5 5 5 5 5 5 5 5 6 5 5 5 5 5 5 6 6 5 5 5 5 5 5 5 5 6 5 5 5 6 5 5 5 5 5 5 6 5 5 5 5 5 5 5 6 5 5 5 5 5 5 5 5 5 5 5 5 6 5 5 5 6 5 5 5 5 6 5 5 5 5 5 5 5 5 5 5 5 5 5 5 5 5 6 5 5 5 5 5 5 5 5 5 5 5 6 5 6 5 5 5 5 5 5 5 5 6 5 5 6 5 5 5 5 5 5 6 5 5 6 6 5 5 5 5 5 5 5 5 5 6 5 5 5 6 5 5 5 5 5 5 5 5 5 5 6 5 5 5 5 5 5 5 5 5 5 5 5 5 5 5 5 5 5 5 5 5 5 5 5 5 5 5 5 5 5 6 5 5 5 5 5 6 5 5 5 5 5 5 5 5 5 6 5 6 5 5 5 5 5 5 6 5 5 6 5 5 5 5 5 5 5 5 5 5 5 5 5 5 5 5 5 5 5 5 5 5 6 5 6 5 5 5 5 5 5 5 5 5 5 5 5 5 5 5 5 5 5 5 5 5 5 5 6 5 5 5 5 6 5 5 5 5 5 6 5 5 6 5 6 5 5 5 5 6 6 6 5 5 6 5 5 6 6 5 6 5 5 5 5 5 6 5 5 5 6 6 6 6 5 5 5 6 6 5 5 5 6 6 5 6 5 5 5 5 5 5 5 5 5 5 5 5 5 5 5 5 5 5 6 5 5 5 5 5 5 5 5 5 5 5 5 6 5 5 5 5 5 5 5 5 5 5 5 5 5 6 6 5 5 5 5 5 5 5 5 6 5 6 5 5 5 5 6 5 6 5 5 5 5 5 5 6 5 5 5 5 5 5 5 5 5 5 5 5 5 5 5 5 6 5 5 6 5 5 5 5 5 5 5 5 5 5 5 5 5 5 5 5 5 5 5 5 6 5 5 5 5 5 5 5 5 6 5 5 5 5 5 5 5 5 5 5 5 6 5 6 5 5 5 5 5 6 5 5 5 6 5 6 5 5 5 5 5 5 5 5 5 6 5 5 5 5 5 5 5 5 5 5 5 6 5 5 6 5 5 5 5 5 6 6 5 5 5 5 5 6 5 5 6 5 5 6 5 5 5 5 5 5 5 5 5 5 5 5 5 5 5 5 6 5 5 6 5 5 5 5 5 5 5 5 5 5 5 5 5 5 5 5 5 5 5 6 5 5 5 5 6 5 5 5 5 5 6 5 5 5 5 5 6 5 5 5 5 6 5 5 5 5 5 6 5 5 5 5 5 5 5 5 5 5 5 5 5 5 5 5 5 5 5 5 5 5 5 6 5 5 5 5 5 5 5 6 5 5 5 5 5 5 5 6 5 5 5 6 5 5 5 5 5 5 5 5 5 5 5 6 5 5 5 5 5 5 6 5 5 5 5 5 5 5 5 5 5 5 5 5 5 5 5 5 5 5 5 6 5 5 5 5 5 5 6 5 5 5 5 5 5 5 5 6 5 5 5 6 5 5 5 5 5 5 5 5 5 5 5 5 5 5 5 5 5 5 5 5 5 5 5 5 5 5 5 5 5 5 5 5 5 5 5 5 5 5 5 5 5 5 6 5 5 5 5 5 5 5 5 5 5 5 5 5 5 5 5 5 5 5 5 5 5 5 5 5 5 6 5 5 5 5 5 5 5 5 5 5 5 5 6 5 5 5 5 5 5 5 5 5 5 5 6 5 5 6 5 5 5 5 5 5 5 6 5 5 5 5 5 5 5 5 5 5 5 5 6 5 6 5 6 5 6 5 5 5 5 5 6 5 5 5 5 5 5 5 5 5 5 5 5 5 5 5 5 6 5 5 5 5 5 5 5 5 5 5 5 6 5 6 5 5 5 5 6 5 6 5 5 5 5 5 5 5 5 5 5 6 6 5 5 5 5 5 5 5 6 5 5 5 5 6 6 5 5 5 5 6 5 5 5 5 5 5 5 5 5 5 5 5 5 5 5 5 5 5 5 5 5 5 5 5 5 5 5 5 5 5 5 5 5 5 5 5 5 5 5 5 5 5 5 5 5 5 5 5 5 5 5 5 5 5 5 5 5 5 5 5 5 5 5 5 5 5 5 5 5 5 5 6 5 5 5 5 5 5 5 5 5 5 5 5 5 5 5 5 5 5 5 5 5 6 5 5 5 5 5 6 5 5 5 5 6 5 5 5 5 5 5 5 6 5 5 5 6 5 5 5 5 5 5 5 5 5 5 5 5 5 5 6 5 5 5 5 6 5 6 5 5 5 5 5 5 6 5 5 5 5 5 5 5 5 5 5 6 5 5 6 5 5 5 5 5 5 5 5 5 5 5 6 5 5 5 5 5 5 5 6 5 5 5 5 5 5 5 5 5 5 5 5 5 5 6 5 6 5 5 6 5 5 6 6 5 5 5 5 6 5 6 5 5 6 5 6 5 5 5 5 5 5 5 5 5 5 5 5 6 5 5 5 6 5 5 5 6 5 5 5 5 5 5 5 5 5 5 5 6 5 5 5 6 5 6 5 5 5 5 6 5 5 5 5 5 5 5 5 5 5 5 6 5 5 5 5 5 5 5 6 5 5 5 5 6 5 6 5 6 5 5 5 5 5 5 5 6 5 5 5 5 5 5 6 5 5 5 5 5 5 5 6 5 5 5 5 5 6 5 5 5 5 6 6 5 5 5 5 5 6 5 5 5 5 5 6 5 6 5 5 5 5 6 5 5 5 6 5 5 5 5 5 5 5 5 5 5 5 5 5 5 5 5 5 5 5 5 5 5 5 5 5 5 5 6 5 5 5 6 6 5 5 5 5 5 5 5 5 6 5 5 5 5 6 5 5 5 5 5 5 5 5 5 6 5 5 6 5 5 5 5 6 5 5 6 5 5 5 5 6 5 5 6 5 5 6 5 5 6 5 5 5 5 5 5 5 5 5 5 5 5 5 5 5 5 6 5 5 5 6 5 5 5 5 5 5 5 6 5 5 5 6 5 5 6 6 5 5 5 6 5 6 5 5 5 6 6 5 5 5 5 5 5 5 5 5 6 5 6 5 5 5 5 6 6 5 5 5 6 5 5 5 5 5 6 5 5 5 5 5 5 5 5 5 5 5 5 5 5 5 5 5 5 5 5 5 5 5 5 5 5 5 5 6 5 5 5 5 5 5 5 5 5 5 6 5 5 6 5 5 5 5 6 5 5 5 5 5 5 5 5 5 5 5 5 5 5 5 5 6 5 5 5 5 5 5 5 6 6 5 5 5 5 5 5 5 6 6 5 5 5 5 5 5 5 6 5 5 5 5 5 6 5 5 5 5 5 6 5 6 6 5 6 5 5 5 5 5 5 5 5 5 5 5 5 5 5 5 5 5 5 5 5 5 5 5 5 5 5 5 5 5 5 5 5 5 6 5 5 5 5 5 5 5 5 5 5 5 6 5 5 5 5 5 5 5 5 6 5 5 6 6 5 6 5 6 5 6 5 5 5 6 6 5 5 6 5 5 5 6 5 5 5 5 5 5 6 5 5 6 5 5 5 5 5 5 6 5 5 5 6 5 5 5 5 5 5 5 5 5 5 5 6 5 5 5 5 5 5 5 6 5 5 5 6 5 5 5 5 5 5 5 6 5 5 5 5 6 5 5 5 5 5 5 5 5 6 5 5 5 6 5 5 5 6 5 5 5 5 6 5 5 5 5 5 6 5 6 5 5 5 6 5 6 5 5 5 5 6 5 5 6 5 5 6 5 5 5 5 5 5 5 5 5 5 5 5 5 5 5 5 5 5 5 5 5 5 5 5 5 5 5 5 5 5 5 5 5 5 5 5 5 5 5 5 5 5 5 5 5 5 5 5 5 6 6 5 5 5 5 5 5 6 5 5 5 5 5 5 5 5 5 5 5 5 5 5 5 5 5 5 5 5 5 5 5 5 5 5 5 5 5 6 5 5 5 5 5 5 6 5 5 6 5 5 5 5 5 5 5 5 6 5 5 5 5 5 6 5 5 5 6 5 5 5 6 5 5 5 5 5 6 5 5 5 6 5 6 5 6 6 5 6 5 5 5 5 6 5 5 5 5 5 5 5 5 5 6 5 5 5 5 5 5 6 5 5 6 5 5 5 5 5 5 5 6 5 5 5 5 5 5 5 5 5 5 5 5 5 5 5 5 5 5 5 5 5 5 5 5 5 5 5 5 6 5 6 5 6 5 5 5 5 6 6 5 5 5 5 5 5 6 5 6 5 5 5 5 5 5 5 5 5 5 5 5 5 5 5 5 5 5 5 5 5 5 6 5 6 5 6 6 6 5 5 5 5 5 5 5 6 5 6 5 5 5 5 5 5 5 5 6 6 5 6 5 5 6 5 5 5 6 5 6 5 5 5 5 6 5 5 5 5 5 5 5 5 5 5 5 5 5 6 5 5 5 5 5 5 5 5 5 6 5 5 5 5 5 5 5 5 6 5 5 5 5 5 6 5 5 5 5 5 6 5 5 5 5 5 5 5 6 5 5 6 5 5 6 5 5 5 5 5 5 6 5 5 5 5 6 5 6 5 5 5 5 5 5 5 6 5 5 6 6 5 6 5 6 5 5 5 6 5 6 5 6 5 5 5 5 6 5 5 5 5 5 6 5 5 5 5 5 5 5 5 6 5 5 5 5 5 5 5 5 5 5 5 5 5 6 5 5 5 5 5 5 5 5 5 5 6 5 5 5 6 5 5 5 5 5 5 5 5 5 5 5 6 5 5 5 6 5 6 5 5 6 5 5 5 6 5 5 5 6 5 5 6 5 5 5 5 5 5 5 5 6 5 6 5 5 5 5 5 5 5 5 5 5 5 5 5 5 5 5 5 5 5 5 5 5 5 5 5 5 6 5 5 6 5 5 6 5 5 5 5 5 5 5 5 5 5 5 5 5 5 5 5 5 5 5 5 5 5 5 5 5 5 5 5 5 5 5 5 5 5 6 5 5 5 5 5 5 5 5 5 5 5 5 5 5 5 5 5 6 5 5 6 5 5 5 5 5 5 5 6 5 5 5 5 5 5 5 5 5 5 5 6 5 6 5 5 5 6 5 5 6 5 5 5 6 5 6 5 5 5 5 5 5 5 6 5 6 5 5 5 5 5 5 5 5 5 5 5 5 5 5 5 5 5 6 5 5 6 5 5 5 5 6 5 6 5 5 5 6 5 5 5 6 5 6 5 5 5 5 5 5 6 5 5 5 5 5 5 5 5 5 5 6 5 5 5 5 6 5 5 5 5 5 5 5 5 5 5 5 5 5 5 5 5 5 5 5 5 5 5 5 5 5 5 5 5 5 5 5 5 5 5 5 5 5 5 5 5 5 6 5 5 5 5 5 6 6 5 5 5 5 6 5 6 5 5 5 5 5 5 5 6 6 5 5 5 5 5 5 5 5 5 6 5 5 5 5 5 5 5 5 5 5 5 5 5 5 5 5 5 5 5 5 5 5 5 5 5 5 5 5 5 5 5 5 5 5 5 5 5 5 5 5 5 5 5 5 5 5 5 5 5 5 5 5 5 6 5 5 5 6 5 5 5 5 5 5 5 5 5 5 5 5 5 5 5 5 5 5 5 5 5 5 5 5 5 5 5 5 5 5 5 5 5 5 5 5 5 6 5 6 5 5 5 5 5 5 5 5 5 5 5 5 5 5 5 5 5 5 6 5 5 5 5 5 5 5 5 5 5 5 6 5 5 5 5 5 6 5 5 5 5 5 5 6 5 5 5 5 5 5 5 5 5 5 5 5 5 5 5 5 5 5 5 5 5 5 5 5 5 5 5 5 5 6 5 5 5 5 5 5 5 5 5 5 5 5 5 5 5 5 5 5 5 5 5 5 5 5 5 5 5 5 5 6 5 5 6 5 5 6 5 5 6 5 6 5 5 5 5 5 5 5 5 5 5 5 5 5 5 5 5 5 5 5 5 5 5 5 5 5 5 5 5 6 5 5 5 5 5 5 5 5 6 5 6 5 5 5 6 5 5 6 5 6 5 6 5 6 5 6 5 6 5 5 5 5 5 5 5 5 5 5 5 5 5 5 5 5 5 5 5 5 5 5 5 5 5 5 5 5 5 6 5 5 6 5 6 5 5 5 5 5 6 5 5 6 5 5 5 5 6 5 6 5 6 5 6 6 5 6 6 6 5 6 5 5 5 5 5 5 5 5 5 6 5 5 5 5 5 6 5 5 6 5 5 5 5 5 5 5 6 5 5 6 5 5 6 5 5 5 5 5 5 5 5 5 5 5 5 5 5 5 5 6 5 5 6 5 5 6 5 5 5 5 5 6 5 5 5 5 5 6 5 5 5 5 5 6 5 5 5 5 6 5 5 6 5 5 6 6 5 5 5 5 6 5 5 5 6 5 5 5 6 5 5 5 5 5 5 5 5 6 5 5 5 5 5 5 5 5 5 5 6 5 5 5 5 6 5 6 5 5 5 5 6 5 5 6 5 5 5 5 5 5 5 5 5 5 6 5 5 5 6 5 5 5 5 5 5 5 5 5 5 5 6 6 5 5 5 5 5 6 5 5 5 5 6 5 5 5 6 5 5 6 5 5 5 5 5 5 5 6 6 5 5 5 5 5 5 6 5 6 5 6 5 5 5 6 5 5 6 5 5 5 5 6 6 6 5 5 5 5 5 5 5 5 5 5 5 5 5 5 5 5 5 5 5 5 6 5 5 5 5 5 5 5 5 5 5 5 5 5 5 6 5 5 5 6 6 5 6 5 5 6 6 6 5 6 5 6 5 5 5 6 5 6 5 5 6 5 5 6 6 6 5 6 5 6 6 5 5 6 5 5 5 5 6 6 5 5 5 5 5 5 6 6 5 6 6 5 6 5 5 6 5 5 5 6 6 5 5 5 6 5 5 5 5 5 5 5 5 5 5 6 5 5 5 5 5 5 5 5 5 5 5 5 5 5 5 5 5 6 5 5 5 5 6 5 5 5 5 5 5 5 5 5 5 5 5 5 5 6 5 5 5 5 5 5 6 5 6 5 5 5 5 5 6 6 5 5 5 5 5 5 5 5 5 5 5 5 5 5 5 5 5 5 5 5 5 5 5 5 5 5 5 5 5 5 5 5 5 5 5 5 5 5 5 5 5 5 5 5 5 5 5 5 5 5 5 5 5 5 5 5 5 5 6 5 5 5 6 5 5 5 5 5 5 5 5 5 5 5 5 6 5 5 5 5 5 5 5 5 6 5 5 6 5 5 6 5 5 5 5 6 5 6 5 5 5 6 5 6 5 5 5 5 6 5 5 6 6 5 5 6 5 5 6 5 5 5 5 5 5 5 5 5 5 5 5 5 5 5 6 5 5 5 5 5 5 5 5 5 5 5 5 5 5 5 5 5 5 5 5 5 5 5 5 5 5 5 5 5 5 5 5 5 5 5 5 5 5 5 5 5 5 5 5 5 5 5 6 5 6 5 5 5 5 5 5 5 5 6 5 5 5 5 5 5 5 6 5 5 6 5 5 6 5 5 5 5 5 5 5 5 5 5 5 5 5 5 5 5 5 5 5 6 5 5 5 5 5 5 5 6 5 5 5 6 5 5 6 6 6 5 5 5 5 6 6 5 5 5 5 5 6 5 5 5 5 6 5 5 5 5 5 5 6 5 5 5 6 6 5 5 5 5 5 5 5 5 5 5 5 5 5 6 5 5 6 5 5 5 5 5 5 5 5 5 5 5 5 5 5 5 5 5 5 5 6 5 5 5 5 5 5 5 5 5 5 5 5 5 5 6 5 5 5 5 5 6 5 5 6 5 5 5 5 5 5 6 5 6 5 6 5 6 5 5 6 5 5 6 5 5 5 6 5 6 5 5 5 5 5 5 5 5 6 5 5 5 5 5 5 5 5 5 5 5 5 5 5 5 5 5 5 5 5 5 5 5 6 5 5 6 5 5 5 6 5 6 6 5 5 5 5 5 5 5 5 5 5 6 5 6 5 6 5 5 5 5 5 5 5 5 5 5 5 5 6 5 5 5 5 5 5 5 5 5 5 5 5 5 5 5 5 5 5 5 5 5 6 5 6 5 5 5 6 6 6 5 5 5 5 6 5 5 5 5 6 5 5 5 5 5 5 6 5 5 5 5 5 5 6 6 5 6 6 5 5 5 5 5 6 5 5 5 5 5 5 5 5 6 5 5 5 5 5 5 5 6 5 5 5 6 5 5 5 6 5 5 5 5 5 5 6 5 5 6 5 5 6 5 5 6 5 5 6 5 6 5 5 5 5 5 6 5 5 5 5 5 5 5 5 5 5 5 5 5 6 5 6 5 5 5 5 5 5 5 5 5 5 5 5 5 5 5 5 5 5 5 5 5 5 5 5 5 5 5 5 5 5 5 5 5 5 5 6 5 5 6 5 5 5 5 5 5 6 5 5 5 5 5 5 5 5 5 5 5 5 6 5 5 5 5 6 5 5 5 5 5 6 5 5 5 5 5 6 5 5 5 5 5 5 5 5 5 5 5 5 5 5 5 5 5 5 5 5 5 5 5 5 5 5 5 5 5 5 5 5 5 5 5 5 5 5 5 6 5 5 5 5 5 6 5 5 6 5 5 5 5 5 5 6 5 5 6 5 5 6 5 5 6 6 6 5 5 6 5 5 6 5 5 5 5 5 5 6 5 5 5 5 5 5 5 5 5 6 5 6 5 5 5 5 5 6 5 5 6 5 5 6 5 5 5 5 5 5 5 6 5 5 5 5 6 5 5 6 5 5 5 5 5 6 5 5 5 5 5 5 5 6 5 5 6 5 6 5 5 5 5 5 5 5 5 5 5 5 5 5 5 5 5 5 5 5 5 5 5 5 5 5 5 5 5 5 5 6 5 5 5 5 5 6 5 5 5 6 5 5 5 5 5 5 5 5 5 5 5 5 5 5 5 5 5 5 5 5 6 5 5 5 5 5 5 6 5 5 5 5 5 5 5 5 5 5 6 5 5 5 5 5 6 5 5 6 6 5 5 5 5 5 6 5 5 5 5 5 5 6 5 5 5 5 6 5 5 5 5 5 5 5 5 5 5 5 5 5 5 6 5 6 5 5 5 5 5 5 5 5 5 5 5 5 5 5 5 5 5 5 5 5 5 6 5 6 5 5 6 6 5 5 5 5 5 5 5 6 5 5 5 6 5 5 6 5 5 5 6 5 5 5 6 5 5 6 5 5 5 5 5 6 5 5 5 5 5 5 5 5 5 5 6 5 5 6 5 5 5 5 5 5 5 5 6 5 5 6 5 5 6 5 5 5 5 5 5 6 5 5 5 6 5 5 5 5 5 6 5 5 5 5 6 5 5 5 6 5 5 6 6 5 5 5 5 6 5 5 5 6 5 5 5 5 5 5 6 5 5 5 5 6 5 6 5 6 5 5 6 5 5 6 6 5 5 5 5 6 5 5 5 5 5 6 5 5 5 5 5 5 5 5 5 5 5 6 5 5 5 5 5 5 5 5 5 6 5 5 5 5 5 5 5 5 5 5 5 5 5 5 5 5 5 5 5 5 5 5 5 5 5 5 5 5 5 5 6 5 5 5 5 5 5 5 5 5 6 5 6 5 5 5 5 6 5 5 5 5 5 5 5 5 5 5 5 6 5 5 5 5 5 5 5 5 5 5 5 5 5 5 5 6 5 5 5 5 6 5 5 5 5 5 5 6 5 5 5 5 5 5 5 5 5 5 5 5 5 5 5 5 5 5 5 5 5 5 5 5 5 5 5 5 5 5 5 5 5 5 5 5 5 5 5 5 5 5 5 5 5 5 5 5 5 6 5 5 5 6 5 5 5 5 5 5 5 5 5 5 5 5 6 5 5 5 6 5 5 5 5 6 5 5 5 6 5 6 6 5 5 6 6 5 6 6 5 5 5 5 5 5 5 5 5 5 5 5 5 5 5 5 5 5 5 5 5 5 5 5 5 5 5 5 5 6 5 5 5 5 5 6 5 5 6 6 5 5 5 5 6 5 5 5 6 5 6 5 5 6 5 6 5 6 6 5 5 5 5 5 5 5 5 5 5 5 6 5 5 5 6 5 5 5 5 6 6 5 5 6 6 5 6 6 5 6 5 5 6 5 5 5 5 5 6 5 5 5 5 5 5 5 5 6 5 6 5 5 5 5 5 5 5 5 5 6 5 5 5 5 6 5 5 5 5 5 5 5 6 5 5 5 6 5 5 5 5 5 5 5 5 6 6 5 5 6 6 6 5 5 5 5 5 5 5 5 5 5 5 5 5 5 5 5 5 5 5 6 5 5 5 5 6 5 5 6 5 5 5 5 5 5 5 5 5 5 5 5 5 5 5 5 6 5 5 5 5 5 5 5 6 5 6 5 5 5 5 5 5 5 5 5 6 5 5 6 5 5 6 5 6 5 5 5 6 5 5 5 5 6 5 5 5 5 5 5 5 5 5 5 5 6 5 5 5 5 5 5 5 5 5 6 5 5 5 5 5 5 5 5 5 6 5 5 6 5 5 5 6 5 5 6 5 5 5 5 6 5 5 6 5 5 6 5 5 5 5 5 5 5 5 5 5 5 5 5 5 5 6 5 6 5 5 6 5 6 5 5 5 5 5 5 5 5 5 5 5 5 5 6 5 5 5 6 5 6 6 5 5 5 5 6 5 5 5 5 5 5 5 5 6 5 5 5 5 5 5 5 5 6 5 5 5 5 5 5 5 6 5 5 5 5 5 5 5 5 5 5 5 5 5 5 5 6 5 5 5 5 5 5 5 5 6 5 5 6 5 5 5 5 6 5 5 5 5 5 5 5 5 5 5 5 5 5 5 5 5 5 6 5 5 5 5 5 5 5 5 5 5 5 5 5 5 5 5 5 6 5 5 5 5 5 5 5 5 5 5 5 6 5 5 5 6 5 5 5 5 5 5 5 5 6 5 5 5 6 5 5 5 5 5 5 5 5 5 5 5 5 5 5 5 6 5 5 5 5 5 5 5 5 5 6 5 5 5 5 5 5 5 5 5 5 5 6 5 5 5 5 5 5 5 5 5 5 5 5 6 6 5 5 5 5 5 5 5 6 5 5 5 6 5 5 5 5 5 5 6 5 5 5 5 5 5 5 5 5 5 5 5 5 5 5 5 5 5 5 5 5 5 5 5 5 5 5 5 5 5 5 5 5 5 5 5 5 5 5 5 6 5 5 5 5 5 5 5 5 5 5 5 5 5 5 5 5 5 5 5 5 5 5 5 5 5 5 6 5 6 5 5 5 5 6 5 5 5 5 6 5 5 5 5 5 5 5 5 5 5 5 5 6 5 5 5 5 5 6 5 5 6 5 6 5 5 6 5 5 5 5 5 5 5 5 5 5 5 5 5 5 5 5 5 5 5 5 5 6 5 5 5 5 5 5 5 6 5 5 5 5 5 5 5 5 5 5 5 5 5 5 5 6 5 5 5 5 5 5 5 5 5 5 6 5 5 5 5 6 5 5 6 5 5 5 5 5 5 5 5 6 5 5 5 5 5 5 5 6 5 5 6 5 5 5 5 5 5 5 5 5 6 5 5 5 5 5 5 5 5 5 5 5 5 5 5 5 5 5 5 5 5 5 5 5 5 5 5 5 5 5 5 5 5 5 5 5 5 5 5 5 5 5 5 5 5 5 5 5 5 5 5 5 5 5 5 5 5 5 6 5 5 5 5 5 6 5 5 5 5 5 5 5 5 5 6 5 5 5 5 5 5 5 5 5 5 6 5 5 5 5 5 5 5 5 5 5 5 5 5 5 5 5 5 5 5 5 5 6 5 6 5 5 5 5 5 5 6 5 5 5 5 5 5 5 5 5 6 5 5 5 5 6 5 5 6 5 5 5 5 5 5 5 5 5 5 5 5 5 5 5 5 5 5 5 5 5 5 5 5 5 5 5 5 5 5 5 5 5 5 5 5 5 5 5 5 5 5 5 5 5 5 5 5 5 5 5 5 5 5 5 5 5 5 5 5 5 5 5 5 5 5 5 5 5 5 5 5 5 5 5 5 5 5 5 5 5 5 5 5 5 5 5 5 5 5 5 5 5 5 5 5 5 5 5 5 5 5 5 5 5 5 5 5 5 5 5 5 5 5 5 5 5 5 5 5 5 5 5 5 5 5 5 5 5 5 5 5 5 5 5 6 5 5 5 5 5 5 5 6 5 5 5 5 5 6 5 5 5 5 5 5 5 5 5 5 5 5 5 5 5 5 5 5 5 5 5 6 5 5 5 5 6 5 5 5 5 5 5 5 5 5 5 5 5 5 5 5 5 5 5 5 5 5 5 5 6 5 5 5 5 5 5 5 5 5 5 5 5 5 5 5 5 5 5 5 5 5 6 5 5 5 5 6 5 5 6 6 5 5 5 6 5 5 5 5 6 6 5 5 6 5 5 5 5 5 5 5 5 5 5 5 5 5 5 5 5 5 5 5 5 5 5 5 5 5 6 5 5 5 6 5 5 6 6 5 5 5 5 5 5 5 6 5 5 6 5 5 6 5 6 5 5 6 5 5 5 5 5 5 6 5 5 5 6 5 5 5 5 5 5 5 5 5 5 5 5 5 5 5 5 5 5 5 5 5 6 5 5 5 5 6 5 5 6 5 5 5 5 5 5 6 5 6 5 5 5 6 5 5 5 5 6 6 5 5 5 5 5 6 6 5 5 6 5 6 5 5 5 5 5 5 5 6 5 6 5 5 5 5 5 5 5 5 5 6 5 5 5 5 5 5 5 5 6 6 5 5 5 5 5 5 5 5 5 5 5 5 5 6 5 6 5 6 5 5 5 6 5 5 5 5 5 6 5 6 6 5 5 5 5 5 5 5 5 5 5 5 5 6 5 5 5 5 5 5 6 5 5 5 6 5 5 5 6 5 5 5 5 5 5 5 5 5 6 5 6 5 6 5 5 5 5 5 5 5 5 5 5 5 5 5 5 5 5 6 5 5 5 6 5 6 5 5 5 5 6 5 5 5 6 5 5 5 5 5 5 5 5 5 6 5 5 5 5 5 5 5 5 5 5 5 5 5 5 5 5 5 5 5 5 5 5 5 5 5 5 5 6 5 5 5 5 5 5 5 6 5 5 6 5 6 5 6 5 6 5 5 5 5 5 5 6 5 5 6 5 5 6 5 5 6 5 5 5 5 6 5 6 6 5 5 5 5 5 5 6 5 5 5 5 5 5 5 6 5 5 5 5 5 6 5 5 5 6 6 5 5 5 6 5 5 6 5 5 6 5 6 5 6 5 5 5 6 5 5 5 5 5 5 5 5 5 5 5 5 6 6 5 5 5 5 5 5 5 6 5 5 6 5 5 5 5 5 5 5 6 5 5 5 6 5 5 5 6 5 5 5 5 5 5 5 5 5 5 5 5 5 5 5 6 5 5 5 5 5 5 6 6 5 6 5 5 5 5 5 5 5 5 5 5 5 5 5 5 5 5 5 5 5 5 5 5 5 5 5 5 5 5 5 5 5 5 5 5 5 5 5 5 5 5 5 5 5 5 5 5 6 6 6 5 5 5 5 5 5 5 5 5 6 6 5 5 6 5 5 6 6 5 5 5 5 5 5 5 6 5 5 5 5 5 5 5 5 5 5 5 5 5 5 5 5 5 5 6 5 5 6 5 6 5 6 6 5 5 5 5 5 5 5 6 5 6 5 5 5 6 5 5 5 6 5 5 5 5 5 5 5 5 5 5 5 5 5 5 6 5 5 5 5 5 6 5 5 5 6 5 5 5 6 5 5 5 5 5 5 5 5 5 5 5 5 5 5 5 5 5 5 5 5 5 5 5 5 5 5 5 5 5 5 5 5 5 5 5 5 5 5 5 5 5 5 5 5 5 5 5 6 5 5 5 5 5 5 5 5 5 5 6 5 5 5 5 5 5 5 5 5 5 5 5 5 5 5 5 5 5 5 5 5 5 5 5 5 5 5 6 5 5 5 5 5 5 5 5 5 5 5 5 5 5 5 5 6 5 5 5 5 5 5 5 5 5 6 5 5 5 5 5 5 5 6 5 5 5 5 5 5 5 5 5 6 5 5 5 5 5 5 5 6 5 5 5 5 5 5 5 5 5 6 5 5 5 5 5 5 5 5 6 5 5 6 5 5 5 5 5 5 5 5 6 5 5 6 6 5 5 5 5 5 5 6 5 5 5 5 5 5 5 5 5 5 5 5 6 5 5 5 5 5 5 5 5 6 5 5 6 5 5 5 5 5 5 5 5 5 5 5 5 6 5 5 5 5 5 5 5 5 5 5 5 6 5 5 6 5 5 5 6 5 5 5 6 5 5 6 6 6 6 6 5 5 5 5 5 5 6 6 5 6 6 6 5 6 5 6 5 5 6 5 6 5 5 6 6 5 5 5 5 5 5 5 6 5 5 5 5 5 5 5 6 5 6 6 6 5 5 5 5 6 6 5 5 5 5 6 6 5 5 5 6 5 5 5 5 5 5 6 5 5 5 6 5 5 5 5 5 5 6 5 5 5 5 5 5 5 5 5 5 5 5 5 5 5 5 5 5 5 5 5 5 5 5 5 5 6 5 5 6 5 5 5 5 5 5 5 5 5 5 5 5 5 5 5 5 5 5 5 5 5 5 5 6 5 5 5 5 6 6 5 5 5 5 5 5 6 5 5 5 5 6 6 5 5 5 5 5 5 5 5 5 5 5 5 5 5 5 5 5 5 5 5 5 5 5 5 5 5 5 5 5 5 5 5 5 5 5 5 5 5 5 5 5 5 5 5 5 5 5 5 5 5 5 5 5 5 5 5 6 5 5 5 5 6 5 5 6 5 5 5 5 5 5 5 5 5 5 5 5 6 5 5 5 5 5 5 5 5 5 5 5 5 5 5 5 5 5 5 5 5 5 6 6 5 5 5 5 5 5 5 5 5 5 5 5 5 6 5 5 5 5 5 5 6 5 5 6 5 5 5 5 5 5 5 5 5 6 5 5 5 5 5 5 5 5 5 5 5 5 5 5 5 5 5 5 5 6 5 5 5 5 5 6 5 6 5 5 5 5 5 6 5 5 5 5 5 6 5 5 5 5 5 6 6 5 6 5 5 5 5 5 5 5 5 5 5 5 5 5 5 5 5 5 5 5 5 6 5 5 5 5 5 6 5 5 6 6 5 5 5 5 5 5 5 5 5 5 5 5 5 5 6 5 5 5 5 5 5 5 6 5 5 6 5 6 5 5 6 5 5 5 5 5 5 5 5 5 5 5 5 5 5 5 5 5 5 5 5 5 5 5 6 5 5 5 5 5 5 5 5 5 5 6 5 5 5 5 6 5 5 5 5 5 5 5 5 5 5 5 6 5 5 5 5 5 5 5 5 5 5 5 5 5 5 5 5 5 5 5 5 5 5 5 5 5 5 5 5 6 5 5 5 5 6 5 5 5 5 5 6 5 5 5 5 5 5 5 5 5 5 5 5 5 5 5 5 6 5 5 5 5 5 5 5 5 5 5 5 6 5 5 6 5 5 5 5 6 5 5 5 5 5 5 5 5 5 5 5 5 5 5 5 5 5 5 5 6 5 5 6 5 6 5 6 5 5 6 5 5 5 5 5 5 5 5 5 5 5 5 5 6 5 6 5 5 5 5 5 5 5 5 5 5 5 5 5 5 5 5 5 5 5 5 5 5 5 5 5 5 5 5 5 6 5 5 5 5 5 5 5 5 6 5 6 5 6 5 5 5 6 5 5 5 5 5 5 5 5 6 5 5 5 5 6 5 5 5 5 5 5 5 6 5 6 5 5 5 5 5 5 5 5 5 5 5 5 5 5 5 5 5 5 5 5 5 5 5 5 5 5 6 5 5 5 5 5 5 5 6 5 5 5 6 5 6 5 5 6 5 5 6 6 6 5 5 5 5 6 5 5 6 5 6 5 5 5 5 5 5 5 5 5 6 5 6 5 6 5 6 6 6 5 5 5 5 5 5 6 5 5 5 5 5 5 5 5 5 5 5 5 5 5 5 5 5 5 5 5 5 5 5 5 5 5 5 5 5 6 5 5 5 5 5 5 5 5 5 5 6 6 5 5 5 5 5 5 5 6 5 5 5 5 5 5 5 5 5 6 5 5 5 6 5 5 5 5 5 5 6 5 5 6 5 5 5 6 5 5 5 6 5 6 5 5 5 5 5 6 5 5 5 5 5 5 6 5 5 5 5 5 5 5 5 5 5 5 6 5 5 5 5 5 5 5 5 5 5 5 5 5 5 5 5 5 5 5 5 6 5 5 5 5 6 5 5 5 6 5 5 6 5 5 5 5 5 5 5 5 5 6 5 6 5 5 5 5 5 5 5 5 5 6 5 6 5 6 5 5 5 5 6 5 6 5 5 5 5 5 5 6 5 5 5 5 5 6 5 5 5 5 5 5 6 5 5 5 5 5 5 5 5 5 6 5 5 5 5 6 6 5 6 5 5 6 5 5 5 5 5 5 5 5 5 5 5 5 5 5 5 5 5 5 5 5 5 5 6 5 5 6 5 5 5 6 5 5 5 5 6 5 5 5 6 5 5 5 5 5 5 6 5 6 5 5 5 5 5 5 5 5 5 5 5 6 5 5 6 5 5 5 5 5 5 5 6 5 5 5 5 5 5 6 5 5 5 5 5 5 5 5 5 5 6 5 5 5 5 5 5 5 5 5 5 6 5 5 6 5 6 6 5 5 5 5 6 5 6 5 5 5 5 5 6 5 5 5 5 6 5 5 5 6 5 5 5 5 5 5 6 5 5 5 6 5 5 6 5 5 5 5 5 5 5 5 5 5 5 5 5 5 5 5 5 6 5 5 6 5 5 5 5 5 6 5 5 5 5 5 5 5 5 6 5 6 6 5 5 5 5 5 5 5 6 6 5 5 5 5 5 6 5 6 6 5 6 5 5 6 5 5 5 5 5 5 5 5 5 5 5 5 5 5 5 5 5 5 6 5 5 5 5 5 5 5 5 5 5 5 5 5 5 
</DataArray>
<DataArray type="Float64" Name="stress" NumberOfComponents="9" format="ascii">
3491.3542161800942 -51.637302723662849 0 -51.637302723662849 1456.5586845721605 0 0 0 0 3564.7856412679685 677.81743957377637 0 677.81743957377637 -174.95343713834689 0 0 0 0 3147.6253256583586 566.87659260981309 0 566.87659260981309 -0.70652439501427688 0 0 0 0 1695.4541773754827 -534.81469694733255 0 -534.81469694733255 252.41105590320171 0 0 0 0 3236.574283736667 -688.87420473228065 0 -688.87420473228065 143.09552560437692 0 0 0 0 19.22619559267838 4.9205539647470431 0 4.9205539647470431 -0.06548275680567972 0 0 0 0 2707.2845183543977 -1460.9601248057306 0 -1460.9601248057306 -517.16977310195398 0 0 0 0 773.44853557647002 2353.6257888724408 0 2353.6257888724408 1583.1337148756879 0 0 0 0 84.023983425933693 1054.130809723111 0 1054.130809723111 671.39884061697012 0 0 0 0 1680.1332682119682 2378.1239772508097 0 2378.1239772508097 1562.8526108611234 0 0 0 0 3494.239010247853 2036.3615357727549 0 2036.3615357727549 -58.007138441998336 0 0 0 0 1171.0611131915211 850.10629931054314 0 850.10629931054314 2360.1607025469625 0 0 0 0 2082.3651018869423 1006.4185998653662 0 1006.4185998653662 -217.49983905130557 0 0 0 0 1636.7844947241101 643.57247697491243 0 643.57247697491243 -198.77686799987691 0 0 0 0 1738.7959309698344 355.14484038223577 0 355.14484038223577 -580.94162013232472 0 0 0 0 2012.3885066854673 714.87670512701357 0 714.87670512701357 -417.62225503735237 0 0 0 0 19.338726560384885 5.5932539867995903 0 5.5932539867995903 -1.2293855484131271 0 0 0 0 1597.4039087642013 19.759848226678002 0 19.759848226678002 -1445.3306273355265 0 0 0 0 432.1422987205151 -180.5929780698448 0 -180.5929780698448 -334.836720423217 0 0 0 0 1644.7604034782853 2332.5758847183292 0 2332.5758847183292 950.48500893322387 0 0 0 0 1036.3483339020167 2006.5967523488816 0 2006.5967523488816 831.52359752795132 0 0 0 0 2277.595528663689 1907.0389571976907 0 1907.0389571976907 73.784814734351585 0 0 0 0 2542.6868076391547 2062.4331368597236 0 2062.4331368597236 112.71439035324534 0 0 0 0 89.60419204691425 48.646682057745693 0 48.646682057745693 50.939627381470018 0 0 0 0 209.17173706556059 119.44227289817235 0 119.44227289817235 -142.63529238748538 0 0 0 0 11.051212032457244 9.3133393293375661 0 9.3133393293375661 -7.3905446232550576 0 0 0 0 8.9502626102248826 10.753018236071838 0 10.753018236071838 -11.78251101152647 0 0 0 0 93.516025224903615 73.150993713472573 0 73.150993713472573 -34.024272195973026 0 0 0 0 19.645632518686739 10.394976016423847 0 10.394976016423847 1.6595508819829954 0 0 0 0 583.44256815937115 1258.4027817091846 0 1258.4027817091846 3021.0602332751218 0 0 0 0 566.12638750878978 980.7305745396161 0 980.7305745396161 766.33057126457356 0 0 0 0 55.564642808971882 17.808463947305633 0 17.808463947305633 -9.2169732240108431 0 0 0 0 215.22809447199688 -94.952484664667907 0 -94.952484664667907 -0.89965020250863792 0 0 0 0 68.016873745698831 76.445677250320912 0 76.445677250320912 22.344156711271054 0 0 0 0 10.094414887386364 5.9775005964583272 0 5.9775005964583272 -0.42813516311525573 0 0 0 0 60.397459275845904 -2.1729775710276455 0 -2.1729775710276455 -0.059767261896699661 0 0 0 0 13.095044994384352 5.0023997390798058 0 5.0023997390798058 0.3541714654498534 0 0 0 0 56.334344264039828 -12.528616420997512 0 -12.528616420997512 -26.356602191226568 0 0 0 0 67.134446307191752 8.849347646637618 0 8.849347646637618 -2.8930565049273866 0 0 0 0 69.738509774644626 73.992924981043871 0 73.992924981043871 -31.650483806835837 0 0 0 0 64.968454035290051 58.539683429917886 0 58.539683429917886 -121.99417506851864 0 0 0 0 41.067344475348364 -24.389500631909435 0 -24.389500631909435 0.10849720281648287 0 0 0 0 70.130032660084339 3.064606932100574 0 3.064606932100574 -1.2726357671446229 0 0 0 0 145.35202686728007 67.34869749750959 0 67.34869749750959 -49.02864634457395 0 0 0 0 4.8722316496144913 6.832813855630242 0 6.832813855630242 -1.1542535019799891 0 0 0 0 31.189967387239449 -1.2348727831728084 0 -1.2348727831728084 -0.014091608389246123 0 0 0 0 4.0259313032374848 -6.6752841068169886 0 -6.6752841068169886 1.1033801891411825 0 0 0 0 53.073310750114615 39.060647961709037 0 39.060647961709037 -139.31711403717327 0 0 0 0 62.17599508879357 124.76372789432071 0 124.76372789432071 -178.02853187794005 0 0 0 0 95.081009499859647 233.51927928535292 0 233.51927928535292 -12.8419148219607 0 0 0 0 -25.102802902751137 106.35391922330109 0 106.35391922330109 8.9139589239330235 0 0 0 0 8.2941549720708281 53.222735337405425 0 53.222735337405425 67.701822442960975 0 0 0 0 92.138311622626134 38.610672037984784 0 38.610672037984784 -24.49243547226979 0 0 0 0 42.723898451607965 45.22222693587662 0 45.22222693587662 -23.402680423530001 0 0 0 0 49.715239957491576 113.65685090236093 0 113.65685090236093 -4.0403940864143806 0 0 0 0 54.049756062886445 46.053899005871699 0 46.053899005871699 -107.25070302994118 0 0 0 0 55.329142402712023 -1.1369035019707701 0 -1.1369035019707701 -8.9112256306740694 0 0 0 0 43.882637701695785 -0.38962589073658455 0 -0.38962589073658455 0.056307792357146391 0 0 0 0 129.8564570445742 -46.766977130612403 0 -46.766977130612403 -29.712760295559413 0 0 0 0 160.59695004182868 22.844060500731416 0 22.844060500731416 -431.0525279614385 0 0 0 0 68.828400497424468 -11.206648132250145 0 -11.206648132250145 1.1307256688288017 0 0 0 0 170.27435029883054 203.04458825631059 0 203.04458825631059 -262.59385562482748 0 0 0 0 126.83570104053069 152.11023962571824 0 152.11023962571824 -194.94048668618962 0 0 0 0 62.522244914967359 -15.693753156321343 0 -15.693753156321343 2.5667294871642001 0 0 0 0 293.10008426712011 -291.49118204547176 0 -291.49118204547176 -774.88058179157474 0 0 0 0 -71.392013706972648 -164.09194919968746 0 -164.09194919968746 -294.19724666236698 0 0 0 0 512.41552621065057 11.027028949305532 0 11.027028949305532 -301.65930224236462 0 0 0 0 159.55960069152934 145.19373440806328 0 145.19373440806328 406.32598886374404 0 0 0 0 336.57213220655467 441.68836954568189 0 441.68836954568189 154.63795809452631 0 0 0 0 -2.0437161179288523 98.550179665217229 0 98.550179665217229 476.00309103953225 0 0 0 0 0.39699489025833978 1.2460686984276208 0 1.2460686984276208 4.8830936436835675 0 0 0 0 34.283828846972028 -77.807767620644711 0 -77.807767620644711 146.43954180732555 0 0 0 0 77.411518321314361 -60.403759632655806 0 -60.403759632655806 7.7191196741212025 0 0 0 0 577.43992645229446 -130.64347131899808 0 -130.64347131899808 -9.8154799580161693 0 0 0 0 497.1332278358305 139.77587020976461 0 139.77587020976461 245.72148183206752 0 0 0 0 -63.797273846765165 97.099054027789293 0 97.099054027789293 54.776696815982092 0 0 0 0 -59.914531109974632 -94.283248806372569 0 -94.283248806372569 283.33207542666514 0 0 0 0 -2.6258450822204793 1.0690474036853885 0 1.0690474036853885 -1.0759893665886842 0 0 0 0 -10.643602338343044 125.93079484985867 0 125.93079484985867 32.183612656795276 0 0 0 0 -11.859232179427636 125.39119939382192 0 125.39119939382192 128.73384817084434 0 0 0 0 4.6024098168763885 96.995360212608531 0 96.995360212608531 53.892908039269059 0 0 0 0 -57.539030375424773 157.71598266567162 0 157.71598266567162 12.282599844966853 0 0 0 0 46.605513761467591 -4.9786901986781231 0 -4.9786901986781231 -27.531329316163919 0 0 0 0 88.564902512836852 -4.8993302189223868 0 -4.8993302189223868 -212.40224049408516 0 0 0 0 6.3573519870697055 -137.06631621594909 0 -137.06631621594909 88.075846695575024 0 0 0 0 53.223229744224227 -40.705543149900336 0 -40.705543149900336 122.24610991175734 0 0 0 0 5.1150537687521478 -1.0451063797236628 0 -1.0451063797236628 -5.5861518950729963 0 0 0 0 1253.3582151245409 612.97990303207939 0 612.97990303207939 575.13911760442943 0 0 0 0 70.486139487766195 -152.2890227616324 0 -152.2890227616324 -52.867772939573115 0 0 0 0 115.88551833278325 237.52648090353136 0 237.52648090353136 -183.34741392279238 0 0 0 0 1020.9589190763072 726.60501196578889 0 726.60501196578889 228.85394305320415 0 0 0 0 829.50076681117935 419.81996299191491 0 419.81996299191491 150.53161156336 0 0 0 0 1287.0208851568459 926.07807723314056 0 926.07807723314056 367.62443622947671 0 0 0 0 1250.1709291476363 475.19471057974783 0 475.19471057974783 -78.233944311241203 0 0 0 0 834.79029851588712 400.85763961854786 0 400.85763961854786 154.73836684662456 0 0 0 0 70.647218448095373 59.281421154979398 0 59.281421154979398 80.098769163713541 0 0 0 0 35.075173312492552 -31.081040002457712 0 -31.081040002457712 154.00879617489522 0 0 0 0 11.159715282890204 -5.3445235416815677 0 -5.3445235416815677 -3.9745665816531117 0 0 0 0 490.77024251408875 305.22438582388884 0 305.22438582388884 148.85676269810415 0 0 0 0 820.18622766328917 437.86446398041494 0 437.86446398041494 140.86491112414416 0 0 0 0 899.98012186512642 255.40691688701145 0 255.40691688701145 -10.607820134228632 0 0 0 0 1157.8151790967404 398.24928408072344 0 398.24928408072344 -29.667846092604123 0 0 0 0 1162.9022447136376 422.13904148895023 0 422.13904148895023 61.830847677751763 0 0 0 0 450.74491080641747 -106.00949280489976 0 -106.00949280489976 12.313982409666551 0 0 0 0 608.36918012971 29.999504565084862 0 29.999504565084862 79.177874499787322 0 0 0 0 384.5716724825761 130.62850821085897 0 130.62850821085897 175.76339056219513 0 0 0 0 -32.517281201857259 19.33451158957223 0 19.33451158957223 50.618868884043309 0 0 0 0 0.10202046333911202 1.9675233477950087 0 1.9675233477950087 12.56772644477304 0 0 0 0 34.551938019343652 -7.3775542474922986 0 -7.3775542474922986 -15.097924218398134 0 0 0 0 0.82759385489746151 1.9451484179549539 0 1.9451484179549539 0.46073985171745058 0 0 0 0 305.70353759231512 -117.27757668592358 0 -117.27757668592358 -158.24041866643529 0 0 0 0 27.868098530416319 37.358022366787566 0 37.358022366787566 20.588465109881213 0 0 0 0 46.652817412239528 -3.9367689987092263 0 -3.9367689987092263 12.888676241431767 0 0 0 0 262.62182020127511 28.234457455043412 0 28.234457455043412 76.115188382889755 0 0 0 0 659.82253126083742 49.277813238768431 0 49.277813238768431 -33.498622403219997 0 0 0 0 659.90220428747125 28.165401285504686 0 28.165401285504686 -65.732633047703985 0 0 0 0 660.52466384689978 18.065079877000244 0 18.065079877000244 -39.975255677421956 0 0 0 0 583.35629247190809 -25.711687516216443 0 -25.711687516216443 -33.105442754173055 0 0 0 0 860.07280954602174 -205.81715252796857 0 -205.81715252796857 220.36329938471317 0 0 0 0 655.04837948506611 79.635748678386108 0 79.635748678386108 39.860146103586885 0 0 0 0 394.06118245376274 60.427229857370548 0 60.427229857370548 64.400092298559684 0 0 0 0 533.10186333443562 226.84676868373617 0 226.84676868373617 -38.638823892721121 0 0 0 0 637.40952587517677 48.502610211904539 0 48.502610211904539 4.0732845957772952 0 0 0 0 53.318362240446731 24.211404831868094 0 24.211404831868094 12.577369384203848 0 0 0 0 327.86430612065305 150.45161878315912 0 150.45161878315912 99.631111261263868 0 0 0 0 3.7222602530780473 3.5643186934015318 0 3.5643186934015318 17.696730439477911 0 0 0 0 448.89253278194519 59.411969042998862 0 59.411969042998862 27.405300549925414 0 0 0 0 3.1974335297522956 -1.130814209489813 0 -1.130814209489813 1.8176112925384871 0 0 0 0 14.177803008086869 -7.218014421091965 0 -7.218014421091965 2.2922104743716152 0 0 0 0 -141.1616502358811 77.248437038913835 0 77.248437038913835 82.379005909697298 0 0 0 0 22.409640841003252 -5.3100270873952979 0 -5.3100270873952979 22.535140107976542 0 0 0 0 453.52792255597888 173.73141093663071 0 173.73141093663071 -29.002115670683452 0 0 0 0 510.41272985601245 112.93667090926044 0 112.93667090926044 20.618624303533579 0 0 0 0 492.2123012530501 151.76773404273081 0 151.76773404273081 -19.688291729771663 0 0 0 0 2.8316874523960025 -6.3114816755533099 0 -6.3114816755533099 14.487007759861143 0 0 0 0 5.6036969231458666 -0.42670847932139111 0 -0.42670847932139111 12.268572013462318 0 0 0 0 292.30918847507564 158.45451649440884 0 158.45451649440884 89.491651011800059 0 0 0 0 229.21737538720481 45.772976261532904 0 45.772976261532904 107.95500370760419 0 0 0 0 550.86479700863129 152.38877285386184 0 152.38877285386184 16.544466507024936 0 0 0 0 431.59714882838307 159.81423822902343 0 159.81423822902343 28.845006264498807 0 0 0 0 409.78500439296477 174.83716857126728 0 174.83716857126728 24.328152943495297 0 0 0 0 344.0047179639223 167.74965889490431 0 167.74965889490431 60.593380343028912 0 0 0 0 453.29135382705135 144.71249395501764 0 144.71249395501764 20.901202725790426 0 0 0 0 374.76063792954665 129.68316819854499 0 129.68316819854499 57.926132440878973 0 0 0 0 424.24944609525846 120.75390050385977 0 120.75390050385977 44.962341674004392 0 0 0 0 456.45022809105103 108.31916101182523 0 108.31916101182523 40.495009514524099 0 0 0 0 548.5948043233002 93.130589064916251 0 93.130589064916251 21.046069553498455 0 0 0 0 431.89141420158558 65.844671391199881 0 65.844671391199881 36.951992596998934 0 0 0 0 471.41386812599376 72.401836319771974 0 72.401836319771974 29.776989330786364 0 0 0 0 426.87200823845342 19.145364714469906 0 19.145364714469906 40.392149101274299 0 0 0 0 303.28647104030824 56.051076883016776 0 56.051076883016776 96.402221240339713 0 0 0 0 342.89445734964102 26.110942720241383 0 26.110942720241383 55.584802996509097 0 0 0 0 432.041154261271 62.963783628359124 0 62.963783628359124 55.581627306682094 0 0 0 0 333.70621151762316 100.1663532190355 0 100.1663532190355 81.087063756108364 0 0 0 0 422.22402832890657 111.46570078960178 0 111.46570078960178 63.581257250574708 0 0 0 0 361.08563314174535 206.24250762949487 0 206.24250762949487 29.777010055087885 0 0 0 0 395.58927729475545 204.07077086638765 0 204.07077086638765 -11.904249048430302 0 0 0 0 105.59128642547148 -124.95043207007484 0 -124.95043207007484 180.49244524808364 0 0 0 0 1067.2314094896719 -97.783992354496604 0 -97.783992354496604 36.539355426121801 0 0 0 0 -2.6468436595546905 1.469978033537231 0 1.469978033537231 6.8985128967580724 0 0 0 0 844.78187770461955 130.51153128594706 0 130.51153128594706 82.880306737240062 0 0 0 0 987.91165211008047 -163.41995728446932 0 -163.41995728446932 154.15808542925515 0 0 0 0 897.05151970266888 208.67474474102482 0 208.67474474102482 -29.912365285269743 0 0 0 0 1183.2738316382183 321.13872800507443 0 321.13872800507443 -36.097708782129985 0 0 0 0 897.69706762231363 220.16868293643154 0 220.16868293643154 -35.312278538162218 0 0 0 0 415.27673687902279 98.672883493997347 0 98.672883493997347 113.87027927752297 0 0 0 0 646.83470229289378 171.45221505648578 0 171.45221505648578 21.400230884902385 0 0 0 0 684.2110591919045 119.38930407096086 0 119.38930407096086 2.7327671113775978 0 0 0 0 723.9269335711142 171.45686914157523 0 171.45686914157523 4.4334480456120815 0 0 0 0 665.66645529262314 77.280002002635229 0 77.280002002635229 -17.625909293765289 0 0 0 0 550.71216591416123 77.640302315922725 0 77.640302315922725 15.099487106762354 0 0 0 0 634.74118999260827 101.31427954516948 0 101.31427954516948 -7.7793427470367078 0 0 0 0 820.24315148298047 123.25627518654619 0 123.25627518654619 -71.57705844041061 0 0 0 0 941.39139892607636 105.48560347163425 0 105.48560347163425 -80.582753729341675 0 0 0 0 1044.5507556237571 158.83269113979168 0 158.83269113979168 -94.900046403889803 0 0 0 0 940.43677214366335 122.97748819600325 0 122.97748819600325 -88.14330057949428 0 0 0 0 1249.7897724496725 218.44453023427241 0 218.44453023427241 -116.51707113349266 0 0 0 0 1689.9050684698159 159.99924743951669 0 159.99924743951669 -231.48708712416419 0 0 0 0 1250.3094151285022 211.85694599337501 0 211.85694599337501 -155.05963366270294 0 0 0 0 1573.8947705270257 246.31580150311754 0 246.31580150311754 -179.68027613571303 0 0 0 0 1182.8173701399455 315.52431435891981 0 315.52431435891981 -85.104114362098699 0 0 0 0 1736.317530254586 429.13308503384604 0 429.13308503384604 -208.83354377056736 0 0 0 0 1625.3041771711814 385.11066209408636 0 385.11066209408636 -224.97848473327645 0 0 0 0 1692.1795545296045 247.67826640497788 0 247.67826640497788 -332.59457833094211 0 0 0 0 2149.8818180740636 337.21841283114145 0 337.21841283114145 -336.07043934526746 0 0 0 0 2144.374838711311 426.18860877140054 0 426.18860877140054 -524.24813467084289 0 0 0 0 2740.2550041749346 364.5964608623176 0 364.5964608623176 -591.56367869809469 0 0 0 0 2783.9585749005419 191.18075636055676 0 191.18075636055676 -917.35646460039629 0 0 0 0 3499.4220359348401 592.92663793960844 0 592.92663793960844 -863.31965206059863 0 0 0 0 2573.5566444381402 770.29361710698231 0 770.29361710698231 -747.06920133054757 0 0 0 0 2489.1130329410516 561.0751735764029 0 561.0751735764029 -477.42139805159951 0 0 0 0 3500.1655858341765 1203.4599182838108 0 1203.4599182838108 -604.58601119980392 0 0 0 0 2238.1069775202668 1355.2906342159429 0 1355.2906342159429 -367.56878294754176 0 0 0 0 2110.2734105482887 1498.8137306427595 0 1498.8137306427595 99.926304282826379 0 0 0 0 1465.1992997063426 660.9273500378755 0 660.9273500378755 -69.457680861972221 0 0 0 0 1359.3791587815504 589.42239188980875 0 589.42239188980875 129.12832281055708 0 0 0 0 1262.7802924160133 313.89087819690701 0 313.89087819690701 -118.90674194796577 0 0 0 0 1633.7611221848783 681.06433760265327 0 681.06433760265327 -7.9909508743801894 0 0 0 0 1397.8511894291732 407.85612489287882 0 407.85612489287882 -51.667445413406881 0 0 0 0 1398.1618614698818 421.36515291768046 0 421.36515291768046 -54.107645662461607 0 0 0 0 1431.1744172531762 335.59552606863224 0 335.59552606863224 -92.831227604173137 0 0 0 0 1446.1932566090254 412.19137411811721 0 412.19137411811721 -81.228563975665111 0 0 0 0 2085.7884068549174 764.03907571502896 0 764.03907571502896 -157.33253300507818 0 0 0 0 1589.2784157432034 673.34112575114182 0 673.34112575114182 -85.868682012701129 0 0 0 0 1585.4858246456715 408.5479643646496 0 408.5479643646496 -105.38433312867767 0 0 0 0 2619.0761751820537 253.26327459877473 0 253.26327459877473 -124.36281628758343 0 0 0 0 1834.9175141251471 -364.66912374952176 0 -364.66912374952176 -100.36098055451566 0 0 0 0 2607.3820523458999 717.92140602429663 0 717.92140602429663 707.96846570376579 0 0 0 0 8.1571849201520337 1.1390437588019608 0 1.1390437588019608 1.9603726268695203 0 0 0 0 2158.4892456134257 -427.64673998581929 0 -427.64673998581929 88.255328504733825 0 0 0 0 7.0089407439081128 1.317276464478212 0 1.317276464478212 0.22510332402754241 0 0 0 0 2528.5385722327119 1685.6264115690956 0 1685.6264115690956 839.77625780906055 0 0 0 0 3042.2630912314489 507.2987229678929 0 507.2987229678929 -94.392194335947352 0 0 0 0 2502.1709520439326 386.40937519741715 0 386.40937519741715 1016.533898634449 0 0 0 0 2006.4637092883058 429.37258787773965 0 429.37258787773965 -32.903996338533489 0 0 0 0 1537.3862980172707 921.39031576346974 0 921.39031576346974 380.23864382641 0 0 0 0 2070.8941188690806 496.33780097225929 0 496.33780097225929 -85.948979504509907 0 0 0 0 2232.7321696310173 156.64769033527409 0 156.64769033527409 -191.38297849625451 0 0 0 0 1557.3314529870404 5.7746309855034497 0 5.7746309855034497 154.94803187058375 0 0 0 0 1581.9654608580931 -167.59563684459351 0 -167.59563684459351 -39.602401286530949 0 0 0 0 1687.4747294720364 87.75555523951401 0 87.75555523951401 -50.20015840450742 0 0 0 0 1687.6943962087971 82.368442697776175 0 82.368442697776175 -143.21060964823056 0 0 0 0 1711.5437812208402 126.37883635775481 0 126.37883635775481 -81.371891602057417 0 0 0 0 1051.3505520598701 -9.3844949977158105 0 -9.3844949977158105 -86.985277745834978 0 0 0 0 1431.4174027994013 199.14976386649823 0 199.14976386649823 -0.62771022877843263 0 0 0 0 1355.2672346501058 328.1096009353621 0 328.1096009353621 -47.34180033578275 0 0 0 0 1722.97581802473 495.19254136630991 0 495.19254136630991 25.26847312806899 0 0 0 0 1689.1914288408589 432.15828122597486 0 432.15828122597486 -92.288806896090904 0 0 0 0 1200.8846879412522 222.89126388944945 0 222.89126388944945 0.43436486147528419 0 0 0 0 147.2468371789364 -57.117872811343524 0 -57.117872811343524 6.7849259165795104 0 0 0 0 -1.6834830401730869 2.4816722055725506 0 2.4816722055725506 0.72452863131569323 0 0 0 0 -40.865360921670799 -418.08947424971802 0 -418.08947424971802 287.76716457355059 0 0 0 0 -369.15029698125727 81.785099430653759 0 81.785099430653759 49.356126087493465 0 0 0 0 10.784153924621933 -753.95318969604443 0 -753.95318969604443 604.43236321581185 0 0 0 0 1403.2626437802246 470.49749857284553 0 470.49749857284553 148.86037131312548 0 0 0 0 -203.64453501806565 185.56011846343324 0 185.56011846343324 -122.43530354742006 0 0 0 0 -0.27095627551625512 8.2276836108937346 0 8.2276836108937346 -0.36687392625482929 0 0 0 0 -213.65225137334346 122.28949450431878 0 122.28949450431878 741.74754376458714 0 0 0 0 470.81467739625077 -49.139660547284848 0 -49.139660547284848 -187.43072957087713 0 0 0 0 37.943214726425481 -8.3080732247268827 0 -8.3080732247268827 1.3147148405103333 0 0 0 0 3.1250058375008507 -2.0388341341080967 0 -2.0388341341080967 0.83255730562122043 0 0 0 0 57.779919244363555 195.1639728560848 0 195.1639728560848 139.72052637474087 0 0 0 0 -32.572259295891854 174.85951024015213 0 174.85951024015213 170.67096539598631 0 0 0 0 70.606751500235987 -32.00087659052371 0 -32.00087659052371 158.34809982267672 0 0 0 0 7.7183188555846414 -3.5824224410304595 0 -3.5824224410304595 0.66258523311937889 0 0 0 0 333.23002651396382 134.27807862980421 0 134.27807862980421 -306.56101760447996 0 0 0 0 17.876304657867877 -173.63715077396523 0 -173.63715077396523 22.26873043911479 0 0 0 0 -1493.3511276867357 -448.81581223782337 0 -448.81581223782337 316.93980013592454 0 0 0 0 215.27732457271486 351.35862981394985 0 351.35862981394985 428.00975797723243 0 0 0 0 -2064.7181738729414 -47.916278258370767 0 -47.916278258370767 39.698043727892809 0 0 0 0 18.44917265515079 -7.9809439604030104 0 -7.9809439604030104 3.4591493462244682 0 0 0 0 11.491004799780512 -7.0134399706180304 0 -7.0134399706180304 3.5859590081863946 0 0 0 0 3694.5742049952969 -722.43758737893154 0 -722.43758737893154 -1235.8926641204966 0 0 0 0 32.165894987075433 -10.121985877918469 0 -10.121985877918469 2.4331646730849825 0 0 0 0 1216.7292806587939 7.3920828369343781 0 7.3920828369343781 -87.395353065493282 0 0 0 0 1163.9332630315439 284.22720761145257 0 284.22720761145257 54.979482494561069 0 0 0 0 551.58467368295533 230.02145560317291 0 230.02145560317291 98.363170559240586 0 0 0 0 993.66193050058791 -84.020202931003283 0 -84.020202931003283 -123.33255478418108 0 0 0 0 459.04753524471016 60.695411696013757 0 60.695411696013757 -0.98495524203027873 0 0 0 0 244.76287634416076 58.569324424155951 0 58.569324424155951 0.2704909208614511 0 0 0 0 418.42422177692424 141.3089533388609 0 141.3089533388609 3.9428324104746935 0 0 0 0 539.11698813847033 182.77325839981049 0 182.77325839981049 -25.846952348391071 0 0 0 0 131.62507093163549 222.87639507905277 0 222.87639507905277 287.15181575429165 0 0 0 0 593.37906617627596 460.89321916813941 0 460.89321916813941 395.02267012623383 0 0 0 0 87.381691697156384 -9.5474466368496511 0 -9.5474466368496511 27.865098821026479 0 0 0 0 -135.13012338240878 -618.55924962120207 0 -618.55924962120207 98.168617456811717 0 0 0 0 49.255260321810056 -14.18911269448833 0 -14.18911269448833 3.2108886076177034 0 0 0 0 2268.7934264414362 -107.12544230444746 0 -107.12544230444746 -1228.1500075385713 0 0 0 0 137.04133285878925 73.609804815251408 0 73.609804815251408 76.752716119916599 0 0 0 0 59.585634347444284 -7.7284708831330837 0 -7.7284708831330837 0.021354870694813236 0 0 0 0 -408.80052213139425 220.79769963692581 0 220.79769963692581 -253.92670574708683 0 0 0 0 -18.511239320709137 -527.24097018695022 0 -527.24097018695022 286.71420800564044 0 0 0 0 427.56234582976322 -203.57800264696164 0 -203.57800264696164 -39.996380140685744 0 0 0 0 336.99271196153131 -576.80397323868328 0 -576.80397323868328 96.768650485414383 0 0 0 0 896.42104948549968 -94.443468788737221 0 -94.443468788737221 145.58346579416042 0 0 0 0 144.41806763575005 -444.42754212432118 0 -444.42754212432118 328.15595325832737 0 0 0 0 -179.66131283878349 -113.81974591531184 0 -113.81974591531184 145.82263665936324 0 0 0 0 4.1970848454115526 -2.9607972205861124 0 -2.9607972205861124 0.69158784865282419 0 0 0 0 370.06139177684963 70.408189590152347 0 70.408189590152347 -211.9987176933513 0 0 0 0 597.1757753077618 -111.09073968219232 0 -111.09073968219232 -100.00121944648845 0 0 0 0 578.2020839942561 -1.7137974064823993 0 -1.7137974064823993 -103.71039825353949 0 0 0 0 19.803819855907932 -103.75892456793156 0 -103.75892456793156 92.968742433755324 0 0 0 0 -111.93537712586112 -122.46060020983987 0 -122.46060020983987 91.074652146864992 0 0 0 0 -82.221881768331514 -270.13229521424842 0 -270.13229521424842 173.09047676586943 0 0 0 0 308.703532943553 -238.0005305432818 0 -238.0005305432818 141.51586175744433 0 0 0 0 264.41361625131321 -110.85620547922935 0 -110.85620547922935 -4.8131670798106825 0 0 0 0 783.6077911510074 -146.56824808558031 0 -146.56824808558031 -29.817803254307819 0 0 0 0 640.97939800708991 53.412386334294752 0 53.412386334294752 71.187702778072435 0 0 0 0 1398.1259997397792 146.51272751681518 0 146.51272751681518 -41.694640780310692 0 0 0 0 1297.9963582828714 -277.6951669371615 0 -277.6951669371615 36.473933710143683 0 0 0 0 -391.8184242050047 -389.82822517316845 0 -389.82822517316845 64.492588990370621 0 0 0 0 2.9007604068261799 -2.8523754809394148 0 -2.8523754809394148 2.9063487202569291 0 0 0 0 318.04288648559304 -434.73891922964913 0 -434.73891922964913 67.331004290156216 0 0 0 0 -3.9640373775037006 -145.46348680769165 0 -145.46348680769165 -207.49900446916035 0 0 0 0 44.513160342328774 -266.60004335453436 0 -266.60004335453436 30.892213081070622 0 0 0 0 85.418571699443419 -250.66862522480483 0 -250.66862522480483 -247.456535201728 0 0 0 0 -7.689571191673167 -267.31263937827089 0 -267.31263937827089 31.00798407932993 0 0 0 0 -8.685960872963733 -265.402721916404 0 -265.402721916404 195.32692534931266 0 0 0 0 -82.194075886087376 -210.58860208128203 0 -210.58860208128203 252.36188273082826 0 0 0 0 -36.974318812528509 -200.79817535003701 0 -200.79817535003701 248.93608492406509 0 0 0 0 -55.009645344424825 -114.59593813866127 0 -114.59593813866127 454.07887940013006 0 0 0 0 -54.890934765216116 -128.60392172845525 0 -128.60392172845525 102.05382845764825 0 0 0 0 79.310106596341939 -163.80474856483306 0 -163.80474856483306 393.1181027522552 0 0 0 0 349.15922929398948 -267.56726658883144 0 -267.56726658883144 959.34243596777469 0 0 0 0 197.03685432130442 -0.62262723159517464 0 -0.62262723159517464 618.76977245551871 0 0 0 0 311.33264154436256 -372.70790037550569 0 -372.70790037550569 524.82653077217265 0 0 0 0 397.27928159799194 -207.79108288361783 0 -207.79108288361783 624.04107457518512 0 0 0 0 820.05919457730488 -368.91536669684456 0 -368.91536669684456 349.72686939660844 0 0 0 0 88.204067320235481 -215.05718265950145 0 -215.05718265950145 420.73616880518648 0 0 0 0 43.244049751447164 -328.98984724997808 0 -328.98984724997808 266.716886791555 0 0 0 0 117.16869691575994 -394.11157200463049 0 -394.11157200463049 -13.846740748019329 0 0 0 0 112.56203574149276 -230.64271874889243 0 -230.64271874889243 -69.380540833317355 0 0 0 0 40.786271406570449 -444.89769885099622 0 -444.89769885099622 -251.12705310750152 0 0 0 0 152.34290863470233 157.020127600661 0 157.020127600661 -573.76894954643694 0 0 0 0 264.37115926622573 -275.04687568296106 0 -275.04687568296106 355.57730316601555 0 0 0 0 338.11892558542604 -440.01346476024901 0 -440.01346476024901 87.112957015074699 0 0 0 0 1082.6319949477183 -316.13908114641026 0 -316.13908114641026 194.34036213525633 0 0 0 0 820.81379290635232 -18.936114157235806 0 -18.936114157235806 -140.21125721192334 0 0 0 0 696.88644822860078 182.15201463321023 0 182.15201463321023 -691.41455110706738 0 0 0 0 355.43917516786314 -159.51672263459977 0 -159.51672263459977 -175.50803523019704 0 0 0 0 106.11234094038082 160.99324183050521 0 160.99324183050521 -598.36568511900532 0 0 0 0 204.54956113647495 458.67931523779544 0 458.67931523779544 -55.342494832108059 0 0 0 0 1242.1125811407255 732.08541497470196 0 732.08541497470196 186.5674926105894 0 0 0 0 872.50736513669835 420.00289028807902 0 420.00289028807902 -75.133201730229757 0 0 0 0 3220.5391813652386 1194.1864891967184 0 1194.1864891967184 634.12507394868499 0 0 0 0 902.00327918560652 633.7967295430376 0 633.7967295430376 514.5075928211304 0 0 0 0 787.36008130737173 -93.783454449874171 0 -93.783454449874171 649.95204836201992 0 0 0 0 1400.6492274948105 65.371024587576812 0 65.371024587576812 543.60410518831054 0 0 0 0 1310.961754740194 -177.80717337475016 0 -177.80717337475016 1592.7684677664611 0 0 0 0 1052.4987067946058 -436.82405423392765 0 -436.82405423392765 658.74757662413367 0 0 0 0 2589.8204707071272 1183.7740165645896 0 1183.7740165645896 1447.3813106074927 0 0 0 0 3202.5034975585513 704.89105414290589 0 704.89105414290589 247.8356086996755 0 0 0 0 13.496798811330677 5.4137224860554198 0 5.4137224860554198 2.7267241259743082 0 0 0 0 651.77072639841208 -45.649807237302184 0 -45.649807237302184 -1.2024541748351112 0 0 0 0 4.2060171785036005 -6.1829806372982148 0 -6.1829806372982148 5.1973590874564053 0 0 0 0 40.788669106201269 -38.79901407596617 0 -38.79901407596617 -67.68816996832993 0 0 0 0 146.89178644603089 -83.197384268977203 0 -83.197384268977203 82.335349330795907 0 0 0 0 14.505323235748136 -6.4644705105818758 0 -6.4644705105818758 4.4742050435114358 0 0 0 0 476.17602955013717 98.435133898087543 0 98.435133898087543 -35.370462874712757 0 0 0 0 339.77401407107027 -255.93309081833343 0 -255.93309081833343 99.600296447190885 0 0 0 0 24.91406336602472 8.7969108379086407 0 8.7969108379086407 -0.43020553487344415 0 0 0 0 659.42579913056397 -179.64778139263581 0 -179.64778139263581 38.894122762567804 0 0 0 0 245.52304909470331 547.44924985482407 0 547.44924985482407 -1239.3351282271815 0 0 0 0 58.731774906234932 253.54560026488389 0 253.54560026488389 -679.06251946926363 0 0 0 0 330.31081450034981 20.052453269464877 0 20.052453269464877 -834.42607944330121 0 0 0 0 31.418072361317599 8.7516730913421412 0 8.7516730913421412 -1.5886704030396999 0 0 0 0 164.09286883061577 60.870181900190005 0 60.870181900190005 0.3188967102114475 0 0 0 0 -17.493665894864534 -199.82125629991924 0 -199.82125629991924 -663.90719632978153 0 0 0 0 11.132592727808429 3.545995486522628 0 3.545995486522628 -6.131031540493268 0 0 0 0 -24.566805526999815 169.31373409926846 0 169.31373409926846 -126.92686620951645 0 0 0 0 59.447024411798338 -60.2661719236512 0 -60.2661719236512 -12.309460147693244 0 0 0 0 139.55201611787197 157.75064472763552 0 157.75064472763552 -573.60353230799114 0 0 0 0 212.64476617761829 -234.40283776608203 0 -234.40283776608203 -697.41207270396171 0 0 0 0 43.071185864168001 83.036192663674797 0 83.036192663674797 -144.29915705771236 0 0 0 0 119.29770374053624 -25.932296015020711 0 -25.932296015020711 -212.0674301485742 0 0 0 0 43.706920334586812 0.40224640831411307 0 0.40224640831411307 -10.662537597061107 0 0 0 0 67.402542270283448 -43.582396613534002 0 -43.582396613534002 6.3671872547165549 0 0 0 0 41.14569730234507 -28.158587776128115 0 -28.158587776128115 7.5084250229764393 0 0 0 0 44.225338499177241 6.6649579942464925 0 6.6649579942464925 -12.218365360448583 0 0 0 0 47.831683681084542 -25.187632889544602 0 -25.187632889544602 -32.666413033584831 0 0 0 0 84.792573172526318 -9.3943575266630432 0 -9.3943575266630432 -49.780900486343626 0 0 0 0 54.773539220259408 -80.33183205054911 0 -80.33183205054911 -207.76059207853359 0 0 0 0 55.575243172004775 48.897408073273823 0 48.897408073273823 -2.6707758089778508 0 0 0 0 2.3933173860729653 2.2322753676411011 0 2.2322753676411011 -2.6880453403213558 0 0 0 0 29.188044072070625 -53.247216732631841 0 -53.247216732631841 32.426081820103718 0 0 0 0 -43.952734807360684 17.691658661336987 0 17.691658661336987 -135.94539513283144 0 0 0 0 61.259479418076808 125.22499307729004 0 125.22499307729004 -233.73615301158134 0 0 0 0 1.579046176282219 -4.0508204004915029 0 -4.0508204004915029 -0.79461535357213364 0 0 0 0 78.677321239752928 -36.148055799689246 0 -36.148055799689246 36.234888845738169 0 0 0 0 14.559027917512395 -2.1469008585862781 0 -2.1469008585862781 -7.7145664281316257 0 0 0 0 45.900911367259567 -14.717788547473056 0 -14.717788547473056 -1.1697789840377517 0 0 0 0 123.83212659493438 -24.262434587494226 0 -24.262434587494226 9.8523071807566112 0 0 0 0 -48.798234776157187 -23.560646485868347 0 -23.560646485868347 9.9141087542819832 0 0 0 0 19.502985154449789 -9.0115525055433778 0 -9.0115525055433778 4.1250278333263779 0 0 0 0 12.993783168405542 -7.1144398498676082 0 -7.1144398498676082 4.9467775228156867 0 0 0 0 -31.748326369197457 49.166513159831084 0 49.166513159831084 -47.129727310684757 0 0 0 0 31.199779936898267 -34.223407040248503 0 -34.223407040248503 -79.882353643053648 0 0 0 0 157.39023473896668 -51.097585785627416 0 -51.097585785627416 -27.773229014754634 0 0 0 0 27.481968209467595 -31.442960275609948 0 -31.442960275609948 -11.389283113869169 0 0 0 0 58.058458304745727 -0.9564306437760024 0 -0.9564306437760024 -105.98297729558726 0 0 0 0 25.202511937022791 -22.506283968632488 0 -22.506283968632488 50.90064782211266 0 0 0 0 71.73994079422846 -5.2735855467799411 0 -5.2735855467799411 28.912365367727034 0 0 0 0 39.343729037442245 7.0902198479889194 0 7.0902198479889194 72.751383208462357 0 0 0 0 54.750821651017759 -37.630642717541377 0 -37.630642717541377 -17.669133366955066 0 0 0 0 37.562877411022782 4.211794093565004 0 4.211794093565004 -30.312866113104292 0 0 0 0 52.109134249330964 -54.903376310108797 0 -54.903376310108797 -150.59123709869937 0 0 0 0 120.51961421399756 -31.579841291217463 0 -31.579841291217463 -269.62882127946796 0 0 0 0 193.62717416189844 -238.54637937819007 0 -238.54637937819007 -249.22573419062974 0 0 0 0 76.374111980840098 -140.79508480225195 0 -140.79508480225195 -330.67473665327634 0 0 0 0 -143.06900768959895 -206.4154794001488 0 -206.4154794001488 -185.36031334893187 0 0 0 0 73.02148660749549 -227.48072913767228 0 -227.48072913767228 -228.15586195023843 0 0 0 0 51.984743848677681 -52.055108280219429 0 -52.055108280219429 -64.688299891342467 0 0 0 0 -24.863377694608062 85.550628485583729 0 85.550628485583729 45.879343658480593 0 0 0 0 349.79931960966496 -286.92352511985337 0 -286.92352511985337 94.315547064086786 0 0 0 0 5.4154361604263386 -7.0796875772231687 0 -7.0796875772231687 5.838570372357438 0 0 0 0 294.14771665965964 -222.64675419679452 0 -222.64675419679452 142.10978732669992 0 0 0 0 465.90852304317377 207.51791703147558 0 207.51791703147558 -41.012298355157327 0 0 0 0 1017.7128991266509 -214.11939299535879 0 -214.11939299535879 -93.857202105551551 0 0 0 0 1138.5817275336376 56.209215217257906 0 56.209215217257906 -151.82939824707864 0 0 0 0 1323.677111531706 293.98052130138421 0 293.98052130138421 131.48330250631079 0 0 0 0 1485.2863702128234 -241.55098475698196 0 -241.55098475698196 -120.59368672264964 0 0 0 0 877.3009834133336 422.69492873712079 0 422.69492873712079 115.90313512394277 0 0 0 0 1258.9112234120003 -130.57948518752596 0 -130.57948518752596 -109.52093582105954 0 0 0 0 85.918422705293779 5.6899240860097962 0 5.6899240860097962 31.670962913604853 0 0 0 0 8.5683209981126254 -2.3265294592353101 0 -2.3265294592353101 0.77875670107339623 0 0 0 0 129.71932628499053 -83.779942669632419 0 -83.779942669632419 -112.67898689056165 0 0 0 0 455.07684450053785 150.04621572739961 0 150.04621572739961 26.601578165018736 0 0 0 0 726.54445778801892 33.309275992380208 0 33.309275992380208 -94.096203616063576 0 0 0 0 933.57509059822769 -10.45418354748881 0 -10.45418354748881 -152.26602704200786 0 0 0 0 697.73346539041086 -18.084723607855949 0 -18.084723607855949 -159.34268459746727 0 0 0 0 499.13427347714583 143.5576206040148 0 143.5576206040148 -175.03960142807864 0 0 0 0 501.07464094136958 77.320652472911206 0 77.320652472911206 -69.108618855670102 0 0 0 0 420.43265354917548 30.800047773944499 0 30.800047773944499 40.606555089137146 0 0 0 0 694.59490971545893 31.470588784794472 0 31.470588784794472 -29.847931980753856 0 0 0 0 693.76311238587368 23.900722586592565 0 23.900722586592565 -70.829074227277488 0 0 0 0 428.80742787269992 80.734416210019845 0 80.734416210019845 68.707393806427717 0 0 0 0 645.81628277776235 -6.8001817115739698 0 -6.8001817115739698 93.618235318926963 0 0 0 0 648.68788337696969 18.422393175727507 0 18.422393175727507 165.99527582694282 0 0 0 0 500.33389864421042 71.12282765816326 0 71.12282765816326 165.24896108524308 0 0 0 0 630.28388671870925 63.520403630951478 0 63.520403630951478 141.97800097150639 0 0 0 0 752.22235951325274 -20.037226176509648 0 -20.037226176509648 111.32425804409706 0 0 0 0 689.52543941522526 -27.524329375816933 0 -27.524329375816933 115.65158674033592 0 0 0 0 520.73738187194249 -9.7192292078593709 0 -9.7192292078593709 175.26311633180649 0 0 0 0 372.41208051556896 -37.032549820264876 0 -37.032549820264876 228.98620647521511 0 0 0 0 456.53252954345953 29.085866462577542 0 29.085866462577542 188.84178749538682 0 0 0 0 410.33395973962615 2.2380000185230529 0 2.2380000185230529 205.47198391354323 0 0 0 0 392.3230150854979 45.865220944870885 0 45.865220944870885 147.45482218044071 0 0 0 0 142.71050095465034 -13.098675408981762 0 -13.098675408981762 197.73683486713998 0 0 0 0 216.64957875081745 83.741115206023096 0 83.741115206023096 146.12907513642858 0 0 0 0 217.41017777111119 29.504140534307226 0 29.504140534307226 189.83078372584259 0 0 0 0 225.83824616681522 9.6829153507669616 0 9.6829153507669616 235.42658171119274 0 0 0 0 318.7709925413219 25.072907744843633 0 25.072907744843633 220.3215986376872 0 0 0 0 163.64176248353033 -4.3749455572306033 0 -4.3749455572306033 248.37615051160765 0 0 0 0 160.24614952027332 -25.61058255416765 0 -25.61058255416765 241.29382874425164 0 0 0 0 119.70016698846302 20.839920920106351 0 20.839920920106351 189.23437973147065 0 0 0 0 172.52171716176963 -25.2751067972481 0 -25.2751067972481 108.04444554538713 0 0 0 0 79.000273938276223 35.564291011221485 0 35.564291011221485 80.582134008260255 0 0 0 0 88.663730839631171 96.228372677161133 0 96.228372677161133 41.37380251175955 0 0 0 0 169.36610864589238 -34.518676631542803 0 -34.518676631542803 -211.10932893497011 0 0 0 0 60.023028116302157 -43.673462997367096 0 -43.673462997367096 21.010769861577501 0 0 0 0 111.48335321941704 -9.2185199524210475 0 -9.2185199524210475 -142.69242420821956 0 0 0 0 41.301119939278578 -53.73131073019249 0 -53.73131073019249 -26.109484978772571 0 0 0 0 120.40098010758811 -10.92536893636975 0 -10.92536893636975 -159.82340375812055 0 0 0 0 91.556463665016054 -44.302562695059009 0 -44.302562695059009 -81.065214453850786 0 0 0 0 130.67821173266566 4.6240545120940624 0 4.6240545120940624 -50.782737101704242 0 0 0 0 134.10030362357793 -49.419861859857974 0 -49.419861859857974 -27.538891777876415 0 0 0 0 60.48983158505871 -67.798791727014986 0 -67.798791727014986 88.296480276360398 0 0 0 0 87.018950552395836 -45.831975485538237 0 -45.831975485538237 240.7966245148973 0 0 0 0 145.15706744221097 -36.044462062704042 0 -36.044462062704042 99.645196337611651 0 0 0 0 145.1248648086912 -32.822147876056079 0 -32.822147876056079 241.23455935425818 0 0 0 0 149.04721358905954 -45.479940069777513 0 -45.479940069777513 258.36159911110371 0 0 0 0 196.91764353362669 -68.183093537504192 0 -68.183093537504192 208.65131373357599 0 0 0 0 127.06426750568789 -76.699897747251725 0 -76.699897747251725 270.77718420508063 0 0 0 0 97.081153274033568 -24.592204553904139 0 -24.592204553904139 237.89179017816787 0 0 0 0 283.42581056155905 -80.999652530143521 0 -80.999652530143521 214.32207784248931 0 0 0 0 124.92050712115997 -159.85362461584447 0 -159.85362461584447 182.63848597287233 0 0 0 0 165.32959090943405 -103.41611227466933 0 -103.41611227466933 310.49113131151171 0 0 0 0 323.81694107483781 -138.46514957531872 0 -138.46514957531872 252.01831534820349 0 0 0 0 312.86486028993932 -166.07990703221674 0 -166.07990703221674 233.02516941036902 0 0 0 0 785.8029576833942 -187.64708021181968 0 -187.64708021181968 167.11860512901012 0 0 0 0 218.13901447888475 -387.95450187367453 0 -387.95450187367453 281.29003821148672 0 0 0 0 2.6700777292393809 -2.4110810851560984 0 -2.4110810851560984 2.1845296128898823 0 0 0 0 -194.10705124076412 -256.91343942399817 0 -256.91343942399817 303.70698169960906 0 0 0 0 23.222196554772381 -5.7183321390602941 0 -5.7183321390602941 34.424990733281675 0 0 0 0 -38.114631315263978 -126.57134561322914 0 -126.57134561322914 -75.865128563473263 0 0 0 0 88.211712180856921 -85.597100991731054 0 -85.597100991731054 -89.251803212077903 0 0 0 0 2127.9279700649568 -183.98070062284512 0 -183.98070062284512 -414.75882943152283 0 0 0 0 2042.9859133337304 -461.76138055256138 0 -461.76138055256138 -475.65424405950444 0 0 0 0 1665.6001694578736 -271.42845726358269 0 -271.42845726358269 -330.49958299062541 0 0 0 0 1651.0305821765505 -223.80579129296336 0 -223.80579129296336 -260.45696598842528 0 0 0 0 1324.8887629283417 -130.71615152135951 0 -130.71615152135951 -258.84816928042369 0 0 0 0 1281.2274476191233 -322.74822736251599 0 -322.74822736251599 -152.17702924990886 0 0 0 0 1532.9834841911761 -461.99278384034739 0 -461.99278384034739 -151.28473840725792 0 0 0 0 1414.0330199783202 -285.63913723283565 0 -285.63913723283565 -184.84466357109386 0 0 0 0 1987.4222266822471 -344.33459202382039 0 -344.33459202382039 -339.61048305207407 0 0 0 0 2613.6750236956141 -729.43295720286039 0 -729.43295720286039 -704.66490028090948 0 0 0 0 2515.5330441398401 -615.06522141247399 0 -615.06522141247399 -442.84147465186277 0 0 0 0 3499.4355236818851 -521.004230991555 0 -521.004230991555 -878.51832922211088 0 0 0 0 2450.9975040682039 -452.79426007814766 0 -452.79426007814766 -516.09460980314418 0 0 0 0 2686.6706835522855 -298.22886902441928 0 -298.22886902441928 -838.40589077675577 0 0 0 0 2866.337942083388 -192.81867029191534 0 -192.81867029191534 -799.29809624545464 0 0 0 0 3499.4015660170262 141.22943603895013 0 141.22943603895013 -928.34850916850098 0 0 0 0 2352.523805189041 122.35649113418344 0 122.35649113418344 -559.9010845064272 0 0 0 0 2233.9254001719237 118.57657646564758 0 118.57657646564758 -559.9055705418582 0 0 0 0 1703.2112298386637 73.928013107043512 0 73.928013107043512 -401.66310171859027 0 0 0 0 2200.1220603694474 203.51180783578894 0 203.51180783578894 -402.29098287840725 0 0 0 0 2223.7880585452804 -54.103036034783884 0 -54.103036034783884 -446.1564218645965 0 0 0 0 1775.2035885454825 -122.80178300639545 0 -122.80178300639545 -417.43005279266879 0 0 0 0 1338.7535194194206 17.415406823586409 0 17.415406823586409 -262.7568823977706 0 0 0 0 1774.3029771955744 -111.99856057467044 0 -111.99856057467044 -296.03316637190574 0 0 0 0 1702.0640000145247 6.4287555292903917 0 6.4287555292903917 -276.38831545779476 0 0 0 0 1305.5478337973473 128.88179311985846 0 128.88179311985846 -208.53991605518615 0 0 0 0 1302.9965310166099 67.790639940922603 0 67.790639940922603 -188.93366006784163 0 0 0 0 1037.8696701112349 -14.622548569776427 0 -14.622548569776427 -125.67797077478099 0 0 0 0 952.28465752572083 27.792878908687271 0 27.792878908687271 -106.0100290185519 0 0 0 0 963.69374449996394 104.70809117578938 0 104.70809117578938 -83.756401667484738 0 0 0 0 668.93518520731595 62.598478805549348 0 62.598478805549348 -31.002659095088461 0 0 0 0 731.92089802019473 20.98091840558186 0 20.98091840558186 -48.671968313703474 0 0 0 0 659.76334644851886 18.312463382386227 0 18.312463382386227 -72.456957943832094 0 0 0 0 697.90796883800067 -36.250853714580899 0 -36.250853714580899 -44.405472610174911 0 0 0 0 685.01731448897772 12.144313944590522 0 12.144313944590522 -65.391115232332595 0 0 0 0 770.24009430065053 26.8846571213262 0 26.8846571213262 -72.35164045552915 0 0 0 0 859.83989272941835 4.3216342016032741 0 4.3216342016032741 -92.335068727848011 0 0 0 0 996.8329002251121 -41.611623430982036 0 -41.611623430982036 -94.305099431448525 0 0 0 0 595.60041283225291 24.329249011336742 0 24.329249011336742 -22.308356526566968 0 0 0 0 622.83722874053637 -11.797195471361647 0 -11.797195471361647 -16.756904696702122 0 0 0 0 619.42227879879647 -35.857185462125017 0 -35.857185462125017 2.837636092541743 0 0 0 0 775.66984077154484 -38.871681738655326 0 -38.871681738655326 -40.365453020503082 0 0 0 0 1000.0690890788828 -74.265579335714165 0 -74.265579335714165 -92.075339609717958 0 0 0 0 776.12670496308419 -36.642302152192883 0 -36.642302152192883 -54.910571969605371 0 0 0 0 1000.1285110472672 -77.857761703523693 0 -77.857761703523693 -114.88237108595069 0 0 0 0 1314.0746489641188 -102.22487668559259 0 -102.22487668559259 -155.15705508591418 0 0 0 0 1033.3783359775261 22.817868802415433 0 22.817868802415433 -126.59480430263136 0 0 0 0 885.0202304624836 38.877448172330332 0 38.877448172330332 -16.554302674321661 0 0 0 0 918.00419674642035 79.753205681977306 0 79.753205681977306 -49.166934003651022 0 0 0 0 923.45054900178002 78.612787777196445 0 78.612787777196445 -251.60156909620491 0 0 0 0 594.81110728747444 -169.95907516164607 0 -169.95907516164607 -179.68289356880337 0 0 0 0 270.19339643845888 4.4136486260622974 0 4.4136486260622974 2.4105522210265917 0 0 0 0 515.44840809251764 -38.06267842595571 0 -38.06267842595571 -171.76464416546514 0 0 0 0 378.32357345527271 -126.59371697546339 0 -126.59371697546339 -71.146188160422753 0 0 0 0 328.10105871743872 -109.96386989191251 0 -109.96386989191251 -0.3438277236346039 0 0 0 0 323.90238342343946 -67.968926572935345 0 -67.968926572935345 15.639871596049488 0 0 0 0 435.63905660714954 -49.594124485203793 0 -49.594124485203793 -9.2805689354872811 0 0 0 0 405.65220183838392 16.024279876730816 0 16.024279876730816 40.188982795871198 0 0 0 0 538.81930967612425 38.659853696099162 0 38.659853696099162 -2.4531994791468605 0 0 0 0 550.14836312489933 19.980632201618391 0 19.980632201618391 -10.136429144897193 0 0 0 0 483.95656658388907 -37.51586695300557 0 -37.51586695300557 -43.856278825005575 0 0 0 0 545.02693491970422 12.268710468766585 0 12.268710468766585 -34.473619608556987 0 0 0 0 579.78966400440549 -13.784204486006729 0 -13.784204486006729 -57.410725521897803 0 0 0 0 544.86107252747752 26.669943819254513 0 26.669943819254513 -71.815282719854281 0 0 0 0 484.26746580324834 -72.591753284640163 0 -72.591753284640163 -100.43323358746966 0 0 0 0 553.75583223444119 -2.5771537826733493 0 -2.5771537826733493 -9.9658024549207767 0 0 0 0 595.20043623476522 48.67767902830019 0 48.67767902830019 -46.979818236928395 0 0 0 0 0.30096923832358846 -8.6159155551156061 0 -8.6159155551156061 21.101760643137297 0 0 0 0 509.70244261663174 33.133246327066445 0 33.133246327066445 -24.9113764908343 0 0 0 0 0.053646804318791652 1.0784309718706453 0 1.0784309718706453 10.729522540125179 0 0 0 0 448.61660067627963 -23.766673910993518 0 -23.766673910993518 44.692575249845049 0 0 0 0 233.02377505868208 -26.21705503012052 0 -26.21705503012052 35.820163747660672 0 0 0 0 291.74651050539978 -39.637333346778178 0 -39.637333346778178 206.5586212067501 0 0 0 0 231.171086948023 -11.186097116655333 0 -11.186097116655333 -39.770783073827715 0 0 0 0 595.54302870451647 22.030942891731684 0 22.030942891731684 -59.273171026761702 0 0 0 0 502.17373759793918 -24.487494128837398 0 -24.487494128837398 34.591395230499984 0 0 0 0 617.66342457670544 -42.207651326601763 0 -42.207651326601763 -19.04144230690008 0 0 0 0 882.61973449985089 96.997549519195672 0 96.997549519195672 1.9748297047826782 0 0 0 0 716.17141078672194 87.817957224762807 0 87.817957224762807 0.85316671021246293 0 0 0 0 383.79243292259343 73.940964144477675 0 73.940964144477675 224.8629899898433 0 0 0 0 718.14869225898292 -2.6295213376197353 0 -2.6295213376197353 568.43116327490407 0 0 0 0 949.70915407128632 -336.02936534058836 0 -336.02936534058836 242.8920907427746 0 0 0 0 883.51509725016513 -182.24166883776934 0 -182.24166883776934 -10.097883216871196 0 0 0 0 755.40528687485494 -260.32189541024536 0 -260.32189541024536 -4.5133827092995489 0 0 0 0 743.89883686145185 -194.53044032706202 0 -194.53044032706202 17.97140364517054 0 0 0 0 202.32588758545171 -5.3143096125252214 0 -5.3143096125252214 118.35384050211798 0 0 0 0 605.91128385416232 -201.9841729666864 0 -201.9841729666864 74.375425063687544 0 0 0 0 0.85925216479984678 -8.1557320905790505 0 -8.1557320905790505 22.017896888772597 0 0 0 0 544.37822682898695 -93.633524237133315 0 -93.633524237133315 -66.392734206332989 0 0 0 0 564.82361684020725 -45.675790433374459 0 -45.675790433374459 23.831019324665249 0 0 0 0 483.81310523013235 23.7144783042977 0 23.7144783042977 -19.289200167705417 0 0 0 0 327.59458091937267 -73.012486910664791 0 -73.012486910664791 61.60578270837118 0 0 0 0 216.03649525543733 -21.522130000622646 0 -21.522130000622646 -146.19309512334644 0 0 0 0 0.66423946319374139 0.38467867012774093 0 0.38467867012774093 7.4320279654432486 0 0 0 0 430.52580356556791 -163.0403552955637 0 -163.0403552955637 -34.72367599246536 0 0 0 0 689.37824227854435 -98.211489871454432 0 -98.211489871454432 26.098844567535707 0 0 0 0 787.27587624946318 -89.007176406170402 0 -89.007176406170402 -31.139550674732163 0 0 0 0 842.66786205330573 3.9784992473068996 0 3.9784992473068996 -28.326544814296852 0 0 0 0 886.378016453702 -164.39959451478353 0 -164.39959451478353 -37.99339595429592 0 0 0 0 925.78462856308761 -267.98643489589779 0 -267.98643489589779 -45.545313543325392 0 0 0 0 1169.8108965371939 -155.83862060643946 0 -155.83862060643946 -149.55599419348249 0 0 0 0 1285.4849489608532 -206.89414161072011 0 -206.89414161072011 -149.25066147734378 0 0 0 0 779.40403917731601 -147.06563454303114 0 -147.06563454303114 -23.074291629606705 0 0 0 0 728.13140245061368 -44.476061572869185 0 -44.476061572869185 -23.032954261274426 0 0 0 0 595.40473927455605 -104.42429275432812 0 -104.42429275432812 -18.922657307633017 0 0 0 0 703.14040457634837 -81.103941410458219 0 -81.103941410458219 -60.674764972131925 0 0 0 0 509.31539356680878 -104.41324389404323 0 -104.41324389404323 28.545165003407419 0 0 0 0 882.4321370946418 -146.00287016169204 0 -146.00287016169204 -60.501302644062889 0 0 0 0 700.88088463849272 -97.309586105275457 0 -97.309586105275457 -20.790763328159656 0 0 0 0 616.40397108404431 -166.19958248992043 0 -166.19958248992043 8.8861130657614922 0 0 0 0 603.57928620241 -103.5780782144468 0 -103.5780782144468 -9.3015313037799388 0 0 0 0 597.54922264872584 -188.83748994351538 0 -188.83748994351538 -29.321809871229107 0 0 0 0 451.95858684036648 -111.68196625200449 0 -111.68196625200449 13.625012347959682 0 0 0 0 634.21080664280453 -126.14796237702694 0 -126.14796237702694 -26.778520037143949 0 0 0 0 796.37530294626049 -293.40183796931399 0 -293.40183796931399 3.1318204562858227 0 0 0 0 908.16318447342201 -186.45751380604963 0 -186.45751380604963 -65.041284595113012 0 0 0 0 1047.9306305510763 -402.33581462593133 0 -402.33581462593133 -58.592608683435628 0 0 0 0 841.77555108864181 -334.34201124304474 0 -334.34201124304474 43.82736622487954 0 0 0 0 788.659429659936 -429.47445927776141 0 -429.47445927776141 85.075083447045245 0 0 0 0 559.44558223725471 -121.55425167198868 0 -121.55425167198868 -39.874488845847168 0 0 0 0 548.43713334023778 -161.60468272035297 0 -161.60468272035297 48.247420434858569 0 0 0 0 450.74952431832207 -112.63781099655034 0 -112.63781099655034 30.236794961119585 0 0 0 0 352.05871366878273 -138.56548782628988 0 -138.56548782628988 146.96723289402053 0 0 0 0 422.90915250837861 -181.44213058482239 0 -181.44213058482239 114.47339912837583 0 0 0 0 268.06589400373923 -68.531218020070128 0 -68.531218020070128 142.08760841114406 0 0 0 0 385.27956629128312 -260.40232963680751 0 -260.40232963680751 181.68721494299407 0 0 0 0 898.86361719683191 0.065627922450630649 0 0.065627922450630649 -93.022079352710534 0 0 0 0 853.83353210958012 -13.624295421170245 0 -13.624295421170245 -59.462628801282335 0 0 0 0 806.44839134401991 45.668600261699794 0 45.668600261699794 -120.4405937843859 0 0 0 0 832.89900503041281 -25.353216041706673 0 -25.353216041706673 -110.76751883850648 0 0 0 0 138.61846087363665 -2.5625685779348686 0 -2.5625685779348686 300.51396685207237 0 0 0 0 0.84594884061183151 -6.5685634433737903 0 -6.5685634433737903 20.006601851978214 0 0 0 0 462.20425406181494 -58.937027451529261 0 -58.937027451529261 -151.72422543345556 0 0 0 0 280.13662037954782 61.165394142839943 0 61.165394142839943 -30.398670186275297 0 0 0 0 206.37580931199045 -7.85468950164109 0 -7.85468950164109 -337.3924281212428 0 0 0 0 0.3293466830373788 0.64967035672790985 0 0.64967035672790985 2.6696767886736517 0 0 0 0 109.12357908344711 -22.02921461608986 0 -22.02921461608986 171.82716436818066 0 0 0 0 212.01934887250536 -135.89285791699254 0 -135.89285791699254 180.53996721490921 0 0 0 0 831.13606357424578 31.874821778411388 0 31.874821778411388 -41.422383202100718 0 0 0 0 913.5259869259171 -12.976871953033879 0 -12.976871953033879 -17.006742102557837 0 0 0 0 768.150047909352 7.7790115612942827 0 7.7790115612942827 -1.298321720682452 0 0 0 0 786.90691464187694 -32.797641672967075 0 -32.797641672967075 -9.8957049262430701 0 0 0 0 634.80672096541093 268.61588831516656 0 268.61588831516656 142.60387427207661 0 0 0 0 917.48042999349127 128.26494749463291 0 128.26494749463291 176.69785922948972 0 0 0 0 700.52817332994891 -42.305391157786744 0 -42.305391157786744 236.93472821378873 0 0 0 0 824.97985086088738 -86.182772585342718 0 -86.182772585342718 144.85893875320471 0 0 0 0 1149.7004635361372 -217.08735538100154 0 -217.08735538100154 27.165576954629614 0 0 0 0 2.8803496274351801 -1.907993029622304 0 -1.907993029622304 4.5244428996541055 0 0 0 0 -113.90846710023496 -148.29712775369308 0 -148.29712775369308 573.90908503940113 0 0 0 0 1.7443950293455166 -4.6299865173635766 0 -4.6299865173635766 16.250216543019 0 0 0 0 185.64137248156476 -230.97967217879096 0 -230.97967217879096 -127.93194915878757 0 0 0 0 184.48250330307928 -95.919329593578368 0 -95.919329593578368 155.07840532596754 0 0 0 0 9.5621366905470495 -23.096291453315416 0 -23.096291453315416 -33.432553680448109 0 0 0 0 1.6387293458141059 -2.261106885438835 0 -2.261106885438835 12.975939822998878 0 0 0 0 133.34951546967932 113.2990628148134 0 113.2990628148134 -182.57218496453365 0 0 0 0 7.5218498042618762 -0.40142962020254913 0 -0.40142962020254913 -0.80014483244753531 0 0 0 0 781.40958596647397 -134.67971344378975 0 -134.67971344378975 54.9454374545262 0 0 0 0 803.13262183710322 -128.94679348236014 0 -128.94679348236014 41.608497074887964 0 0 0 0 611.99303549456727 -290.69494139925996 0 -290.69494139925996 92.980263434317294 0 0 0 0 250.41337027738336 -303.117980494834 0 -303.117980494834 208.77577463954026 0 0 0 0 200.92918929753068 -212.12778696502187 0 -212.12778696502187 153.1617391004188 0 0 0 0 313.45678916739416 -139.16965618165614 0 -139.16965618165614 7.9962342734065714 0 0 0 0 -42.436873842634668 -57.133431961248618 0 -57.133431961248618 143.02432686037992 0 0 0 0 171.43106754899782 -275.45191107374387 0 -275.45191107374387 94.807172395213684 0 0 0 0 371.51098113857552 -179.36431969823209 0 -179.36431969823209 87.969870112131957 0 0 0 0 416.52063680795163 -440.58235768332128 0 -440.58235768332128 313.94093444296914 0 0 0 0 16.813702736908454 -391.19983210740565 0 -391.19983210740565 555.70538296794575 0 0 0 0 932.18737366089772 -868.06456220686391 0 -868.06456220686391 501.58553895793193 0 0 0 0 719.35450425252202 -792.59257841781414 0 -792.59257841781414 520.55496618007555 0 0 0 0 1565.8298703365508 -927.36021697841443 0 -927.36021697841443 130.64997679390842 0 0 0 0 714.25834144688997 -416.43486300867676 0 -416.43486300867676 154.42845025769253 0 0 0 0 579.01691564839348 -507.75180565453064 0 -507.75180565453064 300.17374511447042 0 0 0 0 1192.7748483764299 -556.75149572324995 0 -556.75149572324995 67.933402943807323 0 0 0 0 1158.7296453076824 -775.55212841463833 0 -775.55212841463833 103.8659241899847 0 0 0 0 2004.0803706105144 -831.46905887437515 0 -831.46905887437515 -169.00408237600345 0 0 0 0 1660.9390679262106 -672.45763906708532 0 -672.45763906708532 -242.50849856785078 0 0 0 0 1440.6928216610395 -403.07966175426827 0 -403.07966175426827 -170.91289631291332 0 0 0 0 1355.3257123754156 -477.94290585816213 0 -477.94290585816213 -62.267423499309928 0 0 0 0 3499.5964502682182 -1220.2435717988385 0 -1220.2435717988385 -704.07665093668061 0 0 0 0 2897.7263683721249 -887.21783313625156 0 -887.21783313625156 -662.74041137833535 0 0 0 0 2096.0223558050493 -1066.1989852902057 0 -1066.1989852902057 -261.35608108123625 0 0 0 0 2566.0998059747362 -1225.9633437490863 0 -1225.9633437490863 -219.49417560257544 0 0 0 0 2597.8324402367798 -1441.866332498136 0 -1441.866332498136 -441.77179383613077 0 0 0 0 3498.351680638847 -1868.3898178214051 0 -1868.3898178214051 -254.74415120159244 0 0 0 0 1602.7559082640901 -1356.3504509589759 0 -1356.3504509589759 255.18898367188007 0 0 0 0 2046.5650151050577 -1519.3272185790001 0 -1519.3272185790001 312.37793316519623 0 0 0 0 767.26186037115986 -1510.5465630768908 0 -1510.5465630768908 993.63157494135135 0 0 0 0 526.0337967864325 -1242.0765374382911 0 -1242.0765374382911 843.32091836987684 0 0 0 0 3466.1740976190922 -1986.6192638506982 0 -1986.6192638506982 632.11625301932952 0 0 0 0 2187.3659878545213 -2310.6919097595819 0 -2310.6919097595819 589.89740862848009 0 0 0 0 1313.6093306437979 -2928.856396912071 0 -2928.856396912071 1495.9687311472703 0 0 0 0 -2598.0065892678758 -1277.6861718753707 0 -1277.6861718753707 1246.9678461486719 0 0 0 0 3502.5840975237807 -2643.7219866610831 0 -2643.7219866610831 2804.2925831713846 0 0 0 0 -554.02562068127736 -2315.1647403768643 0 -2315.1647403768643 1683.6793591869332 0 0 0 0 418.39707250781066 -1117.250354494362 0 -1117.250354494362 1070.7564001123803 0 0 0 0 -239.31671887590346 -705.16900746645456 0 -705.16900746645456 350.62190633496857 0 0 0 0 -601.94005600894127 -398.38001188359846 0 -398.38001188359846 638.80601884020234 0 0 0 0 -1165.6605972079124 66.818790323325629 0 66.818790323325629 -285.8076322738134 0 0 0 0 -88.033460483216913 -402.05925264450161 0 -402.05925264450161 -704.09088329381257 0 0 0 0 7.5445203859955257 -12.280169438809679 0 -12.280169438809679 13.345062456083379 0 0 0 0 5654.9357388399876 -378.6800703764219 0 -378.6800703764219 407.23503803347808 0 0 0 0 389.81396715695155 -354.94252463911812 0 -354.94252463911812 271.53930770131228 0 0 0 0 200.25546753986418 -150.49940098761908 0 -150.49940098761908 241.54181421466126 0 0 0 0 -81.706906421779422 -569.39252731094894 0 -569.39252731094894 5.0519735991858852 0 0 0 0 43.755887221735975 -125.0693280601991 0 -125.0693280601991 145.13557139687146 0 0 0 0 3.9557774978780458 -0.27714202410564326 0 -0.27714202410564326 -2.486837250725511 0 0 0 0 2.1604937851616342 -70.934909115603489 0 -70.934909115603489 -495.53216460735166 0 0 0 0 -393.02033479814963 -289.37187959541723 0 -289.37187959541723 -189.64190258066992 0 0 0 0 -274.78547776932101 -405.02814367234532 0 -405.02814367234532 -249.75836089252789 0 0 0 0 -50.626575379057613 -280.98253381803261 0 -280.98253381803261 -238.87339383180642 0 0 0 0 2509.8810558008354 -83.294996068626162 0 -83.294996068626162 -272.57409893030581 0 0 0 0 3500.415612390796 706.69074289344985 0 706.69074289344985 -129.58735475643186 0 0 0 0 17.498201511511063 -32.859950168833763 0 -32.859950168833763 27.668875442785591 0 0 0 0 -1197.4348189293305 -777.33981048816577 0 -777.33981048816577 -284.31831072306568 0 0 0 0 -423.5334354650513 -403.3619750523734 0 -403.3619750523734 -325.5063372917557 0 0 0 0 3901.8963817760159 -844.99083863750673 0 -844.99083863750673 -189.57742000019906 0 0 0 0 1848.9490763590657 290.98046695593774 0 290.98046695593774 -395.86232406803492 0 0 0 0 3500.1122158882436 -227.5605131053087 0 -227.5605131053087 1001.8130151479003 0 0 0 0 111.62116379040526 -411.91328601290206 0 -411.91328601290206 241.00972965958044 0 0 0 0 9.0152935027646777 -6.198091939310423 0 -6.198091939310423 5.6958123147008699 0 0 0 0 4519.8105053210929 534.42762309002649 0 534.42762309002649 172.92916497571358 0 0 0 0 637.95506387523346 -850.37352343605198 0 -850.37352343605198 545.5720361433788 0 0 0 0 3500.285369407211 991.50856218928459 0 991.50856218928459 -31.053112708059935 0 0 0 0 -16.555723238716382 -63.187923447503522 0 -63.187923447503522 32.399136149757396 0 0 0 0 -46.535539875927498 149.30188523000379 0 149.30188523000379 -195.99518508799997 0 0 0 0 -40.282116703194333 186.06114348033339 0 186.06114348033339 -139.29837584609754 0 0 0 0 -747.81365337882744 -470.42205079075211 0 -470.42205079075211 -99.314224381013446 0 0 0 0 373.12514315591397 -514.01157245089735 0 -514.01157245089735 803.16728784195834 0 0 0 0 18.030417187624863 -38.874402592274691 0 -38.874402592274691 28.272458720198745 0 0 0 0 387.87309341409127 -180.08454451392458 0 -180.08454451392458 73.924308345894588 0 0 0 0 -611.09956383816098 -256.42850403366401 0 -256.42850403366401 -86.29775781360695 0 0 0 0 -341.96760462468956 -418.03448505954566 0 -418.03448505954566 -235.28495604601972 0 0 0 0 -145.51552788476693 -407.76929872095525 0 -407.76929872095525 -163.26323904877063 0 0 0 0 -258.83088597466849 -300.66386210157134 0 -300.66386210157134 -167.83641785632972 0 0 0 0 -161.97034627633548 -243.88067250104268 0 -243.88067250104268 -109.22700281439211 0 0 0 0 -136.3016382343194 -320.76068433631826 0 -320.76068433631826 -138.31841357644726 0 0 0 0 -106.39941409142193 -296.60580582221792 0 -296.60580582221792 -154.81699531665618 0 0 0 0 -217.6598767243122 -379.98764371320704 0 -379.98764371320704 -153.70561775986607 0 0 0 0 -334.92295462801849 -265.243728865923 0 -265.243728865923 -76.889815475705291 0 0 0 0 30.085799766901822 -37.684465793380269 0 -37.684465793380269 20.802056865432451 0 0 0 0 -326.12658117308456 -245.44675444459881 0 -245.44675444459881 -110.26531393394635 0 0 0 0 -347.51139677684114 -292.87159891929605 0 -292.87159891929605 -94.107925125443217 0 0 0 0 -250.23925999492349 -299.46240621953075 0 -299.46240621953075 -94.385452785627422 0 0 0 0 -114.47341250039608 -193.04321102433369 0 -193.04321102433369 -68.530770409056345 0 0 0 0 3.6653509670758382 -0.70970243555831303 0 -0.70970243555831303 -1.6629511699549546 0 0 0 0 -259.61468191746826 -215.16725790671626 0 -215.16725790671626 -71.504663965173677 0 0 0 0 -25.246970621839864 -43.488725687178885 0 -43.488725687178885 13.760346562878112 0 0 0 0 -328.47647957556183 -246.39727130503388 0 -246.39727130503388 -46.040280901037477 0 0 0 0 27.340225241117878 16.12597195536182 0 16.12597195536182 -6.5751865505735623 0 0 0 0 26.964666994768777 -21.406356804427105 0 -21.406356804427105 6.1040021804965363 0 0 0 0 47.96402568785259 -17.653779009484779 0 -17.653779009484779 3.0003989666899944 0 0 0 0 53.718577916525376 -14.303153965552539 0 -14.303153965552539 5.6273461591055618 0 0 0 0 6.9637563029391458 -12.378045225835194 0 -12.378045225835194 16.637225588865476 0 0 0 0 -48.738001208123428 -7.4882999278611919 0 -7.4882999278611919 20.538794363968197 0 0 0 0 17.943303920874314 -248.56543522066659 0 -248.56543522066659 -153.01406225719438 0 0 0 0 -36.057600619649747 -269.21984145649094 0 -269.21984145649094 -152.55746896516939 0 0 0 0 -111.37366614007078 -188.98827133632517 0 -188.98827133632517 -90.759145540299869 0 0 0 0 -41.130894964080653 -90.740196209400438 0 -90.740196209400438 -0.92867410427243158 0 0 0 0 24.935956596788571 -40.011917264084374 0 -40.011917264084374 18.60459650136378 0 0 0 0 108.36787417112282 -34.470374657672664 0 -34.470374657672664 8.270581999137903 0 0 0 0 35.607177262992167 -29.610294357726922 0 -29.610294357726922 11.523435617897388 0 0 0 0 20.114098393839427 -5.837348338408205 0 -5.837348338408205 -4.9571188005755928 0 0 0 0 43.690873956596221 -37.785168412790881 0 -37.785168412790881 21.797486463227074 0 0 0 0 -74.679031090578064 -65.2051432418084 0 -65.2051432418084 -19.093041489802999 0 0 0 0 60.92581252812306 -65.81243363033559 0 -65.81243363033559 19.154746727690508 0 0 0 0 56.87171811857479 -60.950429041026382 0 -60.950429041026382 30.646651651240973 0 0 0 0 83.397124528157292 -66.778548774551837 0 -66.778548774551837 23.651261677129014 0 0 0 0 1651.8850164623382 55.678064081342249 0 55.678064081342249 10.648634373735746 0 0 0 0 27.405790135741935 4.5699537160163999 0 4.5699537160163999 -8.2691332444128349 0 0 0 0 111.6701679899852 -61.785004883746751 0 -61.785004883746751 12.765004775626835 0 0 0 0 3498.1379856744425 -715.75922429794969 0 -715.75922429794969 -265.94054115782296 0 0 0 0 1696.6770362251154 -48.223019343845088 0 -48.223019343845088 -85.623726937497651 0 0 0 0 1799.6813863172138 43.652922731243599 0 43.652922731243599 -67.18075338115635 0 0 0 0 56.425817010429455 -62.927143029025501 0 -62.927143029025501 19.248303163886703 0 0 0 0 25.164155466163933 -17.056443118375171 0 -17.056443118375171 11.522702866680053 0 0 0 0 1813.3584899014327 153.24569616656822 0 153.24569616656822 8.8422900941505418 0 0 0 0 -11.670094478497049 -205.77221022907338 0 -205.77221022907338 -193.92969671870196 0 0 0 0 0.99418216077755517 -1.0063684909592041 0 -1.0063684909592041 -0.88021904304516951 0 0 0 0 915.11214377387296 51.125168506394175 0 51.125168506394175 -182.42642457057264 0 0 0 0 -280.52906969228206 -476.20238521447027 0 -476.20238521447027 -300.27366502026484 0 0 0 0 208.33655619966157 -311.46273543634561 0 -311.46273543634561 -369.97239946509421 0 0 0 0 322.50582088808733 -221.97902667445987 0 -221.97902667445987 -313.17285473063203 0 0 0 0 136.30722719208279 -187.36042182070651 0 -187.36042182070651 -277.81180698045546 0 0 0 0 88.769529030061676 -241.419469012023 0 -241.419469012023 -243.68811217273287 0 0 0 0 107.42822140428871 -206.92937610492163 0 -206.92937610492163 -201.36040165119448 0 0 0 0 116.00628662083182 -178.57559067053535 0 -178.57559067053535 -161.73346222392411 0 0 0 0 19.784956596122356 -244.95475549574985 0 -244.95475549574985 -201.96460414793546 0 0 0 0 94.831773644662462 -269.31304653970437 0 -269.31304653970437 -196.66803996205635 0 0 0 0 3.0603028467230615 -312.51112873295187 0 -312.51112873295187 -202.30311585075469 0 0 0 0 122.33459691080498 -298.977748213219 0 -298.977748213219 -225.12130241766863 0 0 0 0 156.57243458117591 -280.22263886066776 0 -280.22263886066776 -302.17009799348239 0 0 0 0 89.739374436016078 -302.84126491823372 0 -302.84126491823372 -225.24707767009795 0 0 0 0 159.95376711022254 -188.22515105065827 0 -188.22515105065827 -123.88968314357226 0 0 0 0 243.17161406057858 -336.76641631738266 0 -336.76641631738266 -232.79379374602104 0 0 0 0 -48.869560904015088 -364.65918373729028 0 -364.65918373729028 -165.82195699798103 0 0 0 0 96.668225223125773 -319.22065409491461 0 -319.22065409491461 -205.61258846198916 0 0 0 0 12.687391424638918 -311.98153965672009 0 -311.98153965672009 -199.55834812193098 0 0 0 0 48.982146368554822 -363.73112002737957 0 -363.73112002737957 -135.22892004132063 0 0 0 0 220.12131096947996 -223.25299631422786 0 -223.25299631422786 -103.51652560843377 0 0 0 0 275.15153364314028 -181.96283800393121 0 -181.96283800393121 -169.93385673340526 0 0 0 0 232.03389715005324 -156.83209121443042 0 -156.83209121443042 -184.55501716590061 0 0 0 0 2.2065513795913319 -2.5591841110591673 0 -2.5591841110591673 -1.7017110460577811 0 0 0 0 272.78027095581274 -167.06854583950985 0 -167.06854583950985 -111.18078066612179 0 0 0 0 377.16942346860014 -136.24089104735413 0 -136.24089104735413 -185.18962542880786 0 0 0 0 25.988645661302144 -123.97088702997758 0 -123.97088702997758 4.1192678683455597 0 0 0 0 269.29417413131887 -25.016728361981677 0 -25.016728361981677 -142.91225828412371 0 0 0 0 1070.6976592464634 -54.82145438715861 0 -54.82145438715861 -195.79269708632455 0 0 0 0 480.53530726965982 -30.287963887116348 0 -30.287963887116348 -14.608721844253068 0 0 0 0 0.9522071687946152 -0.87357862397956865 0 -0.87357862397956865 -0.34267135396947523 0 0 0 0 683.0561312155769 -254.39281404998565 0 -254.39281404998565 -59.923713554432311 0 0 0 0 -137.04769068396126 -612.89696596954366 0 -612.89696596954366 -144.94829577775999 0 0 0 0 413.05750160090975 -201.61334073297576 0 -201.61334073297576 -37.924248798095505 0 0 0 0 -39.760779875117805 -327.46748337014367 0 -327.46748337014367 -73.371409585775837 0 0 0 0 180.09572116709023 -274.27426370852027 0 -274.27426370852027 -176.19302048968598 0 0 0 0 291.76878044530167 -398.46474465121673 0 -398.46474465121673 -56.055510664335088 0 0 0 0 214.33844720257912 -145.8780387684651 0 -145.8780387684651 -15.292142117504113 0 0 0 0 534.78737355393241 -367.82382810754893 0 -367.82382810754893 34.646644778998052 0 0 0 0 130.87678097662865 -150.84826055336362 0 -150.84826055336362 33.421336652656926 0 0 0 0 0.87464854740801457 -36.658718791936451 0 -36.658718791936451 -31.537322503316318 0 0 0 0 177.41059253903222 -247.93000641761228 0 -247.93000641761228 -222.37038854369712 0 0 0 0 146.76951974196709 -138.99756201274818 0 -138.99756201274818 23.999802309219831 0 0 0 0 86.126077002954844 -90.777731832833069 0 -90.777731832833069 57.191570831421814 0 0 0 0 6.9535069426967482 0.9466762953062613 0 0.9466762953062613 -3.4652817868451997 0 0 0 0 271.0184351844 -54.673767589975796 0 -54.673767589975796 8.4321864874531229 0 0 0 0 30.93426919959893 48.168166362514057 0 48.168166362514057 -11.340867302111292 0 0 0 0 461.04194147170347 10.181781580904044 0 10.181781580904044 300.88143807747292 0 0 0 0 582.27982231457281 -345.47358359440204 0 -345.47358359440204 470.77947267601803 0 0 0 0 -56.531782059391844 -88.548138361619749 0 -88.548138361619749 271.4120583432238 0 0 0 0 411.03990202973364 -449.20724176343128 0 -449.20724176343128 301.64398332792098 0 0 0 0 -108.07544578801986 -0.99519283470766595 0 -0.99519283470766595 145.78153797727373 0 0 0 0 54.41031242547615 -25.689129864648748 0 -25.689129864648748 -33.296551598821679 0 0 0 0 0.71728230510227431 -0.30744057367682842 0 -0.30744057367682842 4.5480185813567715 0 0 0 0 1230.1774526586873 -258.3274560922253 0 -258.3274560922253 80.500366953862795 0 0 0 0 454.06883184013714 -37.298996350873495 0 -37.298996350873495 243.15211314834164 0 0 0 0 597.8079891202724 -113.65825191473755 0 -113.65825191473755 213.17199985063962 0 0 0 0 588.60145077966217 -55.759123183403545 0 -55.759123183403545 177.42355451975527 0 0 0 0 422.74020463503985 -98.938252316829221 0 -98.938252316829221 209.10430017699491 0 0 0 0 370.06594769998628 12.892239710232843 0 12.892239710232843 196.90511796677188 0 0 0 0 340.69009041340905 -38.226174651168549 0 -38.226174651168549 110.58873438845694 0 0 0 0 321.57883434195537 12.587189243959983 0 12.587189243959983 183.49212475681406 0 0 0 0 320.66706280780636 8.9254131937677812 0 8.9254131937677812 237.7726578475822 0 0 0 0 444.3401886584179 -57.762389157606549 0 -57.762389157606549 200.89041609432206 0 0 0 0 210.83298549975734 2.1312767404560873 0 2.1312767404560873 251.04279920212957 0 0 0 0 312.44196784544329 -6.0568330066557792 0 -6.0568330066557792 220.72802330220838 0 0 0 0 209.97968355289322 -19.448330815327552 0 -19.448330815327552 241.89503889563093 0 0 0 0 190.41356574281235 -18.287271907451668 0 -18.287271907451668 244.254119718943 0 0 0 0 183.6474519516305 -39.803748608533169 0 -39.803748608533169 236.81908121107062 0 0 0 0 217.56393582018791 -34.164878982581286 0 -34.164878982581286 201.86937101037438 0 0 0 0 218.82056739870313 -36.469513123486763 0 -36.469513123486763 170.29474970190313 0 0 0 0 242.24547060903569 -18.039570206731696 0 -18.039570206731696 223.45884700437546 0 0 0 0 262.56200877230003 -44.772276266907738 0 -44.772276266907738 135.91383270065489 0 0 0 0 242.4373568736919 -18.374266242647991 0 -18.374266242647991 206.5502182279406 0 0 0 0 284.92615247805952 -31.352574741442822 0 -31.352574741442822 125.66417038878762 0 0 0 0 226.95006671654755 -49.776440350960087 0 -49.776440350960087 113.03681773532753 0 0 0 0 312.18370833674271 -83.992789521795203 0 -83.992789521795203 32.559443676601404 0 0 0 0 233.34010087672505 -96.896219632413704 0 -96.896219632413704 77.578683259413083 0 0 0 0 322.44985713054484 -129.53249843737922 0 -129.53249843737922 -69.335661923520092 0 0 0 0 427.55003033698085 32.771991023305887 0 32.771991023305887 78.7372647140146 0 0 0 0 360.04425478891062 -115.22018830658294 0 -115.22018830658294 -57.351990150140409 0 0 0 0 386.63463369032797 -35.731664345053446 0 -35.731664345053446 8.0087474057763757 0 0 0 0 302.72546663146932 -67.955270529983864 0 -67.955270529983864 100.68537883643148 0 0 0 0 474.61422368749481 -85.347136427511714 0 -85.347136427511714 141.08364453984359 0 0 0 0 488.24939681569958 -170.350774522037 0 -170.350774522037 212.75727144912526 0 0 0 0 283.98395995091414 -92.964330558738766 0 -92.964330558738766 225.58599049460963 0 0 0 0 240.02412756613194 -80.580142228296154 0 -80.580142228296154 223.73408837641182 0 0 0 0 272.13850088172694 -115.93004622180058 0 -115.93004622180058 237.04182177529583 0 0 0 0 205.89170195891347 -91.754847372436871 0 -91.754847372436871 260.84483739856478 0 0 0 0 210.45894252203288 -82.401381132164715 0 -82.401381132164715 255.01152920284949 0 0 0 0 166.08558850048576 -61.50752250775713 0 -61.50752250775713 250.82289522761585 0 0 0 0 171.73377947625704 -45.512674809463988 0 -45.512674809463988 255.16569790737503 0 0 0 0 207.18356348577072 -52.078905921071964 0 -52.078905921071964 202.54094253976473 0 0 0 0 206.62349337726482 -61.042591542254286 0 -61.042591542254286 219.81184679278795 0 0 0 0 219.69357417714491 -80.065049571473992 0 -80.065049571473992 147.68391763878208 0 0 0 0 166.89604423385026 -122.5621673690307 0 -122.5621673690307 75.452365287469775 0 0 0 0 263.34150966699235 -50.902131978217312 0 -50.902131978217312 94.749128759123778 0 0 0 0 209.81490475368628 -74.053409866958191 0 -74.053409866958191 196.44686690164997 0 0 0 0 316.36840226937056 -55.546474636173571 0 -55.546474636173571 95.151217791597446 0 0 0 0 302.49068597880614 -19.290356053930964 0 -19.290356053930964 83.671437721501206 0 0 0 0 425.19900668093578 -12.895406852290989 0 -12.895406852290989 29.751702544478576 0 0 0 0 437.03344048438885 -49.696788823827319 0 -49.696788823827319 50.027701867528094 0 0 0 0 412.26348152327409 -100.1122942473753 0 -100.1122942473753 142.33071294047124 0 0 0 0 458.42005114444692 51.516108102337512 0 51.516108102337512 -54.534330826244513 0 0 0 0 317.53459008668142 31.169543339726715 0 31.169543339726715 -4.6687511622089914 0 0 0 0 430.22279708375936 28.342466262873813 0 28.342466262873813 -8.4643283771183633 0 0 0 0 231.60549287268805 126.8033161725848 0 126.8033161725848 35.662163546217926 0 0 0 0 37.708259068458574 4.2245279497910815 0 4.2245279497910815 9.7528194147298564 0 0 0 0 166.02154201511075 -63.273947347875605 0 -63.273947347875605 38.849090938541849 0 0 0 0 200.72999936654378 0.22473477360472316 0 0.22473477360472316 58.343900022400703 0 0 0 0 67.967204571763887 -201.9480250071847 0 -201.9480250071847 -42.226167332893056 0 0 0 0 -123.73921006143792 -475.1603113949127 0 -475.1603113949127 -621.74387764479252 0 0 0 0 -242.62882753890153 25.011964996893767 0 25.011964996893767 -225.27864673193699 0 0 0 0 133.41518865996477 -121.19451793773578 0 -121.19451793773578 -177.8921072248927 0 0 0 0 64.511529804782185 -35.787579959683626 0 -35.787579959683626 63.372948182344544 0 0 0 0 42.758769104199018 -254.1349977399243 0 -254.1349977399243 97.543175879130104 0 0 0 0 1018.1763518933803 -158.84494585368452 0 -158.84494585368452 -40.710035077269822 0 0 0 0 476.90489620860899 294.02689491545311 0 294.02689491545311 -27.574187348588566 0 0 0 0 345.45633047171577 -240.27083051020963 0 -240.27083051020963 -109.7634211180457 0 0 0 0 371.6565296634144 -65.646089469624258 0 -65.646089469624258 -7.5899877233450752 0 0 0 0 466.57746240388951 -159.30826145951642 0 -159.30826145951642 -123.40079068663385 0 0 0 0 358.07089994417765 -141.40640777364888 0 -141.40640777364888 -125.92982853371996 0 0 0 0 347.78384081024706 -150.01626608769516 0 -150.01626608769516 -59.710459110134252 0 0 0 0 299.95556355267036 -188.81469306497547 0 -188.81469306497547 -84.013562643287514 0 0 0 0 195.02919563868636 -155.02013317670844 0 -155.02013317670844 3.4882706574001077 0 0 0 0 217.01566322431609 -96.848667029192256 0 -96.848667029192256 0.7097810937207214 0 0 0 0 276.68319900885399 -163.37695362197564 0 -163.37695362197564 -91.575528723979232 0 0 0 0 202.60402987346606 -249.0646895613371 0 -249.0646895613371 -190.18341848136424 0 0 0 0 171.31037156273669 -139.42073288060419 0 -139.42073288060419 -172.86018663112554 0 0 0 0 42.931557181538665 -209.41030075303024 0 -209.41030075303024 -198.02214233070458 0 0 0 0 212.95210436456546 -277.40460353246544 0 -277.40460353246544 -535.11747048907364 0 0 0 0 275.37020381862021 -141.74145277374078 0 -141.74145277374078 -256.59719955979472 0 0 0 0 338.04697410297376 -189.55908449648678 0 -189.55908449648678 -360.9589077292494 0 0 0 0 374.92008351675759 -110.27411071015922 0 -110.27411071015922 -192.20155538173549 0 0 0 0 520.61060872553207 -266.72663756719476 0 -266.72663756719476 -293.94052734941351 0 0 0 0 305.20166079829505 -180.89579268126909 0 -180.89579268126909 -328.06676120715156 0 0 0 0 250.76251200563638 -129.46395127282574 0 -129.46395127282574 -346.43928546408824 0 0 0 0 328.48737809590239 -171.04383666116337 0 -171.04383666116337 -324.3758961483336 0 0 0 0 269.2627945316417 -91.717145579023509 0 -91.717145579023509 -305.5788588521873 0 0 0 0 230.61122283275472 -39.01766240859979 0 -39.01766240859979 -371.8416294567823 0 0 0 0 343.11310414743275 -111.91948906830271 0 -111.91948906830271 -370.70735023761154 0 0 0 0 308.23202969686463 -71.028401447647184 0 -71.028401447647184 -440.76562307261702 0 0 0 0 300.19025118494756 -71.98470674746477 0 -71.98470674746477 -396.05348185514345 0 0 0 0 298.90782153808686 -57.833525998190453 0 -57.833525998190453 -622.09488014574163 0 0 0 0 303.20936363711371 -34.155882295890478 0 -34.155882295890478 -554.29271074134658 0 0 0 0 235.62160655754269 119.25198902594457 0 119.25198902594457 -505.81605161575771 0 0 0 0 247.10167021162124 47.677620726640043 0 47.677620726640043 -365.83756785693549 0 0 0 0 251.0862433440052 39.171866188178683 0 39.171866188178683 -378.77473865702268 0 0 0 0 252.99944879370742 56.326141160403495 0 56.326141160403495 -360.54539415077033 0 0 0 0 217.86482529109344 -41.102628628771981 0 -41.102628628771981 -186.97513337725832 0 0 0 0 262.43951608592761 50.491339592237637 0 50.491339592237637 -372.63492544009932 0 0 0 0 245.40645123981085 10.618425278228642 0 10.618425278228642 -368.59344702392082 0 0 0 0 255.32337527305936 30.926895914606575 0 30.926895914606575 -450.57422722427339 0 0 0 0 200.31533430009063 -47.081771841250713 0 -47.081771841250713 -12.963023798163398 0 0 0 0 -217.46757091518884 -406.6258881648464 0 -406.6258881648464 -140.10322634941258 0 0 0 0 1627.3174495855483 279.58301535241844 0 279.58301535241844 -489.42944695380356 0 0 0 0 221.95682240043243 29.606283949797216 0 29.606283949797216 -334.78064030721453 0 0 0 0 306.20076597839488 -482.83808664631579 0 -482.83808664631579 -414.34931096400214 0 0 0 0 -39.609953459039389 -505.99424175664899 0 -505.99424175664899 -283.36841313022524 0 0 0 0 392.06203508939871 51.470504596862156 0 51.470504596862156 -171.96781631993144 0 0 0 0 6.8982648768094847 -6.028130467767177 0 -6.028130467767177 1.8756997029729767 0 0 0 0 -2045.6769478928109 -594.60040239731461 0 -594.60040239731461 1129.5813445517888 0 0 0 0 661.54746879835875 -305.44003711161713 0 -305.44003711161713 -372.34319711101125 0 0 0 0 496.41304724555812 -354.59628083617645 0 -354.59628083617645 -375.99262175448166 0 0 0 0 418.9615089315339 -139.1461337600449 0 -139.1461337600449 -312.58276126458713 0 0 0 0 696.44487938717339 -101.18308890012941 0 -101.18308890012941 -324.55452981101553 0 0 0 0 188.91971126933095 -161.40667398326786 0 -161.40667398326786 -192.58508358450126 0 0 0 0 382.19635569225647 -112.28881379600898 0 -112.28881379600898 -191.76687289748224 0 0 0 0 291.33691174637897 -316.14050768454945 0 -316.14050768454945 -238.6507151764672 0 0 0 0 310.37243702022533 -281.17708979077543 0 -281.17708979077543 -175.77553549708682 0 0 0 0 255.75127131884801 -322.29046774711787 0 -322.29046774711787 -132.75569088008706 0 0 0 0 -22.672962205342628 -314.68433394264503 0 -314.68433394264503 -128.65242093201596 0 0 0 0 253.31045778740736 -451.36238971135026 0 -451.36238971135026 -275.11365160185778 0 0 0 0 315.78549874482633 -368.85586421299013 0 -368.85586421299013 -262.13569158304381 0 0 0 0 238.6139663250251 -351.97046345832132 0 -351.97046345832132 -183.3147208581322 0 0 0 0 182.34665626532296 -296.03064470813206 0 -296.03064470813206 -28.31420181590147 0 0 0 0 193.2166326768729 -318.86902178661512 0 -318.86902178661512 -129.00694602973874 0 0 0 0 108.41580965542198 -121.28824115614316 0 -121.28824115614316 123.4556484585446 0 0 0 0 158.19164371458828 -195.65685813989421 0 -195.65685813989421 -169.37636056979318 0 0 0 0 -30.023297218210246 -25.010181431282035 0 -25.010181431282035 422.27823844058003 0 0 0 0 531.89747505418381 174.4512944481794 0 174.4512944481794 22.35463999474814 0 0 0 0 732.48598739247336 510.91973887634776 0 510.91973887634776 330.9221514888377 0 0 0 0 1118.8719342468094 164.34572344865092 0 164.34572344865092 -148.71172889050649 0 0 0 0 242.1324172254117 293.87817788495795 0 293.87817788495795 678.59876290577449 0 0 0 0 555.20404385465463 -1327.2558565940217 0 -1327.2558565940217 -99.70892395831288 0 0 0 0 238.17958526448058 -50.166498401795948 0 -50.166498401795948 -339.72629723405862 0 0 0 0 160.98588837985676 1590.3843645988195 0 1590.3843645988195 60.586780782312417 0 0 0 0 675.64082966683145 -207.00798456053235 0 -207.00798456053235 -1615.2942054929954 0 0 0 0 217.55405180787216 -42.500359535123771 0 -42.500359535123771 -12.037351940214529 0 0 0 0 -200.97886385747552 -13.390144326973314 0 -13.390144326973314 -251.41460794763134 0 0 0 0 115.88989627242594 -1.9089402648065867 0 -1.9089402648065867 -3.8779410952498412 0 0 0 0 511.68200641951262 -225.64681780349048 0 -225.64681780349048 -1806.8644350968648 0 0 0 0 171.3627520432492 -74.763489967618625 0 -74.763489967618625 -924.41029305253142 0 0 0 0 371.47853034611762 -534.45886601439452 0 -534.45886601439452 -596.61355510560497 0 0 0 0 186.82204728723445 -124.50469161608635 0 -124.50469161608635 -571.49554872346926 0 0 0 0 200.2241458801509 -351.88202827206385 0 -351.88202827206385 -848.80460975137157 0 0 0 0 -11.804203576233704 -363.3738994013795 0 -363.3738994013795 -627.96433142080832 0 0 0 0 125.01021499832282 -5.4228311076610662 0 -5.4228311076610662 -0.11325814677981083 0 0 0 0 33.797294459248974 -3.4100810612254122 0 -3.4100810612254122 -12.217397821498857 0 0 0 0 -226.7890297981794 -551.43582657902289 0 -551.43582657902289 -738.7540997082242 0 0 0 0 161.3765640935153 -268.51837079022403 0 -268.51837079022403 -1030.8060353973451 0 0 0 0 210.93416429260105 227.52149545203247 0 227.52149545203247 -806.90556707018095 0 0 0 0 319.38998438649469 -88.180078365281247 0 -88.180078365281247 -1028.2309541877903 0 0 0 0 15.314213808567729 97.571839520858703 0 97.571839520858703 -56.952202494576341 0 0 0 0 199.15746104405844 69.566588410837994 0 69.566588410837994 -403.6990565048618 0 0 0 0 79.860235632571857 154.2856530452118 0 154.2856530452118 -350.43246249959611 0 0 0 0 13.336085725139128 20.608863200353881 0 20.608863200353881 -17.074486893960056 0 0 0 0 49.629344446766481 257.31477417172823 0 257.31477417172823 -328.20288675702432 0 0 0 0 21.820888873447217 -15.862573226261141 0 -15.862573226261141 18.235160411110556 0 0 0 0 367.96627302317938 -8.357702352819615 0 -8.357702352819615 220.9279874352851 0 0 0 0 -41.612323580604425 -106.8454699415588 0 -106.8454699415588 -43.212598447080381 0 0 0 0 166.57756890186153 -53.312646561744366 0 -53.312646561744366 -3.0821266180050078 0 0 0 0 -53.916979925220403 -114.95132789768741 0 -114.95132789768741 -48.322114913491532 0 0 0 0 81.740153870916402 -8.2699582353943697 0 -8.2699582353943697 -145.01193850523487 0 0 0 0 -11.055961150334042 -123.8585135826288 0 -123.8585135826288 -67.266598533100478 0 0 0 0 141.28765425289566 -181.60987959168051 0 -181.60987959168051 -78.269327341284225 0 0 0 0 -33.098920614673261 -191.26490984279008 0 -191.26490984279008 -60.852596859699588 0 0 0 0 -41.7560286992084 -140.55828954412391 0 -140.55828954412391 -76.199992310519519 0 0 0 0 -44.983356732562243 -1.7338136112714722 0 -1.7338136112714722 104.80409920757134 0 0 0 0 -125.1300066429576 -163.72352842953751 0 -163.72352842953751 -21.438996398675954 0 0 0 0 10.655428515249866 -14.958919791092626 0 -14.958919791092626 53.757792976781005 0 0 0 0 33.940235865126851 12.404877834637119 0 12.404877834637119 102.69078845865101 0 0 0 0 14.534633385774214 -80.649440141340165 0 -80.649440141340165 245.87449754756926 0 0 0 0 79.259333684199461 -24.613720828616529 0 -24.613720828616529 53.559410678895688 0 0 0 0 11.880057618048497 -2.2598615553295454 0 -2.2598615553295454 15.043915360307166 0 0 0 0 7.7564720309892436 20.157420070219132 0 20.157420070219132 20.473016258942181 0 0 0 0 41.607659937311837 177.72021445038217 0 177.72021445038217 -47.045210559337221 0 0 0 0 30.239128546898428 81.791055686287137 0 81.791055686287137 112.62491763937078 0 0 0 0 -42.41055396129741 20.889285358481629 0 20.889285358481629 183.63404472591401 0 0 0 0 240.70511967942912 -230.58465912552666 0 -230.58465912552666 230.0625464594724 0 0 0 0 481.68923769830144 -106.50351502476693 0 -106.50351502476693 261.0460674315853 0 0 0 0 -52.63160793924726 16.578024859822492 0 16.578024859822492 397.02754167096191 0 0 0 0 4.1072958959623946 -0.61800368508357906 0 -0.61800368508357906 -0.86679213866460492 0 0 0 0 629.16810122338029 -438.91400411565689 0 -438.91400411565689 191.13253065482229 0 0 0 0 597.2715142442903 -470.71919364073096 0 -470.71919364073096 369.57457742979886 0 0 0 0 5.9693543868210384 4.6288865958317515 0 4.6288865958317515 6.1601963421183559 0 0 0 0 315.81750228330384 -288.94132665488047 0 -288.94132665488047 278.17393214500316 0 0 0 0 384.2818996474607 -165.65039504941618 0 -165.65039504941618 48.394766182796815 0 0 0 0 740.44986350420731 -55.604503859792317 0 -55.604503859792317 4.1934051957080101 0 0 0 0 117.73785256094561 -182.90267272648236 0 -182.90267272648236 220.29061377627073 0 0 0 0 -472.81988295496558 -294.28561165054725 0 -294.28561165054725 33.127448062487019 0 0 0 0 -176.90464979834724 -202.07925208824372 0 -202.07925208824372 -151.75656731499112 0 0 0 0 1.9463060966483994 -11.353675500259293 0 -11.353675500259293 36.911398799845252 0 0 0 0 -261.84389860716692 -131.56660821954847 0 -131.56660821954847 -1.3724058806783432 0 0 0 0 -25.876185264452943 -178.05034005135803 0 -178.05034005135803 -51.975525731596463 0 0 0 0 54.409972503366589 -189.75623061352644 0 -189.75623061352644 -5.0121977281123691 0 0 0 0 -3.2626357020162686 -276.05065919867047 0 -276.05065919867047 -28.075417011715217 0 0 0 0 -157.06277363986374 -112.97566343098151 0 -112.97566343098151 94.706855880726835 0 0 0 0 -3.8987728816646268 -192.10490967918463 0 -192.10490967918463 123.81812698746762 0 0 0 0 -201.66876490944196 -63.12187679572191 0 -63.12187679572191 274.28778982317363 0 0 0 0 -19.863840423689908 -191.0229723543481 0 -191.0229723543481 360.67710838392912 0 0 0 0 -199.3395629431725 -172.67244330467702 0 -172.67244330467702 414.9366769201697 0 0 0 0 -378.03445276260027 -111.00924850492299 0 -111.00924850492299 436.83002818002751 0 0 0 0 15.723621991386608 -694.09432789328457 0 -694.09432789328457 642.53002698236014 0 0 0 0 -190.12047830379015 -250.67292353486891 0 -250.67292353486891 539.78137522003135 0 0 0 0 -395.62590933508318 -392.71022754374013 0 -392.71022754374013 788.31154269412627 0 0 0 0 -391.45983945639455 73.664639475135914 0 73.664639475135914 80.448405078719816 0 0 0 0 -225.51441471027101 -152.13278358674322 0 -152.13278358674322 372.0972407074994 0 0 0 0 1086.214975147268 -413.7867825765552 0 -413.7867825765552 310.25818341095624 0 0 0 0 1739.3820784325653 -365.92177795849568 0 -365.92177795849568 -192.1303101003848 0 0 0 0 1.1290313202237527 -2.7159960660741618 0 -2.7159960660741618 14.315838122226742 0 0 0 0 -703.72863281976061 -110.31543946884824 0 -110.31543946884824 547.64391302245122 0 0 0 0 7.5888470915944453 7.9541456389312408 0 7.9541456389312408 11.599231712181275 0 0 0 0 1077.4755023409525 696.82369411440595 0 696.82369411440595 2325.4763339959136 0 0 0 0 720.52372557693161 -2228.9035244673801 0 -2228.9035244673801 -1844.3580860577022 0 0 0 0 284.05148567368815 -275.989869092557 0 -275.989869092557 293.96622234159804 0 0 0 0 400.15599405637477 -131.53266641351365 0 -131.53266641351365 168.32425274995239 0 0 0 0 265.9044575730768 -251.21038823976141 0 -251.21038823976141 301.19497277741721 0 0 0 0 252.6918972053536 -252.5196693465532 0 -252.5196693465532 305.31324010406752 0 0 0 0 270.72031150053954 -176.11673739865728 0 -176.11673739865728 451.93905302157236 0 0 0 0 542.8847398917278 15.471922853328579 0 15.471922853328579 326.6512270606836 0 0 0 0 400.50005665598201 -136.20791176154012 0 -136.20791176154012 170.34739022618851 0 0 0 0 394.4263654929473 -134.74475872740607 0 -134.74475872740607 170.69921240758049 0 0 0 0 395.50061504728365 -130.86116626888816 0 -130.86116626888816 169.74101961875931 0 0 0 0 7.5741055173422893 8.1986658178239367 0 8.1986658178239367 12.913862235535081 0 0 0 0 754.04475863981042 -50.500023148426408 0 -50.500023148426408 -53.516370700301195 0 0 0 0 634.72306662941105 -269.3648061270203 0 -269.3648061270203 120.03916401742754 0 0 0 0 636.15175480164703 -50.624057261279688 0 -50.624057261279688 37.637913376460347 0 0 0 0 705.24837116340632 -100.67677807236714 0 -100.67677807236714 69.51760380790347 0 0 0 0 822.89478696508604 -99.483413928191112 0 -99.483413928191112 -22.787273991194525 0 0 0 0 813.87422193183124 158.77983895868812 0 158.77983895868812 -60.701423622562288 0 0 0 0 760.43736483085831 56.489693075716787 0 56.489693075716787 20.427311349896627 0 0 0 0 539.47533224206654 54.450150894482249 0 54.450150894482249 -74.359663862675006 0 0 0 0 722.20359270583083 99.704711636608636 0 99.704711636608636 -48.772489347396913 0 0 0 0 722.78057049016877 95.462620417313758 0 95.462620417313758 -126.96366201200544 0 0 0 0 592.94641802507101 55.161979697882998 0 55.161979697882998 -119.29641689175742 0 0 0 0 447.55165705614672 127.35797288069989 0 127.35797288069989 -0.58854254862308153 0 0 0 0 526.37405161877723 -3.4769195122025849 0 -3.4769195122025849 -57.202161100120975 0 0 0 0 524.25561475722407 -20.540528593945965 0 -20.540528593945965 14.423741150925707 0 0 0 0 355.82897582612168 -74.723067162997722 0 -74.723067162997722 -2.4664538692923088 0 0 0 0 339.2139957325744 -191.40730851233457 0 -191.40730851233457 -14.513779403551098 0 0 0 0 232.79750791631704 -292.4644999699949 0 -292.4644999699949 1.2373590622773918 0 0 0 0 349.76029379102238 -214.15717255876552 0 -214.15717255876552 31.666062257363592 0 0 0 0 152.63441105899437 -285.98648204685924 0 -285.98648204685924 -47.643527213855123 0 0 0 0 189.15032542648623 -235.73717239634425 0 -235.73717239634425 -70.04291311187535 0 0 0 0 154.98243202112826 -291.57769910024672 0 -291.57769910024672 91.469482163585781 0 0 0 0 241.17864959611325 -197.71670008159526 0 -197.71670008159526 35.733124726315054 0 0 0 0 211.88511732785992 -266.88448745178607 0 -266.88448745178607 228.37089586175352 0 0 0 0 160.52680314672398 -178.2172183966677 0 -178.2172183966677 76.01328747113962 0 0 0 0 419.03491874060637 -145.13993484211824 0 -145.13993484211824 61.903550798776905 0 0 0 0 351.67037906003679 -293.22421243442022 0 -293.22421243442022 118.12487485111706 0 0 0 0 286.17606715697184 -189.7903301842116 0 -189.7903301842116 170.42387985024743 0 0 0 0 233.45969784871704 -243.51811955167295 0 -243.51811955167295 372.80960238811349 0 0 0 0 226.41051765676457 -99.410267597837674 0 -99.410267597837674 335.08626838764991 0 0 0 0 454.51646613190496 -179.30490101439318 0 -179.30490101439318 234.83463529999494 0 0 0 0 442.47237821518684 -270.17413927088796 0 -270.17413927088796 204.7438349240324 0 0 0 0 -4.1885662188473987 -161.80287091916745 0 -161.80287091916745 236.81566821753222 0 0 0 0 116.91579798052408 -223.90729812992004 0 -223.90729812992004 258.10176576597587 0 0 0 0 167.68757552991519 -147.13803106292107 0 -147.13803106292107 231.58908409677389 0 0 0 0 6.3859113102721494 -103.73598023687552 0 -103.73598023687552 307.48960576272384 0 0 0 0 147.01803581008426 -223.43537057255548 0 -223.43537057255548 386.04344445591983 0 0 0 0 108.89728485764135 -96.278145893981218 0 -96.278145893981218 388.07841396547622 0 0 0 0 402.88882240139901 -230.12074913706124 0 -230.12074913706124 392.10742502288963 0 0 0 0 405.69053664136561 -149.13713177887394 0 -149.13713177887394 521.43081401419954 0 0 0 0 235.91423826467508 -81.62731291076625 0 -81.62731291076625 443.65860751742844 0 0 0 0 649.27537803029372 -204.21364188935559 0 -204.21364188935559 383.52471773073603 0 0 0 0 503.27784731408792 -144.3413156944157 0 -144.3413156944157 402.46809308178536 0 0 0 0 830.80014822375279 -319.95055615474803 0 -319.95055615474803 235.05778783143808 0 0 0 0 1113.7292979668562 -261.28765259081138 0 -261.28765259081138 226.5317397333788 0 0 0 0 796.4074131197076 -26.323631738346478 0 -26.323631738346478 513.41651084330078 0 0 0 0 668.48751618583265 -225.82547974539102 0 -225.82547974539102 539.68341141868291 0 0 0 0 623.77581871008988 -108.94548983837194 0 -108.94548983837194 346.74083614833125 0 0 0 0 930.06115819696242 -184.21654138247004 0 -184.21654138247004 394.31610079676102 0 0 0 0 1063.1723522365337 -189.81235962527717 0 -189.81235962527717 77.002295570273134 0 0 0 0 627.41927830359134 -224.04127714857901 0 -224.04127714857901 451.33811110020906 0 0 0 0 619.49662699511828 -302.92099024485606 0 -302.92099024485606 320.67094905410158 0 0 0 0 282.2360710231784 411.06210915635893 0 411.06210915635893 359.87811853330095 0 0 0 0 1262.8382393825734 -425.11233454504259 0 -425.11233454504259 353.76725193719449 0 0 0 0 1496.5986765376383 292.94791775101839 0 292.94791775101839 -84.607669275971602 0 0 0 0 940.36237395871967 -111.43288759145446 0 -111.43288759145446 903.37089978935182 0 0 0 0 6.5110227427060341 -3.3852078990379901 0 -3.3852078990379901 0.75142655379974821 0 0 0 0 74.507216495116154 -181.82747127055518 0 -181.82747127055518 536.01716248768662 0 0 0 0 871.40243490240357 717.98883368963243 0 717.98883368963243 205.74438900689529 0 0 0 0 1360.4880037372093 -882.60970667110269 0 -882.60970667110269 72.636183613893195 0 0 0 0 833.38745857194181 -624.81291888604596 0 -624.81291888604596 222.91041956923982 0 0 0 0 1753.2486322994935 -766.73165927155515 0 -766.73165927155515 -38.403145811132617 0 0 0 0 1251.9982644132356 -176.59710867338708 0 -176.59710867338708 238.49824972748343 0 0 0 0 2133.2488535234702 123.30861130886387 0 123.30861130886387 316.15836893110168 0 0 0 0 806.8178462921087 32.390594715662701 0 32.390594715662701 -11.255283993701482 0 0 0 0 -3.71563554383971 -265.27640040065592 0 -265.27640040065592 -84.532515243668058 0 0 0 0 -0.7315471245943268 3.1538244969444573 0 3.1538244969444573 1.3591607158566177 0 0 0 0 6.8617009563167812 83.610424959585259 0 83.610424959585259 -108.31353416467437 0 0 0 0 116.88493409224066 138.06030573763883 0 138.06030573763883 -114.95192627021925 0 0 0 0 -116.04355427287919 109.32245198144597 0 109.32245198144597 -34.773423112001637 0 0 0 0 24.779185102315893 1.1712713181524146 0 1.1712713181524146 -2.9855539538751383 0 0 0 0 5.8293132227809332 2.4926183118624792 0 2.4926183118624792 -14.007784488518306 0 0 0 0 27.894314856426604 7.5535551281348035 0 7.5535551281348035 -15.876671721708362 0 0 0 0 -1.8827697197016668 1.6363984056895946 0 1.6363984056895946 -1.0272920094445706 0 0 0 0 31.997624588226699 14.227653232968578 0 14.227653232968578 6.1594305550825776 0 0 0 0 11.394662065526276 -2.7041986481122562 0 -2.7041986481122562 -4.0435297106241892 0 0 0 0 13.024380493554418 4.9028848725822627 0 4.9028848725822627 40.375466177378257 0 0 0 0 1.2004356876098718 1.5944043865585726 0 1.5944043865585726 0.051707809393281678 0 0 0 0 515.77385122310352 153.91331536368489 0 153.91331536368489 -34.63036533547529 0 0 0 0 242.99106317148295 -5.2983544508264799 0 -5.2983544508264799 76.543094914027279 0 0 0 0 23.646563671152649 32.758380315015074 0 32.758380315015074 4.3903015647592838 0 0 0 0 64.324528766632056 37.959773938314584 0 37.959773938314584 4.8589999227841645 0 0 0 0 35.148086731633839 24.493310770539665 0 24.493310770539665 13.6599754982999 0 0 0 0 -1.9306399434345494 17.161762179452815 0 17.161762179452815 -14.941451517189801 0 0 0 0 69.639327493698829 85.685391928532454 0 85.685391928532454 15.343770032428438 0 0 0 0 601.94098560025736 -33.934955582753901 0 -33.934955582753901 -19.619052979364824 0 0 0 0 43.242209928280573 10.529063256799825 0 10.529063256799825 -5.0683623033761256 0 0 0 0 0.1591286197032673 -40.365871503616972 0 -40.365871503616972 -35.763408393864665 0 0 0 0 32.202181151282275 -9.1448442464998152 0 -9.1448442464998152 -79.09662020589667 0 0 0 0 9.0953835308940043 8.5737999433846532 0 8.5737999433846532 -17.769437875544817 0 0 0 0 46.245423296224772 21.662444064820193 0 21.662444064820193 -19.566449345633714 0 0 0 0 56.437371869177923 49.177560646880011 0 49.177560646880011 2.8546175324809155 0 0 0 0 -15.241297208957349 0.096798670752519911 0 0.096798670752519911 -1.7556834264184715 0 0 0 0 8.7443278931831188 -16.642469301345358 0 -16.642469301345358 -4.6948039864894326 0 0 0 0 -0.81711829994361551 13.170311236006057 0 13.170311236006057 -14.531104713360065 0 0 0 0 18.05721386360301 -9.4196085589869085 0 -9.4196085589869085 -35.202639881233267 0 0 0 0 -11.233641289699012 4.2410942644075238 0 4.2410942644075238 1.4679434111391318 0 0 0 0 -5.2935061144221436 15.318138145948637 0 15.318138145948637 -7.9347125124581908 0 0 0 0 3.7733042118868081 0.23743814470482816 0 0.23743814470482816 -0.18797504330460857 0 0 0 0 -5.8373888931532338 26.481487328818552 0 26.481487328818552 9.6010982826591871 0 0 0 0 -30.753509491149998 0.92526861339644029 0 0.92526861339644029 -26.770480096183636 0 0 0 0 -63.847094610627664 3.2048109334394823 0 3.2048109334394823 45.695697528288022 0 0 0 0 -23.116586806926989 -24.322630947781494 0 -24.322630947781494 29.729058845352377 0 0 0 0 166.65408702572836 -39.611939174530221 0 -39.611939174530221 -95.512297810121936 0 0 0 0 -17.079346303704824 11.357849438893597 0 11.357849438893597 153.17627474494253 0 0 0 0 145.41069382778244 78.688436127887513 0 78.688436127887513 205.20716216772394 0 0 0 0 37.08764274870191 -13.68122520962703 0 -13.68122520962703 315.89465174471889 0 0 0 0 1365.2818767037566 211.16169900359054 0 211.16169900359054 -196.47004058435064 0 0 0 0 5.4457173127983367 -1.5398072842114203 0 -1.5398072842114203 -20.313481886649015 0 0 0 0 -3.5870712320974665 -0.59783140909224697 0 -0.59783140909224697 -0.15517888831636936 0 0 0 0 3499.6533863218683 -63.766480234892988 0 -63.766480234892988 -543.46860475797814 0 0 0 0 1353.2991092390041 439.40985024169737 0 439.40985024169737 -388.61775020074663 0 0 0 0 3492.306800776204 983.20889921935998 0 983.20889921935998 -289.44864683150405 0 0 0 0 611.37339458163569 1137.0794705513426 0 1137.0794705513426 1057.6572516465287 0 0 0 0 3482.9788664385824 187.23144065670951 0 187.23144065670951 -584.23161061179644 0 0 0 0 15.923476565056241 4.4902568485769372 0 4.4902568485769372 1.9506423554478365 0 0 0 0 1788.545767387146 -493.11679612053086 0 -493.11679612053086 111.06800003613441 0 0 0 0 -3.7859851270218314 -50.689019654525282 0 -50.689019654525282 39.232146028874666 0 0 0 0 30.404906300373909 31.05218022371696 0 31.05218022371696 21.605799023029363 0 0 0 0 381.64611078212545 -205.18339363056393 0 -205.18339363056393 -9.2552417291675511 0 0 0 0 36.054840763525071 8.4434873172253173 0 8.4434873172253173 2.7854093303966367 0 0 0 0 -158.41831982185613 31.95643921042533 0 31.95643921042533 -15.304926288364772 0 0 0 0 181.89515764317713 25.025808201901668 0 25.025808201901668 -256.64884847356734 0 0 0 0 81.532492455336978 23.117438469506567 0 23.117438469506567 -62.894621276597235 0 0 0 0 78.131021217557191 17.002110184090256 0 17.002110184090256 4.7881608119343184 0 0 0 0 -155.96153374942969 -93.236373043527664 0 -93.236373043527664 5.9613590708787214 0 0 0 0 25.758942063005719 0.19015306082262962 0 0.19015306082262962 -0.22027077771133671 0 0 0 0 57.668845495296409 -31.987610639418904 0 -31.987610639418904 78.896644796176133 0 0 0 0 28.294003955510561 -38.073875479801472 0 -38.073875479801472 101.55409148959274 0 0 0 0 34.419558505651167 -5.4834425041064128 0 -5.4834425041064128 0.44133123734244684 0 0 0 0 27.174989551665931 -27.608955854823265 0 -27.608955854823265 23.711893034923264 0 0 0 0 1530.6714844961625 682.34286638026231 0 682.34286638026231 -11.114073217432335 0 0 0 0 11.360732663120515 -0.83721676168297554 0 -0.83721676168297554 0.4596206442882389 0 0 0 0 -378.96305658594247 -65.34190731579217 0 -65.34190731579217 63.258616249462385 0 0 0 0 -358.10679599813011 -176.73120421739344 0 -176.73120421739344 600.66247180417247 0 0 0 0 60.560425786385167 -102.56389259512059 0 -102.56389259512059 183.55039690842645 0 0 0 0 37.788364877509593 -1.0256292145230645 0 -1.0256292145230645 157.52831973476631 0 0 0 0 3467.6996322878258 148.85262154980754 0 148.85262154980754 -474.34124119811071 0 0 0 0 658.3141646606673 -691.25619554015816 0 -691.25619554015816 765.95009792686676 0 0 0 0 -11.058645231114497 280.56194020812842 0 280.56194020812842 -186.34099776652562 0 0 0 0 3499.4963504106454 -1470.1277984216881 0 -1470.1277984216881 507.96483673193126 0 0 0 0 8.7540020311672677 2.8763633864790705 0 2.8763633864790705 -3.2709188176616228 0 0 0 0 181.78101929966942 -165.02605690963253 0 -165.02605690963253 64.684258044165972 0 0 0 0 255.03951911791773 -102.91813337703263 0 -102.91813337703263 -116.16645157522498 0 0 0 0 105.51769010724456 -71.174362477871227 0 -71.174362477871227 -31.609076448859923 0 0 0 0 138.70098384583162 -44.907429494852863 0 -44.907429494852863 -11.31020482468557 0 0 0 0 126.7303433253237 -2.5799856666225196 0 -2.5799856666225196 -49.320326063129869 0 0 0 0 100.93776765719667 -46.314677956708465 0 -46.314677956708465 17.960643424992099 0 0 0 0 2395.8414128034983 -713.66305866126834 0 -713.66305866126834 22.263938961402079 0 0 0 0 13.480500592993543 8.8506607101609482 0 8.8506607101609482 -7.4800389896993646 0 0 0 0 31.673054448841867 -72.635233155900721 0 -72.635233155900721 34.042399654516998 0 0 0 0 42.062226621139416 -70.216052630530157 0 -70.216052630530157 24.345903008120786 0 0 0 0 30.039979982460451 -40.153969396100521 0 -40.153969396100521 18.607162041851446 0 0 0 0 56.453088718146461 -32.794569559017333 0 -32.794569559017333 18.585067779437956 0 0 0 0 51.489116455853946 -61.922191831007467 0 -61.922191831007467 48.318719071979899 0 0 0 0 44.020845607155934 -78.901638849933533 0 -78.901638849933533 60.14084687835782 0 0 0 0 73.091020867897896 -61.751257176452782 0 -61.751257176452782 0.26318436029396253 0 0 0 0 105.88631568555866 -75.059199896026939 0 -75.059199896026939 5.6428850000356761 0 0 0 0 101.11018928976273 -56.325446350739924 0 -56.325446350739924 -9.0058236005497747 0 0 0 0 84.43424846024709 -60.578644705549806 0 -60.578644705549806 -12.976873488344609 0 0 0 0 51.575487577021704 -35.277377186847389 0 -35.277377186847389 -7.2796376719161344 0 0 0 0 27.741899437271059 -141.28961353463274 0 -141.28961353463274 -76.078606515180581 0 0 0 0 -48.465939624642488 -111.56967478990555 0 -111.56967478990555 -14.868775690556504 0 0 0 0 55.48812176597005 -35.598248409707608 0 -35.598248409707608 16.17480921254948 0 0 0 0 8.8360335845973168 -85.660580316032338 0 -85.660580316032338 29.649866352721347 0 0 0 0 21.912112421137479 -38.456004327778771 0 -38.456004327778771 25.842539113811487 0 0 0 0 13.477904370243778 -170.36734513930332 0 -170.36734513930332 -96.841735542124297 0 0 0 0 99.102619223762304 -94.002845690704817 0 -94.002845690704817 -42.371242776850522 0 0 0 0 107.81142268353142 -87.683049410281455 0 -87.683049410281455 -45.779451158923621 0 0 0 0 102.00169026629737 -76.384113737077314 0 -76.384113737077314 -18.80357072467632 0 0 0 0 -115.95962166949175 52.391981396260235 0 52.391981396260235 28.571309023944195 0 0 0 0 141.62147998439468 -129.5303707169719 0 -129.5303707169719 -90.722362153597714 0 0 0 0 178.4524749682023 -83.707957929659642 0 -83.707957929659642 -81.485751008018269 0 0 0 0 161.26793538829952 -143.15546844108621 0 -143.15546844108621 -169.5598431093913 0 0 0 0 90.551117541865096 -144.21944931878534 0 -144.21944931878534 -95.441115808877612 0 0 0 0 138.89276989320206 -182.3630148220193 0 -182.3630148220193 -176.29306613508379 0 0 0 0 209.86913446594554 -189.79527075804708 0 -189.79527075804708 -228.52617736337288 0 0 0 0 257.43822204305252 -161.71263114496639 0 -161.71263114496639 -243.46282314220844 0 0 0 0 204.6255929699837 -217.8236299210057 0 -217.8236299210057 -290.25933500406518 0 0 0 0 214.03229214400926 -144.85056113790142 0 -144.85056113790142 -249.96713855121016 0 0 0 0 237.09986379946622 -74.056486218326626 0 -74.056486218326626 -195.32058730700737 0 0 0 0 213.74211972695775 -117.11899949724466 0 -117.11899949724466 -151.53851539185189 0 0 0 0 196.00090712993187 -129.46126112242018 0 -129.46126112242018 -150.18130968121113 0 0 0 0 211.13621312356554 -40.822023545596494 0 -40.822023545596494 -59.45614847608158 0 0 0 0 221.44611758600513 -83.981203753294722 0 -83.981203753294722 -163.02647166640645 0 0 0 0 825.33956660577496 754.93841344788234 0 754.93841344788234 -1470.6269753066908 0 0 0 0 211.18230422943617 -35.766531720535852 0 -35.766531720535852 -10.531650384400159 0 0 0 0 199.25463920376205 -92.265789931104337 0 -92.265789931104337 -156.18024339859767 0 0 0 0 644.16002180617988 -184.25740159005636 0 -184.25740159005636 -89.294917089175215 0 0 0 0 -207.70998232567763 253.53521845266914 0 253.53521845266914 1148.4326949980914 0 0 0 0 16.779821622901739 3.5639877741896484 0 3.5639877741896484 1.9550624471189639 0 0 0 0 301.93807943120373 -327.21157024710192 0 -327.21157024710192 -594.3063378545794 0 0 0 0 21.653660855291946 -68.423942089524644 0 -68.423942089524644 29.734687143013616 0 0 0 0 -10.558148192241106 137.33764533444048 0 137.33764533444048 -66.156494394603214 0 0 0 0 -213.67650469203363 105.82535545950077 0 105.82535545950077 150.16220176718707 0 0 0 0 51.002712694406313 13.526744788886578 0 13.526744788886578 -5.4202126655139402 0 0 0 0 46.679467842565607 25.418623525403699 0 25.418623525403699 -51.936599517435496 0 0 0 0 42.704362656838846 -2.514916837747478 0 -2.514916837747478 -16.116514316336357 0 0 0 0 101.38858092646115 14.699016623073476 0 14.699016623073476 -5.9631876141866087 0 0 0 0 92.500144294888742 27.993111015859085 0 27.993111015859085 -15.190194429659186 0 0 0 0 145.06808631751301 161.64391797633471 0 161.64391797633471 -295.2436260538052 0 0 0 0 42.370173838633654 30.450256233533477 0 30.450256233533477 -49.441253848664005 0 0 0 0 69.316445671602196 0.84305494993898833 0 0.84305494993898833 -21.732215049420223 0 0 0 0 213.28033046625205 -38.721904515841743 0 -38.721904515841743 -20.203530759146588 0 0 0 0 23.647789459679188 -27.506568371132175 0 -27.506568371132175 27.338915419753505 0 0 0 0 55.6098909000562 -51.27207333112321 0 -51.27207333112321 -15.657905697308383 0 0 0 0 152.32550102740061 -165.4522821952238 0 -165.4522821952238 -16.412456560254697 0 0 0 0 39.603449808837645 -20.456286245696695 0 -20.456286245696695 4.1112710691555021 0 0 0 0 32.147391383739887 -36.588187865294913 0 -36.588187865294913 -17.703005654254412 0 0 0 0 85.78652512582525 -48.787947041853123 0 -48.787947041853123 14.08917364835068 0 0 0 0 184.947733404747 -38.846749038497393 0 -38.846749038497393 -10.414709692300008 0 0 0 0 141.45363948109298 -79.036724236259033 0 -79.036724236259033 16.389799143292294 0 0 0 0 18.267599106677153 107.16191885436086 0 107.16191885436086 -8.8505956037156466 0 0 0 0 153.32540339553088 90.905315147459305 0 90.905315147459305 23.390142221682368 0 0 0 0 29.98399555915563 8.1794166081559467 0 8.1794166081559467 0.57418547049091373 0 0 0 0 183.43812020885525 139.29502954593067 0 139.29502954593067 -31.870259415522128 0 0 0 0 -4.4839512207036023 75.283932607525458 0 75.283932607525458 225.31845613815699 0 0 0 0 204.25494610916212 173.52368354019222 0 173.52368354019222 -10.477626485173346 0 0 0 0 19.798789702428614 25.976385339527852 0 25.976385339527852 -5.3074832172742408 0 0 0 0 3445.9338468516362 -882.94378887038692 0 -882.94378887038692 -418.13258016875625 0 0 0 0 -237.78244881544015 679.93852514271794 0 679.93852514271794 -420.04011592235929 0 0 0 0 103.52994368106286 62.473945081991211 0 62.473945081991211 23.983941883358568 0 0 0 0 224.98847101595129 356.48725806631683 0 356.48725806631683 -83.823040613872763 0 0 0 0 67.087100140639251 40.915545136992641 0 40.915545136992641 25.941091396062763 0 0 0 0 96.289499969814642 60.762614676919384 0 60.762614676919384 17.459907574177805 0 0 0 0 96.295584490217152 54.644831409598737 0 54.644831409598737 -46.442212898758058 0 0 0 0 20.882192376116777 13.801471820003307 0 13.801471820003307 5.161341260356366 0 0 0 0 207.02671810105676 181.72645127832129 0 181.72645127832129 81.798714343978986 0 0 0 0 118.85333856618308 36.102031412453471 0 36.102031412453471 -77.94638845134341 0 0 0 0 250.93550504298037 151.63557307820952 0 151.63557307820952 16.892589769715414 0 0 0 0 131.26667056266888 61.670768122188974 0 61.670768122188974 -68.83948116123247 0 0 0 0 135.76615317545657 60.272151850636533 0 60.272151850636533 -72.349069577165835 0 0 0 0 152.75885360856046 154.41825925307012 0 154.41825925307012 -69.707242250415192 0 0 0 0 121.15034397839918 96.126533858785422 0 96.126533858785422 -14.496561941802454 0 0 0 0 132.75478197721532 147.66872058712966 0 147.66872058712966 -31.324412718526247 0 0 0 0 150.96355209478497 90.188076251040087 0 90.188076251040087 -48.285344518981297 0 0 0 0 167.74466579958971 83.902672300912855 0 83.902672300912855 -11.855133408277311 0 0 0 0 137.43236236774101 167.92639953875619 0 167.92639953875619 97.786149999708414 0 0 0 0 198.37272338994171 113.17153163724063 0 113.17153163724063 130.96174049699448 0 0 0 0 129.25146385079006 192.03170393286138 0 192.03170393286138 133.65034523483382 0 0 0 0 54.12919020577101 167.99518389849379 0 167.99518389849379 136.08547689792158 0 0 0 0 4.306887225306042 0.0027856907812662257 0 0.0027856907812662257 -1.995989578104659 0 0 0 0 -63.572523232392996 -168.97636222048823 0 -168.97636222048823 71.83378346775271 0 0 0 0 107.31304221073151 242.80752069258733 0 242.80752069258733 289.95486425522222 0 0 0 0 6.8061260130270966 76.215184186421993 0 76.215184186421993 40.522467856110097 0 0 0 0 405.4769541575879 -214.39631256570237 0 -214.39631256570237 -130.77406527884057 0 0 0 0 627.90636760246707 4060.0806022415754 0 4060.0806022415754 -453.66456780159933 0 0 0 0 152.79313181343059 266.46336729587199 0 266.46336729587199 225.77536340700271 0 0 0 0 5.9415032845274283 -2.0217876259708447 0 -2.0217876259708447 -2.4318877188725287 0 0 0 0 -753.19242061911427 1279.1404247314822 0 1279.1404247314822 -279.35473440887154 0 0 0 0 10.603434713292359 13.912306887767315 0 13.912306887767315 15.372025159135099 0 0 0 0 1287.6348472744708 -527.14158121119794 0 -527.14158121119794 -2.4357973399828552 0 0 0 0 700.49005540184953 -175.77962353646808 0 -175.77962353646808 -53.75481420280687 0 0 0 0 -81.964745616199252 1640.0076729986558 0 1640.0076729986558 -1205.5295870581149 0 0 0 0 42.361289760139407 35.231567919058072 0 35.231567919058072 22.65620358797716 0 0 0 0 -373.76958776106494 1238.1827850230948 0 1238.1827850230948 467.39048172608636 0 0 0 0 2129.902660787789 -1219.1260965360607 0 -1219.1260965360607 -2102.0496015334556 0 0 0 0 22.226062062415153 15.084281568731011 0 15.084281568731011 -7.6964261362954325 0 0 0 0 2062.4000341404244 -807.64028893207069 0 -807.64028893207069 64.163424748167927 0 0 0 0 -113.39419080858897 -725.70060445752733 0 -725.70060445752733 1297.2499789281283 0 0 0 0 13.828696227063915 12.669720154149321 0 12.669720154149321 13.662192758061945 0 0 0 0 -1344.8132643026847 -1.7075966302668348 0 -1.7075966302668348 -27.97845731644702 0 0 0 0 -35.880709941819077 499.94832432070143 0 499.94832432070143 85.861617830001251 0 0 0 0 33.39671550451385 59.106696414101862 0 59.106696414101862 66.321005380730639 0 0 0 0 251.27137824723468 82.974881854948308 0 82.974881854948308 58.385247567126498 0 0 0 0 11.892383720832868 15.100010308626679 0 15.100010308626679 36.212283633146399 0 0 0 0 1763.6049473544526 861.01667861286842 0 861.01667861286842 272.5577323712705 0 0 0 0 -1037.2370589656939 359.78508201976547 0 359.78508201976547 1483.0795250599367 0 0 0 0 -221.18982226565004 80.556657694252408 0 80.556657694252408 32.207243322424802 0 0 0 0 15.231775690861816 -5.7226709740159052 0 -5.7226709740159052 -1.6904784791709577 0 0 0 0 -855.12124205014118 -1117.503745776695 0 -1117.503745776695 -537.4950496168176 0 0 0 0 -145.44698759046423 69.929287164377456 0 69.929287164377456 -8.5663958690092841 0 0 0 0 -112.51454620419997 290.28555410528628 0 290.28555410528628 280.79814097544113 0 0 0 0 990.71553378889803 14.899082127419206 0 14.899082127419206 6.0773394065781758 0 0 0 0 17.318811112676379 1.3438912234478977 0 1.3438912234478977 -1.304299769276728 0 0 0 0 -27.698718991125133 396.3419551296538 0 396.3419551296538 -324.36826076115358 0 0 0 0 -411.74540782141617 225.44319929638914 0 225.44319929638914 118.40615010893453 0 0 0 0 -167.85060970977247 108.24056255616142 0 108.24056255616142 50.345646541445603 0 0 0 0 516.53109145734993 222.68132166681244 0 222.68132166681244 124.5561758838312 0 0 0 0 46.907992900696122 38.876910727063809 0 38.876910727063809 28.029933468052434 0 0 0 0 -141.34451845616525 -257.56579746976246 0 -257.56579746976246 457.25360239864364 0 0 0 0 1048.2489384567034 -428.06687549677827 0 -428.06687549677827 -76.658078656716498 0 0 0 0 971.2206235718113 -455.82322563599973 0 -455.82322563599973 -82.967400188157626 0 0 0 0 1426.3541860255264 -204.37806759395608 0 -204.37806759395608 -332.20733498727986 0 0 0 0 1668.9909023921171 -507.84017062756629 0 -507.84017062756629 -268.18747387933763 0 0 0 0 521.76128451019054 -848.99155803068106 0 -848.99155803068106 71.825489815539186 0 0 0 0 1859.3625741698434 192.26683123567818 0 192.26683123567818 30.323972665020847 0 0 0 0 176.95267832295394 -229.31106694112805 0 -229.31106694112805 -72.876839331502197 0 0 0 0 18.241202332314369 7.2182268771424205 0 7.2182268771424205 10.419429454677633 0 0 0 0 1389.606626441665 328.39156049370831 0 328.39156049370831 84.279491136358956 0 0 0 0 347.80452298959699 -324.21493940897653 0 -324.21493940897653 498.04895577954449 0 0 0 0 1699.888211783853 -149.09844271883776 0 -149.09844271883776 -118.51143078278255 0 0 0 0 10.491237249683808 -0.22498925275263204 0 -0.22498925275263204 -1.2666479036695648 0 0 0 0 669.3802943092096 792.85246704013298 0 792.85246704013298 -147.5425116567767 0 0 0 0 1532.7156439267601 540.29574356920057 0 540.29574356920057 -337.55566761315276 0 0 0 0 1277.9694703553041 -143.42535083429448 0 -143.42535083429448 -80.33021925187677 0 0 0 0 1443.1178389366905 762.85249943127928 0 762.85249943127928 -235.05938099352352 0 0 0 0 1131.5844519637058 580.09398835052889 0 580.09398835052889 -340.58241206979437 0 0 0 0 -140.87731801457267 311.80376240953228 0 311.80376240953228 178.61842735086611 0 0 0 0 552.00945181357565 169.17071980232686 0 169.17071980232686 -143.71387617091932 0 0 0 0 1053.8077344178914 301.55402762087579 0 301.55402762087579 -117.45480023603523 0 0 0 0 13.516593540423216 -12.051400718764853 0 -12.051400718764853 -198.69589300147345 0 0 0 0 -3.8651699345230099 -119.56365309879141 0 -119.56365309879141 -74.707940522606805 0 0 0 0 195.87979318962516 -85.99672181646747 0 -85.99672181646747 -628.51856300447798 0 0 0 0 -36.10442658803413 -32.501105278727664 0 -32.501105278727664 -88.877401927082246 0 0 0 0 160.27370406574553 -243.64741648124459 0 -243.64741648124459 71.656085192356841 0 0 0 0 323.25114485512995 186.12062505180802 0 186.12062505180802 21.540607943148643 0 0 0 0 21.18154814542504 -32.925011591445582 0 -32.925011591445582 31.858141894757864 0 0 0 0 -9.1146623723101925 -4.1553845025518967 0 -4.1553845025518967 19.590694930488098 0 0 0 0 -13.13733968465101 10.907097968757625 0 10.907097968757625 244.8583416366946 0 0 0 0 268.69900678726117 -274.2039963933712 0 -274.2039963933712 238.12845937483871 0 0 0 0 1167.0006649471634 664.27573639038383 0 664.27573639038383 591.77827577055359 0 0 0 0 12.94889994659246 -4.6505598897647609 0 -4.6505598897647609 3.1140921046413865 0 0 0 0 206.78348795326747 38.023529817501185 0 38.023529817501185 269.64146046386304 0 0 0 0 45.398822284661037 362.37850176746178 0 362.37850176746178 373.05255027061685 0 0 0 0 38.490287745858502 -14.957766943887599 0 -14.957766943887599 2.8382611280662786 0 0 0 0 47.016359800916689 -16.222047370727523 0 -16.222047370727523 -1.1661151660546238 0 0 0 0 322.05934663126209 133.72823193654767 0 133.72823193654767 111.32434398698024 0 0 0 0 702.45872287994098 714.64778510759788 0 714.64778510759788 240.56404887175995 0 0 0 0 543.93344243503634 -387.5529233486559 0 -387.5529233486559 257.15317727017828 0 0 0 0 1298.1286798460706 175.83768127103485 0 175.83768127103485 -102.78539830452837 0 0 0 0 1465.0723378241742 111.6170318941754 0 111.6170318941754 -116.21983122408892 0 0 0 0 31.723060742760026 214.18585745273231 0 214.18585745273231 51.758674367126332 0 0 0 0 228.91147122499979 55.888860073015167 0 55.888860073015167 -112.71787716625659 0 0 0 0 -218.49929469464678 -169.46597297616972 0 -169.46597297616972 363.15979021104886 0 0 0 0 -0.27522052430571353 -0.88331468680734471 0 -0.88331468680734471 2.2346034374564852 0 0 0 0 201.17281749878453 -10.905457067172392 0 -10.905457067172392 -62.472661688785593 0 0 0 0 94.419536708769556 -136.44008634319835 0 -136.44008634319835 -153.53281822426834 0 0 0 0 60.963213347818964 -21.058590174292476 0 -21.058590174292476 20.77073361555199 0 0 0 0 136.74878542514762 68.507552923692856 0 68.507552923692856 62.260877948541747 0 0 0 0 146.82241479106597 82.785612762016171 0 82.785612762016171 36.689398638368402 0 0 0 0 3.1070671079623056 2.9910813351315522 0 2.9910813351315522 7.3661021276394081 0 0 0 0 -92.627770061644242 103.56552416978502 0 103.56552416978502 -41.131585926055777 0 0 0 0 -130.38085695373894 -279.56340406619785 0 -279.56340406619785 -108.08127943965883 0 0 0 0 -75.301601582794319 55.491304316177775 0 55.491304316177775 23.273994318770747 0 0 0 0 0.44672663883985919 7.0204576833781047 0 7.0204576833781047 3.7970328447365418 0 0 0 0 167.65223630097535 48.836959762122206 0 48.836959762122206 20.726584876247216 0 0 0 0 175.03564598662615 78.832099731028393 0 78.832099731028393 21.450649714230167 0 0 0 0 -1.3119097488039611 34.395837615671553 0 34.395837615671553 32.956297526726487 0 0 0 0 65.244740553072916 47.875617000328532 0 47.875617000328532 31.564294936593797 0 0 0 0 26.844661202039696 42.745851222380495 0 42.745851222380495 21.187001578096382 0 0 0 0 60.007437093716732 10.649749217086509 0 10.649749217086509 -8.842080485201592 0 0 0 0 83.372277006641525 53.267079666014013 0 53.267079666014013 30.047666939002738 0 0 0 0 -33.41008835538014 18.834310803920744 0 18.834310803920744 9.391119778412758 0 0 0 0 -418.22315040877425 -103.84164251434731 0 -103.84164251434731 207.81043800262705 0 0 0 0 -272.03444701288038 135.51148989542367 0 135.51148989542367 199.05441583440734 0 0 0 0 3.6530079382127951 117.79760547482147 0 117.79760547482147 273.49627553167375 0 0 0 0 340.76095368653932 -214.62635502648845 0 -214.62635502648845 110.78724682447864 0 0 0 0 121.19565539847538 77.441877887026408 0 77.441877887026408 36.635541457564585 0 0 0 0 171.25115647480561 149.30577459283631 0 149.30577459283631 97.969398619824915 0 0 0 0 24.477176968575321 33.600219010951498 0 33.600219010951498 -18.857373780712258 0 0 0 0 171.03459595708401 118.00826962647446 0 118.00826962647446 64.887172983132587 0 0 0 0 222.72241997539459 96.132830320071662 0 96.132830320071662 30.515111562211132 0 0 0 0 153.34862300551697 93.191626052855327 0 93.191626052855327 41.870086606941186 0 0 0 0 35.599253373555442 19.183596860537065 0 19.183596860537065 -0.98377272769525348 0 0 0 0 151.639786900442 42.710209678617503 0 42.710209678617503 -110.2187024135892 0 0 0 0 93.446907021348579 14.564930601114952 0 14.564930601114952 -94.1079747420481 0 0 0 0 233.90823716286741 58.672771988640307 0 58.672771988640307 -120.72064009765018 0 0 0 0 -2.5930771221413416 -0.27744075308347327 0 -0.27744075308347327 -3.1108427149971263 0 0 0 0 174.6416830808007 69.671923930106459 0 69.671923930106459 48.570460226303112 0 0 0 0 322.7637814716245 136.87855438789211 0 136.87855438789211 27.994885823673485 0 0 0 0 34.56200687773412 -344.21666135703799 0 -344.21666135703799 -242.53559307765681 0 0 0 0 384.10056001309385 -32.90827600517332 0 -32.90827600517332 -374.97084989537325 0 0 0 0 358.43170224254573 -146.78840386409865 0 -146.78840386409865 -96.212912113958737 0 0 0 0 203.40677998079263 106.89851180800906 0 106.89851180800906 114.52925342685739 0 0 0 0 53.601575690076515 -185.17514213098093 0 -185.17514213098093 -65.250347480832716 0 0 0 0 233.6784739813429 144.73230122653331 0 144.73230122653331 -125.36993352138597 0 0 0 0 449.96398930771466 21.055256274761632 0 21.055256274761632 -171.09261526383125 0 0 0 0 391.36732090081568 129.32956870870112 0 129.32956870870112 -4.6169577854889212 0 0 0 0 567.37696593924557 58.478986519759928 0 58.478986519759928 22.403102136038797 0 0 0 0 263.09022914027628 184.4693358839595 0 184.4693358839595 57.471524167835014 0 0 0 0 657.90242326390398 332.46205305791227 0 332.46205305791227 107.41336330340891 0 0 0 0 488.36787086663753 176.88883643556437 0 176.88883643556437 218.95385847654688 0 0 0 0 78.130642798898407 88.190677636863256 0 88.190677636863256 192.55833575517863 0 0 0 0 309.58781572945168 268.34649333995367 0 268.34649333995367 94.617904189050023 0 0 0 0 223.69827878781595 123.76782553580813 0 123.76782553580813 -97.552339200763527 0 0 0 0 126.65250060717153 109.90879811153991 0 109.90879811153991 -24.956091564448798 0 0 0 0 -1.0637050507502863 419.58137475997728 0 419.58137475997728 -251.68324103818077 0 0 0 0 107.19747310930876 189.04606312869589 0 189.04606312869589 -34.162535415774983 0 0 0 0 132.95220714163389 63.360619284512914 0 63.360619284512914 22.257173814744199 0 0 0 0 64.75514763841602 67.330322217190769 0 67.330322217190769 43.221003735246086 0 0 0 0 59.900116947313947 68.546566638743286 0 68.546566638743286 46.842740714662796 0 0 0 0 62.112470242117617 100.55714457391161 0 100.55714457391161 -24.327131315130828 0 0 0 0 38.312811473500915 312.85083692632543 0 312.85083692632543 -309.66097610164161 0 0 0 0 119.29497728648471 55.003039991185304 0 55.003039991185304 15.46299462224054 0 0 0 0 241.90666447192052 125.2158061416726 0 125.2158061416726 -271.35303619837396 0 0 0 0 -27.694913302535952 221.82597365920373 0 221.82597365920373 -146.75650353515084 0 0 0 0 398.73174015933182 215.74996700733902 0 215.74996700733902 -176.70606252603801 0 0 0 0 89.562082352829748 388.11685877314653 0 388.11685877314653 -12.060060278244691 0 0 0 0 315.31873265532704 40.723233830958236 0 40.723233830958236 -36.849700155266873 0 0 0 0 -110.69528192293728 270.23539777631458 0 270.23539777631458 106.9651237204755 0 0 0 0 -177.95176184998127 367.30936875314001 0 367.30936875314001 14.072359176917587 0 0 0 0 -155.35273716253869 198.85051977412411 0 198.85051977412411 -4.6703551848499956 0 0 0 0 -92.266942660491623 233.84161441568426 0 233.84161441568426 -19.900966920826704 0 0 0 0 178.10202967042414 101.31302582451099 0 101.31302582451099 -97.730763011855743 0 0 0 0 139.2051319948732 74.551288819564633 0 74.551288819564633 24.864298709204814 0 0 0 0 -96.054599910094112 257.17648199323321 0 257.17648199323321 -104.03151327207593 0 0 0 0 542.78009285101143 -228.1474352784935 0 -228.1474352784935 18.785247615612207 0 0 0 0 652.4394128903823 -151.74171462643528 0 -151.74171462643528 62.545181428358774 0 0 0 0 535.02441174494743 -304.94146435471885 0 -304.94146435471885 -109.97471308033846 0 0 0 0 44.450332647975301 -339.19551044372292 0 -339.19551044372292 -82.12740171221094 0 0 0 0 217.64695987101732 -127.15446997954541 0 -127.15446997954541 27.325157894871154 0 0 0 0 337.98278189411576 -99.501023645039822 0 -99.501023645039822 -109.04647788581406 0 0 0 0 156.87084493666771 64.372565286296776 0 64.372565286296776 -192.44697217437124 0 0 0 0 196.61900028498349 55.477408938017561 0 55.477408938017561 -209.21818863891167 0 0 0 0 275.89706247991126 182.7739198644249 0 182.7739198644249 -175.19076689823714 0 0 0 0 405.95699737199902 -93.572626041905551 0 -93.572626041905551 -78.489498444910623 0 0 0 0 262.25024886527899 80.33642799923723 0 80.33642799923723 -207.53459703241424 0 0 0 0 550.70142471644067 57.296598127708194 0 57.296598127708194 -125.97681857814223 0 0 0 0 667.13482093056064 -347.06060186129821 0 -347.06060186129821 169.85461388053727 0 0 0 0 415.97202536046461 -61.970307242907438 0 -61.970307242907438 -22.695760335766181 0 0 0 0 456.19379608916825 -276.52456274869866 0 -276.52456274869866 198.16934181474244 0 0 0 0 528.7282763635958 -275.81391486763584 0 -275.81391486763584 5.7158808313368183 0 0 0 0 625.10808623200137 -355.4781863156818 0 -355.4781863156818 204.18219191911967 0 0 0 0 3.5635968852230064 1.42343723504991 0 1.42343723504991 0.91915041757472382 0 0 0 0 575.63654734786542 -371.4235402698398 0 -371.4235402698398 235.37011607513057 0 0 0 0 522.52123303452026 -348.74600451886454 0 -348.74600451886454 93.929027652745617 0 0 0 0 599.7848613018723 218.10243529961906 0 218.10243529961906 -344.83517057193399 0 0 0 0 -48.733787956560263 -365.08050366207885 0 -365.08050366207885 433.28491125233484 0 0 0 0 582.55884156750881 -431.19922141478139 0 -431.19922141478139 479.82920446591299 0 0 0 0 485.87660848252494 -173.57573056324657 0 -173.57573056324657 610.89834075195381 0 0 0 0 469.63980045474091 -335.25172063794918 0 -335.25172063794918 620.92428244415009 0 0 0 0 573.39731477120222 -133.01318303669484 0 -133.01318303669484 517.3254508576025 0 0 0 0 337.04968335217563 -494.42466975708606 0 -494.42466975708606 539.10992205967045 0 0 0 0 384.99149055101952 -367.82719900605002 0 -367.82719900605002 298.49269068996477 0 0 0 0 487.05035411136487 -361.40863431170925 0 -361.40863431170925 213.74009814467797 0 0 0 0 1222.451719411416 -214.45989985504266 0 -214.45989985504266 -57.491527191736161 0 0 0 0 715.48355801578509 -628.87868809653253 0 -628.87868809653253 510.23264302648289 0 0 0 0 372.22057288343785 -493.5936060902178 0 -493.5936060902178 587.54532727999504 0 0 0 0 33.197244653774163 1.9539778867511135 0 1.9539778867511135 0.7919821146717938 0 0 0 0 1337.8738095068511 -1414.7389002742402 0 -1414.7389002742402 1436.7968678062716 0 0 0 0 684.02722348674797 1424.3139579520703 0 1424.3139579520703 -125.19630752604763 0 0 0 0 -133.36656940725879 294.24666929132036 0 294.24666929132036 -671.22785091502055 0 0 0 0 902.80539511502138 623.24632801972086 0 623.24632801972086 -2011.8205808985651 0 0 0 0 87.961904202330658 0.63549474808917239 0 0.63549474808917239 -2.2949491441804559 0 0 0 0 472.97418707480392 -428.03355343529881 0 -428.03355343529881 92.146164478429228 0 0 0 0 -109.1781461048522 -424.42031045381384 0 -424.42031045381384 -719.87587140404958 0 0 0 0 424.47308532787429 107.67112124522146 0 107.67112124522146 -481.02245205434588 0 0 0 0 -123.93806179032254 -224.27185292277625 0 -224.27185292277625 -108.25738354365402 0 0 0 0 -379.48719490221265 912.533133750601 0 912.533133750601 83.247759313659003 0 0 0 0 -123.79146757216222 458.49161157240633 0 458.49161157240633 -243.58923204158316 0 0 0 0 234.65658762496605 188.34529786707253 0 188.34529786707253 -318.86288000459069 0 0 0 0 -7.5756241089124785 3.811032541761378 0 3.811032541761378 -9.6945849869870013 0 0 0 0 154.37250099403172 38.710454393631153 0 38.710454393631153 -67.554128707151904 0 0 0 0 -1258.8612366979614 75.978688581673396 0 75.978688581673396 199.36925709173374 0 0 0 0 808.18305452018831 422.3951192594767 0 422.3951192594767 -197.99396963020604 0 0 0 0 658.5019931819661 198.37130846334429 0 198.37130846334429 -10.273671731607919 0 0 0 0 2555.0158267291627 -6.2670674223087133 0 -6.2670674223087133 -100.32879289280866 0 0 0 0 582.94156500591998 804.88966994943951 0 804.88966994943951 1359.8517291227545 0 0 0 0 2406.0549749193669 733.0916339696048 0 733.0916339696048 -394.77837685948452 0 0 0 0 484.647870288587 -1051.2722628984707 0 -1051.2722628984707 1318.825681778434 0 0 0 0 -102.822449317463 -225.35902524629711 0 -225.35902524629711 174.14726969488902 0 0 0 0 -164.39643207638073 -336.76716162408377 0 -336.76716162408377 413.09765757398145 0 0 0 0 -1024.5455011935119 373.5520061609414 0 373.5520061609414 625.69531913949982 0 0 0 0 -305.52804478075268 -151.57288254847799 0 -151.57288254847799 729.99383440573183 0 0 0 0 -179.89566905100219 -127.05656243697376 0 -127.05656243697376 329.16530565477433 0 0 0 0 -297.30099930535653 -52.996387336828548 0 -52.996387336828548 361.38817437733542 0 0 0 0 -170.29784277623548 -89.596534863515899 0 -89.596534863515899 178.26368149156724 0 0 0 0 -26.1369531840337 -86.381116435747458 0 -86.381116435747458 -230.45071217062832 0 0 0 0 219.4437104223507 18.339558081383075 0 18.339558081383075 -1256.3868496577679 0 0 0 0 84.748270362148617 20.095619104717056 0 20.095619104717056 2.0922983215941802 0 0 0 0 -88.711443186737597 45.462030512567253 0 45.462030512567253 -332.92925713197155 0 0 0 0 -111.22839263785136 -286.3454837258405 0 -286.3454837258405 -101.65805627923692 0 0 0 0 232.68032739699993 -497.52793552372623 0 -497.52793552372623 -380.42725133415024 0 0 0 0 -154.76124203601648 -187.73496715847239 0 -187.73496715847239 162.35931642875312 0 0 0 0 66.71408541692611 16.42685680784939 0 16.42685680784939 1.4245769231514771 0 0 0 0 517.19159436647897 165.21703560396281 0 165.21703560396281 -1231.0634352444595 0 0 0 0 652.28375175393376 599.96175359194729 0 599.96175359194729 -1355.0206954030136 0 0 0 0 -4.0413975778792519 -131.10614131711463 0 -131.10614131711463 -534.74053290763095 0 0 0 0 382.08820521288453 203.07086681019882 0 203.07086681019882 -278.76670535714766 0 0 0 0 101.30800255735812 150.51384177197588 0 150.51384177197588 -179.85172529746001 0 0 0 0 41.237825196549238 -103.65657037257779 0 -103.65657037257779 -228.79976522552226 0 0 0 0 529.68911340696286 -106.39295802798085 0 -106.39295802798085 -467.88500710660696 0 0 0 0 82.300161331282197 614.66801190923866 0 614.66801190923866 -1133.2498627779105 0 0 0 0 86.28069486437596 21.882870252440277 0 21.882870252440277 3.3203290851447775 0 0 0 0 246.22827187997063 394.08016848891486 0 394.08016848891486 -1239.7364888265979 0 0 0 0 2324.0379448616914 276.30039756451856 0 276.30039756451856 -588.75960676620525 0 0 0 0 2.0393045698002226 2.8059068932602855 0 2.8059068932602855 3.4153170476883332 0 0 0 0 -661.33474954981648 526.0870369760828 0 526.0870369760828 998.65252410404332 0 0 0 0 486.55401522327156 -586.74723673467815 0 -586.74723673467815 399.88403723264628 0 0 0 0 25.934556739482133 7.6399666551441978 0 7.6399666551441978 1.6519366533329958 0 0 0 0 1289.7471013114045 -841.31644321173735 0 -841.31644321173735 -335.9213064613466 0 0 0 0 499.40638922594371 1403.2275507666432 0 1403.2275507666432 253.27814165496329 0 0 0 0 2197.5496384256403 1069.0628025096939 0 1069.0628025096939 -499.14249297904576 0 0 0 0 -84.593542627779243 386.17022009558968 0 386.17022009558968 -443.10067471095499 0 0 0 0 160.68773068807423 52.224938665522814 0 52.224938665522814 -422.10025411038623 0 0 0 0 1195.9078979092592 -109.36459585183457 0 -109.36459585183457 -108.76480054113836 0 0 0 0 579.99928662568436 -457.74537857772708 0 -457.74537857772708 -276.95881180948618 0 0 0 0 1198.1396836675121 -314.74857583855919 0 -314.74857583855919 -59.390127323665183 0 0 0 0 952.03476284644421 153.19016468649806 0 153.19016468649806 -513.19120319989543 0 0 0 0 538.41926182712632 -12.83318091598403 0 -12.83318091598403 -59.041308438359607 0 0 0 0 5.6575892955166296 5.7633446191030941 0 5.7633446191030941 2.7791568478518052 0 0 0 0 587.39787175325182 -110.26783287409989 0 -110.26783287409989 121.86404974196012 0 0 0 0 472.88306633866523 -6.847283773522804 0 -6.847283773522804 29.222457537046466 0 0 0 0 405.04824494398054 -56.12044988782236 0 -56.12044988782236 -57.77921969916521 0 0 0 0 3.1289223851921406 1.9881168878558952 0 1.9881168878558952 0.26955895311380118 0 0 0 0 212.21536382132035 202.12058181411794 0 202.12058181411794 46.688355296098962 0 0 0 0 655.67958456187625 159.60589430261189 0 159.60589430261189 50.582869428368099 0 0 0 0 935.0898459570526 -37.077703835768716 0 -37.077703835768716 222.8214549479934 0 0 0 0 1676.4476833945882 -326.08977525003434 0 -326.08977525003434 -122.32653185263825 0 0 0 0 1150.2682077274767 -97.433603629548315 0 -97.433603629548315 202.05944923466177 0 0 0 0 859.43831328461965 -365.4170292426561 0 -365.4170292426561 4.0061243213285707 0 0 0 0 874.54215872271016 9.7667941377003444 0 9.7667941377003444 214.48272068424558 0 0 0 0 1146.565377510924 176.01892488142767 0 176.01892488142767 243.99432638829853 0 0 0 0 1007.8124527064174 22.697013748215795 0 22.697013748215795 116.62858303092526 0 0 0 0 952.57372373954786 -53.978122609340517 0 -53.978122609340517 113.09891975012033 0 0 0 0 920.39441412348242 89.259103772101298 0 89.259103772101298 133.37804727566299 0 0 0 0 678.46630912022374 -42.082104636918757 0 -42.082104636918757 152.38224269779403 0 0 0 0 686.66779286226301 -56.519406192191582 0 -56.519406192191582 175.97412631146744 0 0 0 0 442.34733715663606 -66.87542304779663 0 -66.87542304779663 188.99937336984749 0 0 0 0 -27.924016982969988 380.67472796827178 0 380.67472796827178 722.37653895911353 0 0 0 0 137.02440759816091 236.05232153650013 0 236.05232153650013 402.10682368253492 0 0 0 0 -40.592159180218005 311.22875879234471 0 311.22875879234471 370.39039298975104 0 0 0 0 -110.88062326118961 313.98930772179074 0 313.98930772179074 771.79783977767602 0 0 0 0 258.82271090504219 561.78069817816777 0 561.78069817816777 565.5635825072186 0 0 0 0 106.43597248796868 343.26665377438712 0 343.26665377438712 405.27435701789091 0 0 0 0 529.98113105850643 -181.82268966152424 0 -181.82268966152424 -58.702080292554228 0 0 0 0 652.29899108155951 31.311511271889572 0 31.311511271889572 246.81111212786436 0 0 0 0 1128.6850570181414 -162.04921764140181 0 -162.04921764140181 323.64584611402688 0 0 0 0 808.51410932407452 661.38312110321203 0 661.38312110321203 657.64511238486921 0 0 0 0 316.70493197522592 297.49309037861349 0 297.49309037861349 408.4929458554505 0 0 0 0 924.5319243701706 -114.78209131137226 0 -114.78209131137226 -264.13239500418968 0 0 0 0 7.1717084127436124 4.060137302276825 0 4.060137302276825 2.4457001694350247 0 0 0 0 64.467473099473864 299.86679370198908 0 299.86679370198908 1124.779441394413 0 0 0 0 899.51347259238901 129.78874700985307 0 129.78874700985307 774.31320700171455 0 0 0 0 1067.2311776819624 418.28605236642943 0 418.28605236642943 234.31515244335515 0 0 0 0 1145.8118521537544 218.77228339645671 0 218.77228339645671 -105.7172374226102 0 0 0 0 65.275702765429742 0.77881671090972304 0 0.77881671090972304 63.667597274939453 0 0 0 0 20.445245605238597 223.8009834565737 0 223.8009834565737 -34.397133745229894 0 0 0 0 -22.405421897012275 36.597728777690463 0 36.597728777690463 101.62775159043667 0 0 0 0 46.235235206397192 20.206296945315444 0 20.206296945315444 84.577747207100401 0 0 0 0 -84.255645298457239 -0.56518461653104168 0 -0.56518461653104168 563.53368553052633 0 0 0 0 155.09983566701703 134.62249834562317 0 134.62249834562317 41.247552442078813 0 0 0 0 17.806544156346519 9.2753408300067193 0 9.2753408300067193 4.0371075889602483 0 0 0 0 244.11400152364513 75.540001524651416 0 75.540001524651416 31.625675426668749 0 0 0 0 -1.5004785427336742 0.74271700265439478 0 0.74271700265439478 1.7974949775306328 0 0 0 0 -96.749735125275038 -138.32815865062275 0 -138.32815865062275 19.151433512317453 0 0 0 0 36.380972323779133 25.981137790155117 0 25.981137790155117 73.308137802538113 0 0 0 0 74.913424517617386 174.2199270252022 0 174.2199270252022 -256.13643121758651 0 0 0 0 -60.418692395338439 21.248127671871771 0 21.248127671871771 -76.63037530922611 0 0 0 0 -16.393157994665671 108.71280140287035 0 108.71280140287035 12.500267306257228 0 0 0 0 -80.794382338433934 89.546827602544681 0 89.546827602544681 3.3395670509416959 0 0 0 0 74.850453968756483 37.803201125349005 0 37.803201125349005 -47.673408721184842 0 0 0 0 21.302510200922598 12.281416019111962 0 12.281416019111962 6.27155335619317 0 0 0 0 -24.160633124112792 99.819023372097035 0 99.819023372097035 -62.983027159605626 0 0 0 0 2.9669060257006095 -0.64428967693233119 0 -0.64428967693233119 -1.713703890134493 0 0 0 0 12.797957928007236 -5.5590010386003996 0 -5.5590010386003996 11.474136594850165 0 0 0 0 -1.158279603565461 49.141222657724938 0 49.141222657724938 -39.901431211567342 0 0 0 0 -3.9060944356960192 4.7710053104586549 0 4.7710053104586549 5.3153624722618336 0 0 0 0 -142.16534307567053 220.85597359656822 0 220.85597359656822 11.805095955533034 0 0 0 0 16.295751790132186 18.392062295046756 0 18.392062295046756 29.982224868220626 0 0 0 0 48.169653579825535 20.814636804789188 0 20.814636804789188 25.781527036131592 0 0 0 0 20.843522557623629 14.268394742197302 0 14.268394742197302 14.961438054779837 0 0 0 0 53.385323285328923 19.242314416813315 0 19.242314416813315 12.224715629674392 0 0 0 0 -52.671683698514244 216.93974492953566 0 216.93974492953566 -67.610768995647959 0 0 0 0 25.073835226503434 -6.780959247280407 0 -6.780959247280407 23.26137828287392 0 0 0 0 17.52658621018054 2.1031977894308511 0 2.1031977894308511 23.010699577480409 0 0 0 0 -209.89818257314619 115.74352724810296 0 115.74352724810296 89.909784944346029 0 0 0 0 2.5187333028643764 9.7007177667551474 0 9.7007177667551474 25.143318328628403 0 0 0 0 -8.7310431994847022 178.48792916586899 0 178.48792916586899 -102.66332666442395 0 0 0 0 29.032244641231955 62.902627585690425 0 62.902627585690425 -75.551905904283558 0 0 0 0 -28.096814260163228 -19.105687149261939 0 -19.105687149261939 92.118177275434391 0 0 0 0 -31.812931541717262 0.94396595391299343 0 0.94396595391299343 50.875130402915602 0 0 0 0 13.47929238288998 -42.722105704781825 0 -42.722105704781825 40.269005810212548 0 0 0 0 1.3340517537726555 -23.088166015690149 0 -23.088166015690149 10.215857563136638 0 0 0 0 7.13942607815261 -12.978018042978874 0 -12.978018042978874 27.452430512468254 0 0 0 0 13.296834999829372 -2.006953202421137 0 -2.006953202421137 0.44587218586524457 0 0 0 0 -5.6320514399922104 255.10270680716985 0 255.10270680716985 343.34707915961553 0 0 0 0 2220.7475847268797 -1010.4377908790266 0 -1010.4377908790266 -717.19663134209964 0 0 0 0 703.35286396554147 -162.51314349646782 0 -162.51314349646782 -156.02541085916164 0 0 0 0 234.22260699348408 762.51416716795211 0 762.51416716795211 -216.67784508560726 0 0 0 0 162.73483557987493 -32.263692442931642 0 -32.263692442931642 -178.15202080357631 0 0 0 0 164.01142661659105 126.14695864194437 0 126.14695864194437 5.6987460840900894 0 0 0 0 2792.5401927467901 1957.0069506857617 0 1957.0069506857617 -816.98671228118474 0 0 0 0 151.39391900339979 81.547318873926997 0 81.547318873926997 107.55794005011921 0 0 0 0 213.6550539607706 -46.797061166671483 0 -46.797061166671483 128.59324659066215 0 0 0 0 149.24301434558583 92.436176291035736 0 92.436176291035736 -6.3017015224395436 0 0 0 0 36.343219448899617 132.55057380852668 0 132.55057380852668 21.891248220184934 0 0 0 0 121.96455811186752 65.540472442718965 0 65.540472442718965 7.1554286249011056 0 0 0 0 103.3527860470349 92.196141664207971 0 92.196141664207971 84.841127880710701 0 0 0 0 222.78549253748497 19.648347590762569 0 19.648347590762569 19.100637513394759 0 0 0 0 148.05586138551007 110.546343619455 0 110.546343619455 13.93902597259148 0 0 0 0 111.64907634290284 93.267906229870277 0 93.267906229870277 10.45547846982663 0 0 0 0 30.023047877533827 79.435581150253711 0 79.435581150253711 -9.5448301400610944 0 0 0 0 100.31749380878318 125.30940781452955 0 125.30940781452955 0.14028607361251488 0 0 0 0 100.91484572725312 78.097346710766942 0 78.097346710766942 13.44770468925708 0 0 0 0 -165.34090607444523 128.04768589797095 0 128.04768589797095 55.838855360081652 0 0 0 0 -23.278458407439757 93.638044637147686 0 93.638044637147686 30.440564134187298 0 0 0 0 12.559838393237442 128.69898267271492 0 128.69898267271492 -0.11615542828076286 0 0 0 0 -30.459830780426273 171.98335349145418 0 171.98335349145418 3.6919252356383367 0 0 0 0 -65.79487456607967 165.85338271826004 0 165.85338271826004 22.227784139409778 0 0 0 0 30.610180780975497 111.75690439641039 0 111.75690439641039 13.066670790285571 0 0 0 0 40.785653036757139 123.98030717257279 0 123.98030717257279 -50.117192713158147 0 0 0 0 209.46913131734618 169.66415524789136 0 169.66415524789136 -20.20194563066616 0 0 0 0 149.06107145085116 88.891010167331842 0 88.891010167331842 -39.643206216664112 0 0 0 0 27.147350100300173 70.046701649240958 0 70.046701649240958 26.531748282948683 0 0 0 0 169.46817155407916 32.125137809533044 0 32.125137809533044 18.875390922476072 0 0 0 0 364.82722814568115 137.13973833263935 0 137.13973833263935 -77.525359598525029 0 0 0 0 463.92093589324941 35.848985242801064 0 35.848985242801064 -95.844073815553202 0 0 0 0 -0.75358088294488468 -3.4322436282965327 0 -3.4322436282965327 -3.069136702934955 0 0 0 0 -313.55448640997201 -49.245047209366021 0 -49.245047209366021 191.55822038642873 0 0 0 0 260.04554606859165 259.05211568551658 0 259.05211568551658 -40.386801204689391 0 0 0 0 170.2842966576527 -76.348460463367587 0 -76.348460463367587 -12.385114269882251 0 0 0 0 -116.45245304386572 278.80141681195744 0 278.80141681195744 312.72478233726542 0 0 0 0 -83.974581949622916 131.15646905032543 0 131.15646905032543 239.93647880958451 0 0 0 0 -94.846379467184306 140.48548219518761 0 140.48548219518761 163.74767999782671 0 0 0 0 -71.442461042185641 307.80202032316618 0 307.80202032316618 545.32853527092084 0 0 0 0 0.58609194146524146 2.8739526970195186 0 2.8739526970195186 9.9561512708426605 0 0 0 0 543.44655691400112 231.82498179885079 0 231.82498179885079 98.497783894203167 0 0 0 0 97.628806579959928 -41.58639990295751 0 -41.58639990295751 18.354113809105911 0 0 0 0 -125.00767738981813 26.938620854836699 0 26.938620854836699 37.576273077548194 0 0 0 0 -332.32436214663903 226.99011218049418 0 226.99011218049418 203.17826043966352 0 0 0 0 -67.04901967519254 -169.89842045284558 0 -169.89842045284558 422.85285966646825 0 0 0 0 -320.81675682697096 61.747875749515515 0 61.747875749515515 653.29226714565584 0 0 0 0 -132.96974882876748 648.32757474415871 0 648.32757474415871 239.33869749010137 0 0 0 0 75.481519579784589 21.053799122780774 0 21.053799122780774 3.8146537361260577 0 0 0 0 149.23131709240624 245.70977756674756 0 245.70977756674756 -717.1321321647772 0 0 0 0 6.9931785933295032 499.42629189241711 0 499.42629189241711 -827.57988422978588 0 0 0 0 -197.55263705294055 139.99930915786467 0 139.99930915786467 43.939733860904425 0 0 0 0 -193.91916392460553 244.94268410222185 0 244.94268410222185 67.782333733171299 0 0 0 0 682.84807888155774 -166.72925072511566 0 -166.72925072511566 -464.27906818259089 0 0 0 0 53.72126867853305 15.839229885860943 0 15.839229885860943 3.2603043558640659 0 0 0 0 162.47630440728972 -154.70672119873052 0 -154.70672119873052 34.171581277281803 0 0 0 0 120.83012652923207 210.70211809503166 0 210.70211809503166 -484.94087440486192 0 0 0 0 298.19707291915256 195.26015767344279 0 195.26015767344279 -715.55133452941755 0 0 0 0 56.277335209488228 261.23331445482972 0 261.23331445482972 54.128330376924168 0 0 0 0 58.413163598124811 -165.31294286698312 0 -165.31294286698312 279.46278729484538 0 0 0 0 626.89111114999469 -246.26722353547939 0 -246.26722353547939 60.912793863419211 0 0 0 0 30.499063889394165 58.433081044373012 0 58.433081044373012 -116.03940636800598 0 0 0 0 12.119838163816894 -93.312697725182716 0 -93.312697725182716 112.1175900262333 0 0 0 0 -11.638450642931275 111.61113418416062 0 111.61113418416062 -48.169195322158885 0 0 0 0 26.076295471237245 211.4061827810965 0 211.4061827810965 -658.28824381936488 0 0 0 0 -3.1852259145211974 42.486844799920675 0 42.486844799920675 -121.64891594264009 0 0 0 0 25.028899215977617 193.17734221707832 0 193.17734221707832 -142.59863777041301 0 0 0 0 70.408999849261505 32.711570274594962 0 32.711570274594962 0.79024012395388255 0 0 0 0 82.866547952954534 166.73881947945756 0 166.73881947945756 -138.72205338396861 0 0 0 0 362.14502791267205 -43.175692746661753 0 -43.175692746661753 -139.8252524719137 0 0 0 0 76.774133009409525 176.74356614208591 0 176.74356614208591 161.73656222151988 0 0 0 0 297.21334720226605 -66.373215961737287 0 -66.373215961737287 83.536983210289691 0 0 0 0 -66.161882190711367 128.71160712644814 0 128.71160712644814 66.171152052685102 0 0 0 0 72.732993195314748 31.789316577262436 0 31.789316577262436 -0.94129924211186022 0 0 0 0 109.0408677400701 83.457618335078223 0 83.457618335078223 -116.29284557013852 0 0 0 0 18.166730032648488 7.1092122451195507 0 7.1092122451195507 3.0118751507270307 0 0 0 0 477.32882583947776 201.62372492876136 0 201.62372492876136 77.951354558973435 0 0 0 0 140.41445983607628 -162.69004947809117 0 -162.69004947809117 256.49931582390718 0 0 0 0 368.94803243899514 -466.00076326444423 0 -466.00076326444423 6.1361056807513705 0 0 0 0 47.348646303609712 59.580597903142916 0 59.580597903142916 -92.026034573703328 0 0 0 0 633.38717915032703 9.0725244810628283 0 9.0725244810628283 -295.24631244292141 0 0 0 0 151.3672288831076 276.7384090196465 0 276.7384090196465 -443.56091376865515 0 0 0 0 215.60792357749597 -343.67330882859505 0 -343.67330882859505 -143.33888060064555 0 0 0 0 483.79107240888243 -372.46665455138509 0 -372.46665455138509 -181.65818018545087 0 0 0 0 19.601786674668119 7.1708291178802259 0 7.1708291178802259 2.6165260822137402 0 0 0 0 130.29597525151621 671.08378463912868 0 671.08378463912868 676.69276570861393 0 0 0 0 1583.6055050821215 138.5708578586466 0 138.5708578586466 -591.75929444572648 0 0 0 0 717.94083256455633 -631.73618620610296 0 -631.73618620610296 15.626051043764164 0 0 0 0 40.916361334268004 -458.79183969806763 0 -458.79183969806763 915.83515973223791 0 0 0 0 -565.32612774580048 593.6322056255085 0 593.6322056255085 824.49473622810638 0 0 0 0 -28.186766350514517 204.61854382038837 0 204.61854382038837 -142.57277839507969 0 0 0 0 -10.943504162131504 8.8078333587426556 0 8.8078333587426556 1.2376092131021035 0 0 0 0 120.28216734260059 77.025178713621244 0 77.025178713621244 -126.76692762070752 0 0 0 0 -83.599460088702472 129.60089561456857 0 129.60089561456857 126.16199784595483 0 0 0 0 73.266561065502145 28.798435883664681 0 28.798435883664681 -0.17902337748800079 0 0 0 0 70.11368573978325 357.97531624485055 0 357.97531624485055 -571.40679090878621 0 0 0 0 -147.47044243825803 48.720262411826297 0 48.720262411826297 -115.97448107701121 0 0 0 0 -156.25363206856127 45.07950492828968 0 45.07950492828968 -115.20672367362567 0 0 0 0 -236.53288250435435 -27.931249828005093 0 -27.931249828005093 225.36530679035968 0 0 0 0 -273.09253339665156 130.7265827449628 0 130.7265827449628 14.284611325683727 0 0 0 0 -132.02268558801961 -148.91848238145872 0 -148.91848238145872 113.10435862965096 0 0 0 0 -108.60684225075966 -338.38437249444451 0 -338.38437249444451 383.98111920041418 0 0 0 0 -355.10341580448039 1.3610981243098195 0 1.3610981243098195 382.65103585645556 0 0 0 0 888.59497468969494 -643.08214507256798 0 -643.08214507256798 286.12902835303612 0 0 0 0 267.65658935714237 -196.59595452984195 0 -196.59595452984195 -33.3769705071918 0 0 0 0 209.65503931366402 -261.09617693599921 0 -261.09617693599921 -67.821750570004042 0 0 0 0 55.413130174158141 -86.699790462444071 0 -86.699790462444071 -172.80110099749982 0 0 0 0 -55.775530543206514 -179.58341528726396 0 -179.58341528726396 -14.331794742793136 0 0 0 0 36.633502370877977 -68.14419674074361 0 -68.14419674074361 -183.98221323235703 0 0 0 0 113.73177089996852 482.21872289255793 0 482.21872289255793 231.33709544491285 0 0 0 0 -374.52521826091834 835.46165721452871 0 835.46165721452871 347.10215027803042 0 0 0 0 1252.2568388907894 399.04727509569693 0 399.04727509569693 -6.4701725087797968 0 0 0 0 -106.66602747099387 47.885797737714711 0 47.885797737714711 -68.884975714525353 0 0 0 0 429.59999405470444 53.326239270732003 0 53.326239270732003 -380.60644712003341 0 0 0 0 108.38773227599449 156.1918496210692 0 156.1918496210692 -385.58346069724178 0 0 0 0 1048.8001669647201 171.36298948344665 0 171.36298948344665 9.535182595716833 0 0 0 0 -2.9663508670961392 0.73937523062785004 0 0.73937523062785004 6.6196311893382642 0 0 0 0 191.16604837444174 150.86150915166581 0 150.86150915166581 29.948549781449401 0 0 0 0 107.685359367817 250.48893343559757 0 250.48893343559757 -88.199200402501447 0 0 0 0 247.42422875340708 8.875650466922707 0 8.875650466922707 -4.0549603223626036 0 0 0 0 14.264467380320994 3.4735976625800902 0 3.4735976625800902 6.8220025837334006 0 0 0 0 -66.927259004609368 178.16887865745593 0 178.16887865745593 -271.33270632715357 0 0 0 0 12.683292953402997 51.843619441273404 0 51.843619441273404 -325.65286779089365 0 0 0 0 -20.345212785767217 39.923878064000746 0 39.923878064000746 60.17534217442153 0 0 0 0 73.464434991532471 26.992497676637868 0 26.992497676637868 -125.95222812446809 0 0 0 0 39.979823892678723 -2.620500318603348 0 -2.620500318603348 -2.4564426999692781 0 0 0 0 54.949042118534123 13.452279536218462 0 13.452279536218462 -20.253051646538047 0 0 0 0 55.844735338934697 22.879666159875342 0 22.879666159875342 -27.361147260009602 0 0 0 0 70.357384989781991 38.005477442390244 0 38.005477442390244 2.3722427629902398 0 0 0 0 88.478854862922248 5.8905202250620334 0 5.8905202250620334 -41.295313518123251 0 0 0 0 91.902723716412169 77.709222774154512 0 77.709222774154512 19.66987650114589 0 0 0 0 64.575890817359323 36.87691259496205 0 36.87691259496205 -3.4328647890724824 0 0 0 0 64.326841379719554 7.9223295649198917 0 7.9223295649198917 -16.895165200697193 0 0 0 0 192.10180449704058 168.08263890624039 0 168.08263890624039 113.98037584652775 0 0 0 0 12.183913399564943 10.277340346222573 0 10.277340346222573 5.6610582714415472 0 0 0 0 63.119884429456334 15.82987200756935 0 15.82987200756935 -61.130699104957571 0 0 0 0 63.831667959617334 53.536047822552064 0 53.536047822552064 -77.65257054283029 0 0 0 0 212.88532788790326 128.36727139678919 0 128.36727139678919 0.31410192544535676 0 0 0 0 30.77613441496942 -10.143305116527699 0 -10.143305116527699 -31.846165264567389 0 0 0 0 211.07197511888808 -175.58274935339796 0 -175.58274935339796 5.3244885153571886 0 0 0 0 86.684739575328422 -1.8564683632248489 0 -1.8564683632248489 -42.478562221589527 0 0 0 0 6.353918037522817 57.926750544429524 0 57.926750544429524 -85.170781530994645 0 0 0 0 -0.33029132879755707 -65.147422083137371 0 -65.147422083137371 -11.263371184148127 0 0 0 0 139.17441808790318 -80.635226490336208 0 -80.635226490336208 -26.473748390966648 0 0 0 0 166.97277001911425 -41.388609393037768 0 -41.388609393037768 -160.63229974065325 0 0 0 0 20.652920219471753 9.0882092953690687 0 9.0882092953690687 5.5444343515081655 0 0 0 0 1173.3708724650205 254.94760457441362 0 254.94760457441362 -149.16820013864435 0 0 0 0 92.195247528411386 20.296703497042007 0 20.296703497042007 -9.1939784076339564 0 0 0 0 17.542746373117552 238.63668846373548 0 238.63668846373548 -149.34964153835608 0 0 0 0 165.36491766610561 5.4213648899931286 0 5.4213648899931286 -168.26919579796504 0 0 0 0 273.33379174886795 -138.05144252403989 0 -138.05144252403989 -312.3680835139603 0 0 0 0 263.95960342566832 14.085633451108151 0 14.085633451108151 -320.37416068345192 0 0 0 0 17.201072622323494 8.8912561584535226 0 8.8912561584535226 0.89498716318459515 0 0 0 0 69.23177066486096 92.67093092720097 0 92.67093092720097 45.579025292419828 0 0 0 0 107.05925019951246 -95.073903340646211 0 -95.073903340646211 -321.90946459749102 0 0 0 0 -182.05231238424312 1290.1858432824001 0 1290.1858432824001 821.36280625651943 0 0 0 0 -640.59340695296123 -198.08927327223228 0 -198.08927327223228 -46.631391671062374 0 0 0 0 55.734547546032559 14.703109286469221 0 14.703109286469221 -12.03064846340115 0 0 0 0 62.328720239631366 37.019656164671687 0 37.019656164671687 19.344352030002483 0 0 0 0 54.621548272761288 26.111040740537696 0 26.111040740537696 11.48964428012556 0 0 0 0 853.09628842131497 106.98981422645852 0 106.98981422645852 -106.69887104907684 0 0 0 0 318.55747411870834 -211.61403129946166 0 -211.61403129946166 111.85409670616355 0 0 0 0 -15.226051570323762 -71.85133954770572 0 -71.85133954770572 91.830876894516678 0 0 0 0 8.5918550301064158 2.5871690682985573 0 2.5871690682985573 0.89403734130957613 0 0 0 0 34.852603798077325 -63.942965757154525 0 -63.942965757154525 38.218148359383122 0 0 0 0 207.12395592739631 -26.594527215304083 0 -26.594527215304083 -28.202119006146859 0 0 0 0 164.92949065424182 -98.695121877597558 0 -98.695121877597558 -5.1766004659803002 0 0 0 0 45.926944217208074 171.84351246973074 0 171.84351246973074 -9.3022152216362883 0 0 0 0 54.612021728418767 200.41669766291443 0 200.41669766291443 89.00848096642676 0 0 0 0 33.979500430387418 36.881180310304018 0 36.881180310304018 38.016856385774524 0 0 0 0 66.535803673323244 66.903325437034255 0 66.903325437034255 -55.157706657997551 0 0 0 0 -31.551570433737652 67.468862697189707 0 67.468862697189707 -9.4610088369408913 0 0 0 0 22.05951255108846 30.627500985248062 0 30.627500985248062 36.924660779754248 0 0 0 0 -131.14857303294048 187.02042232037968 0 187.02042232037968 -5.9717096047197629 0 0 0 0 129.99266653761515 -62.871381575062742 0 -62.871381575062742 10.799060361590819 0 0 0 0 104.24403577922931 -9.3601787574075388 0 -9.3601787574075388 -25.345886881545482 0 0 0 0 -227.82965636998733 213.82572337490154 0 213.82572337490154 -55.957522271877679 0 0 0 0 43.787402816742542 56.491137080477529 0 56.491137080477529 194.70341842198673 0 0 0 0 20.550107080434401 26.191889766074084 0 26.191889766074084 27.069249865048334 0 0 0 0 232.21534903689462 -98.492816422029591 0 -98.492816422029591 14.952606927971374 0 0 0 0 -220.79077080595016 119.8805389589279 0 119.8805389589279 -22.819382254822358 0 0 0 0 -44.699974045535782 87.250516714594141 0 87.250516714594141 -54.119484742998566 0 0 0 0 -7.5996610418151249 129.47229189851532 0 129.47229189851532 -23.594207308493424 0 0 0 0 66.325048769329442 47.303781715908826 0 47.303781715908826 -41.37271427878477 0 0 0 0 -36.921133430310874 113.67961867351005 0 113.67961867351005 -74.139975845608205 0 0 0 0 78.144834045844618 82.96800160852581 0 82.96800160852581 -108.67308227656622 0 0 0 0 -45.235389605026285 102.68934710917279 0 102.68934710917279 -50.47220007989381 0 0 0 0 60.11857394236722 55.371441737530176 0 55.371441737530176 -81.661297153984833 0 0 0 0 1.3229084627091652 141.54698926019023 0 141.54698926019023 -119.57460905640755 0 0 0 0 -72.143619447393576 111.16927607661182 0 111.16927607661182 -94.542056160865855 0 0 0 0 -127.17781285684032 196.48631894001824 0 196.48631894001824 -116.3388939680317 0 0 0 0 -319.52453914842044 152.13443965706733 0 152.13443965706733 -63.821967218588725 0 0 0 0 -236.84698528636363 130.42336919166928 0 130.42336919166928 -115.68789806034056 0 0 0 0 -151.46243161540042 174.99434715048551 0 174.99434715048551 -129.00345374950848 0 0 0 0 -163.14315071437159 167.73832626908916 0 167.73832626908916 -74.752713041078096 0 0 0 0 215.98056338590686 56.251490630780609 0 56.251490630780609 -41.129102953276742 0 0 0 0 234.31247402339977 85.410618845640187 0 85.410618845640187 -18.971576763977282 0 0 0 0 268.48467440507375 97.20054241924754 0 97.20054241924754 -32.047391097908076 0 0 0 0 233.23999484829255 65.132778826074173 0 65.132778826074173 -55.081932459262134 0 0 0 0 226.20082659865147 56.606271697800594 0 56.606271697800594 -36.945951321434677 0 0 0 0 220.76549298936152 33.55184365213654 0 33.55184365213654 -80.797348265413348 0 0 0 0 167.1728381615103 27.136323239190915 0 27.136323239190915 -64.188459652724532 0 0 0 0 166.5530830178177 48.440293886163545 0 48.440293886163545 -104.92386172674537 0 0 0 0 76.516908905228775 57.029642154004833 0 57.029642154004833 -50.612107848999585 0 0 0 0 130.20978999348881 69.505554316128382 0 69.505554316128382 -87.267886077035655 0 0 0 0 216.29966425333987 38.717329184756636 0 38.717329184756636 -92.215447267293257 0 0 0 0 229.04822156846058 18.819657849649957 0 18.819657849649957 -34.256105342776209 0 0 0 0 134.65151117564528 47.037713569717653 0 47.037713569717653 -28.538667536386129 0 0 0 0 93.197700098593486 45.480260911916503 0 45.480260911916503 3.7239206470540012 0 0 0 0 149.03591622019303 105.8828199806685 0 105.8828199806685 18.642191530687342 0 0 0 0 223.60549310425995 9.4741028772932623 0 9.4741028772932623 130.98433475690217 0 0 0 0 400.52251714724116 38.566099492180911 0 38.566099492180911 -12.059247078664157 0 0 0 0 234.88442980152467 79.192832610831829 0 79.192832610831829 -13.920933195739053 0 0 0 0 257.14786746978643 52.426202580976678 0 52.426202580976678 -57.914196330077175 0 0 0 0 243.44503695970707 109.79065493169458 0 109.79065493169458 -7.7607464888496906 0 0 0 0 242.26335071059293 101.02956727456422 0 101.02956727456422 -10.868403179856614 0 0 0 0 277.7469476335682 119.96339379909841 0 119.96339379909841 -11.987983629467749 0 0 0 0 205.50836702430388 132.28352362817714 0 132.28352362817714 68.870568373893548 0 0 0 0 375.39398456053459 193.32125901011023 0 193.32125901011023 30.528117069337895 0 0 0 0 232.67207834211877 149.25558766982158 0 149.25558766982158 63.289575093845997 0 0 0 0 251.17457387966715 222.1843387988647 0 222.1843387988647 140.58580980029546 0 0 0 0 13.744734400025095 -3.7375443937386166 0 -3.7375443937386166 -14.322824033276516 0 0 0 0 128.04401127947494 139.32035229659914 0 139.32035229659914 152.94502507723519 0 0 0 0 158.7743931005607 190.38850111405463 0 190.38850111405463 166.61635707937421 0 0 0 0 441.18760607670993 -21.665305798345798 0 -21.665305798345798 -51.066448841456804 0 0 0 0 292.46630537723831 223.0820167783877 0 223.0820167783877 118.82108071536277 0 0 0 0 315.58920496873907 72.75275768566371 0 72.75275768566371 -49.678983626088666 0 0 0 0 48.510883127775742 18.074391494556039 0 18.074391494556039 -3.6354315976859652 0 0 0 0 49.578710851449841 8.7421296183904786 0 8.7421296183904786 -26.020816535065386 0 0 0 0 110.68482756934827 -7.293829536200974 0 -7.293829536200974 -44.117322198365855 0 0 0 0 40.997976787070257 -6.799382809243582 0 -6.799382809243582 -23.830302746445255 0 0 0 0 139.77984553476563 165.05083624533563 0 165.05083624533563 7.8584798228318391 0 0 0 0 218.16131452805712 153.55398737130054 0 153.55398737130054 -26.158279402005974 0 0 0 0 158.87376740327454 99.488448061616509 0 99.488448061616509 4.9620680840316709 0 0 0 0 119.82331923759193 130.69060338646068 0 130.69060338646068 -63.363923395450911 0 0 0 0 122.43351212193375 117.0171873660629 0 117.0171873660629 -15.769700968830875 0 0 0 0 200.42668535783014 102.28703016259078 0 102.28703016259078 -20.198712636106393 0 0 0 0 99.231340182215718 149.97157640880334 0 149.97157640880334 34.539372311517582 0 0 0 0 103.80358392619382 -1.7229081127425161 0 -1.7229081127425161 -61.544124719417596 0 0 0 0 113.58465076194261 -2.7456025675892306 0 -2.7456025675892306 -103.46292869510012 0 0 0 0 15.12964463828186 16.284959947313993 0 16.284959947313993 11.851021241494443 0 0 0 0 162.41153877605393 63.331567271043241 0 63.331567271043241 -58.81294669478666 0 0 0 0 54.072970638630693 -6.7110531092949941 0 -6.7110531092949941 -63.039701004233329 0 0 0 0 198.14161223679548 85.858793270917886 0 85.858793270917886 -50.625725470095404 0 0 0 0 86.827171637909487 41.514775640170683 0 41.514775640170683 10.439107242527825 0 0 0 0 106.47635559765331 -23.40719092580548 0 -23.40719092580548 -91.903256354169571 0 0 0 0 140.97129794291686 -10.158567169786693 0 -10.158567169786693 -102.95276133881134 0 0 0 0 150.57939509564312 -34.166744725916942 0 -34.166744725916942 -143.00171587636578 0 0 0 0 185.12301176483379 119.90646505320728 0 119.90646505320728 -65.072104237173335 0 0 0 0 -285.73183524108026 218.82376295449376 0 218.82376295449376 15.986036961359787 0 0 0 0 13.170936256665456 10.110649883124069 0 10.110649883124069 -21.804538288663771 0 0 0 0 147.13833994115703 -26.333857339435781 0 -26.333857339435781 -156.88648520503921 0 0 0 0 130.50827025152466 17.769195971198315 0 17.769195971198315 -156.23739265323093 0 0 0 0 78.340831279681879 32.883213075892854 0 32.883213075892854 -100.33350152589628 0 0 0 0 73.10193012612217 5.9090706087758917 0 5.9090706087758917 -72.95610550681522 0 0 0 0 43.526618193320871 45.022744695521801 0 45.022744695521801 36.067735495363564 0 0 0 0 163.22074512310792 132.92794791597407 0 132.92794791597407 -50.015399294832605 0 0 0 0 151.72747513066861 81.705752587000461 0 81.705752587000461 -72.20115545571025 0 0 0 0 12.869589819073511 4.1269780706141859 0 4.1269780706141859 -5.6290747284736646 0 0 0 0 30.013337549135031 0.32023522648250946 0 0.32023522648250946 98.691631813731874 0 0 0 0 220.84557028743438 70.810574215709494 0 70.810574215709494 -144.45567397611194 0 0 0 0 144.80727800313616 98.042191713093416 0 98.042191713093416 -74.781989275768865 0 0 0 0 45.947812876402168 60.524024664144235 0 60.524024664144235 -75.703684551444894 0 0 0 0 -97.551900758495321 42.77890161819596 0 42.77890161819596 -11.635900227360253 0 0 0 0 105.49462861478241 92.014364003262926 0 92.014364003262926 -22.437471511293552 0 0 0 0 -21.273672562718275 -66.125787074413893 0 -66.125787074413893 219.06021180934204 0 0 0 0 10.01084292086307 68.612802016208661 0 68.612802016208661 143.12634723280644 0 0 0 0 61.934335615747841 118.30225799443906 0 118.30225799443906 86.698538707777516 0 0 0 0 37.459560987997975 66.83006030599654 0 66.83006030599654 5.4064657671660825 0 0 0 0 59.292501686410105 18.2357984192613 0 18.2357984192613 -16.839948221949271 0 0 0 0 32.104451571175616 0.68423026652003216 0 0.68423026652003216 -16.762791032860953 0 0 0 0 20.165228714027311 18.629882785468325 0 18.629882785468325 1.3035890447868219 0 0 0 0 77.139691584008688 23.381868420003116 0 23.381868420003116 10.014846415664806 0 0 0 0 101.4530411750311 45.555897447498864 0 45.555897447498864 -34.244682021167137 0 0 0 0 91.602596055090544 20.007993536772119 0 20.007993536772119 -80.026396552166261 0 0 0 0 57.489141722816726 22.540800706786918 0 22.540800706786918 -11.766516428170725 0 0 0 0 74.093349840894575 -0.59169177454278099 0 -0.59169177454278099 -57.58973489285215 0 0 0 0 -46.272747501985577 27.00234991103116 0 27.00234991103116 72.615190551639898 0 0 0 0 -23.258253284933744 32.571654205837149 0 32.571654205837149 52.029442354591993 0 0 0 0 -47.896720793840359 63.05581771713787 0 63.05581771713787 41.394116753639537 0 0 0 0 -28.808451351011172 41.950413310554723 0 41.950413310554723 52.859016928994606 0 0 0 0 4.4470337474922417 30.507942826442104 0 30.507942826442104 34.657384209000156 0 0 0 0 3.2592692003527191 35.160853342353221 0 35.160853342353221 16.58652279402304 0 0 0 0 2.3795170621015131 30.934819184849403 0 30.934819184849403 17.409008445398285 0 0 0 0 22.436788583087036 31.497614994001196 0 31.497614994001196 8.991783111911559 0 0 0 0 9.6683478405466303 38.432899756324332 0 38.432899756324332 8.7457693227770505 0 0 0 0 13.356554965459509 14.0046666715225 0 14.0046666715225 47.637398343825225 0 0 0 0 24.206896625284571 21.315887118060346 0 21.315887118060346 23.183667910108852 0 0 0 0 4.1683940191360307 46.62130824153428 0 46.62130824153428 60.36639585517878 0 0 0 0 27.591846298397286 71.582194324533702 0 71.582194324533702 64.766565501563264 0 0 0 0 -9.0454502451029839 41.222689024477404 0 41.222689024477404 80.246975695790752 0 0 0 0 -10.083302659066248 31.988185583622226 0 31.988185583622226 58.042620480728147 0 0 0 0 -17.772589827987758 8.0063276353179162 0 8.0063276353179162 81.131864793334898 0 0 0 0 13.822031484858599 34.152423628275756 0 34.152423628275756 42.19532320705548 0 0 0 0 -21.917241174203809 28.977671825443394 0 28.977671825443394 58.680868434724289 0 0 0 0 16.284267707702384 5.7745280228509728 0 5.7745280228509728 9.8431709296164627 0 0 0 0 21.759468828924582 19.086064555574922 0 19.086064555574922 27.310464865964605 0 0 0 0 28.969903800119937 23.361060525415269 0 23.361060525415269 -1.4104624427782255 0 0 0 0 11.036647476183134 43.551118596605193 0 43.551118596605193 21.929105600949697 0 0 0 0 37.992612257919973 38.143741588058219 0 38.143741588058219 22.796516962703663 0 0 0 0 45.350928428444604 36.789712026161851 0 36.789712026161851 -27.252496514869563 0 0 0 0 35.587846981856273 20.695392548233031 0 20.695392548233031 -2.86931744341382 0 0 0 0 39.528220155036252 19.669520908824325 0 19.669520908824325 -5.4172312022619735 0 0 0 0 40.267221541536856 17.332563425230546 0 17.332563425230546 -0.21353763042372975 0 0 0 0 17.511138610168558 -2.6182660999088512 0 -2.6182660999088512 -15.958222204571106 0 0 0 0 29.105103167450579 7.3931718888679825 0 7.3931718888679825 9.8829752941564948 0 0 0 0 33.555097352538723 9.1300336596532361 0 9.1300336596532361 -5.3141987325016089 0 0 0 0 144.91826594187296 93.177413223018448 0 93.177413223018448 80.336008444515755 0 0 0 0 119.15491326805204 35.084087684352198 0 35.084087684352198 -39.365520434066639 0 0 0 0 15.282676826264009 -1.5583764649164209 0 -1.5583764649164209 -21.128560371630073 0 0 0 0 22.823078220026218 -58.278967906160688 0 -58.278967906160688 155.08574875119848 0 0 0 0 200.71531874130596 112.77898577642827 0 112.77898577642827 21.691440261680327 0 0 0 0 203.99812142962219 91.875897360850274 0 91.875897360850274 3.3565374082500057 0 0 0 0 84.840324321077787 34.300472870148042 0 34.300472870148042 -79.959154602664057 0 0 0 0 56.576370079710614 58.840558551604772 0 58.840558551604772 8.4204101508184976 0 0 0 0 38.724943845852977 -9.0838921418062455 0 -9.0838921418062455 -55.663616982046278 0 0 0 0 42.35179494095064 29.29663869445838 0 29.29663869445838 -37.171362827530629 0 0 0 0 17.814859619008615 -0.81100984547089183 0 -0.81100984547089183 -18.719876927694028 0 0 0 0 8.6040943081008976 3.7042137484491775 0 3.7042137484491775 0.14069291444592302 0 0 0 0 82.963073860373697 113.20875935248887 0 113.20875935248887 -73.538989549254438 0 0 0 0 9.3672831107299004 -5.8018283387014122 0 -5.8018283387014122 -20.898364892473737 0 0 0 0 121.90333332007867 37.749815089288404 0 37.749815089288404 -38.079181792808413 0 0 0 0 220.22556173233897 84.638994819211234 0 84.638994819211234 -7.1505274412247672 0 0 0 0 219.85142720676959 92.00454701088438 0 92.00454701088438 1.9331162586040591 0 0 0 0 217.74591757198505 79.100170433872108 0 79.100170433872108 -12.025617158983096 0 0 0 0 220.58205235141213 91.680725391284795 0 91.680725391284795 -21.249713919401074 0 0 0 0 225.25334531154658 72.484152840147999 0 72.484152840147999 -35.865298912915478 0 0 0 0 209.83245054009603 55.977874691180432 0 55.977874691180432 -17.819109942720502 0 0 0 0 204.06689497586194 54.170748962559429 0 54.170748962559429 -14.643638027551333 0 0 0 0 177.38179114742343 27.917640210228456 0 27.917640210228456 -13.979517270453471 0 0 0 0 182.2074476875423 51.814694679651325 0 51.814694679651325 12.967494990244155 0 0 0 0 196.565783989794 74.682310539324732 0 74.682310539324732 14.944083580998267 0 0 0 0 63.081838686623087 -50.956931514343182 0 -50.956931514343182 -18.292875061896666 0 0 0 0 10.902351523249052 -7.0670954436811826 0 -7.0670954436811826 -16.92359373832738 0 0 0 0 172.18068015902463 54.652120064491044 0 54.652120064491044 2.7933235647769834 0 0 0 0 165.97103821762721 41.366514812274467 0 41.366514812274467 6.5671441392604493 0 0 0 0 220.63613829630776 62.50627718603937 0 62.50627718603937 -59.367600631641835 0 0 0 0 180.32468301449262 20.018799330066457 0 20.018799330066457 0.43539102513216221 0 0 0 0 148.26336718483435 18.056246938333061 0 18.056246938333061 4.9996535707726935 0 0 0 0 156.55008568469202 46.812966705229428 0 46.812966705229428 4.0295497519105083 0 0 0 0 30.667573718390486 19.943613055657806 0 19.943613055657806 3.0749251013003231 0 0 0 0 -19.594446633978805 -31.2111551400792 0 -31.2111551400792 -14.878931001030651 0 0 0 0 19.937082680573354 -2.5816147930749338 0 -2.5816147930749338 -13.216992217739302 0 0 0 0 55.192478852710337 50.58081928691081 0 50.58081928691081 35.055074721361962 0 0 0 0 -16.064733290135337 -43.928902987776155 0 -43.928902987776155 16.160891204135623 0 0 0 0 147.80052910163067 -117.56819623597221 0 -117.56819623597221 -80.212253789850365 0 0 0 0 -34.229532924378873 -2.1241060262573228 0 -2.1241060262573228 11.792917218357616 0 0 0 0 -31.567985827554367 5.428687382772182 0 5.428687382772182 -12.255250423762845 0 0 0 0 3.6950231151332389 -1.8824708177646698 0 -1.8824708177646698 -3.1485940030679949 0 0 0 0 6.7366577757638879 45.822048664572321 0 45.822048664572321 -128.93894600370811 0 0 0 0 5.7379696278367192 37.416164437227962 0 37.416164437227962 -193.46863778336638 0 0 0 0 -53.76670392754022 102.73640520418667 0 102.73640520418667 -132.51213230521989 0 0 0 0 4.7810204351967798 2.7163040522276418 0 2.7163040522276418 -0.27917509701545384 0 0 0 0 -29.339900510590269 -18.626678776093094 0 -18.626678776093094 45.396728330979386 0 0 0 0 -28.55395761699765 52.133475205685045 0 52.133475205685045 -3.0979479208344856 0 0 0 0 8.2388905040279496 32.856800867838501 0 32.856800867838501 -130.93188237556046 0 0 0 0 -24.487784059005207 33.169253277684675 0 33.169253277684675 -18.751220293916049 0 0 0 0 125.25388570815267 4.7927249738540922 0 4.7927249738540922 -20.970358826541087 0 0 0 0 74.819479850717471 129.69493733882473 0 129.69493733882473 15.719381430451904 0 0 0 0 11.506103237644339 -9.7610397971890848 0 -9.7610397971890848 -10.601591491190252 0 0 0 0 -141.70003312273184 81.774969891614091 0 81.774969891614091 75.134005536537188 0 0 0 0 180.10168542392785 15.712194005485344 0 15.712194005485344 -48.585608463278049 0 0 0 0 15.898558543929539 4.9841035358991803 0 4.9841035358991803 45.077539503103253 0 0 0 0 -0.79265096566814464 -2.3367487766386148 0 -2.3367487766386148 42.967196298855242 0 0 0 0 153.49275234041852 53.790964217294913 0 53.790964217294913 -5.7412194590149284 0 0 0 0 158.35960683738813 43.593460503426286 0 43.593460503426286 -2.7009995431990319 0 0 0 0 153.2586286925507 54.527748241179324 0 54.527748241179324 4.3825163172206203 0 0 0 0 138.84663573827129 43.513621169399585 0 43.513621169399585 -3.9343767199002286 0 0 0 0 171.8898000724148 64.397547523815604 0 64.397547523815604 -12.373791319298107 0 0 0 0 174.0771282507485 44.424323709391047 0 44.424323709391047 -27.086606499004574 0 0 0 0 170.34754558513669 49.966449125259942 0 49.966449125259942 -14.987900546020683 0 0 0 0 205.8794521104428 59.780389750481845 0 59.780389750481845 -22.566233578592801 0 0 0 0 194.55860147756175 83.787800877717018 0 83.787800877717018 2.4612814602646722 0 0 0 0 155.83504812300089 68.957141271299861 0 68.957141271299861 -3.1010165292643705 0 0 0 0 151.05769190633146 64.139893991391773 0 64.139893991391773 -1.7567924194263469 0 0 0 0 130.66356722028286 62.890419805635702 0 62.890419805635702 0.95684153789443371 0 0 0 0 85.629323328481405 60.098882724582836 0 60.098882724582836 12.57308103019659 0 0 0 0 131.84416194746518 52.133320898182347 0 52.133320898182347 8.4708510580076108 0 0 0 0 127.97445104840153 82.701886641511919 0 82.701886641511919 8.5450818969366082 0 0 0 0 79.492649787542177 -7.2010621215727042 0 -7.2010621215727042 -52.798406371888063 0 0 0 0 52.967376603570301 -2.7769829953849694 0 -2.7769829953849694 -12.698260314627348 0 0 0 0 91.913358939666068 58.365667814733115 0 58.365667814733115 -11.322644961602592 0 0 0 0 70.19905806575116 60.812973593530501 0 60.812973593530501 -50.887713526417429 0 0 0 0 72.499513979746553 44.219706869728611 0 44.219706869728611 26.112270595560858 0 0 0 0 104.84054115182153 -20.736888624453485 0 -20.736888624453485 32.472238055380899 0 0 0 0 130.03238812199561 22.147918575939627 0 22.147918575939627 20.383675895432276 0 0 0 0 96.881210854407982 33.693678085072861 0 33.693678085072861 29.292499181243784 0 0 0 0 175.39762042326038 -61.472890925513354 0 -61.472890925513354 18.929220569370955 0 0 0 0 157.02374041733856 -76.986103561710479 0 -76.986103561710479 88.517112365713686 0 0 0 0 9.9370520498024462 -0.61727843988657582 0 -0.61727843988657582 -1.2078715172734036 0 0 0 0 -14.984716240433045 13.124670449529731 0 13.124670449529731 76.284494664816521 0 0 0 0 118.04562739693938 -165.04831070533578 0 -165.04831070533578 111.54689676296994 0 0 0 0 543.33677433741104 -206.40666585736608 0 -206.40666585736608 164.59258689347826 0 0 0 0 637.02462673393893 613.83348442322676 0 613.83348442322676 445.4028724847235 0 0 0 0 0.47531800891738385 -1.109835966215087 0 -1.109835966215087 642.2295411493069 0 0 0 0 -133.30087770605314 -102.24415995558456 0 -102.24415995558456 292.8137687178878 0 0 0 0 -50.236263241451525 163.25872541713022 0 163.25872541713022 112.66433643905748 0 0 0 0 279.69480093570019 453.3166664541327 0 453.3166664541327 249.32207946164806 0 0 0 0 21.147896687420143 178.20090477030575 0 178.20090477030575 2.8365793792328304 0 0 0 0 -257.02046054345556 46.715214335747987 0 46.715214335747987 151.93572585971197 0 0 0 0 687.5635397317601 47.814824843119709 0 47.814824843119709 -104.4877704990763 0 0 0 0 429.20717499105376 -208.84776437110202 0 -208.84776437110202 41.214796265821064 0 0 0 0 284.902698493152 110.16100266049619 0 110.16100266049619 -100.02722127158199 0 0 0 0 129.60551879278501 69.49972211480349 0 69.49972211480349 -84.397902312055749 0 0 0 0 -199.28974301400012 271.20861973264027 0 271.20861973264027 7.5495009530886819 0 0 0 0 93.228569584854995 215.11715808655674 0 215.11715808655674 -110.35489192491968 0 0 0 0 -199.10790177955641 201.57891778581848 0 201.57891778581848 -78.870131063720009 0 0 0 0 -61.753101865597273 197.65252180452114 0 197.65252180452114 -115.37942488575891 0 0 0 0 -253.37760298626381 194.96376113552651 0 194.96376113552651 -87.279392362266208 0 0 0 0 122.33781828870997 121.09016819535373 0 121.09016819535373 -126.22476851657711 0 0 0 0 198.24440156819765 14.843032876983557 0 14.843032876983557 -111.38081991186391 0 0 0 0 -19.698870406580681 90.199538473817142 0 90.199538473817142 -88.931011444378782 0 0 0 0 101.23930252438004 78.826090728572467 0 78.826090728572467 -104.29022680159323 0 0 0 0 176.70462733217573 8.5852212359317832 0 8.5852212359317832 -58.803008832870091 0 0 0 0 199.0966625137371 1.9073357123043024 0 1.9073357123043024 -79.510461248328468 0 0 0 0 202.11700679847854 43.731984088570698 0 43.731984088570698 -70.952577543760526 0 0 0 0 212.30531480659556 36.101324809652169 0 36.101324809652169 -59.986531200446962 0 0 0 0 201.9136449193029 14.611838356241435 0 14.611838356241435 -24.416676856909362 0 0 0 0 169.80873761141265 -4.6530630129979613 0 -4.6530630129979613 -35.29961868534096 0 0 0 0 187.7735978083947 -38.187200221661953 0 -38.187200221661953 17.505163636865177 0 0 0 0 209.72502673277631 -24.356556760250726 0 -24.356556760250726 -73.758779972373588 0 0 0 0 287.44236792223933 -95.029406128807111 0 -95.029406128807111 -9.6157193654664752 0 0 0 0 1074.196018032002 96.452293684285451 0 96.452293684285451 12.8350257907789 0 0 0 0 1145.2412738921503 -106.09099244179424 0 -106.09099244179424 -66.93071609762228 0 0 0 0 1092.549461534436 -24.464199755634127 0 -24.464199755634127 181.21086021709928 0 0 0 0 937.88584855896261 -5.9824603189737218 0 -5.9824603189737218 182.1276807445829 0 0 0 0 1546.28209006619 -66.74046444406531 0 -66.74046444406531 66.586030565792953 0 0 0 0 975.18930588391231 -86.428257886746451 0 -86.428257886746451 318.90381615766 0 0 0 0 767.73838215241312 -6.4827862247995824 0 -6.4827862247995824 288.11071768313468 0 0 0 0 916.46623293466837 -1.7857051677369782 0 -1.7857051677369782 162.99402084853034 0 0 0 0 914.5499088621691 -20.092673553891245 0 -20.092673553891245 273.75242673865068 0 0 0 0 1020.9479253625468 83.992192368620636 0 83.992192368620636 274.33457290072857 0 0 0 0 1037.9971418895766 30.359235989372564 0 30.359235989372564 117.38459156470981 0 0 0 0 1186.6523256014334 244.29256800852863 0 244.29256800852863 378.9089804525438 0 0 0 0 1115.5817341206639 -111.59899704744475 0 -111.59899704744475 373.25813385675792 0 0 0 0 1062.6063845764875 58.498639297751197 0 58.498639297751197 100.67619453602765 0 0 0 0 1097.9825894852474 -2.4546267373739283 0 -2.4546267373739283 -75.880280854173179 0 0 0 0 1164.0173305909921 44.222558780619465 0 44.222558780619465 -127.18996794773739 0 0 0 0 1112.424493731698 74.756785535194467 0 74.756785535194467 103.29323858662497 0 0 0 0 766.9792503108838 -280.35270092360088 0 -280.35270092360088 27.063779994731135 0 0 0 0 375.24545346898594 15.363516157724916 0 15.363516157724916 61.377285485446009 0 0 0 0 1542.7108784786906 -266.60087122586629 0 -266.60087122586629 17.09622359260436 0 0 0 0 7.0281474592412962 3.7634800050954169 0 3.7634800050954169 2.2020609562911311 0 0 0 0 740.85616516026494 151.11296194138504 0 151.11296194138504 27.949773274983727 0 0 0 0 1452.1343269827848 226.60110952868854 0 226.60110952868854 -42.717346452188394 0 0 0 0 627.8051540923916 -83.800521340122941 0 -83.800521340122941 14.193556941693032 0 0 0 0 153.76349759317236 312.98254629244911 0 312.98254629244911 245.23958678904091 0 0 0 0 55.991007725766394 -84.545036024050546 0 -84.545036024050546 96.254200183859211 0 0 0 0 13.993674173310865 -8.1787395316059701 0 -8.1787395316059701 259.91262415937581 0 0 0 0 26.951459497882752 -33.964998192154439 0 -33.964998192154439 83.542978360548659 0 0 0 0 183.71327512797143 172.58153856365152 0 172.58153856365152 214.04313141273451 0 0 0 0 -6.9627124164981069 68.639936071718694 0 68.639936071718694 140.6345292950391 0 0 0 0 82.592319227980624 13.720978439422197 0 13.720978439422197 70.901574202356642 0 0 0 0 -60.33709560034913 65.858196665021751 0 65.858196665021751 73.24293240166844 0 0 0 0 -40.09475981684227 58.570094753286867 0 58.570094753286867 8.4256134235417903 0 0 0 0 -28.357548951506033 26.376098821981941 0 26.376098821981941 57.834381646216571 0 0 0 0 -35.22380837595847 -8.3215689649441629 0 -8.3215689649441629 160.55918570937024 0 0 0 0 -30.110054817647324 5.0321551714978341 0 5.0321551714978341 101.64952184779486 0 0 0 0 1.0807860943023115 -19.799838920280763 0 -19.799838920280763 77.099421021392118 0 0 0 0 0.79518446740257787 -15.32777087749264 0 -15.32777087749264 45.098837612027637 0 0 0 0 78.143366904063441 -43.053958725096891 0 -43.053958725096891 -51.420456041437319 0 0 0 0 369.30811722474755 -14.752474216320252 0 -14.752474216320252 -59.736271183684948 0 0 0 0 15.151630627432752 10.061794753922669 0 10.061794753922669 6.2504407260516537 0 0 0 0 8.3905505705770338 45.12625620680592 0 45.12625620680592 -51.445258451759244 0 0 0 0 30.399666553894349 1.0203021637639722 0 1.0203021637639722 -11.143005637712122 0 0 0 0 19.755813642911107 13.411691090566336 0 13.411691090566336 7.0253448289563529 0 0 0 0 32.391305675879266 22.8605663029482 0 22.8605663029482 -16.156669831449108 0 0 0 0 11.642730844891048 100.80409568632604 0 100.80409568632604 -22.116409458098133 0 0 0 0 -15.872596867655375 17.275280649435217 0 17.275280649435217 64.354307453711954 0 0 0 0 215.27887873625878 -68.716267404817131 0 -68.716267404817131 -20.23481733234712 0 0 0 0 365.99485262400412 70.495769517297958 0 70.495769517297958 27.699186909018977 0 0 0 0 -132.52469565864885 50.259439566249057 0 50.259439566249057 -27.670369769350145 0 0 0 0 112.28201238505426 75.106181479060069 0 75.106181479060069 -101.35514082004056 0 0 0 0 -20.629730334949272 -51.368003538650328 0 -51.368003538650328 24.99790555063646 0 0 0 0 101.94974017226923 -62.40039187027196 0 -62.40039187027196 2.9865803061038605 0 0 0 0 -103.19457811731991 55.439365977531907 0 55.439365977531907 -8.6287341279585235 0 0 0 0 24.609452275457443 15.522146360859551 0 15.522146360859551 57.309590240743091 0 0 0 0 50.342219931524596 0.55410096794412311 0 0.55410096794412311 80.686119831470023 0 0 0 0 3.5634979346359614 -19.437777995879628 0 -19.437777995879628 83.874373556741375 0 0 0 0 52.674123141885502 -25.520726673873014 0 -25.520726673873014 38.74058916056083 0 0 0 0 319.63557771186606 20.414765543016983 0 20.414765543016983 -8.524131037661391 0 0 0 0 183.69619293374126 -43.800266593443666 0 -43.800266593443666 50.107037520313838 0 0 0 0 169.95720306871226 29.824146906080387 0 29.824146906080387 63.381007719746947 0 0 0 0 342.54505874664028 -77.2598225928582 0 -77.2598225928582 -12.563047062097667 0 0 0 0 575.82390992486762 138.36500823588767 0 138.36500823588767 7.4327582377209183 0 0 0 0 312.58262639291934 37.688114042798134 0 37.688114042798134 74.632333607708915 0 0 0 0 790.73195985475832 -71.26245430162146 0 -71.26245430162146 -59.17658183772437 0 0 0 0 786.82627026407499 72.289479912825755 0 72.289479912825755 -24.632558577934105 0 0 0 0 563.45760797591356 -158.67117491387944 0 -158.67117491387944 -43.461740394041044 0 0 0 0 1061.3660876551003 -79.016967946566865 0 -79.016967946566865 -177.31833247971463 0 0 0 0 1100.128303930258 50.136436057228821 0 50.136436057228821 -105.78124044435253 0 0 0 0 1171.3287228518166 -6.5753633137874203 0 -6.5753633137874203 -77.617203850771034 0 0 0 0 1168.3052420230015 -32.094427205109014 0 -32.094427205109014 -163.87886070503009 0 0 0 0 1277.7888987026818 -6.3535804181597086 0 -6.3535804181597086 -160.23255543801042 0 0 0 0 1196.3875235249798 66.854818614994656 0 66.854818614994656 -134.4231252729337 0 0 0 0 969.20241282154893 146.78168898191973 0 146.78168898191973 125.83769570951608 0 0 0 0 1415.3652313519706 4.0837036478910704 0 4.0837036478910704 32.395595415878461 0 0 0 0 1161.3909396827585 -9.8800359455390208 0 -9.8800359455390208 -107.62734210872986 0 0 0 0 1237.2346192247351 100.04555782110651 0 100.04555782110651 48.750657441064959 0 0 0 0 1519.5096438766559 -34.971719381941739 0 -34.971719381941739 -184.22242226082199 0 0 0 0 1958.536919262875 564.70608334214194 0 564.70608334214194 556.82226068609907 0 0 0 0 655.06640210559999 -300.46869682294255 0 -300.46869682294255 132.33837961129166 0 0 0 0 2204.021460326665 -873.55526738036338 0 -873.55526738036338 330.34578614780253 0 0 0 0 730.71007810712763 -96.621895492398835 0 -96.621895492398835 -50.241256768923449 0 0 0 0 1123.8581067831255 -409.11907499207382 0 -409.11907499207382 -13.144885507377239 0 0 0 0 1016.9918209817552 -33.081939870307906 0 -33.081939870307906 -117.03741054911188 0 0 0 0 760.70496723856195 -204.66460627073911 0 -204.66460627073911 -45.084686012517665 0 0 0 0 1158.9888520817622 -105.73442515047918 0 -105.73442515047918 -195.53289292634292 0 0 0 0 1112.6361237255333 -27.689511401092204 0 -27.689511401092204 -66.772608312058765 0 0 0 0 726.5617232958175 29.244886632441194 0 29.244886632441194 7.2601611236791541 0 0 0 0 1093.6181987424134 -61.857873570062111 0 -61.857873570062111 -127.57716796428122 0 0 0 0 -25.999770801427076 196.30843955282444 0 196.30843955282444 570.20145083347506 0 0 0 0 -3.6483737539092544 66.594402641293527 0 66.594402641293527 268.84508628605226 0 0 0 0 225.81791584972234 921.56514737273301 0 921.56514737273301 2125.0837398723697 0 0 0 0 1795.2289483951754 -587.96496274178367 0 -587.96496274178367 -58.058248439616818 0 0 0 0 186.88112222863128 285.21287348964779 0 285.21287348964779 -11.41853730348339 0 0 0 0 124.40315235365415 297.43148532434861 0 297.43148532434861 158.90431090156744 0 0 0 0 0.54038527281187498 10.055451237635111 0 10.055451237635111 -5.3717069529527137 0 0 0 0 99.055874839657918 21.391003069876206 0 21.391003069876206 311.37388306935873 0 0 0 0 760.64634710573955 421.29800007777112 0 421.29800007777112 -202.0163833089573 0 0 0 0 544.43358353227813 715.125488507049 0 715.125488507049 267.38667482520214 0 0 0 0 800.57699280576344 1127.2761982842235 0 1127.2761982842235 915.37365306401807 0 0 0 0 1160.3194965124421 840.94851313666777 0 840.94851313666777 314.10089067729564 0 0 0 0 1171.2409323930187 1183.3414948603086 0 1183.3414948603086 -212.4256324696612 0 0 0 0 588.02251662738854 866.90426783017983 0 866.90426783017983 321.69264638663054 0 0 0 0 10.556023464903262 3.8840334349985426 0 3.8840334349985426 0.50796520010914392 0 0 0 0 -152.55145879616248 1379.787446796126 0 1379.787446796126 -135.29383602890448 0 0 0 0 932.30364874967927 88.144569560515492 0 88.144569560515492 742.16660224749285 0 0 0 0 1527.3123722623059 635.79414097959557 0 635.79414097959557 171.66841358113288 0 0 0 0 240.27262883367075 70.319009709206057 0 70.319009709206057 544.18602952474816 0 0 0 0 1037.8403069679916 -24.175907815310211 0 -24.175907815310211 524.69568234947019 0 0 0 0 -1.37625152214369 0.080523664248261184 0 0.080523664248261184 -0.47673062055661219 0 0 0 0 999.81818294972618 56.792589818481474 0 56.792589818481474 672.89254363263672 0 0 0 0 948.63261080823577 -146.50340391795953 0 -146.50340391795953 25.239399276700397 0 0 0 0 506.22907529102667 -614.02105647913686 0 -614.02105647913686 1159.0624218396688 0 0 0 0 515.24942152371659 -594.83524653175846 0 -594.83524653175846 75.783695565636663 0 0 0 0 -395.76896515973203 -16.214390454454133 0 -16.214390454454133 135.64777274628659 0 0 0 0 -194.44720587496704 385.72097668702872 0 385.72097668702872 194.34759313900554 0 0 0 0 -8.1281055651197676 246.90155782006059 0 246.90155782006059 90.861834205151354 0 0 0 0 -191.28280732296116 96.166489092325492 0 96.166489092325492 15.76377964934909 0 0 0 0 464.16097983311556 135.62477692858465 0 135.62477692858465 -85.752579956711998 0 0 0 0 888.23108320418396 178.66271986566244 0 178.66271986566244 73.914964221968148 0 0 0 0 430.90968928622897 31.294354893114814 0 31.294354893114814 39.285426279380317 0 0 0 0 492.10620060521683 -11.393177089618163 0 -11.393177089618163 307.73652436087923 0 0 0 0 490.80268881993834 130.6253382873324 0 130.6253382873324 76.231948212689531 0 0 0 0 1101.7814309563255 -445.46647005450859 0 -445.46647005450859 9.5436228562230099 0 0 0 0 1332.031116119535 -374.41918076235243 0 -374.41918076235243 -81.566275817320275 0 0 0 0 851.22768057590292 -586.78166067004531 0 -586.78166067004531 -22.096960469874375 0 0 0 0 529.91054419160355 -772.4706814047031 0 -772.4706814047031 760.64206557171565 0 0 0 0 1334.4958006439265 -847.39923585931501 0 -847.39923585931501 117.48930471847598 0 0 0 0 687.11372281557124 -1091.7064273496926 0 -1091.7064273496926 1636.2990463255919 0 0 0 0 11.830898923776147 -5.8912515175068236 0 -5.8912515175068236 3.2480159519534473 0 0 0 0 -0.32440849201520905 -163.89184510522318 0 -163.89184510522318 482.41906531066252 0 0 0 0 1417.8474954816047 404.19112158122971 0 404.19112158122971 468.6369997592019 0 0 0 0 2561.4663886204362 -837.95423809259773 0 -837.95423809259773 106.41897609871421 0 0 0 0 1700.3685614454953 -551.15779898008032 0 -551.15779898008032 122.34282066957439 0 0 0 0 1316.4417969778588 578.77904405047957 0 578.77904405047957 27.777746567812756 0 0 0 0 887.28259367567807 -149.47317083066901 0 -149.47317083066901 108.83013212676815 0 0 0 0 947.70552297125505 108.02812946111453 0 108.02812946111453 -117.78231330134531 0 0 0 0 267.13803794851992 2.0782953450252535 0 2.0782953450252535 217.66810328034217 0 0 0 0 35.015735891709483 -10.469121226981727 0 -10.469121226981727 0.6617065561031783 0 0 0 0 266.14716374555064 25.762580456800606 0 25.762580456800606 5.8009306613812441 0 0 0 0 5.7807357935269579 -2.9392186060340464 0 -2.9392186060340464 -0.48032040263677445 0 0 0 0 -1.2388183432340156 23.176120329105515 0 23.176120329105515 15.278105278646763 0 0 0 0 179.51440724368149 51.833785895030815 0 51.833785895030815 19.690585993193963 0 0 0 0 16.228540390533453 4.8515571770044517 0 4.8515571770044517 13.435691192772083 0 0 0 0 70.589536375460739 -27.791538437325471 0 -27.791538437325471 -30.768172239412706 0 0 0 0 21.724337250430835 -7.9419258933157835 0 -7.9419258933157835 -5.1634264752647141 0 0 0 0 20.692278157614794 -4.9246081573568006 0 -4.9246081573568006 -1.1877262475896559 0 0 0 0 25.364966711384596 8.8587428320240917 0 8.8587428320240917 -12.053291251009229 0 0 0 0 -115.10097227795632 -34.149059044103979 0 -34.149059044103979 -9.9159112350837404 0 0 0 0 -48.413479564806039 9.4972736181750861 0 9.4972736181750861 18.45655673658257 0 0 0 0 0.6218318175608033 1.8254892757334318 0 1.8254892757334318 -6.4567103871981697 0 0 0 0 50.745296548317128 31.073406108758661 0 31.073406108758661 -28.261979189719568 0 0 0 0 228.02899157701177 -117.81296237968627 0 -117.81296237968627 15.852247385117153 0 0 0 0 42.482652719205362 -6.6372488019815137 0 -6.6372488019815137 103.84452560666614 0 0 0 0 292.17224640182394 -315.51094174582249 0 -315.51094174582249 159.80371926189036 0 0 0 0 220.94978961855668 -101.55169314739976 0 -101.55169314739976 2.1818255672478699 0 0 0 0 205.51919153810741 -336.1057785591845 0 -336.1057785591845 298.09904674872359 0 0 0 0 770.98245526029496 -638.46658236134317 0 -638.46658236134317 158.21460862265644 0 0 0 0 3.2239694664366425 -5.5271879663542904 0 -5.5271879663542904 -19.168369075908497 0 0 0 0 208.6724670487165 -242.1066706735528 0 -242.1066706735528 110.58326740873167 0 0 0 0 -35.607174824282993 50.684651449059857 0 50.684651449059857 -55.688531861434058 0 0 0 0 102.22906836847687 93.532639463091783 0 93.532639463091783 -49.664190393541503 0 0 0 0 911.64927291349159 -289.03398978057544 0 -289.03398978057544 -256.67265965261788 0 0 0 0 369.37825714146311 -167.09882888469065 0 -167.09882888469065 -63.298900421976214 0 0 0 0 7.7507549356669188 -197.68438909444694 0 -197.68438909444694 -124.57548175847296 0 0 0 0 483.92345387390378 -15.259780112820408 0 -15.259780112820408 -266.12758761282248 0 0 0 0 995.29056897903502 -470.41105498198476 0 -470.41105498198476 -137.92512737780271 0 0 0 0 589.1898275022977 -216.84830930324392 0 -216.84830930324392 -108.58833439141745 0 0 0 0 490.19262225462444 -423.71920279163714 0 -423.71920279163714 19.096434419760953 0 0 0 0 1881.9579018832301 -777.79294081466151 0 -777.79294081466151 -123.7004661183738 0 0 0 0 772.41731511866965 -385.56246231563398 0 -385.56246231563398 0.50069835146678088 0 0 0 0 541.40809574121522 152.57170075933774 0 152.57170075933774 -87.826088560837889 0 0 0 0 387.24952616586233 -221.64113400815464 0 -221.64113400815464 -7.3605096577508604 0 0 0 0 1232.5231566863222 140.72975462159283 0 140.72975462159283 -25.068263308864061 0 0 0 0 406.29088642502029 -248.767841131295 0 -248.767841131295 536.72668707474759 0 0 0 0 1072.6603514644812 -690.66846841586914 0 -690.66846841586914 258.05938482955304 0 0 0 0 1339.0863902656456 -419.29866157620859 0 -419.29866157620859 -1.0565565601982347 0 0 0 0 13.795712646341883 0.28583081533259502 0 0.28583081533259502 -0.73694888118102564 0 0 0 0 1032.4898505132878 -1282.1842149908746 0 -1282.1842149908746 1261.1577139720664 0 0 0 0 252.97986296667659 330.40130567384551 0 330.40130567384551 -402.63760722405482 0 0 0 0 191.99345696545788 -96.566400191560618 0 -96.566400191560618 -353.1413114830325 0 0 0 0 -4.4370726428169291 -67.050507691621505 0 -67.050507691621505 0.40613999140021451 0 0 0 0 65.642163469732623 -117.74080728757916 0 -117.74080728757916 -83.460190535043523 0 0 0 0 93.755955133383395 134.175075595565 0 134.175075595565 -445.84638892327064 0 0 0 0 52.568367682302778 -60.427255474613006 0 -60.427255474613006 -268.64089048083753 0 0 0 0 -68.015591258823406 90.9904965684361 0 90.9904965684361 -255.33268015691522 0 0 0 0 35.093705478974982 4.8328606869007871 0 4.8328606869007871 -1.602845752378165 0 0 0 0 563.82276095341513 -378.07233809383257 0 -378.07233809383257 -105.52717213802643 0 0 0 0 -96.020856746472418 -809.96527099604805 0 -809.96527099604805 1271.195447208625 0 0 0 0 302.8194947608572 -496.24239751341418 0 -496.24239751341418 -24.372976555773718 0 0 0 0 197.19417553968378 -171.75251671154138 0 -171.75251671154138 115.77500331405417 0 0 0 0 577.33392054217984 -375.30385012240095 0 -375.30385012240095 24.908174033822206 0 0 0 0 771.42539284881786 -655.51731623594719 0 -655.51731623594719 138.05359910551022 0 0 0 0 408.80896746725193 -427.85458622653925 0 -427.85458622653925 123.99711251101576 0 0 0 0 869.25692785569117 -630.85139701560047 0 -630.85139701560047 -44.882674562008106 0 0 0 0 956.2513156990608 -671.34129365322133 0 -671.34129365322133 -31.120232789438433 0 0 0 0 746.18076433325768 -258.14582234923137 0 -258.14582234923137 -104.28127994056922 0 0 0 0 957.66273398112389 -558.56803717706907 0 -558.56803717706907 -46.006955871111586 0 0 0 0 759.4864001609094 -252.75104895118875 0 -252.75104895118875 -143.34133194657988 0 0 0 0 766.69166516323457 -275.80612994199464 0 -275.80612994199464 -115.42225264157878 0 0 0 0 743.80392735643545 -271.16255544136675 0 -271.16255544136675 -84.727213829474096 0 0 0 0 421.60562501577078 -128.85086749354537 0 -128.85086749354537 -128.79313174089566 0 0 0 0 419.47587709888467 -193.57579222277764 0 -193.57579222277764 -55.03796394605024 0 0 0 0 561.93218128038279 -410.98828735622533 0 -410.98828735622533 -56.149534845009384 0 0 0 0 192.92102153945598 103.12987707283355 0 103.12987707283355 -220.6003080136993 0 0 0 0 184.12645678099943 52.555379821101724 0 52.555379821101724 -384.59102457850713 0 0 0 0 563.67997501874925 13.048049099370473 0 13.048049099370473 -231.12682928299864 0 0 0 0 379.23984771419782 12.257929938777579 0 12.257929938777579 -121.35877105467989 0 0 0 0 754.9422950745352 67.340195403157594 0 67.340195403157594 -165.7045761338195 0 0 0 0 432.43220162879879 134.64934013093136 0 134.64934013093136 -248.31963857920255 0 0 0 0 46.7791814871307 112.76270906776517 0 112.76270906776517 -60.277499770398208 0 0 0 0 16.486476672617016 13.091500322651314 0 13.091500322651314 1.9167208557094322 0 0 0 0 -193.90782898558246 202.3322672225579 0 202.3322672225579 -129.3642120152781 0 0 0 0 -49.792444849153981 47.879065905636253 0 47.879065905636253 -12.954044469454516 0 0 0 0 -100.9671288574682 230.09339323054655 0 230.09339323054655 -48.60748348450943 0 0 0 0 -189.64118520457123 130.77326283023831 0 130.77326283023831 -117.89304205983717 0 0 0 0 21.306064965756377 65.925678945389791 0 65.925678945389791 -124.0327851362108 0 0 0 0 -157.51234622007905 134.79364703729036 0 134.79364703729036 36.031346676955138 0 0 0 0 -264.02419478091178 181.19579973124155 0 181.19579973124155 -58.314967273688126 0 0 0 0 81.209031959471758 -10.910090836432119 0 -10.910090836432119 -423.71535924363252 0 0 0 0 -29.1620946713374 115.18773373715158 0 115.18773373715158 -116.38218267946309 0 0 0 0 -183.33533048341633 -28.010403463542843 0 -28.010403463542843 -244.42685410422018 0 0 0 0 24.775611922290409 100.29764035236515 0 100.29764035236515 -196.93764584482832 0 0 0 0 242.27014369377866 -199.01098293131196 0 -199.01098293131196 -549.17930449273831 0 0 0 0 52.594376090564765 50.840867260106961 0 50.840867260106961 -166.72391394713935 0 0 0 0 6.9139587470999686 77.785692115994237 0 77.785692115994237 -147.76634856850546 0 0 0 0 24.241732115129707 49.87591442306416 0 49.87591442306416 -106.7878709292994 0 0 0 0 41.957419119251426 45.341962291352957 0 45.341962291352957 -156.12036069934089 0 0 0 0 52.34090914943954 18.405696446641059 0 18.405696446641059 -134.15682172195943 0 0 0 0 61.168138033943251 19.760100455469797 0 19.760100455469797 -161.91224862205115 0 0 0 0 70.305865154834464 27.208218076234829 0 27.208218076234829 -164.99227683514698 0 0 0 0 45.188966011162847 27.35265091292003 0 27.35265091292003 -158.02226827246278 0 0 0 0 48.898173790643341 67.75076845318516 0 67.75076845318516 -212.97184574260132 0 0 0 0 30.027472431887873 57.65025101342485 0 57.65025101342485 -167.89025855056261 0 0 0 0 59.697549718388473 48.957657811861637 0 48.957657811861637 -184.63225338293512 0 0 0 0 53.418341211276129 31.05108763798885 0 31.05108763798885 -213.13015351002309 0 0 0 0 40.468873257254018 77.360035904290811 0 77.360035904290811 -243.39738570216286 0 0 0 0 -25.508911541313864 429.3953808781996 0 429.3953808781996 -232.42006402553838 0 0 0 0 40.798229189386916 8.4935027346866647 0 8.4935027346866647 0.10926640242147284 0 0 0 0 -127.82660848263185 183.74651831364554 0 183.74651831364554 76.761082252310189 0 0 0 0 7.3690026800352371 2.2044296387652764 0 2.2044296387652764 0.542133304902503 0 0 0 0 280.92644408333581 206.03416717869277 0 206.03416717869277 -426.4793297172555 0 0 0 0 46.546314731589518 41.196058210067513 0 41.196058210067513 -223.95229746451957 0 0 0 0 34.446003550256137 31.542612057617589 0 31.542612057617589 -231.10975037400959 0 0 0 0 41.409569540192479 60.907946792781686 0 60.907946792781686 -236.96907290754768 0 0 0 0 41.264922237431165 55.641910896408874 0 55.641910896408874 -198.79239932244894 0 0 0 0 -577.16971846809611 1091.0551080960122 0 1091.0551080960122 655.48682552460014 0 0 0 0 94.837635627103737 145.63682825285736 0 145.63682825285736 -96.628652925193819 0 0 0 0 325.90040462999605 272.37417823150781 0 272.37417823150781 -348.69657959278175 0 0 0 0 -22.182306971284561 37.722517955541775 0 37.722517955541775 -246.24540420558759 0 0 0 0 24.428262239787728 43.44067054072751 0 43.44067054072751 -251.52516525007292 0 0 0 0 33.15087951762689 39.436350761829331 0 39.436350761829331 -248.80376212878153 0 0 0 0 -20.904037936939858 52.936208937405581 0 52.936208937405581 -245.31591803056057 0 0 0 0 -32.281131408468354 35.499510212546966 0 35.499510212546966 -235.18535656680791 0 0 0 0 -6.1431371997459792 68.525914734555698 0 68.525914734555698 -290.57080748864979 0 0 0 0 -6.7893403504276648 -46.614222784647062 0 -46.614222784647062 -101.58160144585501 0 0 0 0 44.988359579379903 16.331480533707577 0 16.331480533707577 -258.49008008632796 0 0 0 0 54.948329615610419 22.596497524406555 0 22.596497524406555 -181.74139813087871 0 0 0 0 32.71286640175822 2.3133570336271632 0 2.3133570336271632 -194.66951024888249 0 0 0 0 2.8431548986627604 -48.679102275819154 0 -48.679102275819154 -103.6578831744002 0 0 0 0 96.184488871745998 -14.960304081735202 0 -14.960304081735202 -111.60087661575656 0 0 0 0 13.481519251574355 -3.5559217313492359 0 -3.5559217313492359 -0.24181149601277951 0 0 0 0 53.412637017681845 10.57770312487974 0 10.57770312487974 -102.91636870744269 0 0 0 0 64.338498383105616 -0.35051427460112627 0 -0.35051427460112627 -185.36369127931437 0 0 0 0 92.457860285096103 25.601723673111621 0 25.601723673111621 -162.84424295483626 0 0 0 0 77.0896532106417 -48.370494282774423 0 -48.370494282774423 -27.116715352877407 0 0 0 0 900.58617932125344 -286.23256183015383 0 -286.23256183015383 -191.13825074716291 0 0 0 0 323.73536192630127 65.651990640440332 0 65.651990640440332 0.28073786051371202 0 0 0 0 1.8372526432711709 -1.3035737740231923 0 -1.3035737740231923 -0.18184987109739059 0 0 0 0 117.24102940177545 24.178195729645523 0 24.178195729645523 -119.08795857281915 0 0 0 0 -43.847153802053072 -409.22318212720029 0 -409.22318212720029 -194.6219662208766 0 0 0 0 7.5708750721578326 0.52944446040305593 0 0.52944446040305593 -1.5625631284083279 0 0 0 0 231.88742870015267 -275.81592859371199 0 -275.81592859371199 278.9821993935052 0 0 0 0 445.70812155868043 370.30536891988606 0 370.30536891988606 -32.467788309796774 0 0 0 0 88.801119054478477 -19.006716308741545 0 -19.006716308741545 -170.67099850571441 0 0 0 0 15.89547693602799 -51.623073732964826 0 -51.623073732964826 -160.79082812891843 0 0 0 0 43.517261779139517 -7.2023881466303123 0 -7.2023881466303123 -120.60717034067915 0 0 0 0 50.250348602363374 10.066937440122274 0 10.066937440122274 -157.54088090114465 0 0 0 0 34.093828769209267 8.4079259630242333 0 8.4079259630242333 -3.249893141600487 0 0 0 0 27.156862810574239 3.6943921907310937 0 3.6943921907310937 -92.195946657919578 0 0 0 0 -26.265425015473738 88.820235082111296 0 88.820235082111296 -75.683333848748475 0 0 0 0 51.054889957536943 19.416147849610297 0 19.416147849610297 -103.82841592727488 0 0 0 0 -18.167908771996736 2.3516850434673415 0 2.3516850434673415 -24.65698399419307 0 0 0 0 22.488299386157991 30.755062308048494 0 30.755062308048494 -4.5365460683525134 0 0 0 0 -181.64533644600306 229.3074437813566 0 229.3074437813566 -98.736877588906736 0 0 0 0 28.780009886575442 20.394890244199118 0 20.394890244199118 2.9077653037880964 0 0 0 0 -3.51746579393091 3.1263632516580557 0 3.1263632516580557 1.1324923991436022 0 0 0 0 -297.29338876974361 236.67099316937924 0 236.67099316937924 291.18692480922618 0 0 0 0 588.80164971147315 -424.28347672171026 0 -424.28347672171026 68.854615646698903 0 0 0 0 1199.8126250207715 172.14227768535022 0 172.14227768535022 88.702913148558764 0 0 0 0 -131.26468502258649 230.36752150445818 0 230.36752150445818 -146.93762317648122 0 0 0 0 154.55012389162221 67.544005466829674 0 67.544005466829674 6.2612480443203822 0 0 0 0 167.92701232482796 30.839008720514357 0 30.839008720514357 -38.81332046268335 0 0 0 0 321.71423679665895 1.1762580045005961 0 1.1762580045005961 -44.141910107090553 0 0 0 0 404.63705243394725 54.580194231011092 0 54.580194231011092 -117.61041112294151 0 0 0 0 323.92915137122327 71.590538537834163 0 71.590538537834163 -87.385623274992213 0 0 0 0 310.29961308397469 81.783455793110534 0 81.783455793110534 -72.245415114181469 0 0 0 0 362.00031092918653 110.83860302381663 0 110.83860302381663 -50.254233590916101 0 0 0 0 285.5312524135694 80.030187318305849 0 80.030187318305849 -26.972051524345261 0 0 0 0 285.54813227948773 78.354035476090488 0 78.354035476090488 -59.685382526158719 0 0 0 0 173.94536173017696 99.08491520778216 0 99.08491520778216 -4.3459220239892602 0 0 0 0 173.04115108182305 91.298725629715591 0 91.298725629715591 28.22620209948127 0 0 0 0 42.495258946408285 70.78750054650618 0 70.78750054650618 59.707790776116326 0 0 0 0 111.21018492979056 53.527750030671996 0 53.527750030671996 8.6832994782180322 0 0 0 0 45.634422521528904 82.39974387727483 0 82.39974387727483 51.523231291066622 0 0 0 0 40.820068928529508 65.532987152933629 0 65.532987152933629 27.655803644353455 0 0 0 0 27.69068649673136 36.987423933147966 0 36.987423933147966 19.095855376954887 0 0 0 0 -4.213756574187812 23.17750204659427 0 23.17750204659427 10.351365402518752 0 0 0 0 52.67019612726088 37.995733868633224 0 37.995733868633224 20.342684353346137 0 0 0 0 35.02641070514801 -33.160486659365233 0 -33.160486659365233 -135.15254121049384 0 0 0 0 16.84025335570368 100.39847967757305 0 100.39847967757305 20.583835461353374 0 0 0 0 54.891322543553542 11.0993644504847 0 11.0993644504847 -19.40700712182479 0 0 0 0 71.376577489252668 231.39891054989448 0 231.39891054989448 -325.97703143153922 0 0 0 0 37.810008974382612 22.207287821259364 0 22.207287821259364 13.071212867772978 0 0 0 0 125.44282500363261 9.5976058118584433 0 9.5976058118584433 -180.25767757261201 0 0 0 0 -5.8425597801397089 7.8400124877780399 0 7.8400124877780399 -144.55222339712282 0 0 0 0 165.05537350657687 43.146237129967631 0 43.146237129967631 16.068547553652024 0 0 0 0 143.28838211120456 -124.38786243204459 0 -124.38786243204459 -27.312120818274707 0 0 0 0 368.06776790693766 121.75498646991605 0 121.75498646991605 -306.9665416613625 0 0 0 0 -102.9312362944911 101.40153852353706 0 101.40153852353706 193.46050996981967 0 0 0 0 105.95736649766513 0.46440230266006211 0 0.46440230266006211 13.899420863149317 0 0 0 0 122.45486171254015 83.658726169406236 0 83.658726169406236 -44.518952380238488 0 0 0 0 379.39876534746145 -123.77650842502226 0 -123.77650842502226 48.579774815137171 0 0 0 0 674.8226599615009 51.022970520298259 0 51.022970520298259 -147.11125310524312 0 0 0 0 558.78528847362031 276.75618390021668 0 276.75618390021668 -84.656682836159234 0 0 0 0 1810.9202166420873 -257.54224746992986 0 -257.54224746992986 313.92610778240487 0 0 0 0 1684.4503788526781 1129.6434201854308 0 1129.6434201854308 -701.21469605777384 0 0 0 0 1250.528678719711 -436.11863730239384 0 -436.11863730239384 5.5283190700457681 0 0 0 0 45.480101636574545 482.5188689850803 0 482.5188689850803 93.18820986755145 0 0 0 0 24.047989736788281 -5.9037586235220516 0 -5.9037586235220516 0.14639917358592136 0 0 0 0 12.591760865691981 8.48582290846376 0 8.48582290846376 5.9306328675617124 0 0 0 0 177.6123373319133 139.8741125839274 0 139.8741125839274 102.61889174371663 0 0 0 0 52.253574309521355 40.860964830786543 0 40.860964830786543 43.506762260725282 0 0 0 0 21.126020106678652 -7.7708584006678478 0 -7.7708584006678478 2.4069989980764053 0 0 0 0 -412.1522135627456 -204.2020204272194 0 -204.2020204272194 -120.06600140925184 0 0 0 0 -1258.370211109519 680.1247635979048 0 680.1247635979048 417.52773048407835 0 0 0 0 55.037733583012596 2589.6254019525895 0 2589.6254019525895 -146.59574568012385 0 0 0 0 99.765344039435149 88.281793106559235 0 88.281793106559235 90.448283695272949 0 0 0 0 182.32196298435156 78.523750026878588 0 78.523750026878588 30.841679197612393 0 0 0 0 214.69031130944131 38.195083755396467 0 38.195083755396467 67.090006411005561 0 0 0 0 243.32845799146162 92.305463068155404 0 92.305463068155404 30.637022758096855 0 0 0 0 -8.8891089446115075 -72.047483782415384 0 -72.047483782415384 37.628612105108914 0 0 0 0 28.509878227006993 62.663244575124281 0 62.663244575124281 -17.29218235744338 0 0 0 0 69.542613455443643 -4.130545435104068 0 -4.130545435104068 -160.89541186543784 0 0 0 0 58.772831644513644 121.64211753123072 0 121.64211753123072 16.900767237842956 0 0 0 0 160.70182467269478 106.46048621926184 0 106.46048621926184 -25.426390781780356 0 0 0 0 184.5692854685476 243.05331218252377 0 243.05331218252377 -56.448203639709391 0 0 0 0 74.980064749048324 345.53706010539645 0 345.53706010539645 9.5178835869573959 0 0 0 0 367.91990280698519 380.15930555189607 0 380.15930555189607 7.2852832051703444 0 0 0 0 -53.199406866260688 4.5972043964220575 0 4.5972043964220575 -54.460408273786015 0 0 0 0 78.518779488833388 49.44309609980337 0 49.44309609980337 -126.16900078540311 0 0 0 0 3.439846650333493 -12.497429445475518 0 -12.497429445475518 48.49093876372217 0 0 0 0 13.999522316497064 -12.4725436410111 0 -12.4725436410111 -2.9900381876059612 0 0 0 0 48.535542656049074 -63.278291680953998 0 -63.278291680953998 38.026533210804701 0 0 0 0 187.27486884221435 64.00967954098769 0 64.00967954098769 -28.715114725212516 0 0 0 0 179.33350729708036 68.372784579032668 0 68.372784579032668 42.091362607729025 0 0 0 0 136.18751216627425 -195.56348385239198 0 -195.56348385239198 -14.243386708265461 0 0 0 0 155.10040032237885 467.50371781821332 0 467.50371781821332 410.68960039379681 0 0 0 0 822.34785414604266 -111.01250080947693 0 -111.01250080947693 -307.26637715530524 0 0 0 0 -3.2304781491257586 -1.8587766078680588 0 -1.8587766078680588 0.44958219168531688 0 0 0 0 6.9585110134042338 -2.5068255029111981 0 -2.5068255029111981 1.174878131297076 0 0 0 0 -431.01279317511944 -189.80713183337048 0 -189.80713183337048 320.07340947502144 0 0 0 0 4.5139321538671595 0.21089453971666217 0 0.21089453971666217 -1.8518822378387512 0 0 0 0 178.9397508163529 292.75660366916782 0 292.75660366916782 184.39051445466293 0 0 0 0 186.6985478651186 187.92491428997937 0 187.92491428997937 37.497000828911496 0 0 0 0 -133.32665148963861 136.61861975209581 0 136.61861975209581 132.3347359888885 0 0 0 0 180.07916932707303 54.371298996147743 0 54.371298996147743 -55.495215196162462 0 0 0 0 593.04398305949871 134.30399822031995 0 134.30399822031995 -47.353155962561686 0 0 0 0 428.96358744330792 -191.55092400517151 0 -191.55092400517151 -53.114030989376261 0 0 0 0 213.73380470921984 -92.911944527126252 0 -92.911944527126252 -21.865445209412428 0 0 0 0 230.54129261229536 -89.641421229344814 0 -89.641421229344814 -21.50400423080157 0 0 0 0 248.05013807551586 -83.775117288033698 0 -83.775117288033698 -30.257860793127293 0 0 0 0 202.50512879670714 -33.654052397454961 0 -33.654052397454961 -56.078863218943752 0 0 0 0 197.53355646205091 47.876313504259201 0 47.876313504259201 -53.415385491816778 0 0 0 0 10.622133598051732 133.01165322402403 0 133.01165322402403 -32.429708737439796 0 0 0 0 18.63807057775557 105.90950342703218 0 105.90950342703218 -58.678831954201087 0 0 0 0 28.784232004310951 20.761978730270926 0 20.761978730270926 7.128045899732725 0 0 0 0 114.21091269388853 25.315720046200113 0 25.315720046200113 -2.3917694612637206 0 0 0 0 -49.648609550698893 55.578334589396491 0 55.578334589396491 -6.3840113567790127 0 0 0 0 -6.5275290351710282 101.75812134820353 0 101.75812134820353 -0.059717535761592444 0 0 0 0 68.682386104039324 152.53849611159262 0 152.53849611159262 -24.590910868868377 0 0 0 0 233.94417339692882 20.092336347992841 0 20.092336347992841 -18.658011644829003 0 0 0 0 313.10616290845792 73.037995407088601 0 73.037995407088601 -56.053714703933565 0 0 0 0 374.4518963453811 181.99810299585783 0 181.99810299585783 -80.130698921835574 0 0 0 0 235.93443894153461 97.998195992669935 0 97.998195992669935 -63.646154263673452 0 0 0 0 205.06858069984446 118.5186153112129 0 118.5186153112129 -23.331939704790784 0 0 0 0 137.52919371757162 13.39854104790993 0 13.39854104790993 0.32422390225474373 0 0 0 0 181.79953477800882 -65.154571319333627 0 -65.154571319333627 -9.5923797092191307 0 0 0 0 209.30799066464533 -92.137518747037575 0 -92.137518747037575 16.328423627948268 0 0 0 0 328.83470392866002 -59.541924162098894 0 -59.541924162098894 -36.070231294143127 0 0 0 0 220.83405245844915 -66.330098348499064 0 -66.330098348499064 -30.238093174326423 0 0 0 0 369.15299291867996 22.368643881776734 0 22.368643881776734 -60.232322614059996 0 0 0 0 240.76426140208787 28.443309509876599 0 28.443309509876599 -60.239544145978471 0 0 0 0 630.87301980081247 0.10694100462899314 0 0.10694100462899314 -80.626712975910905 0 0 0 0 319.87115578199155 -18.591605712853379 0 -18.591605712853379 -81.46211291239706 0 0 0 0 237.71941595315002 -101.30429073020559 0 -101.30429073020559 -1.6656318932041358 0 0 0 0 165.4203720759906 -25.467943596386704 0 -25.467943596386704 12.115999516304328 0 0 0 0 339.48518943468662 -208.08192944076018 0 -208.08192944076018 102.41379248520616 0 0 0 0 492.08493423767504 194.97219692986903 0 194.97219692986903 4.4787087346662702 0 0 0 0 1082.2921693955868 -332.21644015566619 0 -332.21644015566619 115.07467345341151 0 0 0 0 674.85381229773338 122.58113580388942 0 122.58113580388942 19.224510145039858 0 0 0 0 149.50723147363169 89.038727551076818 0 89.038727551076818 -168.38999753009603 0 0 0 0 113.56342312812922 -65.034662567212308 0 -65.034662567212308 -30.247766100646004 0 0 0 0 174.56858323838969 -17.373268367511628 0 -17.373268367511628 -39.48580388033588 0 0 0 0 24.430777635318293 14.078771723411606 0 14.078771723411606 7.0666050514253502 0 0 0 0 108.73109124008624 88.810435752659089 0 88.810435752659089 -539.29613107070361 0 0 0 0 -0.73626500216718682 -1.4749011838205774 0 -1.4749011838205774 -5.5790880858824252 0 0 0 0 -327.08296045290626 446.68906028751849 0 446.68906028751849 -87.325491652779931 0 0 0 0 82.149260728125228 -207.08826901332441 0 -207.08826901332441 28.051795291262536 0 0 0 0 381.72983213466068 304.63875273355717 0 304.63875273355717 -535.09561635376224 0 0 0 0 380.89770891236549 -413.34267007835035 0 -413.34267007835035 -312.09398263736625 0 0 0 0 -226.3636658557225 -112.12628285787913 0 -112.12628285787913 238.3961763339646 0 0 0 0 249.22423033149971 -65.636508869566484 0 -65.636508869566484 -454.82863693604685 0 0 0 0 209.48495589740196 -11.993595769653936 0 -11.993595769653936 589.35369173787421 0 0 0 0 358.18388340063029 -165.44218344600282 0 -165.44218344600282 235.55099722134923 0 0 0 0 436.53372080135159 -240.89165692934753 0 -240.89165692934753 1.0951960189565608 0 0 0 0 1265.869160402428 449.77407380398807 0 449.77407380398807 67.160826144442581 0 0 0 0 39.817850440536859 922.96367409502602 0 922.96367409502602 134.90720601726241 0 0 0 0 440.25824654127064 1024.2330678385733 0 1024.2330678385733 149.77784273994581 0 0 0 0 -279.60649979625305 240.12064609494206 0 240.12064609494206 50.610073975855641 0 0 0 0 9.7951379408613661 5.8457048121391608 0 5.8457048121391608 2.7883283308069817 0 0 0 0 535.21206586989865 164.1108792196064 0 164.1108792196064 -269.36109560065523 0 0 0 0 1097.3263267353177 564.25636913241112 0 564.25636913241112 0.030295584296417034 0 0 0 0 1023.3075639205344 243.79358614932949 0 243.79358614932949 8.4908069569781901 0 0 0 0 8.7307317118296055 2.3019555292873006 0 2.3019555292873006 0.11004086034850646 0 0 0 0 -211.1531552238157 -11.310707185727805 0 -11.310707185727805 -0.39091024606033298 0 0 0 0 557.9019748835708 739.42976139499808 0 739.42976139499808 432.34710961466834 0 0 0 0 -116.83467973795632 -315.19713204684558 0 -315.19713204684558 854.01614722433055 0 0 0 0 17.683023534513552 0.8770141570339739 0 0.8770141570339739 -0.44429799743471093 0 0 0 0 19.658409685594961 -183.01338707193099 0 -183.01338707193099 -281.66717067163199 0 0 0 0 -74.758564783260226 24.420236243463442 0 24.420236243463442 -0.0029905218783010667 0 0 0 0 19.818618200020865 -0.17528408732604106 0 -0.17528408732604106 -4.0594851681926611 0 0 0 0 161.87942020507762 -309.91186335219481 0 -309.91186335219481 -209.73004823263807 0 0 0 0 44.414781899919035 -10.321875944775401 0 -10.321875944775401 0.096670427678012372 0 0 0 0 -8.8185301951016299 -2.6088513766099619 0 -2.6088513766099619 7.3014962024991652 0 0 0 0 1.4894906809728354 3.0181788748996397 0 3.0181788748996397 -0.46288553179458342 0 0 0 0 -36.174161014438141 68.656715429740302 0 68.656715429740302 68.903941959222493 0 0 0 0 -253.57358675744035 -187.19145088746515 0 -187.19145088746515 157.93653755332298 0 0 0 0 -1.3959690331844854 0.57283641918058947 0 0.57283641918058947 -0.80624598593673813 0 0 0 0 31.253476944053546 61.612441465630468 0 61.612441465630468 67.794421494485078 0 0 0 0 -90.048427489979076 179.28051155345679 0 179.28051155345679 469.55767212552826 0 0 0 0 473.60650206479477 710.23829350227629 0 710.23829350227629 893.06034930696296 0 0 0 0 122.93102634059323 105.77369675672213 0 105.77369675672213 277.04654778892973 0 0 0 0 405.86518964788411 440.66981259248803 0 440.66981259248803 312.46507494974816 0 0 0 0 253.22805153799709 271.4550434703358 0 271.4550434703358 112.43790446677053 0 0 0 0 145.23441858227307 147.7190284742295 0 147.7190284742295 104.02605999405387 0 0 0 0 -16.187829295377014 185.38468719072307 0 185.38468719072307 107.85260945446885 0 0 0 0 132.04807262690156 178.60908288851942 0 178.60908288851942 32.392750131827597 0 0 0 0 154.53368634059734 148.96409563454972 0 148.96409563454972 50.664882157028387 0 0 0 0 126.53278167737153 172.12659229399924 0 172.12659229399924 61.993966381038717 0 0 0 0 90.045323647063924 77.591038644284708 0 77.591038644284708 66.516346016346688 0 0 0 0 68.629015048398287 89.917767285500418 0 89.917767285500418 78.883895313475477 0 0 0 0 285.45859691410442 135.32917583269523 0 135.32917583269523 5.5586192727225807 0 0 0 0 284.17318809725111 127.558579389746 0 127.558579389746 -25.23091840860161 0 0 0 0 454.53187464278017 151.22189046538836 0 151.22189046538836 -25.415663978199973 0 0 0 0 23.75847821442585 29.862259656074457 0 29.862259656074457 25.753167028864482 0 0 0 0 27.301205511554144 28.280511650707922 0 28.280511650707922 16.784098574360542 0 0 0 0 -14.875192414313631 7.524374793620126 0 7.524374793620126 15.580895677079551 0 0 0 0 20.335610564769013 76.925820324469441 0 76.925820324469441 140.35172486751981 0 0 0 0 85.5889047679957 112.08629989032602 0 112.08629989032602 29.390465728078198 0 0 0 0 8.8342840970144607 38.388217800412804 0 38.388217800412804 63.798216156237686 0 0 0 0 88.230647501914063 73.486649254402892 0 73.486649254402892 57.249384874023235 0 0 0 0 -5.0797345534715532 2.3626242258651331 0 2.3626242258651331 5.76527751767048 0 0 0 0 -70.861246088697953 25.869758851178517 0 25.869758851178517 57.004847130514008 0 0 0 0 -1.4614260606387859 6.2651130156927763 0 6.2651130156927763 0.50449702111619565 0 0 0 0 8.8031549655715935 18.599354738939553 0 18.599354738939553 26.99119913791867 0 0 0 0 17.523685724998359 33.797883723737868 0 33.797883723737868 12.65883129574604 0 0 0 0 17.864732136658233 22.790858959356328 0 22.790858959356328 19.868017079299211 0 0 0 0 17.251985220194911 38.066175509804182 0 38.066175509804182 19.932722577285062 0 0 0 0 23.189456247040653 28.293544689680857 0 28.293544689680857 26.0710368076343 0 0 0 0 33.230938700959086 27.182525150705942 0 27.182525150705942 22.514004983396148 0 0 0 0 7.8572868239716627 7.4670778605570831 0 7.4670778605570831 17.962834330512123 0 0 0 0 21.380998875276418 36.874438233159822 0 36.874438233159822 61.613219059059134 0 0 0 0 28.102172742132097 24.097542275738363 0 24.097542275738363 31.368475740495342 0 0 0 0 18.909303433611058 36.003782943146291 0 36.003782943146291 39.331187061025048 0 0 0 0 22.400935732221114 20.898944955758367 0 20.898944955758367 55.514082588381484 0 0 0 0 28.881882236950332 22.510043295544847 0 22.510043295544847 26.043468160300804 0 0 0 0 27.749773381425257 37.359954775369985 0 37.359954775369985 44.940710995139284 0 0 0 0 32.00650258755195 21.544248368629269 0 21.544248368629269 58.546328132055237 0 0 0 0 30.731383674661629 1.3506041855090776 0 1.3506041855090776 1.5741924166810284 0 0 0 0 -20.39218678890029 -11.72982932886813 0 -11.72982932886813 19.63903380659227 0 0 0 0 0.74416208083039237 -1.4301215872836419 0 -1.4301215872836419 -0.30172907919364467 0 0 0 0 17.42458815630232 1.2770297560235804 0 1.2770297560235804 1.0579243801380969 0 0 0 0 9.4746261998225236 24.031130678504269 0 24.031130678504269 76.908853469437986 0 0 0 0 -108.70962108275853 -59.69047130884092 0 -59.69047130884092 -0.16472085357726363 0 0 0 0 8.4720664832650527 -0.89640061581887664 0 -0.89640061581887664 -0.52126050219617248 0 0 0 0 44.681449727009749 -0.37859641225757501 0 -0.37859641225757501 -0.019083566455892761 0 0 0 0 12.298311493628773 1.9119089605836521 0 1.9119089605836521 -1.8043709392540999 0 0 0 0 6.8251399359805305 -2.5047866353875889 0 -2.5047866353875889 2.5598153711797922 0 0 0 0 11.740359179093502 5.6283344618823321 0 5.6283344618823321 18.502533286609832 0 0 0 0 49.508536671492038 -11.702771630772711 0 -11.702771630772711 -44.789840487851464 0 0 0 0 168.06915211206069 48.389242131330981 0 48.389242131330981 -25.229598678514709 0 0 0 0 -2.8126904267119244 -5.2708080994036344 0 -5.2708080994036344 4.7835837617356338 0 0 0 0 9.0582509985397337 4.3001492697320041 0 4.3001492697320041 7.6892672239723785 0 0 0 0 -15.092973783379421 5.1816084243728859 0 5.1816084243728859 7.6669815601300355 0 0 0 0 29.853872410662007 10.334107168776473 0 10.334107168776473 -1.9042672880568423 0 0 0 0 3.5570717145456001 21.995888962306765 0 21.995888962306765 -5.1298285119335105 0 0 0 0 4.3557306179864099 10.047557506473046 0 10.047557506473046 3.3839581630603179 0 0 0 0 24.793423010763945 13.519014790765603 0 13.519014790765603 0.019172235048388355 0 0 0 0 41.317547092374298 -3.8005909220240603 0 -3.8005909220240603 -13.058370904337792 0 0 0 0 3.9623627094894402 0.091366987393371346 0 0.091366987393371346 -0.36495286516334258 0 0 0 0 13.835320014113677 7.3837219485752739 0 7.3837219485752739 -2.5454028931483146 0 0 0 0 34.478137594123837 22.289920644334114 0 22.289920644334114 -2.2408736543048384 0 0 0 0 3.8518945984542086 1.6574607350781037 0 1.6574607350781037 0.59173560031280859 0 0 0 0 11.729741740571626 5.6322692872873859 0 5.6322692872873859 13.247553217767518 0 0 0 0 18.952941686846316 3.9455981646172242 0 3.9455981646172242 8.4292824462970977 0 0 0 0 26.493272138497559 13.125901090822369 0 13.125901090822369 -8.6959907457649521 0 0 0 0 7.830240247581969 -4.1626500617438378 0 -4.1626500617438378 7.965831941704522 0 0 0 0 16.208473993777545 4.3348863857322613 0 4.3348863857322613 0.85299659617032209 0 0 0 0 17.162639653292075 9.0485432499643821 0 9.0485432499643821 2.5207552991755562 0 0 0 0 12.356308756949147 5.2244271059707899 0 5.2244271059707899 -4.2635866108521441 0 0 0 0 26.03322971287848 4.5904040435456466 0 4.5904040435456466 -3.9285184808070364 0 0 0 0 8.2435185882786755 7.3732999614762775 0 7.3732999614762775 -10.56219620056072 0 0 0 0 21.957112182427522 8.1007048401999242 0 8.1007048401999242 0.51932592708849157 0 0 0 0 7.3425635154962947 9.2027978095717415 0 9.2027978095717415 9.1639134612876383 0 0 0 0 36.623668462736532 12.097545247994276 0 12.097545247994276 8.9228356002131477 0 0 0 0 11.930858811363578 6.0018070249930133 0 6.0018070249930133 -1.2298268725498929 0 0 0 0 6.6683050183346495 0.31411971432498831 0 0.31411971432498831 -4.738326837630666 0 0 0 0 14.430074634534776 -3.1498060627302635 0 -3.1498060627302635 -6.5647857588474237 0 0 0 0 20.250027843909322 4.9047988967428608 0 4.9047988967428608 6.1055240348129924 0 0 0 0 29.931846488437088 16.051016739994736 0 16.051016739994736 4.967864755244138 0 0 0 0 32.356745203200262 9.6588013669143038 0 9.6588013669143038 8.0089175555040129 0 0 0 0 31.723289473768091 11.89315764353023 0 11.89315764353023 1.1761564289663511 0 0 0 0 19.163231900898595 7.0425147506953749 0 7.0425147506953749 1.0003035348177196 0 0 0 0 13.02987657193097 6.1819574697323105 0 6.1819574697323105 4.7067591027112918 0 0 0 0 18.352897061849944 10.503145241659695 0 10.503145241659695 1.3016662353393258 0 0 0 0 6.1064108621366131 0.65124764773572963 0 0.65124764773572963 4.8194560747787936 0 0 0 0 19.192952023004182 30.463372309009173 0 30.463372309009173 37.980599755340108 0 0 0 0 17.802615011634771 5.7326393660007398 0 5.7326393660007398 14.363151234829729 0 0 0 0 16.035036525951284 3.1667872353541568 0 3.1667872353541568 0.18314990777613713 0 0 0 0 15.669287473152508 8.5649713125121707 0 8.5649713125121707 10.69795228970338 0 0 0 0 24.067737622623099 32.710250178386218 0 32.710250178386218 19.420435268986239 0 0 0 0 224.40397828043206 -129.397401301391 0 -129.397401301391 49.088209417006681 0 0 0 0 1.1428289843904622 0.53130316270343769 0 0.53130316270343769 0.45548573396302733 0 0 0 0 339.24310015362425 67.427069815034258 0 67.427069815034258 -179.98765993831319 0 0 0 0 -1.7577392975072144 9.8662037323025658 0 9.8662037323025658 -0.0012235995486513454 0 0 0 0 29.182683855004143 11.184065442701787 0 11.184065442701787 -15.018074516274293 0 0 0 0 6.910432039524153 -0.029329717197654759 0 -0.029329717197654759 -2.4998692525916 0 0 0 0 38.913479603565065 4.6375498589465032 0 4.6375498589465032 -16.438696822873077 0 0 0 0 44.015190197475022 -21.824884770086499 0 -21.824884770086499 -28.650438041136113 0 0 0 0 30.51820024736827 7.3054461609686427 0 7.3054461609686427 -3.9337764861214133 0 0 0 0 32.009361964606796 18.509697445037091 0 18.509697445037091 17.95095110137504 0 0 0 0 4.3093816414475441 -15.127922664715406 0 -15.127922664715406 5.5317372641292764 0 0 0 0 17.055215441035187 6.9340673355634124 0 6.9340673355634124 5.2658854195550795 0 0 0 0 35.749301029893104 15.861143946109564 0 15.861143946109564 0.68302173634128849 0 0 0 0 50.172967380088153 10.103463820582867 0 10.103463820582867 -1.6035884865666821 0 0 0 0 38.657197742781136 -23.012917450202679 0 -23.012917450202679 18.472501229602074 0 0 0 0 124.9968171203509 54.890806369413269 0 54.890806369413269 -33.0831542895138 0 0 0 0 28.002266744391818 14.500733880513053 0 14.500733880513053 -4.310986994490122 0 0 0 0 22.664269223113422 7.4887960272275151 0 7.4887960272275151 0.10454011983629385 0 0 0 0 43.766724056011299 13.399126340670136 0 13.399126340670136 2.1349026112857246 0 0 0 0 29.877290227615561 14.03539417597448 0 14.03539417597448 1.2128397313123171 0 0 0 0 27.192683983987081 25.23971645065194 0 25.23971645065194 -13.284758187603188 0 0 0 0 32.413403864979045 18.618351351018191 0 18.618351351018191 15.599064124384313 0 0 0 0 15.532046148647169 8.9887340298583069 0 8.9887340298583069 -0.89347655830016137 0 0 0 0 25.085897426039139 11.149899230060257 0 11.149899230060257 2.7008720509649393 0 0 0 0 21.980079296266354 8.9370254363689554 0 8.9370254363689554 -3.0521908388547794 0 0 0 0 35.937492288360573 26.712051044795452 0 26.712051044795452 15.920831162532632 0 0 0 0 91.263560831488576 85.654030016556135 0 85.654030016556135 -124.41459988724273 0 0 0 0 21.495485664746496 2.7911187046302359 0 2.7911187046302359 -22.339899768314744 0 0 0 0 36.043861521888175 23.727136860862629 0 23.727136860862629 -13.849548413632874 0 0 0 0 31.080546638077067 -1.5620264185645283 0 -1.5620264185645283 -39.654616626012285 0 0 0 0 15.189978893380612 14.176144230255886 0 14.176144230255886 -13.82306421054659 0 0 0 0 4.4064511683806131 3.0340479821904012 0 3.0340479821904012 -4.0422405072077652 0 0 0 0 46.685870164488733 5.1416507618450851 0 5.1416507618450851 -11.771939444428426 0 0 0 0 46.087821533277747 22.201538354950571 0 22.201538354950571 -25.993358414487375 0 0 0 0 22.690168336419447 28.522211071962829 0 28.522211071962829 35.868688263253716 0 0 0 0 0.39732947660996842 9.357197926384405 0 9.357197926384405 7.5795854439770896 0 0 0 0 17.211507001791006 10.619401669973456 0 10.619401669973456 4.7937502992847207 0 0 0 0 16.25808130481164 10.605512526051825 0 10.605512526051825 2.9031588670450219 0 0 0 0 38.448172661483113 20.934456974734985 0 20.934456974734985 6.6362455597900407 0 0 0 0 19.898732696020886 13.877727724896738 0 13.877727724896738 7.0480260444701059 0 0 0 0 10.002806557458825 10.935751692144549 0 10.935751692144549 6.401893706228293 0 0 0 0 15.228517351743335 12.639182001155049 0 12.639182001155049 10.407324763426594 0 0 0 0 24.284803335642209 13.670473875119569 0 13.670473875119569 7.7016030867300174 0 0 0 0 23.259689339261968 17.590760907855838 0 17.590760907855838 20.655082678640611 0 0 0 0 14.123258621852017 12.058170170643223 0 12.058170170643223 8.9364037613386316 0 0 0 0 31.739636156378253 13.348147677927471 0 13.348147677927471 -3.3846287641060897 0 0 0 0 7.1684976538526826 5.8474366432210445 0 5.8474366432210445 -2.9327400735201081 0 0 0 0 18.65191267182712 6.2302590301668275 0 6.2302590301668275 -2.5740800696834807 0 0 0 0 32.345983109378722 15.883111207444017 0 15.883111207444017 1.5864841452757901 0 0 0 0 17.703219354269095 2.184044298457593 0 2.184044298457593 -5.4256623567343922 0 0 0 0 63.798618705070112 48.050490234800236 0 48.050490234800236 33.779084520007018 0 0 0 0 8.5678635936118184 3.2819981123070079 0 3.2819981123070079 -2.6902496098505893 0 0 0 0 46.46116972395248 18.682486641507694 0 18.682486641507694 10.181749545053208 0 0 0 0 28.194019258895423 45.910583994558692 0 45.910583994558692 13.545640592433415 0 0 0 0 39.573710893229872 27.614554967125059 0 27.614554967125059 0.99913157641913131 0 0 0 0 28.684648701746482 15.119892660796722 0 15.119892660796722 34.815995598545555 0 0 0 0 26.748631544032833 22.707259543516784 0 22.707259543516784 21.80223992329411 0 0 0 0 28.671786555234576 25.860788206728103 0 25.860788206728103 20.984937867494182 0 0 0 0 32.633134672564353 30.409160980122181 0 30.409160980122181 22.619261014391761 0 0 0 0 31.748460061262449 41.303467682328233 0 41.303467682328233 0.040559588481301034 0 0 0 0 52.423683932882341 45.184362011543499 0 45.184362011543499 -174.81611413567589 0 0 0 0 -498.41999210458016 40.18248648205099 0 40.18248648205099 105.94959074677081 0 0 0 0 11.32550225628799 8.8862056210307117 0 8.8862056210307117 -0.44502238284760409 0 0 0 0 -85.487230879662093 130.75002571377991 0 130.75002571377991 -35.518418863692204 0 0 0 0 617.92587783519411 257.72294711394534 0 257.72294711394534 -102.80647301386671 0 0 0 0 -35.428882344924205 236.80843332718405 0 236.80843332718405 -61.588162937499874 0 0 0 0 -0.30503551859419531 41.219076343428981 0 41.219076343428981 -111.71919812821216 0 0 0 0 -15.141862991265953 173.72340710012395 0 173.72340710012395 -26.199369867254063 0 0 0 0 106.24061065454589 -104.74543410217302 0 -104.74543410217302 48.942212484726042 0 0 0 0 327.29405563628825 128.62271914750454 0 128.62271914750454 -120.25255612542787 0 0 0 0 24.994513274796191 -10.839077502100736 0 -10.839077502100736 -37.826617420154662 0 0 0 0 11.60580045419556 -24.907444591841795 0 -24.907444591841795 -16.068812863179119 0 0 0 0 -50.22780810207405 -129.76442523188689 0 -129.76442523188689 -138.29095632277131 0 0 0 0 243.26960479417176 216.76323798024896 0 216.76323798024896 -215.09831641478922 0 0 0 0 434.79582299574395 29.747932782254793 0 29.747932782254793 -481.11955461843627 0 0 0 0 0.96695575374349119 1.9420311055078692 0 1.9420311055078692 -0.4692525965483032 0 0 0 0 439.50429078763409 -102.77371875615609 0 -102.77371875615609 -131.88560813017102 0 0 0 0 1035.3353128569215 95.206165844997486 0 95.206165844997486 -155.8267487153189 0 0 0 0 239.45661715298775 93.303884487850155 0 93.303884487850155 99.435407525608753 0 0 0 0 665.6961064713978 354.62714149610019 0 354.62714149610019 -43.504525334217305 0 0 0 0 303.96475243591703 6.8976974653751313 0 6.8976974653751313 -40.99401569730253 0 0 0 0 238.69496719518065 77.122634724838463 0 77.122634724838463 -113.67409697644689 0 0 0 0 576.1190844479861 174.92126955528511 0 174.92126955528511 -71.811429032547494 0 0 0 0 296.41744279364502 66.086604754269047 0 66.086604754269047 -6.8064003130475612 0 0 0 0 613.32047823323228 81.873086431828597 0 81.873086431828597 29.951680937042511 0 0 0 0 -556.29342242266284 33.861325798179678 0 33.861325798179678 27.221805819045585 0 0 0 0 -410.9403498594038 74.483844825219421 0 74.483844825219421 -59.041188465607775 0 0 0 0 -18.451460229296572 -37.970454037116838 0 -37.970454037116838 -97.319985443464248 0 0 0 0 -408.22469282954989 89.530108618814666 0 89.530108618814666 22.488272027813764 0 0 0 0 -323.48309718952805 208.44745797540236 0 208.44745797540236 -209.34720483364254 0 0 0 0 -566.67459920830879 89.618958952097955 0 89.618958952097955 -221.4327533703472 0 0 0 0 0.46476963505126889 1.2855295717326385 0 1.2855295717326385 6.646229758366637 0 0 0 0 -202.08098089208943 566.6966326445945 0 566.6966326445945 97.403619431788684 0 0 0 0 -48.934791051375214 -244.95363689120131 0 -244.95363689120131 -73.115656039401529 0 0 0 0 333.79533751501731 256.31337108675052 0 256.31337108675052 92.428353841803983 0 0 0 0 7.9499768390180066 -3.5620388483945433 0 -3.5620388483945433 1.3090461387444954 0 0 0 0 680.33428001649736 208.58347750578287 0 208.58347750578287 -267.93840823072696 0 0 0 0 251.03250218083849 -108.97028849804519 0 -108.97028849804519 -450.43188129186365 0 0 0 0 23.435097909252448 -5.8072159953574882 0 -5.8072159953574882 1.2855234928916417 0 0 0 0 5.2275926240326953 -37.368687048509855 0 -37.368687048509855 -22.089254295622595 0 0 0 0 92.817839606141206 -13.249965155204791 0 -13.249965155204791 -83.266356384559913 0 0 0 0 31.042900434455078 -133.01216572257363 0 -133.01216572257363 -71.613267377121247 0 0 0 0 101.18082705207053 -4.9528921768790042 0 -4.9528921768790042 -173.34797027407512 0 0 0 0 -0.22011296715936624 -58.665538795656175 0 -58.665538795656175 -42.180989657703321 0 0 0 0 -1.9614040476462833 -224.48743093365943 0 -224.48743093365943 -374.90233855808765 0 0 0 0 53.767928953908267 -120.65249934781605 0 -120.65249934781605 22.113053636526274 0 0 0 0 344.65226351068122 15.819126650451835 0 15.819126650451835 -119.78266626163941 0 0 0 0 -35.900497262373392 -29.113203893868331 0 -29.113203893868331 -69.558473378838244 0 0 0 0 38.544891617959365 -208.16365048721855 0 -208.16365048721855 -251.15648534285901 0 0 0 0 30.228439316822914 -29.078697613362237 0 -29.078697613362237 -64.308264595492801 0 0 0 0 55.341942256767652 -147.8113802012067 0 -147.8113802012067 -175.33251930485676 0 0 0 0 -271.22425211365044 -152.17220507280672 0 -152.17220507280672 -168.48361769508483 0 0 0 0 -115.83230526403349 -221.00263056115364 0 -221.00263056115364 -218.9139521059742 0 0 0 0 -52.000986438088148 -165.30828417697933 0 -165.30828417697933 -256.17590123817354 0 0 0 0 -40.813536341722283 -100.56900161895692 0 -100.56900161895692 -170.08261170372134 0 0 0 0 863.40553796583845 -481.01219771735123 0 -481.01219771735123 -548.74202643493481 0 0 0 0 -0.40764129488610479 0.39416024073457834 0 0.39416024073457834 -1.8829206890775012 0 0 0 0 -340.14399571753165 -459.24128270700021 0 -459.24128270700021 -259.73744088676222 0 0 0 0 -840.47524837818492 107.02141864730993 0 107.02141864730993 654.28425785050786 0 0 0 0 26.958109102031557 -3.9879156711653074 0 -3.9879156711653074 -5.4307075658415087 0 0 0 0 470.83548676980718 48.452852601883933 0 48.452852601883933 -274.97855010158219 0 0 0 0 60.080500255004154 46.438573787099813 0 46.438573787099813 44.396692582277069 0 0 0 0 23.087668345913698 -112.56781878800211 0 -112.56781878800211 -319.556899044288 0 0 0 0 -0.12515598408936057 -1.4339785282700994 0 -1.4339785282700994 -4.7672853281915772 0 0 0 0 -117.168572188908 -172.50383103788045 0 -172.50383103788045 -180.38746465536474 0 0 0 0 1.8994181614922496 5.5849716254879098 0 5.5849716254879098 -10.239974585539354 0 0 0 0 63.192737202632998 33.511115012711798 0 33.511115012711798 15.925848671553467 0 0 0 0 59.390928573964629 18.988463121635505 0 18.988463121635505 -7.9762272013485926 0 0 0 0 18.840535397148685 -4.9400720291576334 0 -4.9400720291576334 -20.963537949060822 0 0 0 0 59.836257592629408 19.609082171639784 0 19.609082171639784 -7.9510356252144447 0 0 0 0 81.9444952327176 45.673949633185657 0 45.673949633185657 -27.999481354329873 0 0 0 0 78.685035662099835 52.317398436769963 0 52.317398436769963 5.4446629353842582 0 0 0 0 -1.9475622978903573 0.43625942315534871 0 0.43625942315534871 -3.168021007491344 0 0 0 0 2.7405361960554728 143.75330573784072 0 143.75330573784072 16.796935608322201 0 0 0 0 103.9874609858598 -115.62561399467086 0 -115.62561399467086 147.00624557745255 0 0 0 0 155.43241750881862 177.04127907693578 0 177.04127907693578 -125.28679252745133 0 0 0 0 9.0918041235331373 -1.9336283378423715 0 -1.9336283378423715 0.83443240222774184 0 0 0 0 -449.99652916548075 335.63490021133839 0 335.63490021133839 184.72896039646457 0 0 0 0 -121.15185446302348 -299.36420697116409 0 -299.36420697116409 200.08909819961082 0 0 0 0 384.19408647490491 456.86308880394699 0 456.86308880394699 124.40851186472537 0 0 0 0 -113.0567649955774 -383.4899621571692 0 -383.4899621571692 225.57183902097313 0 0 0 0 65.789129323222369 97.001084855487875 0 97.001084855487875 572.95237062747765 0 0 0 0 172.82623975822935 -332.58919909069846 0 -332.58919909069846 20.465448112048762 0 0 0 0 762.58734829581226 -174.57499402379108 0 -174.57499402379108 57.170133225385143 0 0 0 0 269.17295912021655 -570.09286821289243 0 -570.09286821289243 605.92718142062427 0 0 0 0 14.187311107933056 141.76009516651584 0 141.76009516651584 -46.381293190676843 0 0 0 0 41.255510256822163 44.988425759837952 0 44.988425759837952 -61.096090365569921 0 0 0 0 90.859410636767279 79.362948899546836 0 79.362948899546836 -146.4018458106666 0 0 0 0 22.651357257923536 0.011915036772734311 0 0.011915036772734311 -23.724557834587031 0 0 0 0 79.254465848021937 -16.958399478007777 0 -16.958399478007777 -59.063728381592227 0 0 0 0 58.601033874234275 0.048754104025377387 0 0.048754104025377387 -9.8420078198408572 0 0 0 0 113.60338676671381 303.21459745587231 0 303.21459745587231 240.48479346081956 0 0 0 0 63.171059168266595 -18.677100834967092 0 -18.677100834967092 -1.8113135520371959 0 0 0 0 894.67618354194565 -512.62754020933585 0 -512.62754020933585 -242.29234813383414 0 0 0 0 86.617262270912761 1.775954683418604 0 1.775954683418604 -16.381852095397335 0 0 0 0 59.092829079978401 5.6220752398635341 0 5.6220752398635341 -16.497184024919989 0 0 0 0 95.710705511155538 9.0731506116844685 0 9.0731506116844685 -23.216078991421455 0 0 0 0 145.93580460749217 19.868391536990202 0 19.868391536990202 -39.9616288860243 0 0 0 0 94.845252384695868 33.151946485577412 0 33.151946485577412 -40.161505489610136 0 0 0 0 143.74846576066921 -36.139651316902018 0 -36.139651316902018 193.66916996896907 0 0 0 0 9.4546268264892035 7.716313969255097 0 7.716313969255097 -6.7187486490397106 0 0 0 0 124.00092144939117 24.868418936571516 0 24.868418936571516 -22.916499187333102 0 0 0 0 44.33143314771587 15.658789678678659 0 15.658789678678659 -1.5751162772980933 0 0 0 0 103.34892783001123 -31.894125336846628 0 -31.894125336846628 -10.831058655421657 0 0 0 0 -20.43478767524357 132.07826543592728 0 132.07826543592728 178.32279412011667 0 0 0 0 2.2739311607453772 9.2258860402598124 0 9.2258860402598124 2.8386774586409462 0 0 0 0 75.806725637798081 -22.278617415769986 0 -22.278617415769986 14.264626711383244 0 0 0 0 56.578643236324211 20.212032607210304 0 20.212032607210304 -4.3052684764739801 0 0 0 0 132.4728715850415 463.7524824296471 0 463.7524824296471 -402.14328806820049 0 0 0 0 53.858322974781174 9.3380512270086413 0 9.3380512270086413 -0.7467824075925229 0 0 0 0 11.644702950696228 6.3527805216308479 0 6.3527805216308479 6.7447178212423751 0 0 0 0 87.006624532456044 36.103535063919026 0 36.103535063919026 -42.318426611798799 0 0 0 0 69.750791914397269 60.415657364971736 0 60.415657364971736 -10.304107605929701 0 0 0 0 13.744497988049957 4.981410337628148 0 4.981410337628148 -0.069205186342658986 0 0 0 0 72.499301996082067 35.203706067065013 0 35.203706067065013 28.871153377497194 0 0 0 0 56.64280168613368 13.956922086139699 0 13.956922086139699 -4.2488903542257965 0 0 0 0 41.724901706795208 14.923169375990256 0 14.923169375990256 -18.453535443481996 0 0 0 0 51.004819556736038 0.94989151290319462 0 0.94989151290319462 3.0756562565177035 0 0 0 0 41.48754821868846 9.8274219470401789 0 9.8274219470401789 -1.6414899904207969 0 0 0 0 46.548466080002981 -0.69652813511892475 0 -0.69652813511892475 -2.99207651240215 0 0 0 0 77.131693468387169 23.822961352351939 0 23.822961352351939 -9.0264038600888838 0 0 0 0 4.5364795102735229 1.1267206681951905 0 1.1267206681951905 -0.1045915760872089 0 0 0 0 40.967215232041781 25.332440954022942 0 25.332440954022942 -9.2060966003151492 0 0 0 0 56.472206431426457 33.957723143285691 0 33.957723143285691 -45.231027432611626 0 0 0 0 -2.1287118179607205 110.68585729135943 0 110.68585729135943 0.22523784440291905 0 0 0 0 61.446168793430843 13.424193454331823 0 13.424193454331823 -26.728696562620762 0 0 0 0 71.434467903527548 74.360158307539919 0 74.360158307539919 -27.928700996576197 0 0 0 0 663.07728808483807 393.34696566766775 0 393.34696566766775 5.2823379325846531 0 0 0 0 190.65031244362035 22.079270526271415 0 22.079270526271415 -64.888674071071293 0 0 0 0 35.419007520537491 -13.641145048222086 0 -13.641145048222086 -2.1501310452646769 0 0 0 0 -327.27826045301481 -43.658857440164319 0 -43.658857440164319 198.46457693201711 0 0 0 0 57.286021647494636 2.1026222675474173 0 2.1026222675474173 -8.7834722231362434 0 0 0 0 2.1932056286777311 -0.96594704590489755 0 -0.96594704590489755 0.22781107433937825 0 0 0 0 14.464038395548414 0.39889857571515663 0 0.39889857571515663 -0.0009602709628076132 0 0 0 0 14.484577654679015 0.41959648395625487 0 0.41959648395625487 0.0022868330483972925 0 0 0 0 463.61412104761985 99.688511703720778 0 99.688511703720778 -64.28286909698997 0 0 0 0 473.39069474303687 67.387430746020911 0 67.387430746020911 0.76515326988644139 0 0 0 0 563.11133902364236 186.48525758614272 0 186.48525758614272 -57.543153015896124 0 0 0 0 478.48184349984513 241.5376123712586 0 241.5376123712586 67.599967532243198 0 0 0 0 1.4094315247714917 0.12251717470245183 0 0.12251717470245183 -0.058342180091372847 0 0 0 0 501.67666604006081 100.42636930617775 0 100.42636930617775 -119.89002877112083 0 0 0 0 816.76702614691749 110.90051169031118 0 110.90051169031118 -152.10779733405494 0 0 0 0 460.21654951499659 -108.38774813063306 0 -108.38774813063306 -34.47985626162702 0 0 0 0 -9.0320364623767091 -55.47298390835801 0 -55.47298390835801 98.039184197306838 0 0 0 0 1.7496074140508426 -0.46493753896492718 0 -0.46493753896492718 -0.00090610298885239623 0 0 0 0 431.75363855681644 165.44656782614646 0 165.44656782614646 42.007582386668261 0 0 0 0 3.2664415914914571 0.83432647355668732 0 0.83432647355668732 0.73661279327007534 0 0 0 0 3.8084246401122073 0.46224195907817217 0 0.46224195907817217 0.038008938332592446 0 0 0 0 2.1966766075335045 -0.51207614345615582 0 -0.51207614345615582 -0.01866713150748317 0 0 0 0 7.9296281097194878 -0.012632960427357039 0 -0.012632960427357039 0.00457563287726906 0 0 0 0 9.2335883874184219 0.52304154601956387 0 0.52304154601956387 -1.2195181421324599 0 0 0 0 -3.2959318244247697 22.848533198838595 0 22.848533198838595 17.98710955527315 0 0 0 0 10.13137108279625 2.3830973359796297 0 2.3830973359796297 0.75523557437908617 0 0 0 0 4.3324591348344939 1.0977363983760853 0 1.0977363983760853 0.28380135973825743 0 0 0 0 12.558001058758236 0.61552725653943763 0 0.61552725653943763 -1.3685868215774435 0 0 0 0 5.9076708347506042 3.1187928007901888 0 3.1187928007901888 -2.6602655174602159 0 0 0 0 15.542954721284332 2.1642227069630451 0 2.1642227069630451 -0.98187482157258188 0 0 0 0 21.977816775150131 3.2081556965744511 0 3.2081556965744511 24.638653732571015 0 0 0 0 14.012517978366191 -3.5796305694084687 0 -3.5796305694084687 -0.28354226570116509 0 0 0 0 -58.548249266728817 38.178660847115779 0 38.178660847115779 54.69002327353968 0 0 0 0 23.614734824721324 3.6887758240979949 0 3.6887758240979949 0.40534166355220519 0 0 0 0 48.231137617927743 46.111338706822352 0 46.111338706822352 -42.328089880701448 0 0 0 0 24.753358638670761 17.940635699240161 0 17.940635699240161 -55.54646164128134 0 0 0 0 264.11025048376177 -165.76181333992253 0 -165.76181333992253 -547.86462015582401 0 0 0 0 657.4594429549179 -545.55389732315666 0 -545.55389732315666 -317.62159724942143 0 0 0 0 2.0800790992652765 -429.72892123629606 0 -429.72892123629606 110.31901781295687 0 0 0 0 145.5010261445932 -242.33344730029944 0 -242.33344730029944 45.928840226609921 0 0 0 0 -511.03046737087425 80.281430263402569 0 80.281430263402569 580.90416799083687 0 0 0 0 1328.0695537958818 -926.08145146037384 0 -926.08145146037384 424.526016093414 0 0 0 0 16.328533007444946 0.26398997899225662 0 0.26398997899225662 3.0918766759357252 0 0 0 0 -151.54079868397093 -10.004674273272457 0 -10.004674273272457 -39.643626647995688 0 0 0 0 -167.1311671781441 0.83277347688409975 0 0.83277347688409975 32.238267208045727 0 0 0 0 -258.97128678060835 -34.092254087656741 0 -34.092254087656741 3.2210196810165783 0 0 0 0 -180.09324890861171 -75.809229130845665 0 -75.809229130845665 -81.745728167689322 0 0 0 0 -228.62403052428272 -150.39343780665166 0 -150.39343780665166 -90.371605491335188 0 0 0 0 -266.35324502259027 -138.1429206659119 0 -138.1429206659119 -37.315876865122888 0 0 0 0 -237.76952324825106 -179.39880288734815 0 -179.39880288734815 -60.176215822165318 0 0 0 0 -448.20035052622552 267.91107351220057 0 267.91107351220057 -321.15786666478567 0 0 0 0 -443.37763314379845 -56.61876315439963 0 -56.61876315439963 64.682652914096707 0 0 0 0 -430.87268297405717 118.68200424302799 0 118.68200424302799 -171.45932929564515 0 0 0 0 -380.38218850817066 -160.26602031760243 0 -160.26602031760243 78.188307002747365 0 0 0 0 -252.80057475247304 -190.20299696698527 0 -190.20299696698527 11.475183985071244 0 0 0 0 -108.04670561249804 -61.894195441921752 0 -61.894195441921752 -2.1939833599618623 0 0 0 0 -264.54294660460437 -79.731952616724243 0 -79.731952616724243 -29.174548063194834 0 0 0 0 30.739295131905237 236.26585316062506 0 236.26585316062506 28.654610324723308 0 0 0 0 -807.07813547877595 -462.4796874341705 0 -462.4796874341705 -529.01769926868906 0 0 0 0 -317.34724996521254 -10.058044995578328 0 -10.058044995578328 -118.85347353247005 0 0 0 0 1.746026733219054 2.6409626792442111 0 2.6409626792442111 2.4743433238520307 0 0 0 0 -9.1532732019986724 32.911517310501949 0 32.911517310501949 50.093797248584451 0 0 0 0 16.785375081710441 7.6105290408049768 0 7.6105290408049768 -0.55535051811200375 0 0 0 0 25.938918903965487 24.646970841423084 0 24.646970841423084 19.802425670324347 0 0 0 0 42.929579693503911 61.991997324835211 0 61.991997324835211 -97.308515444743534 0 0 0 0 -778.49828412596253 937.33454994763429 0 937.33454994763429 84.594769786406403 0 0 0 0 -273.54871335212374 165.76656262654097 0 165.76656262654097 -674.7045316756944 0 0 0 0 111.32678471086547 -13.172513144934783 0 -13.172513144934783 -157.1995448558082 0 0 0 0 100.44479628291447 -49.713479251648096 0 -49.713479251648096 -76.933375785960379 0 0 0 0 5.4759505479775328 -0.55420692920006331 0 -0.55420692920006331 -3.9818100312818139 0 0 0 0 10.734697772211803 3.4409652232711778 0 3.4409652232711778 -0.73011374195993994 0 0 0 0 -613.73247459394042 -590.36022599890634 0 -590.36022599890634 1857.0686939905136 0 0 0 0 -401.5009873722156 78.872325940401709 0 78.872325940401709 536.37735739744699 0 0 0 0 -1205.2593235364766 827.93799381025769 0 827.93799381025769 1200.5866844164632 0 0 0 0 1610.2341105533997 1250.3604745467976 0 1250.3604745467976 681.12820718765749 0 0 0 0 66.824762516996998 -369.10315981206696 0 -369.10315981206696 -991.57065509779 0 0 0 0 1150.8439205166487 -517.30084429872602 0 -517.30084429872602 -210.49354112610081 0 0 0 0 274.65404008286714 -360.26390225306909 0 -360.26390225306909 188.18403159077502 0 0 0 0 24.635432470404396 -4.2303051492683679 0 -4.2303051492683679 2.2196820760427682 0 0 0 0 20.842592161701759 -99.296452951785795 0 -99.296452951785795 -54.065070146998551 0 0 0 0 -220.39642652744078 623.55460175086898 0 623.55460175086898 553.14136933117311 0 0 0 0 10.252904833135176 3.1962535344769165 0 3.1962535344769165 0.73881095257213714 0 0 0 0 336.96409428253537 880.1384070439085 0 880.1384070439085 665.4745918862908 0 0 0 0 188.85564438105212 704.03574157298328 0 704.03574157298328 437.06405342088453 0 0 0 0 -267.27099488260137 368.85575864497451 0 368.85575864497451 300.54744709367839 0 0 0 0 1448.8285304249503 628.48490695748103 0 628.48490695748103 289.21924294110624 0 0 0 0 73.86234581284225 -118.0243480757278 0 -118.0243480757278 126.40079947571533 0 0 0 0 1.8915690236529485 -0.1895338366384216 0 -0.1895338366384216 -0.010767439964900156 0 0 0 0 25.822518516062701 -8.3167558347455355 0 -8.3167558347455355 34.045158223762343 0 0 0 0 85.987690934402053 33.951290186325444 0 33.951290186325444 -19.743520684738932 0 0 0 0 2.7117073911067564 -12.958062720207767 0 -12.958062720207767 -2.0578099104610121 0 0 0 0 1.2519744710589293 -10.830680305910708 0 -10.830680305910708 0.03996787942536268 0 0 0 0 2.1593815793166868 -8.6996880759348603 0 -8.6996880759348603 -3.7768489393045215 0 0 0 0 3.063004043608089 -13.272584436519635 0 -13.272584436519635 -8.5520972316687889 0 0 0 0 3.3701535466534551 -9.7048627024578416 0 -9.7048627024578416 -3.3524157718688219 0 0 0 0 -19.774353979155421 -16.936188824373176 0 -16.936188824373176 25.781952392166716 0 0 0 0 5.5549789006012134 -0.30396066474688155 0 -0.30396066474688155 0.0019813291879642835 0 0 0 0 -0.7432573792320909 -28.651423039414112 0 -28.651423039414112 21.091781317035476 0 0 0 0 5.7238072649342939 -11.027195071667858 0 -11.027195071667858 -11.969414712554501 0 0 0 0 1.959337653492355 -0.62315834912203627 0 -0.62315834912203627 0.0062530268157209752 0 0 0 0 9.304573502697167 0.64294990105252159 0 0.64294990105252159 -1.5606090896850344 0 0 0 0 4.4318052309026825 -9.6574642115898346 0 -9.6574642115898346 -9.7392293146187274 0 0 0 0 -0.17851454004994594 -12.895002322818323 0 -12.895002322818323 -11.124768863058154 0 0 0 0 7.5012282685056562 -2.2426848608304839 0 -2.2426848608304839 -0.023687167311836673 0 0 0 0 10.322585668473039 -1.166438570375981 0 -1.166438570375981 -2.465212045835603 0 0 0 0 12.792600396263879 2.2143238992194938 0 2.2143238992194938 -6.2663793892869535 0 0 0 0 10.275375324795675 0.54665468723407784 0 0.54665468723407784 -0.93832048894945164 0 0 0 0 10.330014466650027 -1.1485150827571768 0 -1.1485150827571768 0.80828228742047592 0 0 0 0 9.282489960314706 0.22406395565006407 0 0.22406395565006407 -0.81246644880738528 0 0 0 0 12.038162383546194 -3.9574518141699286 0 -3.9574518141699286 -2.8699641261462698 0 0 0 0 6.9348619640347806 -2.208140361222263 0 -2.208140361222263 -3.4881687309223914 0 0 0 0 66.680066683533369 25.618428310103894 0 25.618428310103894 6.9950933196821268 0 0 0 0 12.494311095566616 3.0973882778873474 0 3.0973882778873474 -0.22214662845309974 0 0 0 0 17.143952961167088 2.0840648030849707 0 2.0840648030849707 -3.9434192681135301 0 0 0 0 15.120866494308444 9.8728765762639341 0 9.8728765762639341 15.730073827458668 0 0 0 0 22.217251490707042 2.1377627169295295 0 2.1377627169295295 -2.0501713484832145 0 0 0 0 16.568324786308352 -1.5138046821599858 0 -1.5138046821599858 -2.4808056904626454 0 0 0 0 18.480772397684632 -1.1430053941206779 0 -1.1430053941206779 -4.7041712140496657 0 0 0 0 17.219113067847502 2.6203381531463492 0 2.6203381531463492 3.0044374136928127 0 0 0 0 15.653515661251731 0.61237731185792654 0 0.61237731185792654 0.90737576019091648 0 0 0 0 14.998526471942569 5.7489198163906252 0 5.7489198163906252 5.1341838338934842 0 0 0 0 15.326852652504869 7.6909765641622982 0 7.6909765641622982 0.92363173325330195 0 0 0 0 21.410975824372144 5.5271617234188852 0 5.5271617234188852 -2.6776533607753663 0 0 0 0 22.815735341129766 11.571161827336709 0 11.571161827336709 -1.0136224407369809 0 0 0 0 9.8767688608512572 3.3306723207859363 0 3.3306723207859363 -2.5286073356805332 0 0 0 0 20.851339564528757 9.750637113823732 0 9.750637113823732 1.7988880625538624 0 0 0 0 9.7763048922788585 -22.516725001403131 0 -22.516725001403131 -19.438281551419607 0 0 0 0 18.167211187793328 3.2823593890685885 0 3.2823593890685885 -2.2236874425639215 0 0 0 0 25.617135005508317 11.278206472363763 0 11.278206472363763 1.2472210695445938 0 0 0 0 24.382664315962757 4.3434842982323971 0 4.3434842982323971 3.3427740029110282 0 0 0 0 20.43807575446948 -0.62308584351052332 0 -0.62308584351052332 -2.1727980665568603 0 0 0 0 22.524838562109323 0.18903119743031027 0 0.18903119743031027 -2.9615208005037101 0 0 0 0 39.429740234016208 -13.65443786564289 0 -13.65443786564289 -25.475819369368821 0 0 0 0 33.933794373326236 -43.662239554420978 0 -43.662239554420978 -44.699421547200672 0 0 0 0 34.513333073234321 0.46934269914318349 0 0.46934269914318349 -12.003580350050246 0 0 0 0 38.275479373813141 -2.4600974175200463 0 -2.4600974175200463 -23.977267293143541 0 0 0 0 30.483335950069886 -7.3031258416837375 0 -7.3031258416837375 -10.109219101332656 0 0 0 0 -83.442318476736546 -23.322802088917797 0 -23.322802088917797 -8.9084191414094676 0 0 0 0 20.910318694753755 -0.69182236856637047 0 -0.69182236856637047 -6.7211351606422589 0 0 0 0 49.24999272878631 -31.112888987141616 0 -31.112888987141616 -45.6943036797677 0 0 0 0 41.893914061924249 -0.63302972846707917 0 -0.63302972846707917 -6.1903639867412217 0 0 0 0 5.931689890819996 -8.9108448577435979 0 -8.9108448577435979 -6.5963281670018858 0 0 0 0 41.080759484255395 2.9512527003099649 0 2.9512527003099649 -74.443293584207822 0 0 0 0 269.87404490010522 47.687057041953722 0 47.687057041953722 -73.502259175028485 0 0 0 0 90.853343061869964 6.4235297274762502 0 6.4235297274762502 -82.761453720564305 0 0 0 0 75.772414656443289 -67.333445465041635 0 -67.333445465041635 5.8357567791411924 0 0 0 0 34.817246073696879 -8.6526401973073632 0 -8.6526401973073632 -96.042099832938931 0 0 0 0 41.711286081917933 -44.397309279574216 0 -44.397309279574216 -7.0814109844947666 0 0 0 0 100.82518539546436 -64.365843899898209 0 -64.365843899898209 30.42861799990078 0 0 0 0 243.93438106178655 -80.919991059166932 0 -80.919991059166932 100.59496878337814 0 0 0 0 1.1250517296732028 2.704932634740195 0 2.704932634740195 0.68935080631310308 0 0 0 0 209.04372800383135 -1.5705708524524198 0 -1.5705708524524198 -46.048566553345154 0 0 0 0 -52.35279201897356 65.581093589654301 0 65.581093589654301 148.20326035696507 0 0 0 0 486.150574075029 -8.8950201055245088 0 -8.8950201055245088 -139.48957416824851 0 0 0 0 719.17545650877582 595.98143610636907 0 595.98143610636907 179.9415322401037 0 0 0 0 298.40366225605248 -101.85449483405637 0 -101.85449483405637 -43.430785226228181 0 0 0 0 -104.98354801579262 90.445394785813733 0 90.445394785813733 53.710898850848935 0 0 0 0 26.051336495009309 26.556016978412572 0 26.556016978412572 7.2343207542726304 0 0 0 0 45.724965620494913 28.551425321988063 0 28.551425321988063 7.3492640755484899 0 0 0 0 3.1914958648994798 -1.0930414732199552 0 -1.0930414732199552 -5.787894723592899 0 0 0 0 32.686925958259962 20.356410389125813 0 20.356410389125813 13.026512875766002 0 0 0 0 4.2730286298229316 2.5799638141331691 0 2.5799638141331691 -0.73374126842910314 0 0 0 0 9.8276917345356196 4.8527078906449788 0 4.8527078906449788 12.459889272628971 0 0 0 0 33.37439057071424 5.6363730364810181 0 5.6363730364810181 8.6413000859156455 0 0 0 0 6.8245723411149868 -1.5813021786539707 0 -1.5813021786539707 -1.2553181970867691 0 0 0 0 13.719428091571899 0.51960655779475928 0 0.51960655779475928 -4.7300345029070741 0 0 0 0 10.41138903956886 0.69827967932929713 0 0.69827967932929713 -1.4885181836888792 0 0 0 0 10.738684069510782 3.4719483083808882 0 3.4719483083808882 -7.2352434056483617 0 0 0 0 -16.27894884665875 -64.431831968520555 0 -64.431831968520555 -120.35163506861863 0 0 0 0 -89.914792886545911 -55.114696417251935 0 -55.114696417251935 201.16861356920072 0 0 0 0 -251.63985020897235 183.3004699611065 0 183.3004699611065 199.68681653504723 0 0 0 0 -63.119216339313425 164.03567485391886 0 164.03567485391886 -224.34456016089644 0 0 0 0 11.0493711521558 35.69052797164295 0 35.69052797164295 5.9034015815204839 0 0 0 0 -43.592338507063687 103.4464495964985 0 103.4464495964985 -56.113777947968629 0 0 0 0 -112.20853722517131 6.9192519642715524 0 6.9192519642715524 28.559649860651916 0 0 0 0 5.7613155816454764 -1.0147692245198243 0 -1.0147692245198243 -8.2125363065206578 0 0 0 0 -28.343940148100955 -39.145534428146448 0 -39.145534428146448 45.242234374709369 0 0 0 0 11.447079046403815 8.8987487401482213 0 8.8987487401482213 -7.3261188204614882 0 0 0 0 31.33142749981198 -27.61015754900609 0 -27.61015754900609 13.630988996309497 0 0 0 0 2.3935194221466531 0.94552433812253867 0 0.94552433812253867 -13.541117484885213 0 0 0 0 26.42336786515807 -10.849929879959518 0 -10.849929879959518 -9.9762266211081823 0 0 0 0 18.458951703898492 53.556523761803874 0 53.556523761803874 -38.585446342838623 0 0 0 0 36.023155715869507 14.597995009929832 0 14.597995009929832 -18.476114847094777 0 0 0 0 68.387383909950586 26.824769103041831 0 26.824769103041831 -23.150528322406899 0 0 0 0 62.053540917724604 4.3240232880566509 0 4.3240232880566509 -28.028240959024515 0 0 0 0 87.303232650272548 8.5124596846990244 0 8.5124596846990244 -27.359568099399439 0 0 0 0 79.061740863660816 19.623841893788267 0 19.623841893788267 -40.865171193978313 0 0 0 0 11.661795861152513 7.5310545626562799 0 7.5310545626562799 3.9892757214674504 0 0 0 0 133.0403130944178 709.90665186057504 0 709.90665186057504 380.98340384283961 0 0 0 0 586.67035668060998 213.40016979864595 0 213.40016979864595 181.86988260361431 0 0 0 0 451.07190814617206 442.68170278934667 0 442.68170278934667 438.27019963273051 0 0 0 0 593.62658355331223 1761.7437477576627 0 1761.7437477576627 799.32713431664752 0 0 0 0 3186.6902356301434 -24.864428752669482 0 -24.864428752669482 -1001.9193305758836 0 0 0 0 50.469846766958653 239.49611054938981 0 239.49611054938981 -88.180471891932029 0 0 0 0 10.075035095614922 -13.016122552146896 0 -13.016122552146896 -3.630695969294262 0 0 0 0 -153.98126450481504 -16.523659707471779 0 -16.523659707471779 170.66683274336719 0 0 0 0 235.4624708728079 122.41219256598697 0 122.41219256598697 -39.483333076784675 0 0 0 0 462.07533156666614 -167.81192118863146 0 -167.81192118863146 -44.312716809037397 0 0 0 0 1119.1447883256296 -384.06360301073454 0 -384.06360301073454 -184.11929483973654 0 0 0 0 373.60356124027749 -289.34152085701385 0 -289.34152085701385 -195.28164870784076 0 0 0 0 107.37653324326675 -66.065018667071399 0 -66.065018667071399 -270.59840601600314 0 0 0 0 2.9815519637111265 0.20585345326757931 0 0.20585345326757931 -0.89357366228975721 0 0 0 0 186.86942631084821 -40.45629900750464 0 -40.45629900750464 8.883385466413074 0 0 0 0 766.38192557178263 807.66250237705026 0 807.66250237705026 -885.09919381868644 0 0 0 0 159.64653877906676 -130.76891841786619 0 -130.76891841786619 -259.35752532286915 0 0 0 0 25.748540247868732 20.504806527871537 0 20.504806527871537 14.040870780241333 0 0 0 0 -37.479133502289187 302.03184477136801 0 302.03184477136801 -20.202524892507427 0 0 0 0 44.251197798204885 -166.38187555535137 0 -166.38187555535137 122.32973785268405 0 0 0 0 8.2687758951651631 -0.67476995157085184 0 -0.67476995157085184 -1.0812110120587022 0 0 0 0 9.4012896951772973 0.5123783002306439 0 0.5123783002306439 -0.52794801231704369 0 0 0 0 10.042807033576537 -2.9143089205886099 0 -2.9143089205886099 1.1485156404487498 0 0 0 0 0.60136024260680188 0.53464192132683763 0 0.53464192132683763 0.20243848555762156 0 0 0 0 8.7860740576688841 -0.77523676571854594 0 -0.77523676571854594 -4.1353529768084627 0 0 0 0 6.3959633683541028 2.0382047284485312 0 2.0382047284485312 -0.038567591078525254 0 0 0 0 238.03225733392173 49.68131037729836 0 49.68131037729836 -318.34735360925197 0 0 0 0 -51.973755255301512 -209.71921497096753 0 -209.71921497096753 246.47993710495211 0 0 0 0 -257.94083395462076 203.83944212402412 0 203.83944212402412 -102.50066379044438 0 0 0 0 364.21776830437011 368.83383885585681 0 368.83383885585681 376.63181943865311 0 0 0 0 3.0680859657359747 1.7627705748695921 0 1.7627705748695921 -0.2668041996851187 0 0 0 0 0.71684891369858406 -0.74212987899467464 0 -0.74212987899467464 -0.03711993446079731 0 0 0 0 492.29614994161238 321.8409851717397 0 321.8409851717397 -90.904991751347552 0 0 0 0 419.08011682648794 390.69439276485809 0 390.69439276485809 182.4750426962346 0 0 0 0 230.6802434137353 382.20898586634576 0 382.20898586634576 27.463213540984725 0 0 0 0 484.27848618384451 394.14545067328982 0 394.14545067328982 22.987345433011797 0 0 0 0 -2.4123563734610798 -146.10222076948048 0 -146.10222076948048 83.689998479381757 0 0 0 0 -60.665331211828743 -66.299148105560562 0 -66.299148105560562 93.697402865796107 0 0 0 0 139.14377060325933 87.123736186125825 0 87.123736186125825 -192.11429579286414 0 0 0 0 124.49644349476148 20.826134383476528 0 20.826134383476528 -47.383633428984467 0 0 0 0 883.22362141028862 81.586610894361002 0 81.586610894361002 -42.518902048288965 0 0 0 0 121.50334144879889 -335.33612988074219 0 -335.33612988074219 296.29881310443216 0 0 0 0 1524.5071541242251 -565.23376679127819 0 -565.23376679127819 266.15382229722672 0 0 0 0 -441.21566583787353 512.72428400597892 0 512.72428400597892 -248.82514426623493 0 0 0 0 -1329.1083510634198 -451.48621340515729 0 -451.48621340515729 897.54731590483789 0 0 0 0 -587.59610543248709 -830.28534792428763 0 -830.28534792428763 -1391.6099285204991 0 0 0 0 61.69370745238848 303.28385437413635 0 303.28385437413635 726.18256830094106 0 0 0 0 175.31465369989746 338.11974509689117 0 338.11974509689117 156.886140240229 0 0 0 0 546.98127923722495 528.83964284585454 0 528.83964284585454 254.65214742885655 0 0 0 0 543.4183723932947 287.14150194561626 0 287.14150194561626 234.4111061022877 0 0 0 0 1097.6574891562341 615.39067263260222 0 615.39067263260222 386.03428573015844 0 0 0 0 690.46911090356298 714.56408681005723 0 714.56408681005723 883.88721948854072 0 0 0 0 10.762078428842074 -1.4274020938899525 0 -1.4274020938899525 -1.1111008612539264 0 0 0 0 1242.2708643307706 736.0143174141881 0 736.0143174141881 486.64366282384799 0 0 0 0 73.110415819217451 411.75226729802307 0 411.75226729802307 818.6366841473864 0 0 0 0 5.0907029379369817 -3.2929799257125154 0 -3.2929799257125154 -3.4787875534376784 0 0 0 0 756.97878458398918 1280.874103471866 0 1280.874103471866 649.19058598943593 0 0 0 0 17.496643199963728 -14.236109540293 0 -14.236109540293 -15.788972405484856 0 0 0 0 18.683152323108516 -28.581850164042862 0 -28.581850164042862 -8.8061023698373901 0 0 0 0 13.425335721003989 -12.686639328948985 0 -12.686639328948985 -4.4488205359508139 0 0 0 0 27.834803994581208 -13.61674826051923 0 -13.61674826051923 -7.4924344484656302 0 0 0 0 179.27785573992151 362.0690413613022 0 362.0690413613022 15.628706595345648 0 0 0 0 25.525447796824182 -8.0015353542231864 0 -8.0015353542231864 -6.6703559548089206 0 0 0 0 81.449625715185448 62.632772986535684 0 62.632772986535684 -70.608436029691802 0 0 0 0 7.6877055334043689 -453.84179281205343 0 -453.84179281205343 -113.33285750090363 0 0 0 0 427.99436070249067 398.21062347740917 0 398.21062347740917 -52.778129460089986 0 0 0 0 60.644168288621586 310.73409738983537 0 310.73409738983537 6.4553897148198303 0 0 0 0 -65.750856695405673 165.22381418254281 0 165.22381418254281 52.909586544392369 0 0 0 0 276.94900714728283 121.73513499621185 0 121.73513499621185 -137.70361650840641 0 0 0 0 726.26617304265346 334.80461240740118 0 334.80461240740118 -38.330431950686034 0 0 0 0 609.47364401406958 456.00788577807816 0 456.00788577807816 -17.170689282816966 0 0 0 0 311.42890273466037 491.09668198764393 0 491.09668198764393 -6.2662882502081629 0 0 0 0 22.07803775846466 -12.203922114954864 0 -12.203922114954864 -7.3486800616683574 0 0 0 0 -219.0159851686185 59.122826883901325 0 59.122826883901325 -22.766901553823118 0 0 0 0 -108.93081070293556 62.65458075620154 0 62.65458075620154 -115.69959108068815 0 0 0 0 -186.40227895387216 220.8572793231142 0 220.8572793231142 -4.2886883720148035 0 0 0 0 780.3186826427409 -578.23721897472205 0 -578.23721897472205 -536.92212856362858 0 0 0 0 104.9351913240389 187.89955352343168 0 187.89955352343168 -89.339257360861666 0 0 0 0 51.79809160491277 -62.90984447142182 0 -62.90984447142182 -53.414495364458162 0 0 0 0 31.279678908410943 -14.040526490470917 0 -14.040526490470917 -0.4181425403081942 0 0 0 0 52.456359245654312 -34.345159417168361 0 -34.345159417168361 -21.930676482705849 0 0 0 0 42.931901975534856 -81.488381258945083 0 -81.488381258945083 9.3882431434108184 0 0 0 0 -5.9835032895643963 -56.904161209222821 0 -56.904161209222821 -87.006736292052665 0 0 0 0 16.117010929163371 -29.80787148569766 0 -29.80787148569766 -205.47093347932969 0 0 0 0 109.27669314946979 -132.42658578382361 0 -132.42658578382361 -237.25769811414989 0 0 0 0 -81.214182210402214 -128.53353103100653 0 -128.53353103100653 -115.4591200475179 0 0 0 0 -8.1768200322985649 -57.677083510619013 0 -57.677083510619013 -77.427103466594417 0 0 0 0 42.832551793999301 -162.72811110941404 0 -162.72811110941404 -152.38792333962374 0 0 0 0 5.8491326460001574 -11.498697047189054 0 -11.498697047189054 6.7486145484152154 0 0 0 0 -7.8447010617819615 -52.399193321855819 0 -52.399193321855819 -82.11888478468336 0 0 0 0 763.81966384263069 -199.58536117402627 0 -199.58536117402627 -183.11335863562704 0 0 0 0 -6.3595850196434185 -50.53757530833991 0 -50.53757530833991 -89.386528504363014 0 0 0 0 -7.4294362306243897 -14.434844654312712 0 -14.434844654312712 -7.6673371147052833 0 0 0 0 9.0872829626988221 -1.9178242275218764 0 -1.9178242275218764 -0.56190305504671478 0 0 0 0 1706.9667336646817 -919.51694867472361 0 -919.51694867472361 -1391.0051557672277 0 0 0 0 440.88914123563154 382.37350058949232 0 382.37350058949232 400.91222155646938 0 0 0 0 689.23067546047969 356.6703860998291 0 356.6703860998291 175.72772484989855 0 0 0 0 578.32953959615406 238.24521892306893 0 238.24521892306893 51.045338154841374 0 0 0 0 250.34060856353608 113.31641556750401 0 113.31641556750401 79.941567444275279 0 0 0 0 195.61269753350643 218.29481767182733 0 218.29481767182733 353.90837526810083 0 0 0 0 458.38614381392836 320.1852906672284 0 320.1852906672284 226.72635773301863 0 0 0 0 -32.160404757916695 61.648096175032151 0 61.648096175032151 274.30710405182617 0 0 0 0 334.76581378330593 -108.1945187947158 0 -108.1945187947158 -388.43016579351479 0 0 0 0 127.88589785649674 -18.59532852081702 0 -18.59532852081702 -60.6555347149515 0 0 0 0 282.33512508322019 134.73094935042354 0 134.73094935042354 78.952124870452167 0 0 0 0 464.68445739831077 79.054035892428146 0 79.054035892428146 -91.272636205703748 0 0 0 0 701.9372448832728 177.79925451296731 0 177.79925451296731 -168.59128063796015 0 0 0 0 20.891441344632767 -68.912175454880526 0 -68.912175454880526 -64.897213589074113 0 0 0 0 5.3443783665216529 -5.5174171182855503 0 -5.5174171182855503 4.4305662019067995 0 0 0 0 771.10203855019063 316.54745836821894 0 316.54745836821894 -80.751942104707268 0 0 0 0 -127.13475210284378 -186.55227353430337 0 -186.55227353430337 -117.9843213673721 0 0 0 0 573.60519020757056 259.73205417964709 0 259.73205417964709 55.834508261261362 0 0 0 0 683.77129827070166 340.65471595301278 0 340.65471595301278 -29.008121281232889 0 0 0 0 -422.1548541386328 -325.05355726116477 0 -325.05355726116477 -91.533608019284657 0 0 0 0 -150.92595597480249 -140.04282520643847 0 -140.04282520643847 -136.64695954200761 0 0 0 0 -336.89223360413234 -130.65192609353562 0 -130.65192609353562 -96.192936972405732 0 0 0 0 -164.06504040001892 -194.64621376892319 0 -194.64621376892319 -120.55704461057394 0 0 0 0 -168.09455222856923 -152.68120459639806 0 -152.68120459639806 -102.07280711935164 0 0 0 0 0.4546542601912904 0.45085193855732086 0 0.45085193855732086 -0.34937059007080329 0 0 0 0 763.43286077557423 289.98860407285383 0 289.98860407285383 316.57366694272969 0 0 0 0 1.3965511795679788 -1.3918219736352455 0 -1.3918219736352455 1.8230149012996435 0 0 0 0 902.87966674720519 476.03320857239032 0 476.03320857239032 114.68037093548628 0 0 0 0 711.89226654879531 297.8768062857107 0 297.8768062857107 413.4067819121683 0 0 0 0 819.39356295045854 -12.306878458720689 0 -12.306878458720689 -59.912103044604009 0 0 0 0 139.27609867155843 -320.4048639471157 0 -320.4048639471157 -214.72085355460695 0 0 0 0 624.10114401244209 -103.4090393822471 0 -103.4090393822471 -390.85382787717026 0 0 0 0 313.94607230692054 170.69330504204481 0 170.69330504204481 -169.34543670477069 0 0 0 0 -162.50489044921414 -171.69395170411144 0 -171.69395170411144 -102.87791875124094 0 0 0 0 -157.40661944287422 -143.11886615821572 0 -143.11886615821572 -78.403321118861641 0 0 0 0 -219.42937864467967 -138.55898500226976 0 -138.55898500226976 -112.21452751002562 0 0 0 0 -239.27363858255558 -326.96517351387774 0 -326.96517351387774 -198.08874184202068 0 0 0 0 -163.37415211671032 -118.09136337105519 0 -118.09136337105519 -173.44875286730894 0 0 0 0 -124.309038204432 -140.4391775333861 0 -140.4391775333861 -87.862005969469465 0 0 0 0 -183.97251051073545 -83.400528266522088 0 -83.400528266522088 -80.748869104889764 0 0 0 0 -188.98390273906989 -120.39929249342822 0 -120.39929249342822 -97.849470323915057 0 0 0 0 -159.4819774319476 -153.21767172408363 0 -153.21767172408363 -75.744455444953928 0 0 0 0 -132.37685093723121 -126.90297113748238 0 -126.90297113748238 -72.753407868076465 0 0 0 0 -54.012323379778536 -133.22134501820256 0 -133.22134501820256 -72.544827472365455 0 0 0 0 -60.591067371598911 -150.3272242046969 0 -150.3272242046969 -46.806316806607356 0 0 0 0 -94.612403085629921 -154.15595877546366 0 -154.15595877546366 -59.103809666545203 0 0 0 0 -91.404256600362714 -117.19902689955779 0 -117.19902689955779 -71.836156376899453 0 0 0 0 -98.470637459657155 -165.52192615058811 0 -165.52192615058811 -85.923307177430615 0 0 0 0 -96.625564115383895 -154.3097218728235 0 -154.3097218728235 -50.378578353840567 0 0 0 0 -46.933025018544868 -147.84561348209536 0 -147.84561348209536 -77.017359307217703 0 0 0 0 21.959839426068356 -200.22554170666444 0 -200.22554170666444 -68.937291786220158 0 0 0 0 -44.686710435231362 -162.43999176375746 0 -162.43999176375746 -23.381688537869195 0 0 0 0 -20.862129971123068 -153.30910941962065 0 -153.30910941962065 -91.156097467988729 0 0 0 0 71.334860756789567 -131.93432785128971 0 -131.93432785128971 -95.359023554105079 0 0 0 0 104.01358757331036 -180.83995920955385 0 -180.83995920955385 -24.544082011847081 0 0 0 0 235.97750782960793 -112.94532108389831 0 -112.94532108389831 -70.68219212027725 0 0 0 0 313.62028081549215 -86.704006171299625 0 -86.704006171299625 -95.788628580001387 0 0 0 0 87.405005679931492 -144.46342686267963 0 -144.46342686267963 -73.046051419927608 0 0 0 0 198.84417387799476 -73.175389428464769 0 -73.175389428464769 -34.20229881621708 0 0 0 0 35.856910175469238 -157.29159512371189 0 -157.29159512371189 -53.492699945913046 0 0 0 0 34.118769187189173 -141.54473607689579 0 -141.54473607689579 -43.113940648821881 0 0 0 0 345.87553790883976 215.93470245538265 0 215.93470245538265 194.3195759184091 0 0 0 0 -117.54967642244083 -192.02829744072369 0 -192.02829744072369 281.91339067633999 0 0 0 0 -601.60893136801315 137.86334200125202 0 137.86334200125202 638.12656024573153 0 0 0 0 -45.463577404618263 -110.8143183476368 0 -110.8143183476368 55.177834786944004 0 0 0 0 24.067084385576891 -29.242449430455963 0 -29.242449430455963 124.73621277890561 0 0 0 0 182.70684175874339 -28.417993693636163 0 -28.417993693636163 3.148729099866614 0 0 0 0 85.898350794770522 -137.13845957788544 0 -137.13845957788544 -138.99561416050346 0 0 0 0 66.724743622991809 -157.3549706742981 0 -157.3549706742981 -84.994838334969245 0 0 0 0 62.298090138290718 -93.931300787991859 0 -93.931300787991859 -191.84249841879682 0 0 0 0 61.1679994710139 -145.31030023502353 0 -145.31030023502353 64.235591601684519 0 0 0 0 40.97740182254347 -156.2391312980908 0 -156.2391312980908 -143.06659509139718 0 0 0 0 -1.1069641018402763 -150.39242997420843 0 -150.39242997420843 -140.7336894790451 0 0 0 0 -61.575759771105368 -179.92710397379778 0 -179.92710397379778 -154.19360404277904 0 0 0 0 -60.666614783272962 -186.81069829417106 0 -186.81069829417106 -110.6160669404162 0 0 0 0 -79.024405057163676 -171.92728971506767 0 -171.92728971506767 -80.914577725598065 0 0 0 0 -78.910951248864876 -170.53683345777245 0 -170.53683345777245 -116.02591675787517 0 0 0 0 5.528225564485183 -165.5260103310211 0 -165.5260103310211 -135.19412213179021 0 0 0 0 5.6841716442431789 -168.87701751681925 0 -168.87701751681925 -65.818269899388724 0 0 0 0 67.280460381844023 -189.0461594535609 0 -189.0461594535609 -134.53247937744163 0 0 0 0 3.4175589373959667 5.8079456715530569 0 5.8079456715530569 -16.679234455704979 0 0 0 0 46.163326903668349 32.081063310288528 0 32.081063310288528 -16.605847725836156 0 0 0 0 17.349076644441226 23.326687534437902 0 23.326687534437902 -11.717234450767469 0 0 0 0 43.406158758967649 28.877780742155437 0 28.877780742155437 -19.298007768213893 0 0 0 0 14.23908473333745 2.1636571031509177 0 2.1636571031509177 -9.6974182809985194 0 0 0 0 51.460112809209022 18.779189526348659 0 18.779189526348659 -20.437056815615961 0 0 0 0 36.915349926581257 17.944581639374803 0 17.944581639374803 -17.853812744235483 0 0 0 0 51.425336085698291 19.031889426399431 0 19.031889426399431 -22.265693735627792 0 0 0 0 23.548600666699713 -13.002181716120162 0 -13.002181716120162 -1.9356347366729096 0 0 0 0 28.201289720207569 18.268991069796357 0 18.268991069796357 -19.601120652689133 0 0 0 0 58.894236064646975 46.559743900654212 0 46.559743900654212 -1.4189605575688802 0 0 0 0 67.627029837327427 21.841499306870446 0 21.841499306870446 -58.311773469074978 0 0 0 0 15.269678529249688 2.4581692857622244 0 2.4581692857622244 -3.956520619997443 0 0 0 0 7.909133202090743 81.089571435913058 0 81.089571435913058 104.09367241032032 0 0 0 0 34.188701925222631 152.70598756496162 0 152.70598756496162 -161.02004552764993 0 0 0 0 18.430973242044274 -1.329918848567786 0 -1.329918848567786 -25.725183708071199 0 0 0 0 14.886403571916162 -32.20528690516494 0 -32.20528690516494 -110.95299177711536 0 0 0 0 18.011879229003341 0.25495212883317464 0 0.25495212883317464 -2.8441358378698096 0 0 0 0 -11.578584829898318 123.04269479749655 0 123.04269479749655 -480.91360019534295 0 0 0 0 4.5511683333934343 18.816919495624234 0 18.816919495624234 188.81588243758051 0 0 0 0 10.180980091847232 3.3388744423007211 0 3.3388744423007211 -204.29908551091467 0 0 0 0 -56.419812960608397 -50.707329780894725 0 -50.707329780894725 169.79345044085358 0 0 0 0 -23.808581237739418 6.4171947818776971 0 6.4171947818776971 -5.9421724509916203 0 0 0 0 14.424972626984527 49.95762302668436 0 49.95762302668436 -174.99014508342225 0 0 0 0 83.344650257033209 71.34681413358885 0 71.34681413358885 26.424618931687291 0 0 0 0 -1.5126571803812112 -100.3316271246598 0 -100.3316271246598 54.23080638016836 0 0 0 0 1.1841122670851121 3.3426736010376743 0 3.3426736010376743 -1.1663198574045914 0 0 0 0 -84.4750240792564 59.5320753370479 0 59.5320753370479 277.98191719706301 0 0 0 0 -155.18057210117331 176.61161463233816 0 176.61161463233816 180.61018689145567 0 0 0 0 -51.166408372977457 79.325915121713933 0 79.325915121713933 -86.331238585916253 0 0 0 0 21.775617979525123 188.48014841116856 0 188.48014841116856 -54.64570681101975 0 0 0 0 217.64746461693721 73.959433842032922 0 73.959433842032922 -115.96914896276212 0 0 0 0 -3.414921818134701 12.072222741855185 0 12.072222741855185 -0.96370388298272047 0 0 0 0 1.8415041719346874 2.066725810854976 0 2.066725810854976 -0.56786920945609864 0 0 0 0 -10.599617417778063 -42.226284669704 0 -42.226284669704 -22.884253881680706 0 0 0 0 41.78083828601666 8.2235631553130588 0 8.2235631553130588 -29.382157019164879 0 0 0 0 36.573211989692936 0.74853474817200549 0 0.74853474817200549 -34.699429301843338 0 0 0 0 38.326975822779787 12.047381722002001 0 12.047381722002001 -8.3397076780665884 0 0 0 0 25.85340931568868 4.6113157635066386 0 4.6113157635066386 -6.6206481988923134 0 0 0 0 57.732705266193079 32.212285367621462 0 32.212285367621462 -1.4995906737021869 0 0 0 0 54.151582401136693 56.313037355992151 0 56.313037355992151 -7.2355053881610729 0 0 0 0 8.39903447289052 8.78140255335326 0 8.78140255335326 -7.0076107656444115 0 0 0 0 16.955233533575665 -0.26465766641467781 0 -0.26465766641467781 22.506578408011592 0 0 0 0 29.362040919440915 21.558820000042033 0 21.558820000042033 -22.447683780947045 0 0 0 0 37.309683947994927 16.97322657725158 0 16.97322657725158 -26.369959007957732 0 0 0 0 27.478819061858104 16.648710427180646 0 16.648710427180646 -8.8089521245333948 0 0 0 0 49.869241435451841 14.922805481646265 0 14.922805481646265 -18.003883781791046 0 0 0 0 -6.4472718546312535 78.043627622020949 0 78.043627622020949 31.538358338341823 0 0 0 0 8.9955955195905233 6.4713767665756858 0 6.4713767665756858 -3.4561908831428241 0 0 0 0 54.887472474787501 60.192815259088093 0 60.192815259088093 -67.380273243483884 0 0 0 0 47.687514633828869 64.903359216664683 0 64.903359216664683 7.1645094666109799 0 0 0 0 -26.348767022456741 66.1079136239224 0 66.1079136239224 9.7208758740175654 0 0 0 0 47.344398336790618 14.765981533437298 0 14.765981533437298 -7.5209757851559971 0 0 0 0 2.7381582960188098 96.687093103535972 0 96.687093103535972 -28.396518659813864 0 0 0 0 19.852154693752226 5.3158736679446577 0 5.3158736679446577 -4.8830822585950031 0 0 0 0 30.122818383002596 5.5646743965337464 0 5.5646743965337464 -24.923571061361599 0 0 0 0 38.003162334344353 14.338846225981072 0 14.338846225981072 -8.854211473301195 0 0 0 0 28.91737990435314 23.062047648333483 0 23.062047648333483 -20.28438450707884 0 0 0 0 21.929756457531767 20.251965089139503 0 20.251965089139503 -14.241483493084161 0 0 0 0 28.111967434088001 -4.3578804406652125 0 -4.3578804406652125 -22.944414064477428 0 0 0 0 47.799102471314384 21.243591021968186 0 21.243591021968186 -21.28108474929126 0 0 0 0 18.873234747371271 -0.49317526295992309 0 -0.49317526295992309 -1.768768083916985 0 0 0 0 38.611187836911995 10.199983398080803 0 10.199983398080803 -16.685554307667189 0 0 0 0 64.536198810557835 0.75171873822318958 0 0.75171873822318958 -77.322942243776197 0 0 0 0 18.480100067972671 21.259573770556017 0 21.259573770556017 -12.287582316648695 0 0 0 0 5.0373684758021895 16.434743832515935 0 16.434743832515935 -5.316514262713822 0 0 0 0 74.529696927056648 18.988239202703198 0 18.988239202703198 -17.131473333254348 0 0 0 0 4.8459669688566009 8.0585825516816421 0 8.0585825516816421 -4.4296358032221654 0 0 0 0 -21.135726947453804 6.7536254510087019 0 6.7536254510087019 -13.63717593079673 0 0 0 0 18.219082975562117 14.74662233495448 0 14.74662233495448 -12.217025941448828 0 0 0 0 27.493079846492037 14.45928226856995 0 14.45928226856995 -5.3388092413091499 0 0 0 0 28.593686393636744 11.327873680831544 0 11.327873680831544 -11.605923913895822 0 0 0 0 21.799731006292859 10.033296112849712 0 10.033296112849712 -11.86957264009834 0 0 0 0 17.314505794704672 8.7121501781776871 0 8.7121501781776871 -4.0182762650373647 0 0 0 0 34.024218319729229 10.962850535182838 0 10.962850535182838 -11.352487884685434 0 0 0 0 43.231842354231048 7.1088869437480753 0 7.1088869437480753 -10.637764254083777 0 0 0 0 -24.928636324941181 -41.683455855420107 0 -41.683455855420107 -44.234047388599265 0 0 0 0 24.339019743376411 10.467690370765922 0 10.467690370765922 -11.752498072652088 0 0 0 0 4.5808092530366764 -2.8197397074312391 0 -2.8197397074312391 -3.2983030206074524 0 0 0 0 21.897799886044737 -3.2203926701263654 0 -3.2203926701263654 -5.258398361301694 0 0 0 0 86.781571402214468 39.58238072374661 0 39.58238072374661 -56.910229234661529 0 0 0 0 46.644469639465569 8.3730513380304217 0 8.3730513380304217 -14.029479582180091 0 0 0 0 28.722643063010764 2.8780926667022868 0 2.8780926667022868 -17.897438552288804 0 0 0 0 73.609883568133228 12.328552924562246 0 12.328552924562246 -39.123028066350344 0 0 0 0 27.169164615086629 5.781062589299836 0 5.781062589299836 -25.631854027167719 0 0 0 0 21.643162164011272 0.88380052317180713 0 0.88380052317180713 -8.042447308649292 0 0 0 0 42.611437687700828 5.9341073193882821 0 5.9341073193882821 -14.254661940535648 0 0 0 0 20.881030311691575 9.1585115088673774 0 9.1585115088673774 -22.530720713214578 0 0 0 0 21.746880882710684 14.113077127560246 0 14.113077127560246 -22.165390796333895 0 0 0 0 15.648245640040841 2.2075796295248438 0 2.2075796295248438 -19.148554792023788 0 0 0 0 40.006743285379315 13.326751355043029 0 13.326751355043029 -11.040703807592724 0 0 0 0 19.476507115154959 12.274664385298429 0 12.274664385298429 -11.179590995528754 0 0 0 0 20.238366798206698 13.837827677074529 0 13.837827677074529 -15.45004073423479 0 0 0 0 19.873904336848824 8.9644202043140311 0 8.9644202043140311 -11.652606935798506 0 0 0 0 25.003995055292677 3.8495270166355766 0 3.8495270166355766 -7.3550609015891837 0 0 0 0 20.42430411168607 14.200885320363795 0 14.200885320363795 -20.093041681477189 0 0 0 0 15.902239667553147 31.70758972000209 0 31.70758972000209 -12.920765420369731 0 0 0 0 33.323561486164238 21.059981178357653 0 21.059981178357653 -9.0242432711526028 0 0 0 0 -2.7782220363151282 24.488310829194234 0 24.488310829194234 -20.999982232329785 0 0 0 0 21.464652803959325 14.255816960023367 0 14.255816960023367 -20.312012519152631 0 0 0 0 47.413332410884323 -43.451735521131923 0 -43.451735521131923 -15.401603858303588 0 0 0 0 121.57466067518544 46.677650520568932 0 46.677650520568932 -33.350496730583473 0 0 0 0 16.657007023172113 14.225292248098739 0 14.225292248098739 -12.391162354610913 0 0 0 0 -46.575656857399736 107.88637033612576 0 107.88637033612576 -99.964427551187327 0 0 0 0 29.605643254832813 -5.6107001574633557 0 -5.6107001574633557 0.46520484359122705 0 0 0 0 26.646914787212154 33.742835657762043 0 33.742835657762043 -27.480944748615002 0 0 0 0 6.7753906914085036 3.7948716938813334 0 3.7948716938813334 -3.1131667794177673 0 0 0 0 -67.024511783565686 107.30224548672959 0 107.30224548672959 -86.562161843154172 0 0 0 0 29.759223392662818 -4.9549372414571593 0 -4.9549372414571593 -0.8407990209557088 0 0 0 0 -7.4209047448239289 -54.533198888002516 0 -54.533198888002516 -65.905514276250869 0 0 0 0 33.701282005002213 -12.719143188920157 0 -12.719143188920157 -22.711807447368301 0 0 0 0 -43.048324343253626 -65.000810327401268 0 -65.000810327401268 -47.645405223884154 0 0 0 0 3.0938512776046991 -29.095041556807701 0 -29.095041556807701 -71.875865801070177 0 0 0 0 -21.841480295581277 -63.505252627527625 0 -63.505252627527625 -11.626370003281409 0 0 0 0 -26.203432095702738 -46.125433112871178 0 -46.125433112871178 -54.69182416028525 0 0 0 0 -7.954938061608118 -63.032472626582603 0 -63.032472626582603 -49.123106980910961 0 0 0 0 -52.069532033463474 -37.145062939122454 0 -37.145062939122454 5.3914769599696228 0 0 0 0 -20.173071555014758 -66.304114254342039 0 -66.304114254342039 22.236659660322402 0 0 0 0 8.7433702642993012 20.9847392604064 0 20.9847392604064 -23.253700397745888 0 0 0 0 11.373272548370849 4.6441035329155795 0 4.6441035329155795 -9.6372543314337022 0 0 0 0 23.930863010614303 -2.6340208077313605 0 -2.6340208077313605 -10.365535372360682 0 0 0 0 -24.600660284122569 32.431921257149043 0 32.431921257149043 -16.24837780739233 0 0 0 0 6.2374679374569943 -1.5683311246942822 0 -1.5683311246942822 -0.78186075178485837 0 0 0 0 18.334127543574141 -14.190193464570257 0 -14.190193464570257 -9.4986994208666147 0 0 0 0 11.737110236084717 7.0533165087791758 0 7.0533165087791758 -6.5090006184630269 0 0 0 0 29.689358664935753 20.721196904671331 0 20.721196904671331 -20.672704255849567 0 0 0 0 -46.956358391798858 -7.4941277579036978 0 -7.4941277579036978 -12.728373786563225 0 0 0 0 27.739726522711862 20.847654887926439 0 20.847654887926439 -5.5613377321187469 0 0 0 0 -0.048184925969309234 7.6354952289003819 0 7.6354952289003819 -6.112417293676585 0 0 0 0 7.8494343439388103 4.0409505749272512 0 4.0409505749272512 -10.914651551317267 0 0 0 0 29.341780801063578 14.937911230082165 0 14.937911230082165 -2.0939557408864857 0 0 0 0 34.777555022024899 36.102729635856349 0 36.102729635856349 0.20739602690628089 0 0 0 0 22.925922656737384 1.2009275035808287 0 1.2009275035808287 -6.5716314352008567 0 0 0 0 19.944668451856444 2.2292037655686379 0 2.2292037655686379 -7.4205678085531179 0 0 0 0 19.141169188034837 -5.6503903899817942 0 -5.6503903899817942 -11.418489891610307 0 0 0 0 5.9899675270403918 -0.56288948845756437 0 -0.56288948845756437 -2.281322667005556 0 0 0 0 -3.9017523284055642 8.235030310055663 0 8.235030310055663 -3.7219794838583766 0 0 0 0 9.6835969660379533 10.644125458600747 0 10.644125458600747 -4.4853278534372203 0 0 0 0 -0.97068690081897557 1.9805335827318196 0 1.9805335827318196 0.43176034763540772 0 0 0 0 93.185769838251872 -17.855568823379826 0 -17.855568823379826 6.737531359337936 0 0 0 0 -1.6372667737159645 31.049744817680022 0 31.049744817680022 -14.963722063552154 0 0 0 0 55.514942431655072 86.147448552192031 0 86.147448552192031 -7.2334936393631324 0 0 0 0 67.418787728316602 -40.944925679007753 0 -40.944925679007753 12.104623991161588 0 0 0 0 -21.12287088596895 -13.812357841028785 0 -13.812357841028785 10.18676358513153 0 0 0 0 89.324649157162639 67.771269520743772 0 67.771269520743772 -9.9661941661015589 0 0 0 0 36.971911083870509 49.532998070190615 0 49.532998070190615 73.530589179161552 0 0 0 0 38.278996005756198 47.362060928622441 0 47.362060928622441 -12.40206502321189 0 0 0 0 60.051964832258818 45.365597246201332 0 45.365597246201332 -52.141749512491515 0 0 0 0 28.500444268254796 66.64618124823869 0 66.64618124823869 -42.243703171168363 0 0 0 0 412.76676126166421 389.23884225620623 0 389.23884225620623 144.1697238707784 0 0 0 0 519.3987340543099 195.94576489030396 0 195.94576489030396 -176.3017184420969 0 0 0 0 5.52816159154807 2.1907294080598216 0 2.1907294080598216 0.029858864944139585 0 0 0 0 52.102557664373307 -43.622828588010634 0 -43.622828588010634 -121.99514711369375 0 0 0 0 327.02004267347729 27.827454179944652 0 27.827454179944652 -261.92823137677624 0 0 0 0 213.87260969050112 432.75817714561254 0 432.75817714561254 167.856949884801 0 0 0 0 65.891282037511701 473.25684485102829 0 473.25684485102829 257.38478086071791 0 0 0 0 -12.618764970291522 216.18130786992333 0 216.18130786992333 663.46022953793545 0 0 0 0 158.85246862081112 240.67824733487578 0 240.67824733487578 375.42978832807603 0 0 0 0 5.3308811961994991 -2.1565583816115392 0 -2.1565583816115392 0.62034204580482921 0 0 0 0 460.7746189134341 208.94404045412557 0 208.94404045412557 -33.087884665279489 0 0 0 0 507.27832280159055 119.30841927246865 0 119.30841927246865 -279.60419662127697 0 0 0 0 25.712720963664509 -3.3891370825642824 0 -3.3891370825642824 -0.024800814477256239 0 0 0 0 -155.93344510166207 -117.19114261195136 0 -117.19114261195136 102.64639758502926 0 0 0 0 537.44926245344686 396.40736476371239 0 396.40736476371239 122.73508019592373 0 0 0 0 178.70432976352458 225.81615271305327 0 225.81615271305327 92.751217211864059 0 0 0 0 698.17833003121268 69.898231727090206 0 69.898231727090206 81.349876566011517 0 0 0 0 139.99590524376254 94.534156819111558 0 94.534156819111558 -135.05247124601829 0 0 0 0 57.00024460820714 -194.45261660049709 0 -194.45261660049709 -231.05422250731317 0 0 0 0 -182.66819854377536 -24.040675349742742 0 -24.040675349742742 -224.28907286929643 0 0 0 0 -227.26701475819573 -271.65848324215767 0 -271.65848324215767 59.004305250909965 0 0 0 0 -23.713732460164465 265.78745409208568 0 265.78745409208568 38.844486614378184 0 0 0 0 17.424822312280327 -4.4361642590946531 0 -4.4361642590946531 0.77435887570153916 0 0 0 0 244.67256098081998 -156.31604260422864 0 -156.31604260422864 -413.82260700019015 0 0 0 0 6.5292235426604748 -36.560059910891141 0 -36.560059910891141 22.695402939947598 0 0 0 0 30.828128636146033 -5.2407986535820044 0 -5.2407986535820044 0.31867640698035515 0 0 0 0 224.37590633929358 -182.62552155780941 0 -182.62552155780941 -361.50769697847636 0 0 0 0 -53.244964549754513 86.589977611331051 0 86.589977611331051 -151.63919116306533 0 0 0 0 92.937381830648519 -34.560881012635946 0 -34.560881012635946 -230.41672943625952 0 0 0 0 23.87028895819094 -53.734417631309952 0 -53.734417631309952 1.7971897769011775 0 0 0 0 -0.56411704522906803 34.147188317204382 0 34.147188317204382 -171.80217104995245 0 0 0 0 -74.033679377003864 -6.0908325471837088 0 -6.0908325471837088 -81.566822385779233 0 0 0 0 -12.840314067725558 -68.561675306866164 0 -68.561675306866164 -39.435303525635391 0 0 0 0 14.459881375012628 -21.80741283361931 0 -21.80741283361931 -28.086393446605143 0 0 0 0 41.598084921191912 -16.964185093062042 0 -16.964185093062042 -140.40664860367178 0 0 0 0 205.16368488523585 45.01196281067223 0 45.01196281067223 -30.415931730905129 0 0 0 0 -20.720362251959159 -32.411189896134829 0 -32.411189896134829 -6.3391937145825068 0 0 0 0 -18.418081418290967 175.34818752080173 0 175.34818752080173 355.22474929658347 0 0 0 0 39.256881582139613 -14.044866909184066 0 -14.044866909184066 71.025113191612036 0 0 0 0 91.272103547584265 3.4009601650504919 0 3.4009601650504919 -58.272830493722722 0 0 0 0 81.83308928005863 -20.933481329044298 0 -20.933481329044298 66.310495128507341 0 0 0 0 19.042474221030716 31.923631319516062 0 31.923631319516062 139.6190191099995 0 0 0 0 -69.888596857723314 -166.73444488459245 0 -166.73444488459245 -73.712636827791357 0 0 0 0 266.43673293052416 176.08465723613153 0 176.08465723613153 -2.8484609242268562 0 0 0 0 161.80757373120287 -71.661332561970084 0 -71.661332561970084 43.223939349975808 0 0 0 0 496.55318360361707 85.467779964158126 0 85.467779964158126 -74.064739938788989 0 0 0 0 173.7275890863566 92.679136279292379 0 92.679136279292379 -73.770664719386332 0 0 0 0 72.089060894140857 -5.2777305386157423 0 -5.2777305386157423 17.628286595625468 0 0 0 0 -159.36018618500384 117.39479204745021 0 117.39479204745021 164.95202527469746 0 0 0 0 77.029176540949265 -21.938828780252152 0 -21.938828780252152 2.8723399668056118 0 0 0 0 83.034820027620299 -2.4040589530331999 0 -2.4040589530331999 66.306640901510946 0 0 0 0 436.64229179541871 -263.29249998649902 0 -263.29249998649902 250.23273360035819 0 0 0 0 758.50104950352943 318.26709926234014 0 318.26709926234014 -34.864292879374261 0 0 0 0 158.31505811317402 84.702737116917888 0 84.702737116917888 -59.534499767965826 0 0 0 0 298.84721944577905 214.51835152441436 0 214.51835152441436 -32.523391361958602 0 0 0 0 278.69649747409858 110.44537653306998 0 110.44537653306998 -54.145514582085525 0 0 0 0 -14.602994529974239 103.96936427443143 0 103.96936427443143 45.716114622291116 0 0 0 0 85.782153729509446 126.45743031182519 0 126.45743031182519 26.408986524453212 0 0 0 0 -42.913079651872977 11.317418983579955 0 11.317418983579955 22.202943435463567 0 0 0 0 -69.486143546469975 50.754233040579038 0 50.754233040579038 53.237908483137289 0 0 0 0 97.039063211046596 104.02255178207952 0 104.02255178207952 32.948821791881528 0 0 0 0 0.11107861471828073 5.9251043665944962 0 5.9251043665944962 40.326935589871027 0 0 0 0 -56.038900862418814 27.331221238825492 0 27.331221238825492 8.3457404052883248 0 0 0 0 7.1068232205579989 59.477545485899554 0 59.477545485899554 16.79594658233691 0 0 0 0 8.0069549189465761 63.532555512256522 0 63.532555512256522 -127.7329939618985 0 0 0 0 10.972331241221212 2.1975035894107453 0 2.1975035894107453 -0.26039119749062234 0 0 0 0 224.30646447470644 -146.48124931238817 0 -146.48124931238817 -412.95050622427084 0 0 0 0 -40.50449702889091 -242.05147588193199 0 -242.05147588193199 367.74106762497377 0 0 0 0 669.25305209490762 320.56128497537338 0 320.56128497537338 -5.9294696756951453 0 0 0 0 -143.85872075725638 465.60957585782216 0 465.60957585782216 853.36709741113418 0 0 0 0 -74.816973720306123 420.38683314530954 0 420.38683314530954 507.00929155316226 0 0 0 0 599.33735337108374 15.247786907534646 0 15.247786907534646 6.0648745888065605 0 0 0 0 5.3627304363390067 0.88121118342217564 0 0.88121118342217564 0.028261405650043869 0 0 0 0 251.60518588997729 -258.86088222794069 0 -258.86088222794069 -72.17592120622885 0 0 0 0 231.08329648366635 252.09503706823944 0 252.09503706823944 101.84375483272891 0 0 0 0 591.99832528245406 112.88821645397277 0 112.88821645397277 -66.018542897540101 0 0 0 0 586.46330291851621 -84.567374971254509 0 -84.567374971254509 -27.445927405988186 0 0 0 0 389.49864303260983 127.64658192641582 0 127.64658192641582 -66.173847836438199 0 0 0 0 523.04641492608789 20.550413184455465 0 20.550413184455465 -84.575694610701248 0 0 0 0 254.43914921813484 112.90826124787668 0 112.90826124787668 -24.477742479195513 0 0 0 0 220.0568001462234 32.66445000148542 0 32.66445000148542 -22.574555750876243 0 0 0 0 395.56592255004216 41.13589813079443 0 41.13589813079443 -87.032562709038757 0 0 0 0 371.87136669945176 37.309706955140882 0 37.309706955140882 -38.865160948969788 0 0 0 0 426.14696245532832 -9.809634834497956 0 -9.809634834497956 -2.9868900216649763 0 0 0 0 451.46436722070939 4.3091177514161245 0 4.3091177514161245 -58.994117840687977 0 0 0 0 1.3563586238883261 -1.2572802503130927 0 -1.2572802503130927 1.1287079852425013 0 0 0 0 207.15970792675216 175.12306956180782 0 175.12306956180782 23.813352958632095 0 0 0 0 -0.53282819196218156 6.7001107626336704 0 6.7001107626336704 6.1720990899976087 0 0 0 0 17.12135325516283 -37.921665950692841 0 -37.921665950692841 44.574125855817329 0 0 0 0 29.977962230077537 32.638626352489382 0 32.638626352489382 -6.8365667650659816 0 0 0 0 30.235219786016387 40.00284028805163 0 40.00284028805163 -14.936046959013765 0 0 0 0 249.82307113714342 -40.720403609969253 0 -40.720403609969253 -44.193327280027916 0 0 0 0 94.328718313219724 75.875382993714084 0 75.875382993714084 7.8344391021364572 0 0 0 0 399.90797257894883 -37.504119222628105 0 -37.504119222628105 -39.314097951509211 0 0 0 0 289.67398312887235 47.345427283782556 0 47.345427283782556 -52.67145945006564 0 0 0 0 102.65201637828432 -35.199339175884234 0 -35.199339175884234 -23.71512708987666 0 0 0 0 98.470706422798685 -30.649208237558469 0 -30.649208237558469 -1.5065351995381207 0 0 0 0 55.961057097912999 22.12487671814506 0 22.12487671814506 -6.1240004627024973 0 0 0 0 27.773850391356973 28.884491716074081 0 28.884491716074081 3.6311424449932019 0 0 0 0 37.532122017873917 1.4590755617036848 0 1.4590755617036848 -27.693376486066882 0 0 0 0 24.819449440794415 39.30734640629089 0 39.30734640629089 -3.2314971439095643 0 0 0 0 63.13286227631761 50.824126833630544 0 50.824126833630544 13.781415381340139 0 0 0 0 112.55289200534025 29.061660259650125 0 29.061660259650125 3.073998105021019 0 0 0 0 82.788132934161695 2.8593331081515316 0 2.8593331081515316 -2.4156626112987851 0 0 0 0 168.21400996022567 -44.890265151611402 0 -44.890265151611402 -22.46195604839113 0 0 0 0 277.4345851514372 58.07056489956085 0 58.07056489956085 7.9896679947235043 0 0 0 0 65.520669252946391 27.619722227726015 0 27.619722227726015 222.66909823230162 0 0 0 0 288.50269014938385 -176.01933614307563 0 -176.01933614307563 124.0670942164129 0 0 0 0 -4.9800763198343674 4.2482738309884667 0 4.2482738309884667 12.233852254203788 0 0 0 0 -9.7002229604986496 2.6955505201995038 0 2.6955505201995038 59.226982348851379 0 0 0 0 41.464884985380195 120.60936122260557 0 120.60936122260557 64.439836567195016 0 0 0 0 -1.997202952936064 -1.1535133309945422 0 -1.1535133309945422 1.1020701015610577 0 0 0 0 68.87041966378456 -80.838652582488066 0 -80.838652582488066 -67.729236684305761 0 0 0 0 -91.770475059871387 56.151233995903794 0 56.151233995903794 -12.539191934424707 0 0 0 0 -94.266701333610399 76.839073832363397 0 76.839073832363397 73.577713190069517 0 0 0 0 2.684148093466078 7.5849522382923311 0 7.5849522382923311 13.859311079132208 0 0 0 0 -0.098269821705471827 1.7375076187323373 0 1.7375076187323373 1.281631207379494 0 0 0 0 110.62460093336995 -88.533262953855228 0 -88.533262953855228 113.46718300641896 0 0 0 0 233.12823933176696 -63.293670485607436 0 -63.293670485607436 -2.3775086699515668 0 0 0 0 264.96054308942985 14.499547418354268 0 14.499547418354268 -130.3407319899361 0 0 0 0 16.104496669882792 -162.184436845444 0 -162.184436845444 -6.3601010054226208 0 0 0 0 27.249143350069062 -135.07263788504315 0 -135.07263788504315 43.025700116915687 0 0 0 0 -392.49932218286267 58.260592350796287 0 58.260592350796287 -99.70233654247204 0 0 0 0 81.374792495276779 -106.05169845435194 0 -106.05169845435194 -149.87507530549919 0 0 0 0 86.542568334769385 -51.240776409386001 0 -51.240776409386001 50.600346846033062 0 0 0 0 0.34293026445303099 0.069279736310122075 0 0.069279736310122075 2.2658185700027413 0 0 0 0 569.32685085189587 -130.50619786105017 0 -130.50619786105017 -72.81080996683977 0 0 0 0 106.30007620531978 -48.973827723375734 0 -48.973827723375734 -59.47594550850954 0 0 0 0 228.65405403288605 -81.259490676339283 0 -81.259490676339283 173.96273104512056 0 0 0 0 276.59216461204778 -70.669359343329234 0 -70.669359343329234 203.10421038554159 0 0 0 0 229.95360774311848 41.574228901290098 0 41.574228901290098 -1.9881349582865369 0 0 0 0 94.704318354371935 -32.336764188216875 0 -32.336764188216875 82.838046378743456 0 0 0 0 -37.31204592269205 37.22242359091706 0 37.22242359091706 85.456243776339761 0 0 0 0 -58.20141583471559 -53.62579258919186 0 -53.62579258919186 63.947047284238579 0 0 0 0 58.115851955997641 13.016288320503008 0 13.016288320503008 -28.618275570839614 0 0 0 0 77.861530013353331 73.634042117287208 0 73.634042117287208 106.06680318358485 0 0 0 0 37.216464434190129 91.632185739327724 0 91.632185739327724 36.286752053225882 0 0 0 0 88.670102800417226 24.773394175822432 0 24.773394175822432 32.369660442177519 0 0 0 0 242.31958895118441 38.73406947241665 0 38.73406947241665 11.907143785532753 0 0 0 0 318.93618179052282 167.88481098435477 0 167.88481098435477 165.26785997997274 0 0 0 0 363.20248006563997 86.212741628579238 0 86.212741628579238 -17.969908481156381 0 0 0 0 366.30237017792206 70.289468392038771 0 70.289468392038771 -24.577126333215347 0 0 0 0 3.3944242352792315 5.8976098058027446 0 5.8976098058027446 10.247341042604528 0 0 0 0 -107.71919524497207 45.535753195536245 0 45.535753195536245 107.85269432914538 0 0 0 0 306.06350023909908 77.04289714575134 0 77.04289714575134 -6.1610017904258711 0 0 0 0 171.60009705871926 -137.97820219190635 0 -137.97820219190635 38.19486639972672 0 0 0 0 389.82710698686424 49.655251963412866 0 49.655251963412866 -23.826551583873879 0 0 0 0 435.2644551305857 -189.90258258193217 0 -189.90258258193217 1.1916895441017914 0 0 0 0 39.579821180857834 27.986794169142058 0 27.986794169142058 24.239955007208891 0 0 0 0 5.0926005668069223 1.9503092462375236 0 1.9503092462375236 7.1296252523099302 0 0 0 0 12.842173149952572 17.993461299371091 0 17.993461299371091 19.710026865180723 0 0 0 0 -327.3045422505179 273.28286137543893 0 273.28286137543893 -77.819762240898854 0 0 0 0 -209.0209082157071 239.01014020372463 0 239.01014020372463 -162.4674269260247 0 0 0 0 206.68067019199952 -48.053356526439984 0 -48.053356526439984 103.8679683465607 0 0 0 0 371.63294991324074 -51.012815949414062 0 -51.012815949414062 -26.984336736530167 0 0 0 0 122.08900650676514 79.325424227890835 0 79.325424227890835 -64.382471182620066 0 0 0 0 191.77138333870971 -98.919403546457033 0 -98.919403546457033 -63.238324951114706 0 0 0 0 147.84942843172757 56.345848707040204 0 56.345848707040204 66.644734748933843 0 0 0 0 203.60142982413527 66.171343260346021 0 66.171343260346021 5.5246956452429004 0 0 0 0 -4.5617007927918252 -2.3726403953643853 0 -2.3726403953643853 5.636016725924641 0 0 0 0 409.01989763257734 -208.00584962975972 0 -208.00584962975972 39.098566495499426 0 0 0 0 -556.92039332666172 310.04150054118026 0 310.04150054118026 50.186833064245775 0 0 0 0 -282.28287239761266 121.27925604322297 0 121.27925604322297 -75.706094225154345 0 0 0 0 6.5960637377073752 11.977010596810089 0 11.977010596810089 22.683820186403125 0 0 0 0 -310.35649884102168 232.56032435128816 0 232.56032435128816 -117.51901860844919 0 0 0 0 -285.49424035463016 317.29965288949529 0 317.29965288949529 169.74912886498214 0 0 0 0 -562.8294837425201 -13.926448606443955 0 -13.926448606443955 7.8087399344087771 0 0 0 0 206.81988464294773 -143.68114731634614 0 -143.68114731634614 6.7014368559612194 0 0 0 0 166.77403790251992 -91.902367645712729 0 -91.902367645712729 -9.420403035082245 0 0 0 0 301.2793669429775 63.304282160179355 0 63.304282160179355 140.76892302198939 0 0 0 0 1.6882536452728303 7.2171097280818373 0 7.2171097280818373 17.036044156939028 0 0 0 0 -789.08693481976297 148.78231913036313 0 148.78231913036313 164.68129011977362 0 0 0 0 -548.06243647228985 190.14004622200719 0 190.14004622200719 -2.7248824635753408 0 0 0 0 -205.13001036969945 75.413218766642331 0 75.413218766642331 -12.516451103806048 0 0 0 0 -457.73800438355829 -12.000311824282903 0 -12.000311824282903 151.63202607868789 0 0 0 0 -374.81405210880621 176.17089283195173 0 176.17089283195173 146.20053770342656 0 0 0 0 926.24990373963738 49.260705234052466 0 49.260705234052466 -38.248115820086241 0 0 0 0 -80.663816986809252 -28.444395393569721 0 -28.444395393569721 170.20494050127127 0 0 0 0 1.2562903830998664 1.7581939256665748 0 1.7581939256665748 4.3040852243758252 0 0 0 0 217.82707872227184 150.76346275845754 0 150.76346275845754 277.16048271541149 0 0 0 0 313.09678062584135 81.06640874427012 0 81.06640874427012 38.997688854998842 0 0 0 0 572.3572747535909 305.31116340342305 0 305.31116340342305 203.19542040078886 0 0 0 0 767.40182842249123 71.198618771655219 0 71.198618771655219 -16.91639738147569 0 0 0 0 235.65948346849473 -77.327722015725158 0 -77.327722015725158 251.15779631961686 0 0 0 0 129.41308769004536 61.315055446033512 0 61.315055446033512 78.186598060950246 0 0 0 0 212.54352632214432 87.291034990092157 0 87.291034990092157 80.751013080516714 0 0 0 0 414.44300184831081 281.66861746838913 0 281.66861746838913 239.30520713871974 0 0 0 0 10.66693990292697 -95.357168765631741 0 -95.357168765631741 61.000510961986492 0 0 0 0 241.92031388857868 47.932202016995689 0 47.932202016995689 -260.55752276647218 0 0 0 0 21.318593286188843 -125.69865138813725 0 -125.69865138813725 33.070283798741002 0 0 0 0 58.570862024622329 -48.883298119772462 0 -48.883298119772462 13.880010049007069 0 0 0 0 -6.3743370758445508 -6.1077703203342324 0 -6.1077703203342324 -5.5695120776682714 0 0 0 0 60.534088746484485 -110.53076652454138 0 -110.53076652454138 71.396572899894636 0 0 0 0 76.453670387876628 41.568632409676866 0 41.568632409676866 -421.22363687441248 0 0 0 0 132.39053370077454 -113.04878551829643 0 -113.04878551829643 -300.11951037918334 0 0 0 0 -1.3920444058218777 -2.1401821062996547 0 -2.1401821062996547 -2.4200418709053189 0 0 0 0 15.229836865211837 -144.85170379250803 0 -144.85170379250803 146.81723087506634 0 0 0 0 55.723521188505401 362.08654112729209 0 362.08654112729209 -596.45271355063142 0 0 0 0 -47.878451517222857 -131.79784795552132 0 -131.79784795552132 -225.11710584287175 0 0 0 0 166.45301818611188 -172.87352299243776 0 -172.87352299243776 -190.3558841006743 0 0 0 0 9.8873205239290201 -1.4427248452347143 0 -1.4427248452347143 0.8925236050024008 0 0 0 0 242.41344386273704 -334.37383877240109 0 -334.37383877240109 54.738396334560093 0 0 0 0 24.712509705597768 -237.86585578208724 0 -237.86585578208724 273.33855635949476 0 0 0 0 543.18571574536509 348.62284956108874 0 348.62284956108874 76.860230382900227 0 0 0 0 -39.340353519175551 57.927964773237363 0 57.927964773237363 561.42110367141959 0 0 0 0 133.03853613229148 107.53759104909568 0 107.53759104909568 140.82137647571017 0 0 0 0 278.99369555349404 59.162697637425481 0 59.162697637425481 3.9272855240023432 0 0 0 0 463.22210409046966 108.70804071596194 0 108.70804071596194 -26.602531289638137 0 0 0 0 294.10717311062035 276.6778954941592 0 276.6778954941592 28.399261439884867 0 0 0 0 172.26330250495812 207.01241676963582 0 207.01241676963582 174.68662263095462 0 0 0 0 121.41833479372872 355.1244134989854 0 355.1244134989854 -47.844235914932142 0 0 0 0 3791.1092782994201 -1476.470650402164 0 -1476.470650402164 391.4353014064792 0 0 0 0 2344.5870563425633 -703.88953708188171 0 -703.88953708188171 308.14955436279604 0 0 0 0 3500.7724033978157 -775.00932032752735 0 -775.00932032752735 576.48243107676444 0 0 0 0 2321.1726973757468 -400.29720669909108 0 -400.29720669909108 316.76883785072289 0 0 0 0 2323.1700006578594 -328.57946990089249 0 -328.57946990089249 444.75753031317549 0 0 0 0 2600.9261894047941 -1065.1912005849385 0 -1065.1912005849385 466.02613723631885 0 0 0 0 19.444052299177528 11.795748663275162 0 11.795748663275162 2.3809356606793637 0 0 0 0 1839.5008104463341 -706.84818102225177 0 -706.84818102225177 387.98359696654495 0 0 0 0 1548.7787570315413 -1008.801779191725 0 -1008.801779191725 75.083883024828992 0 0 0 0 1652.9396286483088 -34.403662812396519 0 -34.403662812396519 133.99819575410038 0 0 0 0 1121.5630682706251 -273.98340060566909 0 -273.98340060566909 39.606796876302042 0 0 0 0 991.03049718511465 -827.24289683002576 0 -827.24289683002576 -136.40698996091305 0 0 0 0 482.15651431705191 38.050214763894246 0 38.050214763894246 -112.57721543740445 0 0 0 0 937.012957041763 -807.73063489889864 0 -807.73063489889864 17.413860350482423 0 0 0 0 2135.6624940332113 -1794.4390040441644 0 -1794.4390040441644 -316.54124704876631 0 0 0 0 3278.4599713672069 -372.12840042257972 0 -372.12840042257972 -299.07888523738211 0 0 0 0 3244.0481289022064 -910.05586925077364 0 -910.05586925077364 303.581593656785 0 0 0 0 1851.9537458368141 -657.7254745711075 0 -657.7254745711075 -308.06528710424891 0 0 0 0 18.891062214653942 12.136852215375555 0 12.136852215375555 3.9001170865503996 0 0 0 0 3500.7965481445844 -141.32793148416974 0 -141.32793148416974 646.57312892147502 0 0 0 0 9.4972412310688696 4.8465277349465907 0 4.8465277349465907 3.793370067890391 0 0 0 0 464.49513184450916 -325.80500395684834 0 -325.80500395684834 1103.1267599530518 0 0 0 0 2610.4403847420181 -77.927099210303737 0 -77.927099210303737 476.77009393543904 0 0 0 0 2784.0227674694033 631.90066608947427 0 631.90066608947427 242.77673569338026 0 0 0 0 3645.5338952709026 296.85496802592354 0 296.85496802592354 -342.26958960253569 0 0 0 0 2888.1098234605306 101.87675990656417 0 101.87675990656417 -0.6056885845841814 0 0 0 0 20.192683573855902 23.620146331638733 0 23.620146331638733 -0.19130002579107228 0 0 0 0 37.436327985618846 15.437472658342843 0 15.437472658342843 -12.777754819450742 0 0 0 0 2887.6698612143082 126.38496202448013 0 126.38496202448013 -92.868553623430898 0 0 0 0 4.2452100760183953 2.8409889340379948 0 2.8409889340379948 0.32395128060158795 0 0 0 0 1216.9766579793504 -166.43081895213308 0 -166.43081895213308 -16.797026485319808 0 0 0 0 52.220887022398529 -7.1700786775232963 0 -7.1700786775232963 -13.442745009920237 0 0 0 0 13.611697143984543 2.9636969893510923 0 2.9636969893510923 0.38410531114086244 0 0 0 0 801.35134246791858 328.75607942448295 0 328.75607942448295 264.78226389471547 0 0 0 0 704.13219616442802 -166.29201452264454 0 -166.29201452264454 -101.74051396195034 0 0 0 0 856.58792774556787 352.00236316323094 0 352.00236316323094 271.09108758116275 0 0 0 0 2700.5337518915876 334.33817888621189 0 334.33817888621189 -135.64115113224267 0 0 0 0 2813.415675406839 603.18287694354274 0 603.18287694354274 -83.810390705160216 0 0 0 0 166.55305899260566 -1736.5362079017377 0 -1736.5362079017377 -194.78243277113472 0 0 0 0 11.178777981711448 -5.6119982777672277 0 -5.6119982777672277 1.8967896129913884 0 0 0 0 332.49806703187642 -229.6662437781697 0 -229.6662437781697 -1180.7138650574543 0 0 0 0 100.00900339383952 212.86209790381383 0 212.86209790381383 -1252.5021968374022 0 0 0 0 13.800953140079372 -4.5837880906953501 0 -4.5837880906953501 -4.1879888795268698 0 0 0 0 28.188131534580464 -11.385218248947751 0 -11.385218248947751 2.019021836248549 0 0 0 0 -228.84289272996466 -79.578651415186357 0 -79.578651415186357 -576.77581537189599 0 0 0 0 420.14920256839832 -342.99416124493519 0 -342.99416124493519 -630.9377919308663 0 0 0 0 460.25992478078115 688.24523685619124 0 688.24523685619124 -471.45924234829158 0 0 0 0 850.7532524002163 9.6239761773298937 0 9.6239761773298937 -1077.5270853821817 0 0 0 0 95.10815099215688 -119.39063710074379 0 -119.39063710074379 -31.171144076310952 0 0 0 0 1629.0657723587938 692.6025432229053 0 692.6025432229053 -547.73825066397012 0 0 0 0 1060.3271156254632 546.26167914266921 0 546.26167914266921 -103.34253672651101 0 0 0 0 610.45794013269187 224.50650898411914 0 224.50650898411914 -241.58742454033887 0 0 0 0 1230.0522623049255 863.8779838571761 0 863.8779838571761 356.52255901967476 0 0 0 0 38.740095075635679 -12.902335349076296 0 -12.902335349076296 -2.7094013870793234 0 0 0 0 581.71747094095917 234.35400810590909 0 234.35400810590909 16.95858467110294 0 0 0 0 45.970568336866563 4.109284234059615 0 4.109284234059615 -19.494413250994732 0 0 0 0 43.136910337896552 3.5336264720320685 0 3.5336264720320685 -18.939340398545816 0 0 0 0 28.566825383268736 -6.2334622345633193 0 -6.2334622345633193 -3.3712555498482644 0 0 0 0 1090.6393187836366 686.59448611126595 0 686.59448611126595 326.35333581133091 0 0 0 0 49.550666810572693 -36.974876025411071 0 -36.974876025411071 -118.20199584877759 0 0 0 0 107.39271596772596 40.597779143305715 0 40.597779143305715 -96.735020456538976 0 0 0 0 44.761249115916144 49.511227909940636 0 49.511227909940636 0.46829455127594921 0 0 0 0 39.183345602970803 24.864007364311021 0 24.864007364311021 -42.106771337907674 0 0 0 0 3675.6836730836003 1404.95246143543 0 1404.95246143543 322.85342675055017 0 0 0 0 3280.7022257449062 760.62202848449306 0 760.62202848449306 187.64931055222485 0 0 0 0 2228.9018850413486 894.02723693230996 0 894.02723693230996 906.27949154147268 0 0 0 0 2878.2641946778167 2343.8323923058338 0 2343.8323923058338 1462.7303776141446 0 0 0 0 2227.2793366387486 850.26428787967154 0 850.26428787967154 -1.7503883642339764 0 0 0 0 12.446876092697096 -0.5707778836179358 0 -0.5707778836179358 -1.6674729596404809 0 0 0 0 6.689168846103712 -111.72022299154197 0 -111.72022299154197 -238.07089201104918 0 0 0 0 1395.3475156988716 1331.8409523329196 0 1331.8409523329196 1330.5283185214098 0 0 0 0 2418.5751783044252 858.15856390105012 0 858.15856390105012 112.7898854814656 0 0 0 0 2400.6718974376854 1114.0319006051491 0 1114.0319006051491 708.92590407026705 0 0 0 0 2459.9643786063953 296.57647992988672 0 296.57647992988672 264.39967789849572 0 0 0 0 1920.3637863497352 930.86776833230749 0 930.86776833230749 117.24481033027843 0 0 0 0 2138.9877160625838 350.8461707214999 0 350.8461707214999 -0.56645115702622206 0 0 0 0 1636.2071374966181 622.13793350301489 0 622.13793350301489 -181.10841698912768 0 0 0 0 1625.8637257477967 794.50510811139713 0 794.50510811139713 -274.34104699266038 0 0 0 0 1757.9515549209027 808.73787911254158 0 808.73787911254158 -306.2225825440683 0 0 0 0 1755.1132540612925 518.48218364698505 0 518.48218364698505 -202.28275459823789 0 0 0 0 1573.9280193398008 835.96780329789249 0 835.96780329789249 -26.365466658798596 0 0 0 0 1568.9762226798957 793.84256678431541 0 793.84256678431541 -11.286085664235998 0 0 0 0 1484.3099322288363 1061.9152600098384 0 1061.9152600098384 372.27908788256582 0 0 0 0 1650.1101862089854 831.50929036112871 0 831.50929036112871 -31.492983900035028 0 0 0 0 1659.7920538332837 971.49691627403774 0 971.49691627403774 419.22444113522442 0 0 0 0 1755.4222585534008 858.41045661425551 0 858.41045661425551 -298.69687304438366 0 0 0 0 1288.262711368734 837.29711084811993 0 837.29711084811993 -277.97787261687631 0 0 0 0 1733.558749150674 737.07705589019361 0 737.07705589019361 -260.78183359705542 0 0 0 0 1601.9443455084256 860.90886801316105 0 860.90886801316105 -45.885064561502531 0 0 0 0 1570.1931133545295 634.32687475080911 0 634.32687475080911 -238.61091188517992 0 0 0 0 1273.1815238328563 354.42554117433247 0 354.42554117433247 -391.86022294794566 0 0 0 0 1388.1966529404308 674.64217559060353 0 674.64217559060353 104.10803612440168 0 0 0 0 1954.0556306097278 860.98903777105625 0 860.98903777105625 -61.788544527857084 0 0 0 0 1784.3132570564048 502.55146107109704 0 502.55146107109704 159.80116996667175 0 0 0 0 2167.8251757375474 732.07606552019035 0 732.07606552019035 296.9065329102948 0 0 0 0 3808.8153178689245 1274.9028953551597 0 1274.9028953551597 602.37296883643421 0 0 0 0 2155.9780807738716 562.35033292919252 0 562.35033292919252 424.71812921893093 0 0 0 0 1892.7062635830262 1069.800082973487 0 1069.800082973487 981.97786518954081 0 0 0 0 1612.4043930669977 1416.3295411063161 0 1416.3295411063161 1137.9560742554922 0 0 0 0 9.3115129521201538 1.0080345368893688 0 1.0080345368893688 -1.1188934475029901 0 0 0 0 135.25190501051839 -194.94387079644866 0 -194.94387079644866 117.90705495864586 0 0 0 0 742.26425263336569 695.65607099190447 0 695.65607099190447 544.36433596963832 0 0 0 0 1781.7172130862455 768.92471196615998 0 768.92471196615998 442.69412546938679 0 0 0 0 347.01390738849295 451.36163916791077 0 451.36163916791077 360.68992893703364 0 0 0 0 712.6807288601558 474.37504267573922 0 474.37504267573922 336.00844799855327 0 0 0 0 20.489321625094362 -0.80883029334752621 0 -0.80883029334752621 -2.6695536944923512 0 0 0 0 50.225846865869244 33.191655365496445 0 33.191655365496445 -79.697535221257112 0 0 0 0 112.2236217247555 112.47486676301287 0 112.47486676301287 13.760057769363357 0 0 0 0 5.9864570823656322 2.97460227239291 0 2.97460227239291 11.714999211149916 0 0 0 0 5.8566137420275481 37.213515707863735 0 37.213515707863735 15.27431925394194 0 0 0 0 -36.456414887070423 0.19565231856813625 0 0.19565231856813625 19.31702505963267 0 0 0 0 3.2742107785161352 -1.5772733214048458 0 -1.5772733214048458 4.2432716297171282 0 0 0 0 17.11006924250978 -10.041257029558892 0 -10.041257029558892 1.38893148163163 0 0 0 0 18.000922650913708 -10.077352019659429 0 -10.077352019659429 1.3888555575716737 0 0 0 0 20.246464888099581 -12.859584698537674 0 -12.859584698537674 0.076120398790180843 0 0 0 0 16.336531734940962 -14.627034685478989 0 -14.627034685478989 4.5919164837609081 0 0 0 0 -6.7982511167647317 -64.453815285678047 0 -64.453815285678047 -58.802120273387118 0 0 0 0 35.746489750092366 -1.9637122061442795 0 -1.9637122061442795 -18.139459933996068 0 0 0 0 17.185194676567335 -10.63659720511896 0 -10.63659720511896 1.4501549543638248 0 0 0 0 17.935516910016304 -10.778145118580142 0 -10.778145118580142 1.4472423245238133 0 0 0 0 28.110100729863916 -15.225656750915505 0 -15.225656750915505 -0.28614544206629944 0 0 0 0 23.147040827971068 -9.510976463783436 0 -9.510976463783436 -2.1852544541204679 0 0 0 0 24.015326797285525 -10.351654156085715 0 -10.351654156085715 -1.5934488256798431 0 0 0 0 20.40143009678286 0.65716644603548957 0 0.65716644603548957 3.8440742105534582 0 0 0 0 25.266519643109007 -2.8557390098457631 0 -2.8557390098457631 -2.6016640796087951 0 0 0 0 360.92855750254239 44.784559682839472 0 44.784559682839472 -19.831538421477376 0 0 0 0 79.780676145688176 128.14364944441729 0 128.14364944441729 129.86798629977397 0 0 0 0 27.138213117464488 -4.1763287867773329 0 -4.1763287867773329 -3.6407235416415267 0 0 0 0 29.357352376980998 -6.7811598575941616 0 -6.7811598575941616 -1.9989613844091991 0 0 0 0 99.597383374184574 -83.00485248420037 0 -83.00485248420037 -58.335525468186233 0 0 0 0 23.831613556983939 54.085641341442681 0 54.085641341442681 71.433836040459937 0 0 0 0 632.12105948290264 187.69125658495392 0 187.69125658495392 2.96659876426952 0 0 0 0 141.89375734334317 -31.096089983266538 0 -31.096089983266538 17.39995862767239 0 0 0 0 608.81101929691795 226.03495718182398 0 226.03495718182398 -7.9918616238408049 0 0 0 0 1098.6634786570939 616.02551327056324 0 616.02551327056324 70.837583685002187 0 0 0 0 978.86243744485546 682.21418333889346 0 682.21418333889346 113.70385482040138 0 0 0 0 1030.29559961411 542.4615225224851 0 542.4615225224851 41.84554625904093 0 0 0 0 1209.2177306063386 563.0915034773559 0 563.0915034773559 -141.71856408806582 0 0 0 0 1407.5137102607114 624.44345443730549 0 624.44345443730549 -140.48610349917715 0 0 0 0 710.57339588546893 183.30977275391194 0 183.30977275391194 -16.570489988966983 0 0 0 0 1279.3375894394121 315.93360876410316 0 315.93360876410316 -61.207478769304657 0 0 0 0 1357.0001640030241 303.107913719404 0 303.107913719404 -63.193283929306418 0 0 0 0 1500.1596876967815 157.50750161878221 0 157.50750161878221 57.290118756963352 0 0 0 0 1678.2586074939027 622.4660706230286 0 622.4660706230286 -150.55440835028077 0 0 0 0 1931.4151958891016 654.73636390525564 0 654.73636390525564 136.71483131169452 0 0 0 0 1821.6029654636513 320.56854212542669 0 320.56854212542669 -12.573574064961718 0 0 0 0 1391.3595164824983 164.33474626037048 0 164.33474626037048 0.0065265972979536846 0 0 0 0 2168.1723170124897 395.37395701881331 0 395.37395701881331 1.1069048425003842 0 0 0 0 1625.8116002574679 586.23804350400007 0 586.23804350400007 416.72546747062586 0 0 0 0 -2.4322471156592655 21.874648023192876 0 21.874648023192876 -0.022007506197200488 0 0 0 0 2.1789647053603431 1.7142041256780089 0 1.7142041256780089 0.51871307691552326 0 0 0 0 1262.5803075791628 256.73361220628237 0 256.73361220628237 42.802443867563284 0 0 0 0 1.2194779845636816 2.9127740255815695 0 2.9127740255815695 0.0030538455514614316 0 0 0 0 268.97993712213793 128.74779167785394 0 128.74779167785394 99.02213071125324 0 0 0 0 728.95388038779492 -114.62595063296962 0 -114.62595063296962 28.29191406853619 0 0 0 0 747.92504643341636 86.517614055611347 0 86.517614055611347 -65.441252747002579 0 0 0 0 35.848273746858467 -10.140966767882475 0 -10.140966767882475 -7.4795755624310747 0 0 0 0 36.826216020883294 1.743073849600421 0 1.743073849600421 -7.160132188242974 0 0 0 0 37.376418679661583 -7.4908415072929557 0 -7.4908415072929557 -48.258434989256187 0 0 0 0 48.205072632103111 29.847792458690648 0 29.847792458690648 -34.68399767474169 0 0 0 0 30.001687808904535 9.0870377283633239 0 9.0870377283633239 -14.666265097484981 0 0 0 0 19.120989528280916 8.6936582100117032 0 8.6936582100117032 -4.3322677087335499 0 0 0 0 26.83863827236928 15.472702143828776 0 15.472702143828776 -8.8968971575840996 0 0 0 0 34.711872431274969 26.988810850434486 0 26.988810850434486 2.0142176214388243 0 0 0 0 31.276162562440732 23.559161577086357 0 23.559161577086357 0.066397717718535337 0 0 0 0 19.412636368419044 15.993149358666669 0 15.993149358666669 -0.12488662845968675 0 0 0 0 153.36492523935158 -26.334061928228387 0 -26.334061928228387 -0.055782892638993789 0 0 0 0 33.145531874251901 -24.086169585953652 0 -24.086169585953652 112.22368951427605 0 0 0 0 50.417853163016844 -1.1283590697851285 0 -1.1283590697851285 13.132447310826699 0 0 0 0 36.059773390399641 86.043740623518417 0 86.043740623518417 15.600500536115533 0 0 0 0 216.15878023287223 41.345814774431915 0 41.345814774431915 -6.8140554088740402 0 0 0 0 20.749987286588294 -38.709145969196499 0 -38.709145969196499 -39.610897827343052 0 0 0 0 50.142683529978967 64.008688542429013 0 64.008688542429013 -61.784734871255864 0 0 0 0 145.90753947819758 -30.27579866239617 0 -30.27579866239617 -59.166159024766898 0 0 0 0 111.54314317794342 31.004906358950983 0 31.004906358950983 -110.0366739626034 0 0 0 0 48.028860875401733 23.498186453141884 0 23.498186453141884 -96.843553483105495 0 0 0 0 0.42100973827615462 0.36630818105757612 0 0.36630818105757612 -0.69454133624311831 0 0 0 0 16.17137912895123 -34.158748885216013 0 -34.158748885216013 -60.025562409484507 0 0 0 0 27.170007297077973 -5.0503785828574408 0 -5.0503785828574408 -10.29484371325313 0 0 0 0 62.289507209032308 4.0285209123262007 0 4.0285209123262007 -22.144096502004061 0 0 0 0 39.677601849398343 -3.5066093841586365 0 -3.5066093841586365 -11.133313610700881 0 0 0 0 12.41919494184495 3.2331379380172223 0 3.2331379380172223 -1.4130318981165477 0 0 0 0 51.959218275980675 17.979709342492924 0 17.979709342492924 -11.19001116710939 0 0 0 0 49.19806866957515 -10.897228383827894 0 -10.897228383827894 -88.362816579014435 0 0 0 0 65.897436911938712 -81.886331409199556 0 -81.886331409199556 43.881265831966857 0 0 0 0 -1.0026740997273009 -16.967680978252247 0 -16.967680978252247 -12.274718895439946 0 0 0 0 -11.505390115031332 -58.737718973593303 0 -58.737718973593303 -19.777469801320876 0 0 0 0 43.109458976836777 -5.1635148285077719 0 -5.1635148285077719 -8.04353717973774 0 0 0 0 0.99060615603229962 -30.370770246610391 0 -30.370770246610391 35.703997283228659 0 0 0 0 69.08941862086067 -7.4687101191502734 0 -7.4687101191502734 -78.114382637291783 0 0 0 0 37.422775991603828 -5.4407276372773197 0 -5.4407276372773197 -12.348643302618033 0 0 0 0 -19.436144320578023 -33.323002619398949 0 -33.323002619398949 19.437099696942823 0 0 0 0 3.8319963258884684 -1.3707506802907687 0 -1.3707506802907687 0.10173718281143174 0 0 0 0 -2.0357627155754017 73.781506036060364 0 73.781506036060364 -7.543391907365276 0 0 0 0 3.0949229490943253 42.113450579707205 0 42.113450579707205 211.121542382798 0 0 0 0 167.27343534625834 105.28653397705239 0 105.28653397705239 -41.163740632287954 0 0 0 0 104.20083685906866 115.68019255822145 0 115.68019255822145 -32.913015996447484 0 0 0 0 10.913868932314358 -4.4976627688806019 0 -4.4976627688806019 2.4384083908115359 0 0 0 0 17.721573251710304 -4.3191600024995864 0 -4.3191600024995864 -11.582955402591342 0 0 0 0 38.279114415940995 -5.7321986091549633 0 -5.7321986091549633 -11.613786069554749 0 0 0 0 27.970831963182718 -7.5443744358863114 0 -7.5443744358863114 -25.116433125393087 0 0 0 0 61.950950742582791 33.477503166583119 0 33.477503166583119 55.613220751825793 0 0 0 0 31.26272932008294 -5.9819338343169619 0 -5.9819338343169619 -4.0808344426463545 0 0 0 0 33.873481815113337 -2.3323941360829963 0 -2.3323941360829963 -4.0258402079934115 0 0 0 0 43.914091503669624 -5.5532559753082182 0 -5.5532559753082182 -5.3684785115875115 0 0 0 0 7.3484665463480354 0.32481460810046769 0 0.32481460810046769 -4.743147557914833 0 0 0 0 12.233064173970277 -7.5639440481679969 0 -7.5639440481679969 -8.68610238693919 0 0 0 0 42.579399027192267 -22.782453494377179 0 -22.782453494377179 -4.0146964757950059 0 0 0 0 35.323052045491238 -7.524979178474041 0 -7.524979178474041 -5.1226830216829669 0 0 0 0 43.849652590666665 -17.903056917223125 0 -17.903056917223125 -20.339796489189212 0 0 0 0 55.268786500455462 -12.236901122799949 0 -12.236901122799949 -17.74345399479483 0 0 0 0 45.799368494801456 -0.021053091986992456 0 -0.021053091986992456 -13.294820519225041 0 0 0 0 35.932704901762918 -8.2293874771855791 0 -8.2293874771855791 -9.1188993177497366 0 0 0 0 43.069110818410991 -3.8350537422523274 0 -3.8350537422523274 -6.4718733572657925 0 0 0 0 34.312614885248422 -8.9397514571060981 0 -8.9397514571060981 -10.682797253078116 0 0 0 0 31.77123647677945 0.56251264732009076 0 0.56251264732009076 -6.2723715123230477 0 0 0 0 54.539772899217496 -7.9442358859630158 0 -7.9442358859630158 -5.6006613951098814 0 0 0 0 29.068371165136341 -1.9177399150048586 0 -1.9177399150048586 -3.7568833930690744 0 0 0 0 43.295944287217281 7.8805134722349521 0 7.8805134722349521 5.972148753288991 0 0 0 0 32.059052214889931 -4.3794099340780122 0 -4.3794099340780122 -8.5250254782572181 0 0 0 0 14.08233511170949 2.2023696551073186 0 2.2023696551073186 0.25055930645948976 0 0 0 0 15.61819956414476 -9.2482273676536408 0 -9.2482273676536408 -5.8582071816057475 0 0 0 0 31.712646268701064 -11.781307826722696 0 -11.781307826722696 -5.9092083818131869 0 0 0 0 32.122923453585827 -8.3888791581582609 0 -8.3888791581582609 -7.3545024951522464 0 0 0 0 12.280698934799148 -7.4151163968488163 0 -7.4151163968488163 -8.0975131374379998 0 0 0 0 2.7174302792747085 -1.0547989251328431 0 -1.0547989251328431 -2.0784087138987193 0 0 0 0 26.049798826302023 1.745746535334149 0 1.745746535334149 -4.6306732474502414 0 0 0 0 58.228011604209314 7.0622828035924385 0 7.0622828035924385 -5.4335826899298354 0 0 0 0 15.162888694350841 -23.744504755314665 0 -23.744504755314665 -26.045670922526824 0 0 0 0 34.407234996302577 23.690237495925487 0 23.690237495925487 -39.780064618482356 0 0 0 0 34.238719173283471 -10.864582202459744 0 -10.864582202459744 -22.364961761634277 0 0 0 0 13.602903750632834 -8.6044334543133374 0 -8.6044334543133374 -9.1116079256447371 0 0 0 0 19.116544901044108 -16.786851919161109 0 -16.786851919161109 -30.732919960348681 0 0 0 0 63.120012974379804 -5.8335294383800829 0 -5.8335294383800829 -13.946167133518117 0 0 0 0 70.754627844551578 5.646420963037599 0 5.646420963037599 10.223967698720571 0 0 0 0 86.373600081569748 -16.264177888283257 0 -16.264177888283257 -3.345541877387177 0 0 0 0 88.543137795597431 -4.6277824290336866 0 -4.6277824290336866 -34.982806535485452 0 0 0 0 71.291820353770163 0.77525670026830085 0 0.77525670026830085 -13.663183007288012 0 0 0 0 67.747341361216968 14.09146808170658 0 14.09146808170658 -25.349285857505038 0 0 0 0 63.718364990709233 2.0880672656154502 0 2.0880672656154502 -13.884958780899979 0 0 0 0 58.961912666956778 17.664906594473905 0 17.664906594473905 -13.890493344569222 0 0 0 0 58.036108672909904 21.582689631066842 0 21.582689631066842 -25.613651834205029 0 0 0 0 40.736385711148614 22.045976880199305 0 22.045976880199305 -14.585251804335371 0 0 0 0 58.228138279446284 29.582190259659455 0 29.582190259659455 -20.045391965749332 0 0 0 0 92.487350662075187 41.538155999802939 0 41.538155999802939 -18.883577069584135 0 0 0 0 58.898116283089621 4.940575697022723 0 4.940575697022723 -0.90900805314504396 0 0 0 0 18.561065804184182 9.5989420781552326 0 9.5989420781552326 0.19670355063863099 0 0 0 0 71.999756179015094 30.520155563769741 0 30.520155563769741 -41.364867931558024 0 0 0 0 91.012053384489263 54.121150576403863 0 54.121150576403863 -12.943534079813986 0 0 0 0 58.499577743554255 27.455032748755002 0 27.455032748755002 -2.9035958943553624 0 0 0 0 58.993986576373572 18.268360125295203 0 18.268360125295203 -24.268463454712673 0 0 0 0 39.065566271354328 42.972120612132301 0 42.972120612132301 -15.308140071228991 0 0 0 0 16.604160736712856 4.9794190083965475 0 4.9794190083965475 -13.51737505555178 0 0 0 0 65.695668119675247 33.211025600450363 0 33.211025600450363 -20.916395100803015 0 0 0 0 49.047022484890476 26.937981527330223 0 26.937981527330223 -20.448176014478072 0 0 0 0 71.754271820827853 30.551763428364779 0 30.551763428364779 -25.730500477035207 0 0 0 0 63.297153012477793 28.286883117758048 0 28.286883117758048 -19.853170278212303 0 0 0 0 62.174501445202623 24.859483869384803 0 24.859483869384803 -28.201109266908588 0 0 0 0 68.438690732313262 15.756661089935619 0 15.756661089935619 -25.687889726490084 0 0 0 0 62.195300952211255 25.284801652567239 0 25.284801652567239 -25.501930441980676 0 0 0 0 61.793777896906249 23.110266969861414 0 23.110266969861414 -26.173730299560248 0 0 0 0 61.6946674764622 22.673733442506773 0 22.673733442506773 -27.6233701298288 0 0 0 0 84.556798392019118 18.7771292322916 0 18.7771292322916 -37.777967810755399 0 0 0 0 91.071624427451752 4.6256627603815446 0 4.6256627603815446 -35.389201471731667 0 0 0 0 23.729737097593897 46.858860573123934 0 46.858860573123934 -53.681090202619089 0 0 0 0 8.3594698451171467 -1.941465663604518 0 -1.941465663604518 -0.59408041538906975 0 0 0 0 112.00355588900857 -18.582076911778586 0 -18.582076911778586 -35.502582678384783 0 0 0 0 104.24975403044664 -0.26776859562551181 0 -0.26776859562551181 -78.719359992576415 0 0 0 0 57.786081026308239 36.774211061589085 0 36.774211061589085 -97.34658485340583 0 0 0 0 84.005125399144163 -6.4137773300012668 0 -6.4137773300012668 -47.527243000635735 0 0 0 0 143.59276032993512 -13.530997820234688 0 -13.530997820234688 -93.890141915451437 0 0 0 0 78.396789907732455 -27.731605482798997 0 -27.731605482798997 -44.512737106659245 0 0 0 0 75.931769909824652 -29.516528589692541 0 -29.516528589692541 -24.764972377537788 0 0 0 0 95.592827414431667 -58.290049416314901 0 -58.290049416314901 41.151576907097478 0 0 0 0 75.345261877195298 -28.415021257005378 0 -28.415021257005378 -20.731060772810906 0 0 0 0 79.436798356473446 -19.0365283932897 0 -19.0365283932897 -23.98707551491529 0 0 0 0 212.81560934007575 56.82968471909453 0 56.82968471909453 -17.237902850351247 0 0 0 0 38.575722501554992 16.994010573898322 0 16.994010573898322 -26.107421925113385 0 0 0 0 101.27897857972494 50.708835571274477 0 50.708835571274477 -79.82769582141168 0 0 0 0 92.997346813136275 -2.8127423163681513 0 -2.8127423163681513 -10.471292493854133 0 0 0 0 16.640046553357422 -9.7190187020041918 0 -9.7190187020041918 -10.843246243248611 0 0 0 0 188.87576557324064 -14.657481473447206 0 -14.657481473447206 -48.070998418970703 0 0 0 0 60.92908642225666 27.990748978021429 0 27.990748978021429 74.846925188504883 0 0 0 0 75.132647964186617 26.938133535486031 0 26.938133535486031 50.389186774379965 0 0 0 0 71.726180954023221 10.07784348508352 0 10.07784348508352 -6.7678335270375101 0 0 0 0 35.473342185694491 -12.283535243929919 0 -12.283535243929919 -129.27779368564711 0 0 0 0 154.37953913721867 -5.1052419714255848 0 -5.1052419714255848 -189.65161399250019 0 0 0 0 103.32186883788381 9.833995509655324 0 9.833995509655324 -132.8387632891322 0 0 0 0 114.49694934356376 64.981767430488162 0 64.981767430488162 -135.57874851209567 0 0 0 0 61.547220556713555 10.161213681721797 0 10.161213681721797 -7.2881869772043029 0 0 0 0 46.379314188649005 19.60350294574846 0 19.60350294574846 -37.314569219470513 0 0 0 0 42.882670393508278 14.381020741935558 0 14.381020741935558 -9.5409624430440694 0 0 0 0 61.196570909250795 33.001409873674405 0 33.001409873674405 3.1192525314399973 0 0 0 0 39.858470340652275 11.575901200726548 0 11.575901200726548 -17.92940128941791 0 0 0 0 49.957846791425254 21.300956716976089 0 21.300956716976089 -9.0769140859406434 0 0 0 0 64.870334688181174 16.890287779568894 0 16.890287779568894 -25.858645001913374 0 0 0 0 45.557072436892241 3.6441970761646871 0 3.6441970761646871 -12.984477350183715 0 0 0 0 52.676099974218232 18.11524443278222 0 18.11524443278222 -31.775876574364702 0 0 0 0 49.360298177984973 11.863132391604445 0 11.863132391604445 -2.8287218103251917 0 0 0 0 22.669562138515175 103.7381363371552 0 103.7381363371552 6.2295872056620283 0 0 0 0 42.024348036542506 83.550850898123372 0 83.550850898123372 -137.20384949366985 0 0 0 0 48.74565698470451 28.41233012615902 0 28.41233012615902 -74.205370085539016 0 0 0 0 129.05731360649952 122.70100523945894 0 122.70100523945894 27.854288835866555 0 0 0 0 80.340125464987068 98.402168523424734 0 98.402168523424734 197.87857165673768 0 0 0 0 61.691605337065994 46.510450595294174 0 46.510450595294174 54.102872431624291 0 0 0 0 4.7396559622078769 0.87571897776385299 0 0.87571897776385299 -0.78418746741862289 0 0 0 0 28.140528307878412 74.459433033528626 0 74.459433033528626 122.68881477042021 0 0 0 0 29.781960293706106 -1.7542996819817347 0 -1.7542996819817347 5.6760212499798399 0 0 0 0 1.252326065008674 1.2838991309495782 0 1.2838991309495782 -122.03452384462003 0 0 0 0 -84.715373510072823 25.264000640341237 0 25.264000640341237 -15.895930846989813 0 0 0 0 -67.744601516191324 -3.3235798427303962 0 -3.3235798427303962 -41.34786645593249 0 0 0 0 -41.092808521505503 46.3299821041212 0 46.3299821041212 -20.573017497754961 0 0 0 0 -51.764352416350448 14.844552088353112 0 14.844552088353112 -40.847010357689435 0 0 0 0 -6.5875815607455479 66.86701527944021 0 66.86701527944021 -36.149458889495349 0 0 0 0 -32.969238866786327 41.936584104930517 0 41.936584104930517 -21.061167521744551 0 0 0 0 -7.4208049421431497 62.994857126289162 0 62.994857126289162 -21.58088112057618 0 0 0 0 29.30818990318221 61.245688790223198 0 61.245688790223198 -22.488645439339962 0 0 0 0 -24.300220968856593 68.399854107676674 0 68.399854107676674 21.785996638458755 0 0 0 0 6.4115297672033194 88.322746255666743 0 88.322746255666743 31.808262653597694 0 0 0 0 185.3342718410313 53.572614477677291 0 53.572614477677291 108.55445328107589 0 0 0 0 395.98972107833106 88.754216568745278 0 88.754216568745278 -78.424352797245092 0 0 0 0 294.90191019036138 -13.398575779285011 0 -13.398575779285011 -25.056669854245172 0 0 0 0 2.3236933338122299 1.4306180935124857 0 1.4306180935124857 1.030293005131294 0 0 0 0 562.01865010324036 -127.65978500942077 0 -127.65978500942077 -28.460903413233837 0 0 0 0 384.90031209477456 95.514860935567242 0 95.514860935567242 106.37329337619212 0 0 0 0 2.5234370430716524 1.2972058963091833 0 1.2972058963091833 -0.71847180994560755 0 0 0 0 243.9555019732943 269.21637371713678 0 269.21637371713678 321.66973742616597 0 0 0 0 519.32144482131116 -45.89565804775475 0 -45.89565804775475 -314.27856968878632 0 0 0 0 348.62382817027537 10.670381529444853 0 10.670381529444853 105.98572053497014 0 0 0 0 294.06431220511149 -118.13146542552727 0 -118.13146542552727 127.43395302323165 0 0 0 0 245.1741048314725 30.653828802599605 0 30.653828802599605 249.56564910284396 0 0 0 0 228.91289182510809 -27.992809048039646 0 -27.992809048039646 58.477107765009805 0 0 0 0 236.9565258220573 -23.053550712068613 0 -23.053550712068613 36.068677520586789 0 0 0 0 282.28042311988975 -10.808744142643718 0 -10.808744142643718 -67.447569686557927 0 0 0 0 144.52684843879615 -81.846496101811113 0 -81.846496101811113 24.421709293640106 0 0 0 0 304.66927067637153 120.33391822091016 0 120.33391822091016 -13.070086965930841 0 0 0 0 512.72816237407824 98.030500544925019 0 98.030500544925019 32.563798390224292 0 0 0 0 199.96267333209107 21.848102898692787 0 21.848102898692787 35.228594040914352 0 0 0 0 168.95888542169268 73.339131426845597 0 73.339131426845597 -106.89419249243088 0 0 0 0 130.70366453860737 35.387435410983066 0 35.387435410983066 -41.827140973136466 0 0 0 0 190.20681012129307 -43.491637536075544 0 -43.491637536075544 -127.36020745144833 0 0 0 0 150.11926874585333 6.508040438452781 0 6.508040438452781 -68.041365074935925 0 0 0 0 85.964060778052954 -19.436181598408893 0 -19.436181598408893 -171.15713368302977 0 0 0 0 122.96414452628233 -103.93381210232002 0 -103.93381210232002 -86.52587801550635 0 0 0 0 59.91384370704327 -132.19728681316906 0 -132.19728681316906 -110.55916690441722 0 0 0 0 6.7202074236629414 -62.758575100293001 0 -62.758575100293001 -49.819883655185777 0 0 0 0 69.393511339719367 -11.59020320753552 0 -11.59020320753552 -15.62437515753196 0 0 0 0 52.501823882550525 -68.492177612485023 0 -68.492177612485023 22.654689125334698 0 0 0 0 69.925496220363129 -43.837582885651955 0 -43.837582885651955 26.967261912545041 0 0 0 0 64.427030237333383 -106.4283137520822 0 -106.4283137520822 -27.312411075349132 0 0 0 0 124.07084930445126 -35.064959351420612 0 -35.064959351420612 -42.21284803449123 0 0 0 0 109.42697673164366 -66.23272358005174 0 -66.23272358005174 32.549906057909539 0 0 0 0 114.02541310806555 -36.137313448443592 0 -36.137313448443592 140.3071197842803 0 0 0 0 52.479884950487758 -45.553418970092366 0 -45.553418970092366 84.613394458505581 0 0 0 0 45.392620737471589 -26.72975337312829 0 -26.72975337312829 44.455331965086316 0 0 0 0 -5.3998246753377543 -4.6799257202341451 0 -4.6799257202341451 -14.005800472067698 0 0 0 0 163.60703215648209 1.4520141430476201 0 1.4520141430476201 -16.073924566330334 0 0 0 0 44.316710652485199 -289.29315423437714 0 -289.29315423437714 241.15701483817907 0 0 0 0 204.59682226282166 44.947414389428133 0 44.947414389428133 -157.0506265912714 0 0 0 0 263.51420650917862 -136.73301859188058 0 -136.73301859188058 114.00958016674321 0 0 0 0 167.17657204449642 73.68132349617008 0 73.68132349617008 -63.46886160619988 0 0 0 0 135.11044113637763 13.132221464772329 0 13.132221464772329 -153.66357157182483 0 0 0 0 44.520295396949223 122.56809777744752 0 122.56809777744752 -84.833042518341927 0 0 0 0 144.07137687775139 -55.142412278803647 0 -55.142412278803647 -69.159570884896311 0 0 0 0 125.44048620486865 -138.74957995133082 0 -138.74957995133082 -279.01641680173816 0 0 0 0 143.98722423396248 -57.645503435093815 0 -57.645503435093815 -108.26192342182185 0 0 0 0 192.0292071391741 85.680321532631751 0 85.680321532631751 -270.65627645144741 0 0 0 0 29.025998959592783 -4.6169146218566297 0 -4.6169146218566297 -12.446781273700703 0 0 0 0 18.676897930854466 -139.06350423020194 0 -139.06350423020194 32.187549568112445 0 0 0 0 74.614389240103407 -48.846347502441297 0 -48.846347502441297 -8.7842915528872467 0 0 0 0 162.96020144709473 10.433815417564801 0 10.433815417564801 -125.78991723834042 0 0 0 0 126.53227534396137 -19.65702089125989 0 -19.65702089125989 -44.180059867238015 0 0 0 0 138.69940777510055 -80.766374886345147 0 -80.766374886345147 -83.926645480847583 0 0 0 0 350.52249087908422 30.237789307970161 0 30.237789307970161 -132.1222048421896 0 0 0 0 138.25875480829927 -78.823487336761218 0 -78.823487336761218 -66.021291841078892 0 0 0 0 29.799259844268505 -13.127081895092417 0 -13.127081895092417 -28.956144415333483 0 0 0 0 175.26510404301371 -22.805542657574279 0 -22.805542657574279 -19.662691217152769 0 0 0 0 97.560762856332076 -80.220389277685967 0 -80.220389277685967 -71.17309301501632 0 0 0 0 211.11561816188623 10.43054788856989 0 10.43054788856989 64.182626024012279 0 0 0 0 69.857591085847744 -57.389836167154108 0 -57.389836167154108 -11.063122168280113 0 0 0 0 22.833258565384313 -252.40564734360942 0 -252.40564734360942 99.097111437618878 0 0 0 0 -17.45390404992537 -27.311181749906346 0 -27.311181749906346 -1.3327407308687107 0 0 0 0 264.38573967036791 -34.849491469220084 0 -34.849491469220084 -80.582099397487582 0 0 0 0 338.76248442841461 21.09502472704844 0 21.09502472704844 -59.841167063219473 0 0 0 0 392.20257448572374 -191.99499925678083 0 -191.99499925678083 -258.72877618197163 0 0 0 0 208.51576102356194 -219.39012452131283 0 -219.39012452131283 -197.78725966765614 0 0 0 0 445.02380053517118 -108.66306081251241 0 -108.66306081251241 -151.76673461155224 0 0 0 0 -7.374252876518085 -333.56358194199095 0 -333.56358194199095 186.70061880889625 0 0 0 0 322.16165498986084 -348.30221134000021 0 -348.30221134000021 -51.917167303796305 0 0 0 0 -12.224077370759915 -81.73504170938304 0 -81.73504170938304 41.759488027497355 0 0 0 0 135.39849493035581 2.7813728817309311 0 2.7813728817309311 -105.08111071940948 0 0 0 0 27.142211829769437 -4.7301519509744878 0 -4.7301519509744878 -6.6176562347132872 0 0 0 0 224.73422825538364 181.54202529856502 0 181.54202529856502 -318.12670611060548 0 0 0 0 -5.9143036421064608 48.375652796945417 0 48.375652796945417 -418.83416841395956 0 0 0 0 -183.95694136977181 -226.31808539247595 0 -226.31808539247595 314.63282865668407 0 0 0 0 109.4253817180288 -134.04645724241891 0 -134.04645724241891 -303.80031709723926 0 0 0 0 23.20295034578885 -383.86490883708029 0 -383.86490883708029 -134.7469601054654 0 0 0 0 -17.26860202444368 -266.82904492219495 0 -266.82904492219495 37.171597303973613 0 0 0 0 -22.823492671785061 -146.60601414041321 0 -146.60601414041321 54.501931203791173 0 0 0 0 -39.700913022767054 -104.69789173648769 0 -104.69789173648769 -10.957002669183566 0 0 0 0 88.89066549456038 -117.97935736435102 0 -117.97935736435102 -120.37695767561308 0 0 0 0 58.145691860401712 -36.086492499070346 0 -36.086492499070346 36.862602027611501 0 0 0 0 135.6446952990438 45.518116275253902 0 45.518116275253902 -56.391863339529664 0 0 0 0 44.085772482388165 -23.427127939020195 0 -23.427127939020195 -11.201545342265774 0 0 0 0 15.393355136999162 -28.099962135845999 0 -28.099962135845999 11.730159849448228 0 0 0 0 88.325073373263876 -5.603458470363762 0 -5.603458470363762 -32.528905232250963 0 0 0 0 86.190097871989607 -0.95180077523801643 0 -0.95180077523801643 -9.3580757519267692 0 0 0 0 128.11004330191099 -122.16864976314537 0 -122.16864976314537 -243.85535365490546 0 0 0 0 61.157092175068101 19.131536907380905 0 19.131536907380905 6.7967482860422024 0 0 0 0 50.774941799158114 -4.9037338605553487 0 -4.9037338605553487 14.612382343687159 0 0 0 0 44.381734163063811 2.4333592948300975 0 2.4333592948300975 -79.167073507644091 0 0 0 0 21.459716976809432 -28.302105296298009 0 -28.302105296298009 -16.196554245747649 0 0 0 0 27.673378703047234 -19.39320795549321 0 -19.39320795549321 -24.819715929160452 0 0 0 0 8.7510395891095243 -5.5230975706289627 0 -5.5230975706289627 4.0782209260817197 0 0 0 0 -41.692438471494825 -126.07189377359441 0 -126.07189377359441 -59.769943398001487 0 0 0 0 48.397962914990785 5.7920216863899441 0 5.7920216863899441 -24.326599934274782 0 0 0 0 69.048241709708236 -22.971801460581645 0 -22.971801460581645 -47.697371237801661 0 0 0 0 68.151723058021162 -21.923052688018544 0 -21.923052688018544 -26.204319890713805 0 0 0 0 30.24461437528953 -32.298720044106631 0 -32.298720044106631 -106.12702570607144 0 0 0 0 32.083699918399276 -9.4711188199570984 0 -9.4711188199570984 -37.519374305494168 0 0 0 0 65.554915178770898 -18.641757733736313 0 -18.641757733736313 -49.788274945120293 0 0 0 0 64.957304142481007 -27.586314118996597 0 -27.586314118996597 -43.002151908984956 0 0 0 0 8.495268107970162 -15.682379961507465 0 -15.682379961507465 0.44336744021729046 0 0 0 0 -33.385220383963315 -35.66966700006742 0 -35.66966700006742 -73.502816244810674 0 0 0 0 -56.003042709940928 -45.434927575353413 0 -45.434927575353413 -5.4066259006324771 0 0 0 0 18.260325911205683 -10.910697615833001 0 -10.910697615833001 6.6914675869698144 0 0 0 0 2.2275040871099918 -89.18725822833585 0 -89.18725822833585 -49.397926379870114 0 0 0 0 -1.2830621021275874 -25.798025182070432 0 -25.798025182070432 -5.3664912931362778 0 0 0 0 -45.614824579373817 -7.5410804541265861 0 -7.5410804541265861 13.768153633125621 0 0 0 0 -92.089613315532915 -15.100209693662691 0 -15.100209693662691 34.304979734918561 0 0 0 0 -86.379061807470862 18.402199197960726 0 18.402199197960726 -5.4925771934149452 0 0 0 0 -72.433916725509334 -17.616632546172696 0 -17.616632546172696 40.754761478348883 0 0 0 0 -26.016709693212761 44.144207754789932 0 44.144207754789932 18.42551325795398 0 0 0 0 -57.832082099630497 32.73937848367018 0 32.73937848367018 66.430142803301351 0 0 0 0 5.2722412730072392 117.10887524590055 0 117.10887524590055 137.34865400661056 0 0 0 0 113.32848959500552 11.781670104888235 0 11.781670104888235 90.917470043915273 0 0 0 0 -28.256542529474245 -17.969645943989235 0 -17.969645943989235 158.20920027201646 0 0 0 0 -51.265886825531197 41.271131331484185 0 41.271131331484185 58.618840060813454 0 0 0 0 -72.582422151288483 -108.65809917377555 0 -108.65809917377555 64.026127925543506 0 0 0 0 -57.595947252964834 -254.19497223861526 0 -254.19497223861526 -91.322073219958838 0 0 0 0 -15.708021313716017 -0.099401955046687362 0 -0.099401955046687362 157.83613832591982 0 0 0 0 -185.77434049840667 -199.32468564177998 0 -199.32468564177998 146.36442219416676 0 0 0 0 15.605145583597164 -9.7007876103903072 0 -9.7007876103903072 5.2974551858758883 0 0 0 0 0.8294440405734349 -173.76206300880403 0 -173.76206300880403 -28.638141059996997 0 0 0 0 -27.424809810327133 43.422503611991488 0 43.422503611991488 -135.11916297575954 0 0 0 0 2.2477663006745843 -2.128421032090543 0 -2.128421032090543 1.7329006494352441 0 0 0 0 -23.258373814256629 -50.670955754326314 0 -50.670955754326314 -140.84752525729527 0 0 0 0 1013.5936663541579 -168.30593126447502 0 -168.30593126447502 -244.7313261413392 0 0 0 0 622.34593880735338 -211.97631784262921 0 -211.97631784262921 412.88259023742012 0 0 0 0 814.52108519664034 201.28439333646202 0 201.28439333646202 78.605886420075649 0 0 0 0 743.79297811814467 -192.65556632286189 0 -192.65556632286189 196.75132536786623 0 0 0 0 234.17065346132586 232.27150286633059 0 232.27150286633059 -88.556117857193385 0 0 0 0 1189.1778042225524 62.53871482530198 0 62.53871482530198 -143.25316148012826 0 0 0 0 888.82819514453877 -115.77048272136653 0 -115.77048272136653 18.919765745622499 0 0 0 0 183.03251460001047 -110.20296759320286 0 -110.20296759320286 113.59059433281618 0 0 0 0 1229.610605924991 823.41970500963055 0 823.41970500963055 990.38805636326515 0 0 0 0 1584.8395121671492 698.2781119060387 0 698.2781119060387 935.61709066675257 0 0 0 0 1856.4570026279071 1348.4492918447429 0 1348.4492918447429 1230.8328749382413 0 0 0 0 4706.6327925181249 1487.7457658535668 0 1487.7457658535668 697.46329940037413 0 0 0 0 4629.7844864067283 167.73584800273812 0 167.73584800273812 2161.7934914228326 0 0 0 0 1464.7163974146388 615.98198975271248 0 615.98198975271248 518.79624730794239 0 0 0 0 153.24159574175428 2031.0574010197242 0 2031.0574010197242 1278.1237328963743 0 0 0 0 -880.64414529136593 -137.3604160621816 0 -137.3604160621816 283.20108817864457 0 0 0 0 -703.53638734309061 1783.5385990866725 0 1783.5385990866725 1207.2842498641353 0 0 0 0 6586.6882311157387 -1519.6801758156703 0 -1519.6801758156703 747.48922369406455 0 0 0 0 22.321336170888628 14.170367169759999 0 14.170367169759999 9.2273623860701797 0 0 0 0 7988.3936856828659 -1465.8343894542579 0 -1465.8343894542579 602.87918689572871 0 0 0 0 7474.9277712967796 570.45989062871558 0 570.45989062871558 1620.9919390589994 0 0 0 0 3229.4530993198969 -1254.6165451462684 0 -1254.6165451462684 766.20695757990052 0 0 0 0 3011.7919373221303 -973.58330720723416 0 -973.58330720723416 512.66731791462098 0 0 0 0 53.116850223527507 37.78696051469349 0 37.78696051469349 18.096014860846477 0 0 0 0 -16.656424840694172 -32.050432590361197 0 -32.050432590361197 525.07436100473387 0 0 0 0 1013.7811270841485 -93.525868879744849 0 -93.525868879744849 -277.76365239031747 0 0 0 0 -35.941191214391438 755.51093631313233 0 755.51093631313233 -1017.6410149891217 0 0 0 0 95.573254939517938 -286.28396164444985 0 -286.28396164444985 319.08733729601863 0 0 0 0 926.33669148183253 25.80181725238981 0 25.80181725238981 -118.35526588584901 0 0 0 0 7.5945193213750031 -3.9182178221357162 0 -3.9182178221357162 1.8378597596165562 0 0 0 0 443.50398776633665 -521.62800039544527 0 -521.62800039544527 -26.974788871517376 0 0 0 0 834.59851656114915 -42.377305747377704 0 -42.377305747377704 -701.60117974097739 0 0 0 0 349.1776686410376 -337.26258551667979 0 -337.26258551667979 -229.30080640604137 0 0 0 0 -73.500169174789335 421.90893422736372 0 421.90893422736372 -463.77253604732095 0 0 0 0 222.21080302313203 -27.803624587371814 0 -27.803624587371814 -141.9126987720374 0 0 0 0 65.937781380762218 49.025184172901405 0 49.025184172901405 21.240154131788763 0 0 0 0 1806.0419786175544 -569.9339978454725 0 -569.9339978454725 259.39149147232797 0 0 0 0 2091.1625094014234 -629.15992760451627 0 -629.15992760451627 43.231385971988658 0 0 0 0 773.73946828299086 -632.19942172320748 0 -632.19942172320748 348.88579856050842 0 0 0 0 857.81058258506528 161.35693968003329 0 161.35693968003329 192.12890906423866 0 0 0 0 83.015467167791783 49.755294786908863 0 49.755294786908863 20.487172040662802 0 0 0 0 195.07166450107616 124.25868870756028 0 124.25868870756028 -130.83711368822696 0 0 0 0 1045.6041403110721 -83.345425722793095 0 -83.345425722793095 -18.869468681895313 0 0 0 0 -44.083637486804946 -105.4819204010291 0 -105.4819204010291 -72.344111768630384 0 0 0 0 2134.8952950378662 -371.92447751199501 0 -371.92447751199501 47.227655811191092 0 0 0 0 1871.7697068073667 -666.7128898203548 0 -666.7128898203548 296.28666020684688 0 0 0 0 18.955044748121281 0.66715410134909803 0 0.66715410134909803 7.9919951267706466 0 0 0 0 2671.9111193809149 -453.52311998364985 0 -453.52311998364985 47.437348552587835 0 0 0 0 2176.7120243491045 -764.59546041872841 0 -764.59546041872841 137.93789338784222 0 0 0 0 1990.9083911997059 -704.32141894605161 0 -704.32141894605161 162.58174244513899 0 0 0 0 3143.1405496817943 -272.72989667138881 0 -272.72989667138881 39.411098983781955 0 0 0 0 2977.9780553881355 -936.86522329586478 0 -936.86522329586478 101.49426292452807 0 0 0 0 1863.0204438084047 -830.18826230392563 0 -830.18826230392563 533.5380031535592 0 0 0 0 3261.8570760573712 -366.06036670910481 0 -366.06036670910481 108.10334609782288 0 0 0 0 2672.8981143536748 -449.07293239963445 0 -449.07293239963445 6.7937871697203036 0 0 0 0 3090.680328335864 -237.37790900710525 0 -237.37790900710525 -128.25907984758078 0 0 0 0 3027.1308731892873 38.522487122935992 0 38.522487122935992 109.23868684665233 0 0 0 0 3176.0355764126653 -27.553430730645147 0 -27.553430730645147 -69.221917557065979 0 0 0 0 3364.8918123230214 62.328340119253497 0 62.328340119253497 -259.95083805186903 0 0 0 0 3332.2081509798591 27.464082347533122 0 27.464082347533122 412.57362890426435 0 0 0 0 3466.1483241798646 234.63037454614471 0 234.63037454614471 129.27831084024388 0 0 0 0 3498.6025161157572 -210.66329082637591 0 -210.66329082637591 747.4034568044907 0 0 0 0 3361.6063385613961 170.68354190376502 0 170.68354190376502 1104.7273075615888 0 0 0 0 4540.4782347934379 -22.252849526860018 0 -22.252849526860018 169.61693671018912 0 0 0 0 4321.0763886735031 724.87976146125163 0 724.87976146125163 1421.7955070744254 0 0 0 0 4066.2179463531793 -166.18387282568619 0 -166.18387282568619 1579.1076521980685 0 0 0 0 1822.1300552550674 674.42313668799352 0 674.42313668799352 1563.5498048208274 0 0 0 0 4386.4736934648681 -98.648574801514769 0 -98.648574801514769 1511.4511210809014 0 0 0 0 4243.4998029841663 812.41452954185388 0 812.41452954185388 2996.107209955429 0 0 0 0 6492.01226841881 -461.78712249192154 0 -461.78712249192154 244.13809653349631 0 0 0 0 11.00481766957958 4.4628429233260647 0 4.4628429233260647 2.0417604147600006 0 0 0 0 2803.0127067970352 -880.10610645122119 0 -880.10610645122119 225.18518378093648 0 0 0 0 2379.4745937304215 952.16450668844732 0 952.16450668844732 -636.13950874417867 0 0 0 0 2359.8346604746439 631.98717329103738 0 631.98717329103738 -1053.8647831806529 0 0 0 0 2253.4753073469328 621.05410370078607 0 621.05410370078607 -530.86650321187335 0 0 0 0 2294.9332663214263 457.78283111608698 0 457.78283111608698 -148.54828326459688 0 0 0 0 2590.0118394282849 964.00803877475857 0 964.00803877475857 -921.10143953620263 0 0 0 0 2590.6084276095862 398.06560334196945 0 398.06560334196945 -383.37914290747062 0 0 0 0 7.3300369488620376 4.2727862132456238 0 4.2727862132456238 -2.0546770122629461 0 0 0 0 4121.9090724859288 -695.60922137566445 0 -695.60922137566445 -50.522925178844162 0 0 0 0 3023.1462022768465 397.59188068394792 0 397.59188068394792 -151.8123759636037 0 0 0 0 2437.8198143852278 -186.38132870652896 0 -186.38132870652896 -133.81255537791253 0 0 0 0 3499.9084565806243 392.29018026703994 0 392.29018026703994 -1071.197767004546 0 0 0 0 2541.3876866631917 -511.45786830041055 0 -511.45786830041055 -326.42367135761378 0 0 0 0 1005.6046784142709 1221.899870414486 0 1221.899870414486 -775.10691090947262 0 0 0 0 3500.5732462490714 395.53415223712182 0 395.53415223712182 -111.46503312811745 0 0 0 0 12.660041071895385 8.5838325599951375 0 8.5838325599951375 -3.4795896402805324 0 0 0 0 2477.9235166662165 -294.36115163402815 0 -294.36115163402815 105.29334155632031 0 0 0 0 2381.8770180286738 -104.40637285311291 0 -104.40637285311291 -204.72793116563184 0 0 0 0 1018.1396523414933 472.44000797330892 0 472.44000797330892 -186.97370771047758 0 0 0 0 7.7241353252573575 3.9293753198442971 0 3.9293753198442971 -1.4935115949489222 0 0 0 0 4622.9714535922758 -560.54744029384028 0 -560.54744029384028 -33.521370376155744 0 0 0 0 3033.6839099824829 350.30062323343856 0 350.30062323343856 -251.96987212338385 0 0 0 0 2666.4769958175457 -293.12197214570165 0 -293.12197214570165 -235.71675430879523 0 0 0 0 2600.7264957067237 -255.34953175521076 0 -255.34953175521076 -110.77709983618529 0 0 0 0 2567.932671557337 60.883015617556595 0 60.883015617556595 -68.427571566028348 0 0 0 0 2653.1385631528465 -249.81788436002387 0 -249.81788436002387 -298.44499449403685 0 0 0 0 2536.5499543996557 -70.234928938097283 0 -70.234928938097283 -269.3516112445879 0 0 0 0 2397.2870437444071 -258.59064753426657 0 -258.59064753426657 -349.15627673071958 0 0 0 0 2386.2777630380515 -149.85467236358346 0 -149.85467236358346 -202.87617347483479 0 0 0 0 2671.5236312603665 -162.00014425785008 0 -162.00014425785008 -276.47240995264701 0 0 0 0 2681.3180338614211 33.071683148195319 0 33.071683148195319 -170.61549379810504 0 0 0 0 5.7984206925395867 3.2687016946483993 0 3.2687016946483993 -4.712633156619825 0 0 0 0 1655.889371194442 -319.73073398050457 0 -319.73073398050457 -47.637159787377641 0 0 0 0 2166.0939369499974 -115.92136759696155 0 -115.92136759696155 -12.952054041163024 0 0 0 0 2404.0887949508797 -249.44367354265731 0 -249.44367354265731 8.5811142837542889 0 0 0 0 2548.9235785282071 -89.85086861583369 0 -89.85086861583369 -238.9402801570952 0 0 0 0 2886.4872708895709 -401.30045678563306 0 -401.30045678563306 -184.38499457407892 0 0 0 0 2643.022011356743 -260.33321208414708 0 -260.33321208414708 -244.2060931243991 0 0 0 0 4.3109783817392469 1.5310674485280629 0 1.5310674485280629 -2.3235762362555601 0 0 0 0 1444.8473658949733 -149.00643709770591 0 -149.00643709770591 -84.453602375162973 0 0 0 0 2070.6024664752786 -248.34000076802334 0 -248.34000076802334 -227.05975599627118 0 0 0 0 2168.5871536041741 -419.60409475298866 0 -419.60409475298866 45.409686897012122 0 0 0 0 2586.0439616061194 -210.08022012666083 0 -210.08022012666083 -232.95961632081224 0 0 0 0 1935.6067237614279 -599.76938351641741 0 -599.76938351641741 -101.46873293775673 0 0 0 0 792.81152330381883 -836.57575377293961 0 -836.57575377293961 516.86190879699529 0 0 0 0 1734.6720059300242 -383.99939917216034 0 -383.99939917216034 430.70770350202929 0 0 0 0 1184.6031811622888 -463.92561633413902 0 -463.92561633413902 -45.177839506522616 0 0 0 0 1396.6997881176649 -500.53120280104417 0 -500.53120280104417 -102.11433412158738 0 0 0 0 1605.5543566441702 -291.34108332334256 0 -291.34108332334256 -57.673060929803796 0 0 0 0 1597.5606415149887 -281.44280031550375 0 -281.44280031550375 29.750034081168906 0 0 0 0 1403.8358165800164 -416.14644117963758 0 -416.14644117963758 -9.5259529563821843 0 0 0 0 1557.7218339483443 -276.43520318060678 0 -276.43520318060678 86.29036424877404 0 0 0 0 1315.5453976020435 -293.29365864169995 0 -293.29365864169995 54.798017875122696 0 0 0 0 1187.7676449354549 -386.10469294777113 0 -386.10469294777113 102.14873704677302 0 0 0 0 1397.5577720321526 -256.34550863739355 0 -256.34550863739355 103.33243676444727 0 0 0 0 1354.6977909747657 -376.41000299670145 0 -376.41000299670145 71.807940832691429 0 0 0 0 1422.5248959585006 -289.14922331341108 0 -289.14922331341108 135.6364598159048 0 0 0 0 1729.8768515216816 -346.52234426770019 0 -346.52234426770019 19.694816184494812 0 0 0 0 1469.8769298583065 -427.29355858462623 0 -427.29355858462623 81.044707572543473 0 0 0 0 4.6066473250096109 2.7438159818738086 0 2.7438159818738086 -4.5170404237560788 0 0 0 0 2113.2089432674475 -210.28259839666498 0 -210.28259839666498 -89.832996482894259 0 0 0 0 1194.3657643820097 123.83139636202048 0 123.83139636202048 -81.090880821329847 0 0 0 0 2587.1355928225967 -50.193472986325787 0 -50.193472986325787 -8.7055563495544561 0 0 0 0 2288.3542482593984 111.00950870962743 0 111.00950870962743 38.100046052568814 0 0 0 0 2731.9616939993648 -143.37582682506957 0 -143.37582682506957 -34.744836074850355 0 0 0 0 541.72287615468304 17.290988679166276 0 17.290988679166276 88.696137385656812 0 0 0 0 4.2805610842482977 2.5650650185793324 0 2.5650650185793324 -1.5262870830923498 0 0 0 0 2049.7102487288867 -234.00769070410593 0 -234.00769070410593 -1.4982757354541718 0 0 0 0 1390.0668762817731 -64.943997107256564 0 -64.943997107256564 -27.518371305487108 0 0 0 0 2512.3882227240465 320.48201770690775 0 320.48201770690775 -279.10148647459891 0 0 0 0 1408.6267910273746 343.7865060829522 0 343.7865060829522 -350.44759908318247 0 0 0 0 1870.9432645758789 283.236429298659 0 283.236429298659 -279.8498268120826 0 0 0 0 1968.0008475535687 163.5550755869715 0 163.5550755869715 -298.00827941817261 0 0 0 0 1250.6140067273554 -104.29208681217688 0 -104.29208681217688 -234.17289290205781 0 0 0 0 1256.7690400585598 103.70450673291805 0 103.70450673291805 -67.714750497574641 0 0 0 0 5.7254153506507066 4.8650591864491091 0 4.8650591864491091 -2.6157784826690609 0 0 0 0 1212.0272626449769 -159.06168869214218 0 -159.06168869214218 92.628706407560912 0 0 0 0 1292.8905562263608 -116.94557592362162 0 -116.94557592362162 -26.323796927881745 0 0 0 0 1375.1458331328031 -155.53931856927534 0 -155.53931856927534 -44.605432488592101 0 0 0 0 2.6376279608409945 1.0273705061675429 0 1.0273705061675429 -2.1127796990294279 0 0 0 0 1736.616943171608 -376.96589112735313 0 -376.96589112735313 0.87564458086899322 0 0 0 0 667.41872668734868 -45.869227019054279 0 -45.869227019054279 65.693707007358626 0 0 0 0 867.87991856856388 -228.53967850729327 0 -228.53967850729327 165.93668594991425 0 0 0 0 1246.3140425689562 -294.49490908228825 0 -294.49490908228825 80.014795220522046 0 0 0 0 1027.7480531257279 -195.88933984272398 0 -195.88933984272398 91.769523344500158 0 0 0 0 1095.076125385589 -206.45557507760441 0 -206.45557507760441 82.197332391060627 0 0 0 0 1009.0606327217829 -229.99398389406872 0 -229.99398389406872 109.73193994612075 0 0 0 0 859.32845406166962 -217.84395342452467 0 -217.84395342452467 125.16064193854254 0 0 0 0 782.37403244033339 -175.88451745297721 0 -175.88451745297721 130.75564180808396 0 0 0 0 862.48720812921238 -216.31515989419222 0 -216.31515989419222 81.189192808912594 0 0 0 0 775.24502750387728 -206.33818688991005 0 -206.33818688991005 30.479729923849391 0 0 0 0 721.65938071410346 -106.2386236081436 0 -106.2386236081436 107.53533007468877 0 0 0 0 873.48772819326769 -221.99640520309049 0 -221.99640520309049 117.28140081170841 0 0 0 0 728.49893676607826 -172.05675251199818 0 -172.05675251199818 167.93286863177309 0 0 0 0 739.12552108537193 -119.77424355414925 0 -119.77424355414925 116.86122734922947 0 0 0 0 696.85946148478615 -66.367850054421979 0 -66.367850054421979 224.24051957067059 0 0 0 0 535.67793826124034 -104.24952211839536 0 -104.24952211839536 235.28317718779181 0 0 0 0 580.00694406619732 -131.31508512464484 0 -131.31508512464484 117.72027275342521 0 0 0 0 687.61729141422074 -199.21150321970219 0 -199.21150321970219 182.66211275969272 0 0 0 0 680.3467714581966 -211.66803048349016 0 -211.66803048349016 166.25006723183242 0 0 0 0 881.88250835290819 -320.08280536022062 0 -320.08280536022062 151.091571015684 0 0 0 0 920.05828929629206 -186.10815722054394 0 -186.10815722054394 136.11606518927283 0 0 0 0 843.518688366672 -249.97420318352306 0 -249.97420318352306 184.35589113048582 0 0 0 0 1033.2698840063531 -325.3102629147827 0 -325.3102629147827 148.03806268862991 0 0 0 0 1176.3668208719428 -222.43696171233853 0 -222.43696171233853 124.97166734298298 0 0 0 0 921.90962030040464 -252.48373819638073 0 -252.48373819638073 159.03493626090631 0 0 0 0 1178.7064829431838 -323.44167116177891 0 -323.44167116177891 70.971322952487299 0 0 0 0 1152.440371346569 -432.66413737291487 0 -432.66413737291487 25.230130949023987 0 0 0 0 958.85011644110637 -280.03900748748288 0 -280.03900748748288 110.47642212574794 0 0 0 0 873.58015219075969 -402.97024211291614 0 -402.97024211291614 48.729885253037082 0 0 0 0 644.69384637126132 -232.84671943503542 0 -232.84671943503542 144.41519150121587 0 0 0 0 819.31562472292717 -262.80630598604182 0 -262.80630598604182 13.961832601264604 0 0 0 0 1175.2606317957543 -313.6789260309879 0 -313.6789260309879 18.86806867101086 0 0 0 0 952.65581123099037 -491.56382632674126 0 -491.56382632674126 -19.77069508631098 0 0 0 0 1170.2404092522993 -398.74249305045345 0 -398.74249305045345 -86.287865684977021 0 0 0 0 483.90430310546799 -386.10974216935608 0 -386.10974216935608 144.50632865263162 0 0 0 0 142.46881205042882 -133.96804212453026 0 -133.96804212453026 59.086226377796493 0 0 0 0 449.01366191205489 -68.677179098798518 0 -68.677179098798518 -198.84482520373558 0 0 0 0 626.88803008260402 -509.59826066359221 0 -509.59826066359221 304.98687536917203 0 0 0 0 348.67942853491695 -152.48112018788976 0 -152.48112018788976 9.9766671042132202 0 0 0 0 124.38117849194532 -22.560321377548689 0 -22.560321377548689 -26.231902717209437 0 0 0 0 -88.694281865975427 268.83148215919095 0 268.83148215919095 -263.70101146270508 0 0 0 0 0.93915055546477788 -0.52290374113490401 0 -0.52290374113490401 -5.4148748206172721 0 0 0 0 423.85846016895448 -95.021690617370496 0 -95.021690617370496 -82.713121338532574 0 0 0 0 235.36576880445136 -249.1564047582429 0 -249.1564047582429 -187.18307776837491 0 0 0 0 -54.39873667379652 85.868835408117661 0 85.868835408117661 -36.804335044922937 0 0 0 0 239.53879616199265 224.73412981614382 0 224.73412981614382 -292.60184579199176 0 0 0 0 387.42304686723219 3.8414584291215306 0 3.8414584291215306 -41.638998599664575 0 0 0 0 238.74960031821684 67.957272224586291 0 67.957272224586291 37.081655300758712 0 0 0 0 267.57307821881113 -175.29418750677632 0 -175.29418750677632 124.55825944668072 0 0 0 0 647.46740352006964 -238.03691778610283 0 -238.03691778610283 73.385650975772478 0 0 0 0 458.90905669598578 -169.65696103303685 0 -169.65696103303685 169.45248212809344 0 0 0 0 517.80341200157636 -9.1206133357484021 0 -9.1206133357484021 -13.022503013542519 0 0 0 0 238.47700680833805 32.682802107034377 0 32.682802107034377 -10.160334760184924 0 0 0 0 87.855677716019272 65.403667237196032 0 65.403667237196032 43.17532725120509 0 0 0 0 196.49051545924885 92.609566390956161 0 92.609566390956161 40.153306816498116 0 0 0 0 196.60806044337323 90.575477597257262 0 90.575477597257262 -78.506400018375643 0 0 0 0 259.37168524612935 161.61780830207522 0 161.61780830207522 -51.060184788809011 0 0 0 0 152.08528586696048 113.5491986265763 0 113.5491986265763 -43.858926741833784 0 0 0 0 234.91132026418381 113.15430694279598 0 113.15430694279598 -119.02177896792955 0 0 0 0 314.7139699464351 115.84197476969206 0 115.84197476969206 -125.7514216720665 0 0 0 0 289.25085854986901 132.50209252980528 0 132.50209252980528 -130.18506706795574 0 0 0 0 272.12965294063179 105.27571313439023 0 105.27571313439023 -172.02847790477131 0 0 0 0 213.68534634102252 109.34844079938182 0 109.34844079938182 -118.70760408759338 0 0 0 0 364.12292338516272 46.63705255656896 0 46.63705255656896 -189.07824726161954 0 0 0 0 196.53601811369663 -32.501740893751276 0 -32.501740893751276 -40.109267916079261 0 0 0 0 339.66038249054873 -114.5233403172452 0 -114.5233403172452 -5.030170483130405 0 0 0 0 296.57068545495713 5.6767685977308702 0 5.6767685977308702 -319.17979163097925 0 0 0 0 291.63301346814114 38.512687345308564 0 38.512687345308564 -102.58172838177916 0 0 0 0 5.9810674713508121 4.4496723328368475 0 4.4496723328368475 3.0152930345692655 0 0 0 0 -8.6889474139170488 67.76714304467751 0 67.76714304467751 -35.637109735797438 0 0 0 0 -4.9349172865067885 48.446820713968826 0 48.446820713968826 -61.014653909967706 0 0 0 0 110.00521291550831 40.571810209577393 0 40.571810209577393 -55.400317142477206 0 0 0 0 100.88955157809687 16.010350410817921 0 16.010350410817921 -57.832064399180126 0 0 0 0 157.85530704635312 42.350919999497819 0 42.350919999497819 -57.242063648356293 0 0 0 0 52.394958770913945 32.020012700198549 0 32.020012700198549 63.485133074458645 0 0 0 0 43.843365187785821 104.66892024117578 0 104.66892024117578 -49.108995250652242 0 0 0 0 58.176800753339194 7.9673921994499324 0 7.9673921994499324 -24.398860497963824 0 0 0 0 1.742604161176132 -0.50911461283817516 0 -0.50911461283817516 -23.90343897575076 0 0 0 0 -50.230862231623178 54.622465805878392 0 54.622465805878392 12.004958712861935 0 0 0 0 20.837386287723348 76.381922517835733 0 76.381922517835733 14.031400142083385 0 0 0 0 -30.023421077122293 89.149677109161701 0 89.149677109161701 -196.72844926409243 0 0 0 0 1.0827688848757759 0.70331691496480886 0 0.70331691496480886 0.76949461796712715 0 0 0 0 -16.260482085122931 6.0170161295627622 0 6.0170161295627622 55.220581459780874 0 0 0 0 -126.30908079507935 210.59162068827288 0 210.59162068827288 -2.9677448622433076 0 0 0 0 93.699778033464099 108.40433394700221 0 108.40433394700221 -49.489132695353874 0 0 0 0 65.493737719109049 188.31191441600504 0 188.31191441600504 -268.8761138048003 0 0 0 0 69.268712196062552 7.4659395680846501 0 7.4659395680846501 -233.08996503840569 0 0 0 0 151.63142781994975 97.106365955148931 0 97.106365955148931 -165.43557182944915 0 0 0 0 20.472784894122015 22.867195204271866 0 22.867195204271866 12.553474221858778 0 0 0 0 76.255989078716084 44.938022027057741 0 44.938022027057741 -32.322110536164928 0 0 0 0 71.078999404977367 11.540677587612208 0 11.540677587612208 -61.207265625305354 0 0 0 0 10.665601446406072 -3.1606610668129633 0 -3.1606610668129633 -41.630288383489187 0 0 0 0 52.051262443944324 181.607505293722 0 181.607505293722 -128.64495514658029 0 0 0 0 0.13790844981835804 0.054464128609481577 0 0.054464128609481577 -2.4823754478583009 0 0 0 0 378.2536333471362 -74.702020711695582 0 -74.702020711695582 -278.65321238125898 0 0 0 0 6.6702782849561117 -6.6525862188925657 0 -6.6525862188925657 -2.4621346646172242 0 0 0 0 0.023244718206111514 -1.2569400666065818 0 -1.2569400666065818 -4.9329055763325265 0 0 0 0 36.837243115816818 -13.26919114139821 0 -13.26919114139821 -34.95184274446774 0 0 0 0 49.579068156497669 15.488941786809846 0 15.488941786809846 4.1157926892974501 0 0 0 0 5.646302981662302 -17.023621942434488 0 -17.023621942434488 37.353171688972452 0 0 0 0 50.908958730135055 10.996067724290924 0 10.996067724290924 11.58671055629793 0 0 0 0 148.41801041018698 119.70731405561969 0 119.70731405561969 103.75094885495218 0 0 0 0 429.86045543914952 224.72274873652992 0 224.72274873652992 14.709311373575474 0 0 0 0 71.735323945122218 173.61125508038549 0 173.61125508038549 148.6734253106456 0 0 0 0 3.0704327505170284 1.0974640073597151 0 1.0974640073597151 0.44466165076528696 0 0 0 0 805.55685724559953 -174.33335925201584 0 -174.33335925201584 32.181151204562866 0 0 0 0 2.3591335284872912 -17.775255865642748 0 -17.775255865642748 42.245376489163732 0 0 0 0 242.59799664558795 23.630691590833067 0 23.630691590833067 -109.42942031932353 0 0 0 0 209.94605553872316 -113.38096650446005 0 -113.38096650446005 117.42401309386742 0 0 0 0 562.05261613569019 -272.71531133502299 0 -272.71531133502299 54.594963627981315 0 0 0 0 589.71621147003316 -192.05290830994591 0 -192.05290830994591 46.489629180681618 0 0 0 0 593.55965679844303 -173.09072709861255 0 -173.09072709861255 123.66558693308866 0 0 0 0 284.57414504014014 -47.735499197814988 0 -47.735499197814988 201.04279698167284 0 0 0 0 -1.7618722568222438 148.18848054344039 0 148.18848054344039 139.30821088791592 0 0 0 0 11.655971076361311 -92.404137611001261 0 -92.404137611001261 129.10440480689454 0 0 0 0 318.91963913281506 -15.784056258469263 0 -15.784056258469263 128.15659951170983 0 0 0 0 55.018897350651969 127.09635142198317 0 127.09635142198317 -90.208014855278407 0 0 0 0 5.1737133394511261 2.7689379798084772 0 2.7689379798084772 1.1310388592886689 0 0 0 0 -280.31809231973602 -5.2312690834564819 0 -5.2312690834564819 178.89143740992381 0 0 0 0 1.0080514422724214 -0.086887420640515245 0 -0.086887420640515245 -0.12590666074054013 0 0 0 0 12.763161629490241 -0.81106372162730622 0 -0.81106372162730622 -13.697640154551664 0 0 0 0 0.2083126218596405 -2.1180481694283912 0 -2.1180481694283912 -3.0645997978486257 0 0 0 0 274.86673030669772 -119.507718559963 0 -119.507718559963 37.547511294327705 0 0 0 0 6.006584713829497 2.8591099953254968 0 2.8591099953254968 1.1108286448766513 0 0 0 0 11.307405540028412 -6.9967544214075588 0 -6.9967544214075588 -3.1847839842039321 0 0 0 0 11.098378917842638 21.570841611295464 0 21.570841611295464 -48.181993517921683 0 0 0 0 97.854480602393323 122.26503484866895 0 122.26503484866895 358.50061756532114 0 0 0 0 99.573660992908117 103.52799464677969 0 103.52799464677969 466.80102776490639 0 0 0 0 462.16220718288241 221.03014299083202 0 221.03014299083202 325.88653257422811 0 0 0 0 9.5872806984206811 -0.59847443952984491 0 -0.59847443952984491 2.7400487718348208 0 0 0 0 -0.31007844779014704 -16.662199379106937 0 -16.662199379106937 211.01605768097693 0 0 0 0 165.7250618497128 173.93791369123278 0 173.93791369123278 279.78762747522012 0 0 0 0 139.33028991311312 -17.09155343836548 0 -17.09155343836548 369.14912923105976 0 0 0 0 122.98624252318314 239.54755649392771 0 239.54755649392771 432.19757612919284 0 0 0 0 140.89833606652974 146.8831033118131 0 146.8831033118131 224.51883866695175 0 0 0 0 -57.053635751813999 181.22738803112043 0 181.22738803112043 374.43835693173332 0 0 0 0 7.3348552700554137 -53.494429589803076 0 -53.494429589803076 168.39989929227994 0 0 0 0 120.51836376619758 84.416273430109413 0 84.416273430109413 288.84163544547505 0 0 0 0 331.40926466192468 95.71486694680334 0 95.71486694680334 322.90876963598112 0 0 0 0 80.25302610289873 -40.17720848954167 0 -40.17720848954167 249.52748412271831 0 0 0 0 367.6748029737937 -85.97949567738101 0 -85.97949567738101 206.11754398998468 0 0 0 0 693.25892284407632 -227.24952568872277 0 -227.24952568872277 176.20120599125494 0 0 0 0 482.99399717907363 19.926477773673014 0 19.926477773673014 253.13617825101301 0 0 0 0 676.87331900427807 30.115893179086719 0 30.115893179086719 198.05652073775718 0 0 0 0 1237.2923530879252 14.130036266340994 0 14.130036266340994 132.72110051372829 0 0 0 0 557.35141423848472 402.23127617107889 0 402.23127617107889 246.60512323302987 0 0 0 0 9.8619798498818199 -1.9682790232177592 0 -1.9682790232177592 1.0921031300674915 0 0 0 0 627.90748897354206 1.3256115742774455 0 1.3256115742774455 929.19861900431579 0 0 0 0 797.89099879869536 -188.68739998183389 0 -188.68739998183389 268.24366153035908 0 0 0 0 864.60251591887936 -368.80052111266139 0 -368.80052111266139 682.8296335209634 0 0 0 0 678.01779253619861 415.0907076363186 0 415.0907076363186 551.96900312316393 0 0 0 0 503.02831538557075 -723.5106292606506 0 -723.5106292606506 451.44148784967592 0 0 0 0 1110.3619215045528 -27.12414053521627 0 -27.12414053521627 -19.602861266129821 0 0 0 0 -19.750600129525992 -296.42835599980754 0 -296.42835599980754 1234.5068759793194 0 0 0 0 439.7804485804736 -386.96769235105967 0 -386.96769235105967 101.14153859154885 0 0 0 0 -14.800461557477547 -386.01732848822178 0 -386.01732848822178 124.56369704573945 0 0 0 0 121.33020400672649 -30.156802500900454 0 -30.156802500900454 -63.992857735144753 0 0 0 0 -2.5597265511532896 198.94719536701814 0 198.94719536701814 415.63410011166377 0 0 0 0 27.232263203614323 -5.8303250728603686 0 -5.8303250728603686 0.19563914042339756 0 0 0 0 217.53699726014929 -159.29966921625282 0 -159.29966921625282 71.426809154318562 0 0 0 0 10.220433413344612 -7.579286598961879 0 -7.579286598961879 -9.3507258002110039 0 0 0 0 187.45143920775445 -206.2160708362378 0 -206.2160708362378 284.00694336063441 0 0 0 0 397.55650590478035 -172.0989145205258 0 -172.0989145205258 -97.596072742111573 0 0 0 0 582.561113908072 -111.09635070218042 0 -111.09635070218042 279.64195294856654 0 0 0 0 1062.3666251323884 -576.0239164788054 0 -576.0239164788054 35.656031247349347 0 0 0 0 0.21094505697182697 -7.1520614386636474 0 -7.1520614386636474 -3.6944043721985231 0 0 0 0 1751.9459112284094 -272.21032202493279 0 -272.21032202493279 -167.78822317204504 0 0 0 0 2.1603088723776054 -3.0876667221618135 0 -3.0876667221618135 -0.90007083484505301 0 0 0 0 -1157.1068593856398 -1314.4564203507962 0 -1314.4564203507962 -208.62195545831287 0 0 0 0 -214.22842325930105 -334.13456295344668 0 -334.13456295344668 240.19496293419888 0 0 0 0 76.653619373875699 -918.3506594022324 0 -918.3506594022324 -535.91216653833953 0 0 0 0 -880.70784882043608 -307.44874649497137 0 -307.44874649497137 -183.58285775602963 0 0 0 0 1925.3743531890686 442.69784102098083 0 442.69784102098083 -117.40258398888182 0 0 0 0 1026.3808866832514 328.78321088156827 0 328.78321088156827 104.87335742091727 0 0 0 0 1185.4184900315176 -29.580091869974808 0 -29.580091869974808 -126.66526816301302 0 0 0 0 1055.8099316338376 150.08041610662076 0 150.08041610662076 -0.38821334391559503 0 0 0 0 922.72455218241521 30.592545111326672 0 30.592545111326672 58.765705619669461 0 0 0 0 1036.3450319888525 -18.580231175889821 0 -18.580231175889821 -70.196146794880406 0 0 0 0 0.32677206104236944 -5.0075601668128087 0 -5.0075601668128087 5.6852978494906736 0 0 0 0 16.855655416867876 -3.040538019983849 0 -3.040538019983849 -6.1349087695175584 0 0 0 0 749.82324559029621 -14.296333765142663 0 -14.296333765142663 -62.945928759761955 0 0 0 0 585.89864150221547 98.967572910106355 0 98.967572910106355 72.503738539966434 0 0 0 0 561.16617215353472 -58.209137017437115 0 -58.209137017437115 34.956434502955744 0 0 0 0 865.55263467418263 138.44019733968162 0 138.44019733968162 -16.808043309795721 0 0 0 0 497.50587966749299 214.40792632888133 0 214.40792632888133 82.644210906591979 0 0 0 0 785.01268027653714 -226.83025244451255 0 -226.83025244451255 92.3326745999384 0 0 0 0 1549.9532056749231 76.25748827220923 0 76.25748827220923 -87.387344424030289 0 0 0 0 0.87805286860189646 -0.26037802944646415 0 -0.26037802944646415 1.9933559911861956 0 0 0 0 -381.45858335740377 -419.46982612170677 0 -419.46982612170677 -369.58803208257996 0 0 0 0 -24.476814677567745 -291.32359786582174 0 -291.32359786582174 -289.42223590550066 0 0 0 0 -147.38547100526921 -326.13560213156279 0 -326.13560213156279 -230.50831879015777 0 0 0 0 26.369728029025282 -329.92267834260724 0 -329.92267834260724 -314.39822202868072 0 0 0 0 39.636213655300288 -25.857369012881637 0 -25.857369012881637 -24.94050058802004 0 0 0 0 5.1982499301126426 28.940207195398823 0 28.940207195398823 5.7591657114743953 0 0 0 0 284.12910496267909 78.164932366173502 0 78.164932366173502 111.91720434063609 0 0 0 0 -304.61307805839169 -325.04600465568865 0 -325.04600465568865 -292.24859431576078 0 0 0 0 -742.51985497449641 -553.97868140179889 0 -553.97868140179889 -393.53174689269508 0 0 0 0 -669.24069347876866 -611.24029772572135 0 -611.24029772572135 -382.29904159566377 0 0 0 0 10.818573723116225 6.750563319009899 0 6.750563319009899 0.25077660162888016 0 0 0 0 -819.92058992710372 -688.8871122092678 0 -688.8871122092678 -535.15387992171964 0 0 0 0 -89.53894409528948 -206.7831519939856 0 -206.7831519939856 -411.1852658862299 0 0 0 0 -137.34531671296281 -319.18415367603757 0 -319.18415367603757 -410.15428640142682 0 0 0 0 263.67594605482736 -186.68268636918424 0 -186.68268636918424 -351.52563464222339 0 0 0 0 66.033228966698516 -350.98519682275901 0 -350.98519682275901 -400.16649684942558 0 0 0 0 106.06649731274956 -63.618420678835719 0 -63.618420678835719 -264.00474971167455 0 0 0 0 369.35272394408821 -130.28032489507041 0 -130.28032489507041 -334.67828236000605 0 0 0 0 -119.77561874115781 -328.33751435258864 0 -328.33751435258864 -685.45029214575061 0 0 0 0 -169.98252939572922 -376.92874104969133 0 -376.92874104969133 -189.34388581531402 0 0 0 0 357.30748853479963 -226.35682727988547 0 -226.35682727988547 -382.9176333607345 0 0 0 0 109.64637672977619 -52.524694411299109 0 -52.524694411299109 13.380194554519221 0 0 0 0 146.21029670930147 -591.68611911891003 0 -591.68611911891003 -327.9883490979837 0 0 0 0 487.62290295243292 156.54570846774686 0 156.54570846774686 -59.056753450790893 0 0 0 0 432.42343823210831 147.63172677417992 0 147.63172677417992 96.691480350439633 0 0 0 0 691.50140946640749 191.05638188802504 0 191.05638188802504 92.209572594804456 0 0 0 0 561.87051691883971 260.27064390974101 0 260.27064390974101 149.09196885591064 0 0 0 0 608.51997419352119 246.66832698559142 0 246.66832698559142 -6.1195491380603926 0 0 0 0 724.84463012424385 393.27863849832011 0 393.27863849832011 124.50672496596871 0 0 0 0 695.50907956502306 439.98280129891191 0 439.98280129891191 127.00761693943514 0 0 0 0 523.32994532442899 178.91280082999401 0 178.91280082999401 55.330132947019138 0 0 0 0 428.93955088629809 220.09235259003981 0 220.09235259003981 679.74897152287122 0 0 0 0 395.76889291327097 155.7113902015949 0 155.7113902015949 234.05082672168817 0 0 0 0 481.83066040574704 63.983907841986593 0 63.983907841986593 -159.58895918518874 0 0 0 0 364.66895168120504 86.190877857037748 0 86.190877857037748 25.581666291000147 0 0 0 0 219.36718886165181 -196.29568886744505 0 -196.29568886744505 -61.065364429504257 0 0 0 0 335.60367501770088 -207.13606051186071 0 -207.13606051186071 -320.26415135639127 0 0 0 0 236.41434071727417 -109.12508245408526 0 -109.12508245408526 282.41094596793346 0 0 0 0 390.60811185967032 -162.9284733994773 0 -162.9284733994773 -691.2557009103939 0 0 0 0 260.43690991670155 -361.73796241195805 0 -361.73796241195805 -339.09228417217764 0 0 0 0 261.14047042847233 -215.23166095824547 0 -215.23166095824547 -327.5652886885714 0 0 0 0 256.27356077813965 -207.17327165046902 0 -207.17327165046902 -313.93737610031269 0 0 0 0 -729.44747160111729 1196.9272648861893 0 1196.9272648861893 733.6053828258074 0 0 0 0 633.49523004192633 197.58239945778823 0 197.58239945778823 -727.67730496716752 0 0 0 0 45.820702514023651 148.47512555152991 0 148.47512555152991 375.77801554241114 0 0 0 0 1001.8828035538609 445.1978698430471 0 445.1978698430471 209.71830684344468 0 0 0 0 2784.4016177810008 2426.7466006790851 0 2426.7466006790851 951.6811315657219 0 0 0 0 921.79364285652264 788.106925116811 0 788.106925116811 1037.5805082822749 0 0 0 0 1306.7181140285975 48.761701929204946 0 48.761701929204946 676.54471966889105 0 0 0 0 948.77457869096907 606.16398735932125 0 606.16398735932125 230.60096282081076 0 0 0 0 1928.9836270039382 79.030996819879135 0 79.030996819879135 -1786.6860963986046 0 0 0 0 1931.0674209099197 987.3948370618632 0 987.3948370618632 -32.136535460067989 0 0 0 0 1109.8979096899202 -12.980737808698791 0 -12.980737808698791 -179.38913055599414 0 0 0 0 1067.8279897347766 -139.52963321691595 0 -139.52963321691595 -547.93361702632728 0 0 0 0 940.39157319480728 -109.7835480440425 0 -109.7835480440425 52.206186627699026 0 0 0 0 973.60660645973985 -133.27380963530777 0 -133.27380963530777 -227.44785341185741 0 0 0 0 1154.0439235658741 206.10207447040989 0 206.10207447040989 -619.19759265224297 0 0 0 0 794.02280639671881 228.95503246188014 0 228.95503246188014 10.595379837237942 0 0 0 0 1136.1933939587361 426.94887537951581 0 426.94887537951581 78.766377789690182 0 0 0 0 791.61204167813412 238.10912686777397 0 238.10912686777397 334.01883845721568 0 0 0 0 650.35431995199906 384.69731651440725 0 384.69731651440725 203.40180032939782 0 0 0 0 718.14320332263742 -128.6319606007105 0 -128.6319606007105 462.63229883056079 0 0 0 0 576.06454396115078 178.26851273122384 0 178.26851273122384 377.28337252289475 0 0 0 0 758.14944489570553 -98.321516348790851 0 -98.321516348790851 245.37094700615899 0 0 0 0 857.98806545110347 -24.503237519885261 0 -24.503237519885261 115.7403605197444 0 0 0 0 756.78073774526274 -147.0280814660955 0 -147.0280814660955 258.08169698056417 0 0 0 0 779.37965292359149 -212.57471329700365 0 -212.57471329700365 171.63376557129573 0 0 0 0 773.68513925684238 -167.14854923209668 0 -167.14854923209668 97.125025569448098 0 0 0 0 748.91090354418247 -231.31874649367643 0 -231.31874649367643 127.03065614435445 0 0 0 0 842.07846857224877 -214.27810498530803 0 -214.27810498530803 104.7764726638261 0 0 0 0 840.93544629807366 -194.485923643972 0 -194.485923643972 141.01641878487067 0 0 0 0 936.99911959093151 -221.06881235379706 0 -221.06881235379706 97.689437972985161 0 0 0 0 926.54789750778582 -210.59199749781214 0 -210.59199749781214 99.34525855655329 0 0 0 0 965.41044030456578 -161.7746349698167 0 -161.7746349698167 120.28484258984736 0 0 0 0 896.49635370596661 -178.65609448411078 0 -178.65609448411078 36.031074566111329 0 0 0 0 1055.6736590720866 -119.87109543419501 0 -119.87109543419501 50.992466436755421 0 0 0 0 924.44902395636745 -200.58373445215807 0 -200.58373445215807 60.089031025629538 0 0 0 0 1442.7651142625764 30.812182632732174 0 30.812182632732174 -80.162542256748111 0 0 0 0 1064.653831152631 97.540737329923559 0 97.540737329923559 -83.337522882527765 0 0 0 0 1104.2269057196863 -179.31016808380286 0 -179.31016808380286 96.596266969722819 0 0 0 0 1192.0170977749058 -83.424040220306892 0 -83.424040220306892 103.63235954615584 0 0 0 0 1819.8010618870539 -343.03317091364238 0 -343.03317091364238 -6.3278633039089982 0 0 0 0 2.8976433480970627 2.1083360845555603 0 2.1083360845555603 -1.1024691926774199 0 0 0 0 6.7930525078409119 257.16158780966504 0 257.16158780966504 -76.702312012781022 0 0 0 0 1406.045573657364 95.393222927728857 0 95.393222927728857 -150.41539866896483 0 0 0 0 930.31803408565975 606.56625064563877 0 606.56625064563877 -240.05324147416627 0 0 0 0 1449.6651782376794 245.42918857490065 0 245.42918857490065 -487.60152875741301 0 0 0 0 569.86092362179261 430.307489925033 0 430.307489925033 -204.96024021374467 0 0 0 0 795.30727548966752 430.56547535273887 0 430.56547535273887 -299.14801595394812 0 0 0 0 1130.1436919952939 719.99554118485253 0 719.99554118485253 -183.17927058104442 0 0 0 0 1005.2791446203282 806.61897096611665 0 806.61897096611665 -234.25850844742399 0 0 0 0 660.40532941875063 461.06623226069053 0 461.06623226069053 -225.93553490741172 0 0 0 0 707.44962834569196 425.30348770299594 0 425.30348770299594 -434.29508438433413 0 0 0 0 736.9825342454269 56.619928600443444 0 56.619928600443444 -419.52191051271279 0 0 0 0 556.87611296173782 -50.175777810139152 0 -50.175777810139152 -110.24673833677207 0 0 0 0 582.83658747502159 -215.84294863028884 0 -215.84294863028884 -1216.6901097626724 0 0 0 0 577.09018881514203 -71.044493054945633 0 -71.044493054945633 -477.94163780100575 0 0 0 0 354.86322670622394 58.199612610308975 0 58.199612610308975 -1030.1118669581815 0 0 0 0 141.61134753232909 163.81666600656615 0 163.81666600656615 -428.65484712710975 0 0 0 0 -68.987981305235735 218.60640893815685 0 218.60640893815685 -1593.2480305295433 0 0 0 0 224.45581049064276 -416.73607627976139 0 -416.73607627976139 -2159.4951133932809 0 0 0 0 -71.978524309197383 -84.849841864683299 0 -84.849841864683299 -998.29908087310378 0 0 0 0 -331.58475112660381 -401.89098615604075 0 -401.89098615604075 -1185.4631447416371 0 0 0 0 904.45231755685745 2136.1542425035 0 2136.1542425035 3683.2507986131113 0 0 0 0 24.780792228098775 4.5897408141246601 0 4.5897408141246601 -4.4537571686244508 0 0 0 0 899.45655675101807 -964.57581061572932 0 -964.57581061572932 -2791.2416169480439 0 0 0 0 544.83492343607213 1095.7912060871004 0 1095.7912060871004 1865.7084278292996 0 0 0 0 2485.8535367048498 1694.011194676659 0 1694.011194676659 1046.6380608894103 0 0 0 0 489.2388516180572 1001.8913501629818 0 1001.8913501629818 1268.5828482762581 0 0 0 0 916.24961877468922 910.76593939957093 0 910.76593939957093 1096.3615643409639 0 0 0 0 60.785320350781348 6.6279590801525661 0 6.6279590801525661 -11.759547001616925 0 0 0 0 1184.4164193822562 1012.9977106281099 0 1012.9977106281099 379.39194351190508 0 0 0 0 1211.7507865567568 1138.0780685204511 0 1138.0780685204511 869.95465425137547 0 0 0 0 3145.5879927009637 636.4675102398885 0 636.4675102398885 77.629837223197683 0 0 0 0 2449.4655209191242 290.10139313344132 0 290.10139313344132 27.265348284693118 0 0 0 0 3.1801201701667665 3.1896517350030216 0 3.1896517350030216 2.5119933980617617 0 0 0 0 436.80177469665477 812.26312873336883 0 812.26312873336883 379.90514918905797 0 0 0 0 507.62534488403207 531.26065763446115 0 531.26065763446115 -567.43367557449528 0 0 0 0 -50.7162483300541 748.42742143766282 0 748.42742143766282 -504.682956265342 0 0 0 0 504.3133859361896 902.56819509715353 0 902.56819509715353 132.66416022323938 0 0 0 0 335.29895515824319 627.44850731305723 0 627.44850731305723 422.98547261581211 0 0 0 0 531.65513901208033 1141.7366959391791 0 1141.7366959391791 609.28152854114467 0 0 0 0 438.69672223391353 539.87667804263356 0 539.87667804263356 -135.51371386172468 0 0 0 0 85.342885022193968 13.429631735749304 0 13.429631735749304 -13.382011810187652 0 0 0 0 34.093143530197267 -142.15227980465602 0 -142.15227980465602 -171.90593907167295 0 0 0 0 345.16368635322488 285.52712612839696 0 285.52712612839696 303.81240727905242 0 0 0 0 222.60492200387671 -180.9664202511641 0 -180.9664202511641 -1248.4834292350388 0 0 0 0 2.0857434208557253 -7.1217841630533849 0 -7.1217841630533849 -9.3066223555318626 0 0 0 0 414.97681942997951 252.75855190281914 0 252.75855190281914 -919.28484934117137 0 0 0 0 286.18850168708377 326.65521229187743 0 326.65521229187743 -640.05857486422519 0 0 0 0 448.48443132724788 238.12529564410215 0 238.12529564410215 -1026.2715745672979 0 0 0 0 -14.194766416148923 1.5821662795615907 0 1.5821662795615907 -897.91576386778581 0 0 0 0 70.748744922744663 135.09838618257822 0 135.09838618257822 -843.83545076720532 0 0 0 0 -166.77850774356921 -397.68070394600062 0 -397.68070394600062 -1309.6038901523257 0 0 0 0 249.89618256713584 213.67160345047364 0 213.67160345047364 -1280.3408766083724 0 0 0 0 267.4434678360667 367.83676782631693 0 367.83676782631693 -425.53449996849901 0 0 0 0 530.62594562277445 274.29151173054441 0 274.29151173054441 -859.37480866016426 0 0 0 0 588.2278454433656 675.69213765130473 0 675.69213765130473 -594.03944809994368 0 0 0 0 866.89657250898745 468.14944887261959 0 468.14944887261959 -458.68743259987855 0 0 0 0 947.73144937529287 1051.615013839772 0 1051.615013839772 -192.82764753570689 0 0 0 0 833.37282456627986 1225.4907187119882 0 1225.4907187119882 -38.059728832192604 0 0 0 0 797.8008284281932 653.23298597126598 0 653.23298597126598 -638.62865888056979 0 0 0 0 7.5181734880200253 9.0898016373492574 0 9.0898016373492574 1.6326431152990406 0 0 0 0 919.52355195883501 584.8421050766101 0 584.8421050766101 -1625.7177592661155 0 0 0 0 545.41493588722369 770.8242902759938 0 770.8242902759938 -108.14373477635081 0 0 0 0 678.05680809361729 819.4538092827413 0 819.4538092827413 -697.91016461991001 0 0 0 0 1426.7785954273095 -18.824753050003437 0 -18.824753050003437 -761.7509147511912 0 0 0 0 99.749320755496711 15.883266512968577 0 15.883266512968577 -4.6701931897884377 0 0 0 0 343.94409485135293 493.73771757376971 0 493.73771757376971 -1003.9679638762618 0 0 0 0 65.344717969768482 14.296090901990191 0 14.296090901990191 3.758273470137016 0 0 0 0 -359.31666493871489 914.20179097007554 0 914.20179097007554 1253.000361073556 0 0 0 0 11.274638066443686 368.80910727259635 0 368.80910727259635 -807.38482550805281 0 0 0 0 975.03770199403152 -702.59019324853807 0 -702.59019324853807 -1214.6717429028324 0 0 0 0 -297.77801008121878 -300.50865257137434 0 -300.50865257137434 -45.46721796550753 0 0 0 0 620.13373717632112 716.62681270345604 0 716.62681270345604 -1266.9158240783088 0 0 0 0 -8.9281430175142305 273.30396111275911 0 273.30396111275911 46.723956577109846 0 0 0 0 -4.8999327481975357 14.967110771154381 0 14.967110771154381 -3.1455456484735596 0 0 0 0 734.16952807239704 -201.57304613840597 0 -201.57304613840597 -1883.0957275485866 0 0 0 0 801.98448062863281 552.98978700819032 0 552.98978700819032 -875.75922366742441 0 0 0 0 -172.09669173288867 -85.002498691869974 0 -85.002498691869974 -602.20520607351 0 0 0 0 3495.0515800940816 -1771.2954585479224 0 -1771.2954585479224 -381.59966466544131 0 0 0 0 2503.1187297716715 -1045.290326685152 0 -1045.290326685152 -599.36237516324729 0 0 0 0 865.43792187384406 -748.38328503646255 0 -748.38328503646255 -319.06170489349938 0 0 0 0 2205.0504447403091 -1348.5301726489774 0 -1348.5301726489774 -259.3797341235188 0 0 0 0 -137.53235353250057 1033.4504496585375 0 1033.4504496585375 1293.5061527400535 0 0 0 0 575.21886437107787 146.35010052047426 0 146.35010052047426 -742.96499576239148 0 0 0 0 -17.279482707798707 -318.46359315524205 0 -318.46359315524205 82.941285433121323 0 0 0 0 23.281494123316012 2.8162288584253914 0 2.8162288584253914 3.5682316456168675 0 0 0 0 3445.8237122625615 2861.3119394816813 0 2861.3119394816813 2457.7135888745711 0 0 0 0 1878.5769388344715 -1952.6788054041617 0 -1952.6788054041617 1377.8113749364918 0 0 0 0 7.3537202111603008 9.9545660345070726 0 9.9545660345070726 3.4142898569402758 0 0 0 0 876.83831939201991 -311.81279555012088 0 -311.81279555012088 -693.62216851224912 0 0 0 0 715.38135974136458 2127.9142513524698 0 2127.9142513524698 2622.0990940985821 0 0 0 0 -387.96769183380957 790.88279983476423 0 790.88279983476423 1024.0726042108618 0 0 0 0 -35.529649171541678 34.226365660760507 0 34.226365660760507 -616.50399188314043 0 0 0 0 392.20051031708135 1362.9462476661433 0 1362.9462476661433 122.92855115279855 0 0 0 0 1274.614332538511 2193.7113290852994 0 2193.7113290852994 847.10681064251094 0 0 0 0 3495.3234165909175 2798.4344333582385 0 2798.4344333582385 601.04751169904694 0 0 0 0 1697.672052880931 1530.1678049884813 0 1530.1678049884813 -279.82713755987663 0 0 0 0 3495.7406531039396 1320.8775071308733 0 1320.8775071308733 -1016.1740931129887 0 0 0 0 3491.3317288611433 2027.0385464893279 0 2027.0385464893279 -629.83060064078018 0 0 0 0 1544.188551534884 480.19154052047065 0 480.19154052047065 -1857.8240149672888 0 0 0 0 10.49477161500841 6.24440033618224 0 6.24440033618224 -3.9578472486014329 0 0 0 0 299.19677755446173 1802.8695381040648 0 1802.8695381040648 1564.4775499012046 0 0 0 0 809.01682448541942 1443.1579971436788 0 1443.1579971436788 122.09584017434238 0 0 0 0 1185.8012801593977 2043.5630450373665 0 2043.5630450373665 1050.5308363453764 0 0 0 0 1834.8019887642731 978.10050961889192 0 978.10050961889192 -447.68963427726158 0 0 0 0 1294.4253770747691 554.35670010025729 0 554.35670010025729 -160.74923795118684 0 0 0 0 1102.4964130782746 774.11602137847149 0 774.11602137847149 -20.322176364154984 0 0 0 0 2085.6921845068355 335.96222696458892 0 335.96222696458892 -2089.60476500812 0 0 0 0 9.7125659669977011 5.1639713651636328 0 5.1639713651636328 -3.7757678098076046 0 0 0 0 1907.7909052435634 1029.1263515938726 0 1029.1263515938726 -1198.2918415744564 0 0 0 0 1887.8024343719335 937.20702872125696 0 937.20702872125696 -444.73457528410415 0 0 0 0 1673.206734363629 710.37351201930437 0 710.37351201930437 -602.21551342091857 0 0 0 0 1981.7629093766664 547.98687685938603 0 547.98687685938603 -549.73461412616962 0 0 0 0 2180.4829264648442 987.3576864295012 0 987.3576864295012 -579.31422877404816 0 0 0 0 1764.9699023665489 781.51936480549443 0 781.51936480549443 -676.65783842346377 0 0 0 0 2693.789390678694 2023.3459655492891 0 2023.3459655492891 -466.66851680643299 0 0 0 0 127.65994020214475 -4.6129898068547845 0 -4.6129898068547845 17.872906198152123 0 0 0 0 197.15186602445101 87.03679542750524 0 87.03679542750524 33.846122462095991 0 0 0 0 322.98346236186262 295.40657241542885 0 295.40657241542885 -430.48248249541393 0 0 0 0 542.28441466393724 -70.980018273468204 0 -70.980018273468204 -129.6149149707071 0 0 0 0 831.76028332759597 -171.00189105602931 0 -171.00189105602931 -298.98340548179726 0 0 0 0 563.60355577413793 -619.43640506268639 0 -619.43640506268639 1803.0807047922317 0 0 0 0 86.306866809256007 1375.4630059424312 0 1375.4630059424312 -830.17442986805872 0 0 0 0 9.5326588962308243 -4.5916531405002203 0 -4.5916531405002203 5.9811485409838774 0 0 0 0 289.41580111308303 -471.97104996866983 0 -471.97104996866983 678.43808420637924 0 0 0 0 -0.29475802816757124 -3.3629125992291478 0 -3.3629125992291478 0.72625101557242733 0 0 0 0 134.55840707035304 -31.769453383046766 0 -31.769453383046766 -63.614183676323591 0 0 0 0 117.73857035536639 7.9584659741103678 0 7.9584659741103678 3.4098304666581498 0 0 0 0 52.878984613616744 -25.516899950100775 0 -25.516899950100775 -2.8833018803074135 0 0 0 0 155.91661898189159 14.19203150411613 0 14.19203150411613 -25.135432892211611 0 0 0 0 63.674554850163986 -15.039785349347767 0 -15.039785349347767 -70.709718346764475 0 0 0 0 82.852206059741292 -2.3186787941026452 0 -2.3186787941026452 -9.1545495647689172 0 0 0 0 68.635992838977074 -14.201150910930453 0 -14.201150910930453 -5.0175288152029154 0 0 0 0 -140.64059612117126 368.22371115270471 0 368.22371115270471 150.0380894191162 0 0 0 0 61.302319393522339 -33.349583217320429 0 -33.349583217320429 -25.864037102230213 0 0 0 0 62.569065732008312 -19.926463084499119 0 -19.926463084499119 -16.572828727154956 0 0 0 0 -155.38983990484849 -72.214506123073079 0 -72.214506123073079 559.35558911193016 0 0 0 0 56.556701684681201 -3.8579320848261425 0 -3.8579320848261425 -1.4452471292451725 0 0 0 0 -504.56888358058586 88.513592099936204 0 88.513592099936204 508.56245750404196 0 0 0 0 7.4943792040505475 -3.306116722048202 0 -3.306116722048202 0.85887868407196777 0 0 0 0 208.24243489643868 -240.40451162905049 0 -240.40451162905049 585.92744424447119 0 0 0 0 -43.142617663509554 -4.5672807589635909 0 -4.5672807589635909 50.585639725228248 0 0 0 0 33.19968726712375 -23.348875093056137 0 -23.348875093056137 -3.022946912843306 0 0 0 0 83.887830281797505 -31.176949905513538 0 -31.176949905513538 -1.2696911731236469 0 0 0 0 66.587325517489631 -25.314550170839269 0 -25.314550170839269 -5.5747483444672135 0 0 0 0 111.80340104679271 -51.740497274432528 0 -51.740497274432528 -54.699945351428823 0 0 0 0 86.23430304411886 -85.160608389034678 0 -85.160608389034678 -60.659839240388465 0 0 0 0 132.84949659327322 23.625303638848891 0 23.625303638848891 -55.567185255903496 0 0 0 0 57.104901765960676 -48.629684595072831 0 -48.629684595072831 -17.102063455833559 0 0 0 0 117.87743019449044 -2.7521767860380351 0 -2.7521767860380351 -4.1866695580611122 0 0 0 0 166.34663811068731 -24.513419575445596 0 -24.513419575445596 -12.376098499338696 0 0 0 0 210.79396343439294 27.671358458948816 0 27.671358458948816 14.264638089441178 0 0 0 0 169.08348197365649 -71.00579635026952 0 -71.00579635026952 -35.111889871928724 0 0 0 0 180.23494074277551 -4.0636406456587792 0 -4.0636406456587792 42.073550225282816 0 0 0 0 250.79696651537597 -7.9276663619521059 0 -7.9276663619521059 41.48717092507286 0 0 0 0 44.000563235065783 -71.561363767862531 0 -71.561363767862531 16.752216769264123 0 0 0 0 28.09332976497717 30.824462793967172 0 30.824462793967172 -103.94761051057958 0 0 0 0 16.171226597009213 -25.355753640823696 0 -25.355753640823696 -13.794961428431009 0 0 0 0 157.73829870561167 -90.243560736364998 0 -90.243560736364998 -142.33940791467467 0 0 0 0 -205.2522215082754 -50.226733254747614 0 -50.226733254747614 508.75657553601741 0 0 0 0 -43.583990135492058 -35.341105066973796 0 -35.341105066973796 226.73895202046697 0 0 0 0 -2.4122075713693878 -22.991593637958047 0 -22.991593637958047 -3.7556180743293943 0 0 0 0 290.90549800856024 -81.517587834586266 0 -81.517587834586266 -227.24984891798522 0 0 0 0 135.64561780281656 90.450372244018581 0 90.450372244018581 -37.331517387214262 0 0 0 0 573.42700567192333 202.93707732227949 0 202.93707732227949 -30.849040126258842 0 0 0 0 1.4474806660145383 -1.4655667905638303 0 -1.4655667905638303 2.5497802438026689 0 0 0 0 588.52056909169187 -3.1390936161724312 0 -3.1390936161724312 -77.182869026304616 0 0 0 0 289.52081613631708 130.92333210740571 0 130.92333210740571 149.88153449594574 0 0 0 0 263.20550357920001 110.44717301224773 0 110.44717301224773 43.10341984754632 0 0 0 0 269.08158661751122 4.221946155980504 0 4.221946155980504 -62.225078454786853 0 0 0 0 201.20182827960707 -33.822063882900693 0 -33.822063882900693 34.014432379073696 0 0 0 0 240.60385800644144 53.807606864300396 0 53.807606864300396 20.307570567298626 0 0 0 0 473.6241284084299 181.64753727068182 0 181.64753727068182 -172.46863250825209 0 0 0 0 50.804235077270278 -16.721345979359057 0 -16.721345979359057 -13.392210865919878 0 0 0 0 56.735250450150033 275.46363386947689 0 275.46363386947689 -251.05834049039913 0 0 0 0 292.63909644077467 75.744664481581822 0 75.744664481581822 -6.0467369224925278 0 0 0 0 217.50037326787788 -169.54639867194419 0 -169.54639867194419 50.091898403290543 0 0 0 0 2.7190633102130555 -4.7145015558754437 0 -4.7145015558754437 6.2726280188057899 0 0 0 0 181.13478653126367 237.39760324240524 0 237.39760324240524 -271.21698847355765 0 0 0 0 217.30225829603296 -163.80330229014362 0 -163.80330229014362 -78.270701836373973 0 0 0 0 25.267340881229757 -143.22858451912543 0 -143.22858451912543 -34.638545002205319 0 0 0 0 4.4612391226502908 -0.38476016834371229 0 -0.38476016834371229 -0.43990301111979324 0 0 0 0 -29.727541759392807 -30.252406211343896 0 -30.252406211343896 -51.905661579723528 0 0 0 0 8.9443628810628866 -0.44841340051611134 0 -0.44841340051611134 -0.78925498976148489 0 0 0 0 137.79646109771602 0.69876907663638121 0 0.69876907663638121 -376.45016768850337 0 0 0 0 103.1378541846625 -14.129106439780571 0 -14.129106439780571 -333.33455870696514 0 0 0 0 54.806229925299704 184.15998376117386 0 184.15998376117386 -241.78389075375253 0 0 0 0 5.9932389975316482 -150.02768652286591 0 -150.02768652286591 -11.4896353424474 0 0 0 0 4.509977620663463 -0.21815593158357238 0 -0.21815593158357238 -0.28577805514874477 0 0 0 0 258.81788988015069 260.23186821325817 0 260.23186821325817 -160.04784052962611 0 0 0 0 88.010378145278082 -192.1099641910132 0 -192.1099641910132 -20.002547002114284 0 0 0 0 -17.540124946025571 -75.126392386430553 0 -75.126392386430553 23.25933117004115 0 0 0 0 123.55808119780522 -143.53565758397053 0 -143.53565758397053 -52.584534609528873 0 0 0 0 246.93489739469987 -157.13298488423152 0 -157.13298488423152 -51.295393032315587 0 0 0 0 174.51865590659509 16.928712118808107 0 16.928712118808107 -158.45275218381175 0 0 0 0 235.39678551067482 -82.946374197563728 0 -82.946374197563728 -64.798672983206416 0 0 0 0 114.51564740181493 -6.6398969259726073 0 -6.6398969259726073 -39.471277361564489 0 0 0 0 58.625330452489834 -78.964419151912352 0 -78.964419151912352 4.8955492218301515 0 0 0 0 83.537340349363149 -89.701438561445229 0 -89.701438561445229 9.2669055547985408 0 0 0 0 78.845321533683091 -64.289782519688288 0 -64.289782519688288 67.13357886594622 0 0 0 0 59.362452298796597 9.8118774585711179 0 9.8118774585711179 -1.6292392752156319 0 0 0 0 -2.8320987477636663 64.040817247291216 0 64.040817247291216 -78.731751037685171 0 0 0 0 170.02148941768246 -34.131737965513821 0 -34.131737965513821 -276.35055552026279 0 0 0 0 53.567888842895627 -26.899472982217048 0 -26.899472982217048 -275.39958846664376 0 0 0 0 -116.94203064746398 5.2115922872562805 0 5.2115922872562805 -63.664279505646846 0 0 0 0 -103.55526736433967 -15.986060807509148 0 -15.986060807509148 -140.78906708883733 0 0 0 0 -185.57695790079015 34.741564361076598 0 34.741564361076598 4.1555829407475358 0 0 0 0 -208.72904096721322 168.75348341537028 0 168.75348341537028 -303.18807262549217 0 0 0 0 8.4108087926472308 -2.7843124998128133 0 -2.7843124998128133 -4.7357810597691383 0 0 0 0 149.60557638430328 -68.371353681802702 0 -68.371353681802702 -5.8025559133234594 0 0 0 0 102.72986763495101 -78.981232059978993 0 -78.981232059978993 264.23050925394273 0 0 0 0 8.4202682333898338 -89.457237998771689 0 -89.457237998771689 245.30650558096931 0 0 0 0 219.25535271125773 146.98878881941982 0 146.98878881941982 -156.88863491885229 0 0 0 0 36.262150698808263 2.8545548450162279 0 2.8545548450162279 0.67156609162818004 0 0 0 0 42.245893491704919 210.94829880883799 0 210.94829880883799 -16.047057156816663 0 0 0 0 11.683459558481907 2.9261028719182711 0 2.9261028719182711 1.2252396478190202 0 0 0 0 -96.680095504292694 275.34329849635651 0 275.34329849635651 698.48136673631734 0 0 0 0 28.642579559828633 -28.161011757888389 0 -28.161011757888389 4.3962611783180741 0 0 0 0 84.681494858610677 139.47530954457852 0 139.47530954457852 -13.015384466403702 0 0 0 0 68.432555122050701 -27.445037283928912 0 -27.445037283928912 -3.8441217789495568 0 0 0 0 353.6294840415685 4.4553585435551213 0 4.4553585435551213 -3.2187126297176292 0 0 0 0 114.9680478864575 202.2321675602343 0 202.2321675602343 66.810059697052566 0 0 0 0 123.5150794862509 113.9852516835424 0 113.9852516835424 213.07369829037998 0 0 0 0 78.638423046595562 128.35162677895823 0 128.35162677895823 157.26553009807503 0 0 0 0 -39.196861284515762 -29.416464093705144 0 -29.416464093705144 59.217653032899761 0 0 0 0 25.755127858982263 -7.4236349089777605 0 -7.4236349089777605 1.7197127257538689 0 0 0 0 236.55368833687135 120.49353067489665 0 120.49353067489665 101.1951364245615 0 0 0 0 346.53217452476383 16.839245789517918 0 16.839245789517918 118.46760000622635 0 0 0 0 7.2032359373552026 -25.487638005935878 0 -25.487638005935878 -115.03871454241198 0 0 0 0 25.272702490190568 -56.437433431798127 0 -56.437433431798127 -95.269079899229837 0 0 0 0 -14.152730303107091 -67.865321972611127 0 -67.865321972611127 -38.13883077779974 0 0 0 0 -7.1472189559572143 -48.535064195268205 0 -48.535064195268205 -74.624199514157226 0 0 0 0 50.817450631655994 -32.331791024114679 0 -32.331791024114679 -34.955661593884798 0 0 0 0 7.5699435743736103 -77.906382865661726 0 -77.906382865661726 -49.348859337234899 0 0 0 0 -179.48583774657163 -1.2487427818959986 0 -1.2487427818959986 14.197140841527926 0 0 0 0 -58.730142374290153 -3.1008265509062767 0 -3.1008265509062767 -62.604603756445158 0 0 0 0 -166.09177432247816 -29.144682506403115 0 -29.144682506403115 71.304380772980949 0 0 0 0 -66.984493595402455 -26.460668006737251 0 -26.460668006737251 62.71214780272021 0 0 0 0 487.43256650093099 180.49992454948551 0 180.49992454948551 -54.741474832927906 0 0 0 0 -79.649681535367563 17.054545782564674 0 17.054545782564674 117.47307531006823 0 0 0 0 6.70626434736009 -0.054740619805357937 0 -0.054740619805357937 -3.0902874942201031 0 0 0 0 0.69787606479076203 -101.95008242857693 0 -101.95008242857693 89.617889127393937 0 0 0 0 392.92703847663142 198.17782684447013 0 198.17782684447013 46.783090177748818 0 0 0 0 569.55461942926195 576.77669151021655 0 576.77669151021655 265.54494192597031 0 0 0 0 -8.4316936658287887 -230.74835033102863 0 -230.74835033102863 249.60964280549888 0 0 0 0 321.40093849241748 -570.08884200691227 0 -570.08884200691227 222.11290892879333 0 0 0 0 7.3729938066069138 -2.6386022801949593 0 -2.6386022801949593 -2.4408231496696686 0 0 0 0 -118.14248774896987 -86.874564927120446 0 -86.874564927120446 -8.6235060943654389 0 0 0 0 1253.8478110080105 -151.81117292824092 0 -151.81117292824092 -441.04006896981809 0 0 0 0 -635.06492587723915 63.183209283968608 0 63.183209283968608 247.68964545242488 0 0 0 0 -354.61778811184195 -455.53383325926006 0 -455.53383325926006 442.38591749729676 0 0 0 0 8.993099960925619 -1.4277931795540439 0 -1.4277931795540439 -0.4982477426488785 0 0 0 0 93.278087772831555 23.844616067022294 0 23.844616067022294 -7.2635412544986728 0 0 0 0 33.32192053712788 64.177032510833669 0 64.177032510833669 34.557124926311189 0 0 0 0 -285.53787434132391 386.1575343506629 0 386.1575343506629 -213.84118928092357 0 0 0 0 120.81248594213685 44.994179252902541 0 44.994179252902541 14.607811426847547 0 0 0 0 2.2618326354859164 11.648015096453037 0 11.648015096453037 8.208678248562137 0 0 0 0 60.4045879165933 34.065190152306968 0 34.065190152306968 -69.77561869072133 0 0 0 0 25.789958602066235 6.9809570726900709 0 6.9809570726900709 1.9034848714751007 0 0 0 0 31.566066332692571 51.394801994214049 0 51.394801994214049 62.118984865537641 0 0 0 0 7.5303969445667462 22.097927358682682 0 22.097927358682682 -7.4862238333759024 0 0 0 0 -26.040596026083222 76.030278918212389 0 76.030278918212389 52.622399996381318 0 0 0 0 416.37607589871914 265.82342566605712 0 265.82342566605712 123.73075249258818 0 0 0 0 178.68418942586868 -186.1626651985755 0 -186.1626651985755 68.758751497838603 0 0 0 0 -2.1105392974118047 -17.863197232783111 0 -17.863197232783111 -1.9202156310324043 0 0 0 0 109.51191730879509 -186.09222070761643 0 -186.09222070761643 -356.11857231787326 0 0 0 0 78.304777663915473 12.988164057462871 0 12.988164057462871 -12.793010900939855 0 0 0 0 44.130876076276763 -12.192319592822059 0 -12.192319592822059 41.52420075545183 0 0 0 0 13.831401028597611 -359.65621192455728 0 -359.65621192455728 -55.762763880396051 0 0 0 0 75.773941053295857 -22.081505351406122 0 -22.081505351406122 19.071515962721605 0 0 0 0 42.240236006880878 -0.87022023248482583 0 -0.87022023248482583 25.620247427791583 0 0 0 0 42.9995064392389 9.4352689744184524 0 9.4352689744184524 0.46594810709731416 0 0 0 0 93.30035155605583 13.222705171635425 0 13.222705171635425 -41.37831435825774 0 0 0 0 48.342614405475615 10.699911899779181 0 10.699911899779181 -4.8558192501586745 0 0 0 0 207.53904594530468 27.89730960897873 0 27.89730960897873 32.297953668068658 0 0 0 0 27.74195459094323 -12.820150129565235 0 -12.820150129565235 -0.11811208887802849 0 0 0 0 459.67665885396127 12.561419232453773 0 12.561419232453773 -37.0924507884788 0 0 0 0 386.12307397845143 86.511257362124525 0 86.511257362124525 8.9168372699724614 0 0 0 0 382.51306598179508 68.725058616321348 0 68.725058616321348 -50.681128582946258 0 0 0 0 373.07313505785714 75.626251999293345 0 75.626251999293345 -42.172332868128706 0 0 0 0 394.90007658282411 88.069570033533637 0 88.069570033533637 -40.271696275159229 0 0 0 0 248.43727752497944 70.894671458327139 0 70.894671458327139 -27.669960873283117 0 0 0 0 285.39719636190421 19.925385863659812 0 19.925385863659812 -45.186451520061382 0 0 0 0 416.87078242991993 32.292140462148382 0 32.292140462148382 -51.653127424609011 0 0 0 0 221.74756414838521 24.757808364335688 0 24.757808364335688 -66.9814286657911 0 0 0 0 328.7827294596791 70.01375896978152 0 70.01375896978152 -17.815549544694477 0 0 0 0 227.93379679650752 -2.3696456394874303 0 -2.3696456394874303 39.830022304213344 0 0 0 0 185.62100126589939 22.933554056776302 0 22.933554056776302 11.086165017499297 0 0 0 0 603.81917002232512 34.097861208054383 0 34.097861208054383 -39.213866767523541 0 0 0 0 355.93135398508457 -6.4169400640810181 0 -6.4169400640810181 197.24942002823445 0 0 0 0 415.49245717404119 276.22493018917612 0 276.22493018917612 116.4040478172783 0 0 0 0 585.49149748471245 163.51616887384262 0 163.51616887384262 -102.88549771668295 0 0 0 0 415.13741686902358 84.702240305759005 0 84.702240305759005 -137.28571416691375 0 0 0 0 126.25168726146512 56.811601564465491 0 56.811601564465491 -57.773270816456716 0 0 0 0 402.82637964180321 235.14882233730441 0 235.14882233730441 -139.89185076620515 0 0 0 0 425.10090739390489 240.99963198454205 0 240.99963198454205 -138.41871452210398 0 0 0 0 377.45908999517269 153.45399416052896 0 153.45399416052896 -85.020737568132063 0 0 0 0 198.67041537548357 3.8179996133876557 0 3.8179996133876557 -187.49753045098623 0 0 0 0 366.88923994480865 175.76549778157778 0 175.76549778157778 -31.515161897968937 0 0 0 0 463.51096443918959 154.09452650593718 0 154.09452650593718 -201.59694035759094 0 0 0 0 438.84737164226135 293.71033602494617 0 293.71033602494617 -45.285572900276748 0 0 0 0 470.50208246033799 -545.97493801335122 0 -545.97493801335122 535.87693599167415 0 0 0 0 -196.63071072425373 791.79540990515557 0 791.79540990515557 612.42537518609242 0 0 0 0 83.086801262251612 -23.46472643456903 0 -23.46472643456903 -11.585714686322119 0 0 0 0 337.90394202814787 306.17614191448774 0 306.17614191448774 68.7802380233843 0 0 0 0 29.717365821743442 -44.272305978007353 0 -44.272305978007353 -44.868931005626791 0 0 0 0 -33.195329436035536 -53.482861095930275 0 -53.482861095930275 89.115060138156878 0 0 0 0 73.881440155268677 -17.549805752193155 0 -17.549805752193155 -8.4059321465080927 0 0 0 0 64.376984312448045 -35.874172254813217 0 -35.874172254813217 -39.718435709379179 0 0 0 0 281.09098358139454 243.80507786204271 0 243.80507786204271 28.645943601886756 0 0 0 0 -187.17102201157832 -124.04840698048383 0 -124.04840698048383 182.70517513938648 0 0 0 0 -258.44821990705532 -137.00686956576783 0 -137.00686956576783 526.1807147229465 0 0 0 0 153.23568300111219 -121.25900428246496 0 -121.25900428246496 410.62050064001869 0 0 0 0 40.122201865917305 -221.34770800344722 0 -221.34770800344722 323.38870901324663 0 0 0 0 -14.632107375766793 -217.7955159924916 0 -217.7955159924916 474.69131012864818 0 0 0 0 -15.015846029620448 -54.881069342400927 0 -54.881069342400927 540.61807876857529 0 0 0 0 -294.86030654112983 275.20541778387451 0 275.20541778387451 578.78075457226373 0 0 0 0 3.9019416928100839 4.8645981780706009 0 4.8645981780706009 5.0112297734722198 0 0 0 0 -431.03379278294597 97.528793651380511 0 97.528793651380511 483.83739495726275 0 0 0 0 187.89129404332198 30.603971234527307 0 30.603971234527307 489.83149858336583 0 0 0 0 -40.962714217246685 26.929202392792831 0 26.929202392792831 -0.12835530254415062 0 0 0 0 -263.52566986296733 525.20471435286618 0 525.20471435286618 402.36567513949922 0 0 0 0 11.447025157190524 10.92188740455299 0 10.92188740455299 8.354101984520387 0 0 0 0 -96.67446385967196 623.10695509712377 0 623.10695509712377 -469.98729630106527 0 0 0 0 -72.026521718704316 31.111158203165814 0 31.111158203165814 -30.174691319582507 0 0 0 0 -65.616653097284143 214.53648368239919 0 214.53648368239919 -175.42628076687106 0 0 0 0 129.02725753034247 121.02764951738163 0 121.02764951738163 -36.108847925737791 0 0 0 0 66.854377123025188 20.832296180918092 0 20.832296180918092 16.215182574807386 0 0 0 0 49.167861971298407 91.262517144353012 0 91.262517144353012 -20.963667939314291 0 0 0 0 -98.417505565341344 179.65986185874675 0 179.65986185874675 -152.39756085030967 0 0 0 0 -106.87588372608298 14.933757042991147 0 14.933757042991147 -15.338599548140337 0 0 0 0 433.3512453680014 551.96047331781938 0 551.96047331781938 -490.84414098457512 0 0 0 0 12.714364960122055 9.6521224955347478 0 9.6521224955347478 5.7852604246617325 0 0 0 0 462.96994404442376 -158.66315444777229 0 -158.66315444777229 -319.71232616764973 0 0 0 0 131.06862761989032 -157.67921199621014 0 -157.67921199621014 -194.56508022626258 0 0 0 0 5.7608890153786376 3.4546058007763136 0 3.4546058007763136 1.9437944918702037 0 0 0 0 -55.345765920392296 261.21211715825848 0 261.21211715825848 13.67987377709801 0 0 0 0 702.85720860660695 -403.67854359830574 0 -403.67854359830574 -89.947854603773521 0 0 0 0 288.57046164255735 325.18115506219692 0 325.18115506219692 329.80975161643926 0 0 0 0 843.68087927803572 -93.530868706969386 0 -93.530868706969386 -309.55067388877978 0 0 0 0 -4.7918862617654838 4.4602864397044435 0 4.4602864397044435 -2.5530193607929448 0 0 0 0 201.21945876471727 93.523877604371592 0 93.523877604371592 -283.09235015298691 0 0 0 0 17.173575734050246 17.599079732700829 0 17.599079732700829 -17.496862716152464 0 0 0 0 18.609297925254438 10.82447951760723 0 10.82447951760723 -10.168046783615031 0 0 0 0 141.95047120947856 84.724244862310115 0 84.724244862310115 7.0487759198213098 0 0 0 0 204.15162958644942 -43.674219966898818 0 -43.674219966898818 -179.41538030252013 0 0 0 0 426.81010796073679 -223.51056263264309 0 -223.51056263264309 -44.262389031925522 0 0 0 0 10.104960370877961 16.500179912047088 0 16.500179912047088 -22.743463318372051 0 0 0 0 17.270677451619648 5.8744582197333557 0 5.8744582197333557 -16.880442512654604 0 0 0 0 142.01966662441555 -113.63112356223337 0 -113.63112356223337 15.717196237355893 0 0 0 0 12.605259200827277 11.11475769849153 0 11.11475769849153 -14.304291784375437 0 0 0 0 8.0169347732505685 12.247004552863395 0 12.247004552863395 -7.7504674784248664 0 0 0 0 220.60358162116609 -30.041858856193357 0 -30.041858856193357 -245.29207814761685 0 0 0 0 -110.81308542210536 -27.141583301457672 0 -27.141583301457672 326.60500796231827 0 0 0 0 11.289493389916856 0.16325539484697771 0 0.16325539484697771 -3.7212050048976035 0 0 0 0 948.11285097780637 515.39830143215204 0 515.39830143215204 263.41476245743434 0 0 0 0 -153.94302419165342 343.30677892865992 0 343.30677892865992 496.07044184209008 0 0 0 0 2.2164869950183146 2.175228230184743 0 2.175228230184743 0.9032073428761116 0 0 0 0 1070.1813556336783 525.9379353297154 0 525.9379353297154 247.15943029956634 0 0 0 0 809.95254363548884 231.53970904228117 0 231.53970904228117 157.73359111523314 0 0 0 0 927.13307810542756 525.96886552255728 0 525.96886552255728 429.56541937421571 0 0 0 0 860.27533614920685 305.7985623232762 0 305.7985623232762 259.10501287552688 0 0 0 0 600.25419943541056 56.834011370594453 0 56.834011370594453 210.62663393148745 0 0 0 0 717.10620017857582 -201.85783387382253 0 -201.85783387382253 329.68834227306252 0 0 0 0 939.02526616564137 121.00767348669615 0 121.00767348669615 209.99857037863552 0 0 0 0 100.9474030341662 -113.54917878079686 0 -113.54917878079686 559.5418625497532 0 0 0 0 112.47480706541683 -17.350776853783827 0 -17.350776853783827 324.23767783552103 0 0 0 0 184.93677922757161 -219.74443084423547 0 -219.74443084423547 370.22023722360245 0 0 0 0 1439.8746440552059 293.00771134806564 0 293.00771134806564 124.24026658046614 0 0 0 0 1078.9629772850603 -413.60351615336913 0 -413.60351615336913 295.42434833328116 0 0 0 0 96.45618503895821 -237.82056316731178 0 -237.82056316731178 -323.50122471632824 0 0 0 0 664.60159705775004 605.16939453832856 0 605.16939453832856 897.27690190217618 0 0 0 0 870.47166147443295 -532.12988372576365 0 -532.12988372576365 -184.2940326525586 0 0 0 0 252.8099133436699 -389.56371209375175 0 -389.56371209375175 574.6196815857179 0 0 0 0 8.8946621026977795 6.7261056229417946 0 6.7261056229417946 5.3628275393437157 0 0 0 0 -22.5252566676063 86.72542287199019 0 86.72542287199019 -5.1715001213706273 0 0 0 0 -32.961000607407186 4.4096989667059034 0 4.4096989667059034 -44.945767722418765 0 0 0 0 -5.368706264111097 55.075351433061286 0 55.075351433061286 -70.604016211117184 0 0 0 0 1.8260456335861761 -0.039037586802621149 0 -0.039037586802621149 -1.1712302858896466 0 0 0 0 12.832403265594621 66.195867144677905 0 66.195867144677905 -44.087259426564231 0 0 0 0 -1.0256404736810509 -16.271206272624273 0 -16.271206272624273 -7.5723822522189721 0 0 0 0 23.910031113467994 -20.022636704190944 0 -20.022636704190944 -64.333706835279713 0 0 0 0 43.320260343789414 -4.5095404856419492 0 -4.5095404856419492 -58.922906895066433 0 0 0 0 28.166546791078872 -4.7732520967286405 0 -4.7732520967286405 -12.369021610413483 0 0 0 0 11.514555535992258 22.387458881081059 0 22.387458881081059 -8.4275280775826502 0 0 0 0 20.516837744638906 13.18339601713933 0 13.18339601713933 -15.259668031344177 0 0 0 0 1.0877619465801587 7.5037952643112078 0 7.5037952643112078 -16.73708521240496 0 0 0 0 50.423056250619993 9.7859530815213986 0 9.7859530815213986 -30.586466249768904 0 0 0 0 17.84726620247784 14.066126793326816 0 14.066126793326816 -15.328057942834675 0 0 0 0 18.431858916075726 15.136194099370641 0 15.136194099370641 -13.378302035784372 0 0 0 0 8.5442721372494361 8.7888715763524026 0 8.7888715763524026 -0.68261903556255099 0 0 0 0 20.544854487241537 14.954216013270525 0 14.954216013270525 -19.23779475218862 0 0 0 0 20.231726897389308 16.293820834631106 0 16.293820834631106 -11.471292616014125 0 0 0 0 16.920446104986809 7.8750584537961501 0 7.8750584537961501 -5.5107583769553425 0 0 0 0 13.096648367611891 9.5340133133531353 0 9.5340133133531353 -3.096930305250611 0 0 0 0 22.393642299641215 11.772785263933656 0 11.772785263933656 -12.256758369179806 0 0 0 0 9.5049366007870049 12.254253768526837 0 12.254253768526837 -8.1664282958154217 0 0 0 0 25.101944284688216 15.426187158752782 0 15.426187158752782 -15.145028309545978 0 0 0 0 1.11553294203798 8.8090826887143265 0 8.8090826887143265 -17.212712778149498 0 0 0 0 20.538364479220036 32.211673932339778 0 32.211673932339778 -19.319685728103792 0 0 0 0 8.5149927023210807 11.087618250828001 0 11.087618250828001 5.5004763023412035 0 0 0 0 -19.521188506805629 22.545750508384799 0 22.545750508384799 -3.823864935034976 0 0 0 0 -4.661478593130596 17.480757051599539 0 17.480757051599539 -2.5478232869822932 0 0 0 0 -4.6614785931160441 17.480757051605906 0 17.480757051605906 -2.5478232869900239 0 0 0 0 0.95611213425303276 3.728648841031287 0 3.728648841031287 0.72722226308689919 0 0 0 0 4.0575009709755001 9.1574935399668149 0 9.1574935399668149 -5.407031562478549 0 0 0 0 -4.6614785931378719 17.480757051629325 0 17.480757051629325 -2.5478232870018473 0 0 0 0 -8.7854311212577159 4.0094325904437937 0 4.0094325904437937 -24.231841164093112 0 0 0 0 -119.70350878608588 95.770246444176792 0 95.770246444176792 -11.680382859349493 0 0 0 0 -50.807866299270245 -152.75250443962204 0 -152.75250443962204 96.640360945505336 0 0 0 0 18.64026115044544 -1.4645781765857464 0 -1.4645781765857464 -264.90468631813349 0 0 0 0 -98.79779605299882 222.66540699008186 0 222.66540699008186 -292.18281076436415 0 0 0 0 -170.69014883907221 192.96756239904744 0 192.96756239904744 23.560430635397552 0 0 0 0 -197.64235426724554 28.329500519907498 0 28.329500519907498 -4.9025270762258515 0 0 0 0 -192.33428526115313 226.81604786594653 0 226.81604786594653 -278.67235222264526 0 0 0 0 -1.68644716431794 1.7211092371102765 0 1.7211092371102765 -1.2559624238640428 0 0 0 0 -221.75751876873255 233.57681484403838 0 233.57681484403838 -255.78789025440346 0 0 0 0 0.071292557552663283 0.49469092143513649 0 0.49469092143513649 -2.7210281417929387 0 0 0 0 -178.21814232620818 268.52620253194073 0 268.52620253194073 -293.6312743617973 0 0 0 0 -0.55856782752834988 -6.0080196559330261 0 -6.0080196559330261 -264.3385204963397 0 0 0 0 -0.60596362682554172 143.37091987835083 0 143.37091987835083 -283.57131455020777 0 0 0 0 21.330532097621472 -13.60852591208095 0 -13.60852591208095 -22.686711728285445 0 0 0 0 8.0246408248079319 8.7529798614106085 0 8.7529798614106085 -5.3331766883024079 0 0 0 0 -1.8825452068902848 0.25362771318606292 0 0.25362771318606292 -2.6478121880679382 0 0 0 0 14.763647670326463 2.9211574363707768 0 2.9211574363707768 -10.25032415445321 0 0 0 0 -51.687015979754506 -41.685595261307753 0 -41.685595261307753 -36.346034144399937 0 0 0 0 7.2272185303263541 26.233468489808047 0 26.233468489808047 -57.833533586200247 0 0 0 0 2.0308368517146675 0.89245255190772355 0 0.89245255190772355 -0.51835001417797599 0 0 0 0 263.40854995494738 115.69226910318002 0 115.69226910318002 85.923354977543568 0 0 0 0 24.536029039898494 -16.518362975705827 0 -16.518362975705827 -69.098822562752503 0 0 0 0 -30.552357147949806 -93.360287159441668 0 -93.360287159441668 23.409199139793145 0 0 0 0 149.16666485405585 324.06157896057357 0 324.06157896057357 48.172176069120724 0 0 0 0 -113.2066680871867 296.00654668154266 0 296.00654668154266 45.234060074744775 0 0 0 0 -1.8136031316810062 -0.12520409041079006 0 -0.12520409041079006 1.5754007502415242 0 0 0 0 228.01903309849695 215.5431468105412 0 215.5431468105412 270.45000480706858 0 0 0 0 229.43877263687682 226.34592726399205 0 226.34592726399205 147.26647698662146 0 0 0 0 183.91166195700134 285.40273524675513 0 285.40273524675513 301.44083010859549 0 0 0 0 197.63339270152574 314.57781417234213 0 314.57781417234213 333.06489536630261 0 0 0 0 162.30735526147328 322.57756003618147 0 322.57756003618147 247.85837865379608 0 0 0 0 124.50654378430772 238.81494933264662 0 238.81494933264662 222.13447530491021 0 0 0 0 99.038254534192674 232.64169261495374 0 232.64169261495374 289.80236939783936 0 0 0 0 232.72331717605994 261.31389024660348 0 261.31389024660348 295.85879406351353 0 0 0 0 88.460976191199734 164.6982694139997 0 164.6982694139997 338.8578985374225 0 0 0 0 -17.651696102926508 181.29486883085042 0 181.29486883085042 336.90051447519863 0 0 0 0 5.8350959929739474 114.42671320976217 0 114.42671320976217 79.715022772742486 0 0 0 0 -96.901620920849382 227.17136638021066 0 227.17136638021066 221.59678531724074 0 0 0 0 -218.20721254468572 -20.077938691381917 0 -20.077938691381917 65.158791375923101 0 0 0 0 -162.08645559547585 254.78419213860843 0 254.78419213860843 15.812727733130032 0 0 0 0 60.159453705477063 69.494732560182911 0 69.494732560182911 93.790946005252408 0 0 0 0 -76.015950285162035 41.359618118415142 0 41.359618118415142 203.29684759399515 0 0 0 0 -32.631300383975031 193.14437967161757 0 193.14437967161757 205.84183798421509 0 0 0 0 54.464731627915171 146.47761957422472 0 146.47761957422472 221.51292951497942 0 0 0 0 -13.575145251779759 89.663149565737058 0 89.663149565737058 317.87688136615634 0 0 0 0 119.3970392930205 140.55897382555622 0 140.55897382555622 335.26145761339012 0 0 0 0 65.983532310739974 70.08765941274055 0 70.08765941274055 390.46649270093076 0 0 0 0 93.587367040177924 104.4359515629676 0 104.4359515629676 224.35437390698826 0 0 0 0 23.978231922268606 35.500714926229648 0 35.500714926229648 288.5945282763214 0 0 0 0 198.38213483754225 7.9219343899521846 0 7.9219343899521846 165.90862099150854 0 0 0 0 165.02466558742162 59.254964895363628 0 59.254964895363628 292.17654688905918 0 0 0 0 149.46022529803304 47.833246867084426 0 47.833246867084426 408.70793849840584 0 0 0 0 222.89281204070721 213.94251805971089 0 213.94251805971089 271.92900498973631 0 0 0 0 332.23895298037678 122.9372819562941 0 122.9372819562941 199.50118688931252 0 0 0 0 0.78636923002976289 0.16232094200870506 0 0.16232094200870506 0.20276234378186864 0 0 0 0 347.28225011510949 -16.371546790827779 0 -16.371546790827779 35.307168658361661 0 0 0 0 100.08268923487049 180.54626404049702 0 180.54626404049702 340.32342513594631 0 0 0 0 239.54442241125798 -115.21773692369334 0 -115.21773692369334 59.243205180026507 0 0 0 0 189.37348338130687 2.5724215997142892 0 2.5724215997142892 172.42564088967902 0 0 0 0 215.09446429801756 -165.91086002358588 0 -165.91086002358588 29.833147591664783 0 0 0 0 -40.721876513991447 -22.319809163340324 0 -22.319809163340324 163.09824088910739 0 0 0 0 11.466424639773322 32.726385908728389 0 32.726385908728389 -8.7484463633852556 0 0 0 0 282.04085036735341 11.98152881051567 0 11.98152881051567 -20.1390668017998 0 0 0 0 141.75875490842736 -133.39231877577095 0 -133.39231877577095 -57.062853763812384 0 0 0 0 96.250973472662736 -61.785444307328362 0 -61.785444307328362 -57.44797613284512 0 0 0 0 63.370750477178632 -23.515648028519646 0 -23.515648028519646 -2.6067383221690124 0 0 0 0 167.07226495556824 110.31931460233409 0 110.31931460233409 225.37863729633136 0 0 0 0 172.58308338231291 -146.44883651425971 0 -146.44883651425971 30.541149302529448 0 0 0 0 1.9801694005082879 -1.9307423085345725 0 -1.9307423085345725 1.9623883600587195 0 0 0 0 473.4752819154528 59.573061157840129 0 59.573061157840129 209.12561584910645 0 0 0 0 30.934548275843554 -83.082077012267746 0 -83.082077012267746 125.82189255284629 0 0 0 0 661.35316095102462 -29.836624910660248 0 -29.836624910660248 261.61179643366359 0 0 0 0 666.38459183234954 98.694516943945928 0 98.694516943945928 216.01349390449468 0 0 0 0 0.41015238062720982 0.54149297481195902 0 0.54149297481195902 -1.6944912742031235 0 0 0 0 -87.481407726347243 102.70517745171219 0 102.70517745171219 331.74713933592739 0 0 0 0 793.89334064010473 811.85027858032026 0 811.85027858032026 339.41689019208479 0 0 0 0 550.83394672698341 227.94795072156649 0 227.94795072156649 460.70117746186588 0 0 0 0 681.74826500660856 182.50472491513028 0 182.50472491513028 196.37479367086053 0 0 0 0 549.77186661079759 103.20453790262764 0 103.20453790262764 703.53940620302637 0 0 0 0 495.59278783758054 55.468985502549913 0 55.468985502549913 206.65625876520471 0 0 0 0 357.71004831595928 350.19856527964293 0 350.19856527964293 145.04806587158237 0 0 0 0 951.47707942240231 401.32795637045729 0 401.32795637045729 755.63141821048339 0 0 0 0 405.97066544213158 736.17466178062205 0 736.17466178062205 638.17221108531157 0 0 0 0 373.57965891122876 271.62346287474429 0 271.62346287474429 85.495932581831312 0 0 0 0 883.29827237140125 618.78202098303495 0 618.78202098303495 176.25669716650305 0 0 0 0 196.87627451061053 392.81004151756315 0 392.81004151756315 448.75249242119025 0 0 0 0 629.8943368717446 373.59122813348222 0 373.59122813348222 108.44164549873722 0 0 0 0 174.79633772996021 164.38150131789689 0 164.38150131789689 226.27475593389136 0 0 0 0 178.66962214482191 191.14533142421215 0 191.14533142421215 101.36837652287522 0 0 0 0 -8.9285224055274739 -113.0327996050446 0 -113.0327996050446 52.439456817382961 0 0 0 0 -2.0044934765739981 1.0111676060415533 0 1.0111676060415533 3.3380806488442971 0 0 0 0 62.253275326525909 274.07221473434447 0 274.07221473434447 248.76624792417533 0 0 0 0 436.44540199625771 199.26926700137483 0 199.26926700137483 19.869791897564994 0 0 0 0 421.4052382355294 441.57393256066962 0 441.57393256066962 256.737965811864 0 0 0 0 503.81931689649355 312.31806029386189 0 312.31806029386189 356.59953931498995 0 0 0 0 697.46031863703683 279.13353791358509 0 279.13353791358509 210.30068561030384 0 0 0 0 456.66022244900432 386.5142677270843 0 386.5142677270843 281.05936506939906 0 0 0 0 538.73798745605745 302.85394592820785 0 302.85394592820785 357.73660233837109 0 0 0 0 2.8540972945036742 4.7776709124719332 0 4.7776709124719332 0.059240458933246032 0 0 0 0 48.334887359480632 -8.803690944989782 0 -8.803690944989782 -7.0827397886394259 0 0 0 0 20.853261281685263 -60.2154702900134 0 -60.2154702900134 -40.808227058829758 0 0 0 0 524.91821336095018 412.16414367534037 0 412.16414367534037 217.19115881334255 0 0 0 0 82.349033436541504 22.442641495542716 0 22.442641495542716 -48.69809522180276 0 0 0 0 438.12913668705733 433.94305883412051 0 433.94305883412051 185.24014584190422 0 0 0 0 164.285854836824 267.1984292678037 0 267.1984292678037 222.66053815010036 0 0 0 0 156.71900481546618 -31.275801904154378 0 -31.275801904154378 -13.114231873496237 0 0 0 0 446.40159743546246 389.13252470255748 0 389.13252470255748 390.32197608421802 0 0 0 0 20.73385947123672 -2.7590512343584024 0 -2.7590512343584024 -19.025671540317362 0 0 0 0 0.88506443793046685 -1.1961930494212183 0 -1.1961930494212183 -2.2038951851748108 0 0 0 0 213.36991387538001 314.02828736003096 0 314.02828736003096 327.22701733277847 0 0 0 0 9.1971492584270891 -16.403038484800163 0 -16.403038484800163 -39.608364513756385 0 0 0 0 16.032446044868266 -17.749924886310055 0 -17.749924886310055 -45.185642134728369 0 0 0 0 7.5366322347035748 -20.72643516757671 0 -20.72643516757671 4.6231661454235109 0 0 0 0 30.021292613477272 -82.604971313319311 0 -82.604971313319311 7.15485572289586 0 0 0 0 88.236990005105326 -31.995809753954745 0 -31.995809753954745 -74.307369871792616 0 0 0 0 48.486942699656538 -44.016286010748672 0 -44.016286010748672 -75.919528190466735 0 0 0 0 5.25310199038951 -1.6898568626312596 0 -1.6898568626312596 1.6154024912929295 0 0 0 0 16.241998542926012 -69.259347332442303 0 -69.259347332442303 113.54921501857189 0 0 0 0 141.46780389789637 -158.90233416508272 0 -158.90233416508272 32.15021394755513 0 0 0 0 46.663615286579443 -9.6999464055243152 0 -9.6999464055243152 17.78092754752106 0 0 0 0 258.27293991411716 72.975354844312278 0 72.975354844312278 -234.83007435686886 0 0 0 0 -24.845462651337584 65.499804387379754 0 65.499804387379754 62.58905586466517 0 0 0 0 49.344661519681353 -4.1662254942375867 0 -4.1662254942375867 -2.0510138289301869 0 0 0 0 53.63511616510732 -6.8420105892273568 0 -6.8420105892273568 13.59890089692999 0 0 0 0 47.531735361710162 -11.454986131469013 0 -11.454986131469013 16.316389832469213 0 0 0 0 -6.0987956684730307 -7.8994499810760317 0 -7.8994499810760317 14.190269512084114 0 0 0 0 57.085552229946188 -5.1191933004006387 0 -5.1191933004006387 -68.369113419987116 0 0 0 0 12.834848275122567 15.351651439301349 0 15.351651439301349 25.913696369186255 0 0 0 0 50.769052577214005 0.075520247213340497 0 0.075520247213340497 -0.0549613914458007 0 0 0 0 42.044502525048301 -7.0785498117238603 0 -7.0785498117238603 -41.732328825029072 0 0 0 0 15.063103625276284 -7.8968743544201487 0 -7.8968743544201487 -3.2802163015047947 0 0 0 0 48.064680211511963 -8.8504666709040762 0 -8.8504666709040762 -8.2799305550238991 0 0 0 0 22.761550394912774 -19.097374807067354 0 -19.097374807067354 -47.039729223450649 0 0 0 0 34.775263861618264 -5.7237225415304707 0 -5.7237225415304707 -24.674629957432728 0 0 0 0 95.46310785858077 20.676174627541513 0 20.676174627541513 -70.102814141561339 0 0 0 0 86.024683405441465 31.525710066387546 0 31.525710066387546 -51.930493889034551 0 0 0 0 47.451154362310263 22.67785022966882 0 22.67785022966882 7.3102109298315554 0 0 0 0 6.4128193644610292 31.189036195898552 0 31.189036195898552 6.7727511365951614 0 0 0 0 94.509004221543364 113.75735558193719 0 113.75735558193719 38.064051014827783 0 0 0 0 112.13768366516888 -99.473185262456354 0 -99.473185262456354 0.98699522031790821 0 0 0 0 119.67182683444844 -106.07570367621292 0 -106.07570367621292 3.0944147698883171 0 0 0 0 241.58556080967173 -3.6858384996330642 0 -3.6858384996330642 -49.19889215938656 0 0 0 0 208.94191152875374 47.947606224048741 0 47.947606224048741 -59.331916133429331 0 0 0 0 168.60945188242476 -43.428004473227702 0 -43.428004473227702 -128.52802580414982 0 0 0 0 -70.041534755197063 246.96415471467935 0 246.96415471467935 -387.60762031932882 0 0 0 0 76.807374713916943 23.954935967871279 0 23.954935967871279 -310.51649974763313 0 0 0 0 20.098374156412319 12.194109006710278 0 12.194109006710278 -195.01188254053841 0 0 0 0 -86.911703485793623 68.100402035961451 0 68.100402035961451 -151.89359394239591 0 0 0 0 105.06091824779014 37.864557664092899 0 37.864557664092899 -173.54384215215032 0 0 0 0 2.0846442255678994 21.531112197745188 0 21.531112197745188 -22.656583148479513 0 0 0 0 42.859448977630336 5.5183099953569581 0 5.5183099953569581 -39.599345083797743 0 0 0 0 16.971752432975336 30.160145118820765 0 30.160145118820765 -8.1272313477766147 0 0 0 0 -40.186519218750618 -6.5775181677859109 0 -6.5775181677859109 -9.2707696103607304 0 0 0 0 219.67016063742631 94.735841548535859 0 94.735841548535859 93.058861645609113 0 0 0 0 25.224457239397452 105.89414179742562 0 105.89414179742562 339.08115878796025 0 0 0 0 28.111337586829904 165.66386659441719 0 165.66386659441719 481.54259499681189 0 0 0 0 84.374560266529443 161.80894519641424 0 161.80894519641424 375.45141477149809 0 0 0 0 215.21140300156571 59.130508951209123 0 59.130508951209123 401.2068981184093 0 0 0 0 102.38307892426019 62.608079342737142 0 62.608079342737142 557.13153776600757 0 0 0 0 76.63525172025038 142.02096961205712 0 142.02096961205712 368.38342581111374 0 0 0 0 28.045170954872447 203.67928855038872 0 203.67928855038872 525.00561090792894 0 0 0 0 218.56368007156561 53.452935878294966 0 53.452935878294966 391.57103969448781 0 0 0 0 165.41137056253865 192.11602031360889 0 192.11602031360889 439.07766847379207 0 0 0 0 39.342704248556402 121.4570181572426 0 121.4570181572426 399.70604032488245 0 0 0 0 41.348079425471951 178.25214375021585 0 178.25214375021585 524.63593634554036 0 0 0 0 -199.71087620437902 167.88091538054141 0 167.88091538054141 525.87723720416238 0 0 0 0 339.10557264368617 166.38616606662129 0 166.38616606662129 149.65735079166859 0 0 0 0 -1.4586779739824038 0.20085469280279966 0 0.20085469280279966 3.5529026717999028 0 0 0 0 114.80938022650662 -35.453827956527221 0 -35.453827956527221 30.146768426358221 0 0 0 0 324.92986666447541 92.994090723084469 0 92.994090723084469 -179.31932251484903 0 0 0 0 716.75082601288159 -19.0317133404007 0 -19.0317133404007 -170.38508865138874 0 0 0 0 101.97732819618977 -103.34871952465892 0 -103.34871952465892 -106.70424020755445 0 0 0 0 -37.019646738874144 -64.767346457264352 0 -64.767346457264352 82.830911103732547 0 0 0 0 23.065340076580469 143.86564745233204 0 143.86564745233204 462.98024477775971 0 0 0 0 33.482545278340694 120.23306250808923 0 120.23306250808923 437.19250625113682 0 0 0 0 26.725508224868463 183.1079903959461 0 183.1079903959461 440.7955704335136 0 0 0 0 143.37890526518459 99.867198756435414 0 99.867198756435414 412.0449771702406 0 0 0 0 338.89341495416011 -65.780909451409343 0 -65.780909451409343 544.35772645335373 0 0 0 0 172.07514151767828 284.10503311206526 0 284.10503311206526 646.20918251145508 0 0 0 0 4.2656902839669044 -5.1638281078636652 0 -5.1638281078636652 -6.9513778648974789 0 0 0 0 230.58799568667018 316.56596484191732 0 316.56596484191732 342.10456746920113 0 0 0 0 -14.132115897864423 -35.271942164855943 0 -35.271942164855943 62.621091702691956 0 0 0 0 184.63354872661876 275.42739935660461 0 275.42739935660461 324.31299767583232 0 0 0 0 357.01406589711064 265.35372294390277 0 265.35372294390277 324.62128062625015 0 0 0 0 216.89516999936313 320.85750947975384 0 320.85750947975384 316.70845851263277 0 0 0 0 198.31321198894148 315.54800402160197 0 315.54800402160197 343.0649311183422 0 0 0 0 49.391771611898093 -87.690483038392927 0 -87.690483038392927 10.980050304056931 0 0 0 0 60.98581133022526 -54.008351672760554 0 -54.008351672760554 -63.062185532203642 0 0 0 0 -5.1348004076147191 -14.461507370519433 0 -14.461507370519433 -5.2135479954238884 0 0 0 0 36.306201586412499 -222.89831288071377 0 -222.89831288071377 3.1915446759875294 0 0 0 0 86.214784097726806 -104.63661198212037 0 -104.63661198212037 -3.3635678539355922 0 0 0 0 47.514124989393295 -25.907668973957719 0 -25.907668973957719 -26.252741576802169 0 0 0 0 0.70638131145074823 -9.8491854723970036 0 -9.8491854723970036 -4.591230858364411 0 0 0 0 136.8168213691788 66.807264162442152 0 66.807264162442152 33.386176159465322 0 0 0 0 26.436651653016852 -6.282259571699683 0 -6.282259571699683 -11.893097766525582 0 0 0 0 168.35605869502797 -34.455547952573852 0 -34.455547952573852 -17.156613985413401 0 0 0 0 2.284766857636459 -4.1076789758866479 0 -4.1076789758866479 -8.9196502164808962 0 0 0 0 35.897520297741721 -9.6934530791286306 0 -9.6934530791286306 -10.16231979879376 0 0 0 0 3.5418946014999086 -0.026779512624436563 0 -0.026779512624436563 -7.2578470013297256 0 0 0 0 84.42203250708917 23.570528149550682 0 23.570528149550682 -13.42939203281469 0 0 0 0 65.92140867614944 21.58615453960283 0 21.58615453960283 -12.067200136440078 0 0 0 0 34.407160213617317 -10.421557518308418 0 -10.421557518308418 -20.716293415991458 0 0 0 0 55.230911756174066 -4.1007587605435196 0 -4.1007587605435196 -15.686284400870019 0 0 0 0 44.726804719348507 3.4641771186111185 0 3.4641771186111185 -14.637167702400454 0 0 0 0 30.358039511425886 109.59425455657906 0 109.59425455657906 -146.52321283489044 0 0 0 0 116.84969392795756 -6.1602214808675368 0 -6.1602214808675368 -63.021343021098943 0 0 0 0 16.847609995424762 -0.27223395635770231 0 -0.27223395635770231 -0.47808141553949657 0 0 0 0 88.228294048585667 28.403667581913851 0 28.403667581913851 -56.307462538049037 0 0 0 0 42.735716717412288 -72.143829154715831 0 -72.143829154715831 57.096578780817424 0 0 0 0 75.698839777982357 -46.832832653637126 0 -46.832832653637126 -63.783726961239211 0 0 0 0 70.040653562605158 4.9473671454583181 0 4.9473671454583181 -1.6271306342895919 0 0 0 0 78.885733389761299 20.569771300272578 0 20.569771300272578 13.87297341327394 0 0 0 0 116.45663698841599 20.820716173987421 0 20.820716173987421 -14.7044886904294 0 0 0 0 57.355758512218017 36.111729087998356 0 36.111729087998356 -12.659093846842552 0 0 0 0 -57.34445414540096 -6.6467098994558 0 -6.6467098994558 27.186983262256035 0 0 0 0 48.525747517758873 -29.788680316807756 0 -29.788680316807756 4.2793560585714658 0 0 0 0 211.39013421378422 -4.4530942069378625 0 -4.4530942069378625 -15.875678685742969 0 0 0 0 -0.25905531249950187 0.85237248797741927 0 0.85237248797741927 0.75041933973573549 0 0 0 0 10.132894217156263 -32.555786598843497 0 -32.555786598843497 -24.307445084746178 0 0 0 0 121.68955769215972 -45.451454420373466 0 -45.451454420373466 2.0272518285220826 0 0 0 0 60.469268274797031 1.2912397191443823 0 1.2912397191443823 -1.7074434992656899 0 0 0 0 148.24488548670706 4.2441145236011266 0 4.2441145236011266 -144.1402128882487 0 0 0 0 116.20703554891952 -28.090739417015811 0 -28.090739417015811 -67.313602567765201 0 0 0 0 39.685389309153834 20.881286957587633 0 20.881286957587633 76.058041890754239 0 0 0 0 180.00891215429874 13.691886592092487 0 13.691886592092487 -35.761415489632782 0 0 0 0 109.6318520460336 -9.3235145448888943 0 -9.3235145448888943 10.67524005620453 0 0 0 0 -4.604109085204982 -19.812009549037839 0 -19.812009549037839 -15.126651513579418 0 0 0 0 -2.1032622296487489 -0.51046174971072844 0 -0.51046174971072844 0.8857572948064778 0 0 0 0 145.98965085366217 -4.6573844817307872 0 -4.6573844817307872 -0.86491843134763258 0 0 0 0 140.92787602548628 26.185121605008987 0 26.185121605008987 6.7572428462253811 0 0 0 0 177.25865745950614 29.975278883723149 0 29.975278883723149 -2.3449958986161619 0 0 0 0 0.2996207980771608 0.60545689236899491 0 0.60545689236899491 -3.6845930738331383 0 0 0 0 159.53459875125009 41.034001954541509 0 41.034001954541509 79.784043763694172 0 0 0 0 -0.35839225708696176 -61.197797041856347 0 -61.197797041856347 -164.72349731502254 0 0 0 0 13.422579487695657 -0.91590307362321255 0 -0.91590307362321255 -51.086878110681937 0 0 0 0 26.835687788359792 -5.8283988499033512 0 -5.8283988499033512 -52.391758329151912 0 0 0 0 -6.6566738212777636 84.163258914672269 0 84.163258914672269 -250.63349738914349 0 0 0 0 98.475994631304275 15.44651133454181 0 15.44651133454181 -82.495205576502485 0 0 0 0 138.12305134154485 -28.373435896917726 0 -28.373435896917726 -263.26470011294214 0 0 0 0 155.31608678902376 65.768970097554302 0 65.768970097554302 -84.251593200784015 0 0 0 0 156.18999506033106 105.90594257206976 0 105.90594257206976 -101.92711737957688 0 0 0 0 -54.488214422992314 -103.01451230893235 0 -103.01451230893235 -178.94304310757298 0 0 0 0 148.39150274449548 -63.843038534523203 0 -63.843038534523203 -325.45996854440455 0 0 0 0 -0.018573750293583657 0.26022621132248247 0 0.26022621132248247 -1.2875778720916031 0 0 0 0 438.09430774981593 149.65428425356322 0 149.65428425356322 -76.991705694132179 0 0 0 0 -236.79531714680161 -419.16924536563715 0 -419.16924536563715 -342.28104658991469 0 0 0 0 254.96634679067756 -153.69521559683199 0 -153.69521559683199 -539.05387724325874 0 0 0 0 251.94597374176541 12.890891053025257 0 12.890891053025257 -169.87501325451376 0 0 0 0 244.679288949088 -312.4287326130559 0 -312.4287326130559 -576.25013063413098 0 0 0 0 -110.64841989044362 -204.10656076271971 0 -204.10656076271971 -178.60126918841888 0 0 0 0 -67.802013224199754 -776.7505047299278 0 -776.7505047299278 10.872318344727319 0 0 0 0 1.9456599312069054 0.59445038257908323 0 0.59445038257908323 -4.8563827198125686 0 0 0 0 41.80231502400602 -18.809132329501381 0 -18.809132329501381 -32.99736335691523 0 0 0 0 -40.364836477979225 -56.490334672081531 0 -56.490334672081531 8.2356093046437309 0 0 0 0 304.71536028970149 -388.68321491673441 0 -388.68321491673441 -516.02434030023369 0 0 0 0 1.1551687409312805 -1.7775685857575203 0 -1.7775685857575203 -4.3627791590459317 0 0 0 0 150.41129434076902 -186.75904329811647 0 -186.75904329811647 95.535863564791271 0 0 0 0 203.27126590532862 -122.48657471155866 0 -122.48657471155866 -48.968941037870536 0 0 0 0 -13.107910586066737 43.23050954989867 0 43.23050954989867 -137.09797965421421 0 0 0 0 0.88792118838500755 38.14629854219902 0 38.14629854219902 -147.47157334600524 0 0 0 0 92.595884271033356 56.447450524581654 0 56.447450524581654 -176.13351481035716 0 0 0 0 -44.35147129383995 144.92951550970008 0 144.92951550970008 -219.28743596608547 0 0 0 0 31.160839638579091 61.671549702759648 0 61.671549702759648 -224.31190682365923 0 0 0 0 0.92905104176596609 -0.85318338274991135 0 -0.85318338274991135 -1.8092694744767783 0 0 0 0 238.91223133477069 -301.48826849301167 0 -301.48826849301167 242.03578997964541 0 0 0 0 145.4983805003867 -118.26271605941838 0 -118.26271605941838 178.76341790794777 0 0 0 0 275.87730317969726 -177.42603866607124 0 -177.42603866607124 34.829265010617746 0 0 0 0 157.90496194578191 -93.725721227100166 0 -93.725721227100166 55.858313811984999 0 0 0 0 -0.80993460119844229 -1.1536434065796364 0 -1.1536434065796364 -2.769910584831873 0 0 0 0 179.47659334409036 -191.22919912997759 0 -191.22919912997759 -40.82988425530948 0 0 0 0 213.42236346898608 -77.662807102698025 0 -77.662807102698025 -15.594876988647684 0 0 0 0 228.29907870423222 -42.979551795288671 0 -42.979551795288671 -339.13803365386048 0 0 0 0 0.23592953864863375 121.1307466942726 0 121.1307466942726 -110.0768550537905 0 0 0 0 -34.898111422324291 -0.036066421873329091 0 -0.036066421873329091 -48.297908853659465 0 0 0 0 53.497862990900103 20.056165681203311 0 20.056165681203311 -56.025992674824693 0 0 0 0 118.01345241569106 51.277176950339708 0 51.277176950339708 -70.501346043000012 0 0 0 0 67.55263378584641 94.988223659567666 0 94.988223659567666 20.452762832355802 0 0 0 0 11.066021243035463 -0.023226311967604829 0 -0.023226311967604829 -0.44812240468771591 0 0 0 0 115.68693113378117 26.321288989999061 0 26.321288989999061 35.443751268139749 0 0 0 0 129.50351104120455 45.951363608139673 0 45.951363608139673 2.7150344012625283 0 0 0 0 93.160973813774717 -9.0393248254520131 0 -9.0393248254520131 -6.9105290959359991 0 0 0 0 -0.5529589557827741 0.43738500186678664 0 0.43738500186678664 -0.43409946362807261 0 0 0 0 249.6800661598154 -45.592108925438424 0 -45.592108925438424 -146.78482329983126 0 0 0 0 82.958942841423777 -39.626592041009872 0 -39.626592041009872 3.3104011835966958 0 0 0 0 42.660914549128393 -42.854337308434538 0 -42.854337308434538 3.9364622967077594 0 0 0 0 6.7060578494553873 -6.3964477721480995 0 -6.3964477721480995 -5.3911825450888067 0 0 0 0 92.036252000645618 -13.924713577636794 0 -13.924713577636794 -13.563527054412134 0 0 0 0 76.029008304769377 -17.962071299207309 0 -17.962071299207309 -7.5129000069782705 0 0 0 0 56.765730757591882 -1.772327134990519 0 -1.772327134990519 5.3413216973349336 0 0 0 0 77.191256399799386 -17.670045768940327 0 -17.670045768940327 -17.796872834815986 0 0 0 0 44.077097841871392 -20.705098934615197 0 -20.705098934615197 -2.3600265356061918 0 0 0 0 77.200377977774224 -3.1522148888025185 0 -3.1522148888025185 1.4856491463906423 0 0 0 0 59.101940898606699 -25.272961386554925 0 -25.272961386554925 -4.6988536054250289 0 0 0 0 54.840702384531141 -17.382054386038362 0 -17.382054386038362 -16.644771313749175 0 0 0 0 58.104429050230465 -20.840970808547354 0 -20.840970808547354 -0.13068489424495056 0 0 0 0 -122.681462581917 -133.41725679264528 0 -133.41725679264528 -211.10943732833039 0 0 0 0 0.84495900882005515 -4.8041497266175135 0 -4.8041497266175135 -4.5597485589674438 0 0 0 0 125.45281461400918 -15.956949493990578 0 -15.956949493990578 -10.951473516030092 0 0 0 0 62.976122043865203 8.0897493545612047 0 8.0897493545612047 -7.8329512436353994 0 0 0 0 115.79805835239313 -33.351964071478506 0 -33.351964071478506 -41.185542189185071 0 0 0 0 144.60011767584729 20.736796447263259 0 20.736796447263259 -53.305099825182651 0 0 0 0 150.7837413919442 39.173450059257448 0 39.173450059257448 -5.4627667581463584 0 0 0 0 9.3598226376590468 0.67046468865978426 0 0.67046468865978426 -4.5166650787428324 0 0 0 0 93.479338023193122 -36.362846981969142 0 -36.362846981969142 -57.984227037752134 0 0 0 0 68.372295964601108 -7.4590214305571365 0 -7.4590214305571365 -6.6007258203971713 0 0 0 0 70.389529926083924 -30.582859765920148 0 -30.582859765920148 -10.84437362233075 0 0 0 0 262.38157842695364 -160.80577765466114 0 -160.80577765466114 -750.49802407886227 0 0 0 0 80.120195070519912 -18.051898132512179 0 -18.051898132512179 -24.194844843500505 0 0 0 0 109.65921105019879 -14.004830459331743 0 -14.004830459331743 -57.457066315306292 0 0 0 0 54.031972846016622 -22.181331976849016 0 -22.181331976849016 -7.4827775501399145 0 0 0 0 81.975745097437994 -2.0923381965462795 0 -2.0923381965462795 -71.458845778006435 0 0 0 0 16.515023511019535 64.333543953082881 0 64.333543953082881 -44.60602105444741 0 0 0 0 77.821795730597728 12.074141467254272 0 12.074141467254272 -1.2133116107797655 0 0 0 0 -24.735741746946587 138.50163962996885 0 138.50163962996885 -85.508959910325757 0 0 0 0 88.662451986427186 81.627375540340836 0 81.627375540340836 -353.43526660994394 0 0 0 0 13.585465152100983 6.0645314865058886 0 6.0645314865058886 -1.5178794470538719 0 0 0 0 105.96094904000529 0.54377577114246378 0 0.54377577114246378 -71.533166473283018 0 0 0 0 61.415350689905608 -119.39887294603886 0 -119.39887294603886 -404.18359000886812 0 0 0 0 64.975486872796751 -71.414643333774848 0 -71.414643333774848 -174.38024742612834 0 0 0 0 142.63271819003421 30.728217965218391 0 30.728217965218391 -284.00457764337261 0 0 0 0 36.205974025731848 33.088802070863949 0 33.088802070863949 -119.40767746494748 0 0 0 0 -4.5869411424009741 112.00325312745008 0 112.00325312745008 -262.99689695585084 0 0 0 0 -47.944698595832051 -114.03703602582402 0 -114.03703602582402 -184.11574614974961 0 0 0 0 67.225760550747509 -19.788631309789707 0 -19.788631309789707 -109.67741672649026 0 0 0 0 25.040880061987536 -14.947053220199905 0 -14.947053220199905 -147.08266069660021 0 0 0 0 39.819416522255779 29.181372060289505 0 29.181372060289505 -133.38983891997304 0 0 0 0 147.41443858154889 5.2106404721471336 0 5.2106404721471336 -168.33482469527189 0 0 0 0 111.90515805399264 -32.97036534741892 0 -32.97036534741892 -125.08030460966438 0 0 0 0 146.65019557129926 12.660130089357153 0 12.660130089357153 -186.08482131577421 0 0 0 0 159.92975507910523 -0.40842801722556032 0 -0.40842801722556032 -161.89779526495477 0 0 0 0 144.11017188340725 17.946608316094625 0 17.946608316094625 -179.18117771848119 0 0 0 0 158.40380592232577 33.065113128618577 0 33.065113128618577 -173.24185442246835 0 0 0 0 89.285752379861151 20.098097273997155 0 20.098097273997155 -167.27856577784496 0 0 0 0 87.053354839775238 21.961999351468648 0 21.961999351468648 -90.842905430010433 0 0 0 0 216.05447075137999 62.406616889494217 0 62.406616889494217 -78.442705174028561 0 0 0 0 39.581861211010391 -10.178937166127525 0 -10.178937166127525 53.096216907248163 0 0 0 0 208.1960745906872 42.134430435460672 0 42.134430435460672 12.023126791147661 0 0 0 0 122.19801184379503 -12.75142100933499 0 -12.75142100933499 34.808407347379898 0 0 0 0 93.029780766926706 25.6346625461847 0 25.6346625461847 -73.852462638965335 0 0 0 0 147.31139280498246 -9.4332459598986134 0 -9.4332459598986134 -59.599387793736241 0 0 0 0 110.22231981952609 3.8462139321936775 0 3.8462139321936775 -114.47185287563047 0 0 0 0 35.845539548066881 11.330713767282759 0 11.330713767282759 -18.287332232957851 0 0 0 0 141.38616659318177 -44.108011955650909 0 -44.108011955650909 -112.43680506590317 0 0 0 0 64.578250527298678 -55.829103062399781 0 -55.829103062399781 -49.25383680795494 0 0 0 0 90.398359580407487 -3.2725333117114133 0 -3.2725333117114133 27.389684481277072 0 0 0 0 58.759269283566027 -28.474426408763975 0 -28.474426408763975 41.278176364032333 0 0 0 0 60.692144312415735 -47.120662756838101 0 -47.120662756838101 123.88833543275905 0 0 0 0 100.82424290955896 -33.208819104243048 0 -33.208819104243048 -9.8829109675468771 0 0 0 0 82.61468326825343 -31.336646017194198 0 -31.336646017194198 25.221264789866837 0 0 0 0 77.745124691907222 -58.543950658432095 0 -58.543950658432095 74.298538803112024 0 0 0 0 122.8508549411963 -27.040893866200349 0 -27.040893866200349 25.648764314410982 0 0 0 0 169.50724502494177 -43.652265052068742 0 -43.652265052068742 4.8229393683031958 0 0 0 0 138.92262220421981 -102.4551314434309 0 -102.4551314434309 40.357630160358894 0 0 0 0 75.959814124324566 -96.128647219715049 0 -96.128647219715049 93.985511544684414 0 0 0 0 83.781229226779033 -87.285152861838469 0 -87.285152861838469 63.030034118786716 0 0 0 0 45.082413366671972 -142.30857230680022 0 -142.30857230680022 77.634809475306611 0 0 0 0 123.32558842781509 -120.14249627313484 0 -120.14249627313484 -29.484366884888004 0 0 0 0 165.63381111009039 -99.322039537515593 0 -99.322039537515593 34.964860701720681 0 0 0 0 142.43243902276299 -80.924004206065547 0 -80.924004206065547 43.481476061947546 0 0 0 0 323.5266265968603 115.23330981613071 0 115.23330981613071 -37.497926600964547 0 0 0 0 193.80990530270174 -239.56084271205236 0 -239.56084271205236 144.86598063511337 0 0 0 0 425.01131807149068 -199.1926962198404 0 -199.1926962198404 54.759747605960001 0 0 0 0 -2.3046604535084043 14.463089289029085 0 14.463089289029085 -153.18283026507561 0 0 0 0 66.188246022051317 -162.99092044259032 0 -162.99092044259032 196.04190569835191 0 0 0 0 46.770778019192221 -6.7669409395803086 0 -6.7669409395803086 13.396761526648334 0 0 0 0 18.760724879148391 -1.7568638337932647 0 -1.7568638337932647 2.6991453992830152 0 0 0 0 3.0168714452523999 0.48464572678816609 0 0.48464572678816609 1.2814353797620015 0 0 0 0 169.26704305709575 71.986630672222304 0 71.986630672222304 1.1189124875400012 0 0 0 0 84.467014976076825 -23.98091244200441 0 -23.98091244200441 1.0771308809198672 0 0 0 0 47.642477505804891 -11.576645055280096 0 -11.576645055280096 14.84568034869335 0 0 0 0 148.55449477568436 -29.132587659824821 0 -29.132587659824821 13.793151562753337 0 0 0 0 317.50815313273779 -91.865118596306274 0 -91.865118596306274 6.4623481228600212 0 0 0 0 269.68540001362453 321.55421734970696 0 321.55421734970696 246.48723470025561 0 0 0 0 6.0110670868117992 -1.7470453121160681 0 -1.7470453121160681 0.52026455500616997 0 0 0 0 610.02744194859042 436.69702136805699 0 436.69702136805699 240.82907288513655 0 0 0 0 191.24686875657289 148.54557939478468 0 148.54557939478468 91.90854121551547 0 0 0 0 212.47838830207093 144.65447009234322 0 144.65447009234322 -25.97715950339807 0 0 0 0 422.69828310131834 106.63636800069753 0 106.63636800069753 -23.817585034375952 0 0 0 0 57.395272147223295 268.10056529996518 0 268.10056529996518 33.14291305318784 0 0 0 0 136.25589347015011 28.590988054694208 0 28.590988054694208 -10.929798995882265 0 0 0 0 37.905840398825575 -130.91798385975028 0 -130.91798385975028 -113.6300181331535 0 0 0 0 80.098301754285785 -108.23032024187069 0 -108.23032024187069 -30.533167921558061 0 0 0 0 43.927806727593634 -123.29737907556955 0 -123.29737907556955 112.21923611186685 0 0 0 0 167.24931592437679 -97.961175870625084 0 -97.961175870625084 95.450711978562595 0 0 0 0 69.290396783921096 -67.504709854429166 0 -67.504709854429166 207.55573899957017 0 0 0 0 66.449392917624209 -92.770090636913665 0 -92.770090636913665 95.471866114776276 0 0 0 0 351.38639881105496 -98.090555358882909 0 -98.090555358882909 59.871549991756183 0 0 0 0 160.65668328030733 -8.2665767333164695 0 -8.2665767333164695 175.61540972019247 0 0 0 0 491.66382418695866 -123.23293675308196 0 -123.23293675308196 201.60284328965918 0 0 0 0 223.64071003337449 4.0934098356788127 0 4.0934098356788127 279.37851850665174 0 0 0 0 126.74130043675177 114.33170598879406 0 114.33170598879406 394.86403967530532 0 0 0 0 180.40629968388748 -61.047252326947728 0 -61.047252326947728 245.58273931944132 0 0 0 0 101.10886336287331 -8.5046796984161119 0 -8.5046796984161119 27.084124237257129 0 0 0 0 149.27805610390715 -3.6671868373196048 0 -3.6671868373196048 151.1729284320445 0 0 0 0 102.81809856875407 8.3013980866271595 0 8.3013980866271595 191.16003174205616 0 0 0 0 133.62489413116964 88.902849759560922 0 88.902849759560922 -8.509405441560375 0 0 0 0 196.14122750388742 27.865379231291627 0 27.865379231291627 -106.24924063939761 0 0 0 0 239.53908453486656 96.382177463128755 0 96.382177463128755 -8.095600340886449 0 0 0 0 131.79027863313604 -58.615658933180384 0 -58.615658933180384 -132.56164716916828 0 0 0 0 469.46159891660733 -380.55234223061996 0 -380.55234223061996 -580.6528041358215 0 0 0 0 377.3402728637484 402.65054775242425 0 402.65054775242425 -19.300451712200811 0 0 0 0 351.39494570209536 110.70082669191652 0 110.70082669191652 -447.05652769177323 0 0 0 0 271.64105253448179 -143.77519108343586 0 -143.77519108343586 -322.66050620601891 0 0 0 0 4.8442641727757696 -1.6535366122227781 0 -1.6535366122227781 -1.1332356843166753 0 0 0 0 60.456109337833368 -60.801660089889083 0 -60.801660089889083 -137.3936295165613 0 0 0 0 145.91203776275324 -265.9385799779011 0 -265.9385799779011 158.56199805085907 0 0 0 0 615.80544260821807 112.93592111141697 0 112.93592111141697 -337.20160388867089 0 0 0 0 -114.70805711012054 -319.38918600033207 0 -319.38918600033207 -242.48443442135977 0 0 0 0 -401.52377793219193 -47.250375090633042 0 -47.250375090633042 48.825720421506958 0 0 0 0 85.017301464537013 -51.776993447209861 0 -51.776993447209861 -285.66588103163986 0 0 0 0 11.92468244868294 -0.59556861018647744 0 -0.59556861018647744 -1.309577750293144 0 0 0 0 -156.34318459380015 -43.536572946735248 0 -43.536572946735248 -14.389713519815814 0 0 0 0 118.19367807107028 0.42063096751462581 0 0.42063096751462581 -83.119975903731756 0 0 0 0 -0.64097676226410805 -2.5607836636098424 0 -2.5607836636098424 -13.890663017972066 0 0 0 0 313.8045831097279 -97.886087795830008 0 -97.886087795830008 -40.32738918389623 0 0 0 0 105.97602992527754 -59.94839876324113 0 -59.94839876324113 0.073684860260982532 0 0 0 0 10.423527180603287 -94.918726637727559 0 -94.918726637727559 -11.716160322588621 0 0 0 0 28.069959716069206 -36.819757920262418 0 -36.819757920262418 33.405079327847488 0 0 0 0 121.19779799962953 -114.32820843613081 0 -114.32820843613081 -106.10841734294081 0 0 0 0 143.75376318382951 -27.120835208879726 0 -27.120835208879726 -183.07188258693623 0 0 0 0 258.41498264028087 -120.45258212826411 0 -120.45258212826411 -130.3658405027054 0 0 0 0 95.354866065310489 77.155328639320032 0 77.155328639320032 -186.84451765820177 0 0 0 0 1.459113237986271 -0.35590003154405991 0 -0.35590003154405991 -6.1714025701685955 0 0 0 0 169.33000602178072 -104.91812682802356 0 -104.91812682802356 52.701110523838906 0 0 0 0 315.75351381931978 -242.29534096255065 0 -242.29534096255065 -102.67774970493701 0 0 0 0 188.88955872457154 40.385090497720739 0 40.385090497720739 -55.593807861816458 0 0 0 0 54.122218710550442 90.811985356082914 0 90.811985356082914 -131.87655259201074 0 0 0 0 106.81058367870082 12.63171546418971 0 12.63171546418971 -92.548046944917587 0 0 0 0 80.597201377751375 17.02350513386947 0 17.02350513386947 0.028238457011138252 0 0 0 0 106.51677493079205 12.604412551999758 0 12.604412551999758 -53.428994717822206 0 0 0 0 113.65898023868976 99.414678861238826 0 99.414678861238826 -127.11348813815584 0 0 0 0 -802.81268627733152 -86.381969697542445 0 -86.381969697542445 257.39951202622251 0 0 0 0 13.203912626113514 1.5355135654877472 0 1.5355135654877472 0.30474435529219335 0 0 0 0 -9.5016133170920511 -63.029287482779182 0 -63.029287482779182 88.425972204458958 0 0 0 0 359.75004021931818 145.21148933869154 0 145.21148933869154 -266.62746676217103 0 0 0 0 476.64283561305638 201.45082740454927 0 201.45082740454927 -838.66256951640889 0 0 0 0 41.002902653397705 4.441081019799082 0 4.441081019799082 0.2621935449093602 0 0 0 0 22.363712863833598 -32.564078123682521 0 -32.564078123682521 13.724681316038186 0 0 0 0 69.666698301375163 -47.170732300559393 0 -47.170732300559393 5.5250567610896724 0 0 0 0 82.005988553340217 -26.691891998802703 0 -26.691891998802703 13.011005104688593 0 0 0 0 179.50574165214948 -8.1364549944191822 0 -8.1364549944191822 -92.963456781399145 0 0 0 0 164.07055105704785 9.3748084750695853 0 9.3748084750695853 -90.589429699313314 0 0 0 0 79.682707254212303 16.002959465248477 0 16.002959465248477 -0.20601088975140414 0 0 0 0 1383.0675709808966 420.65266607509329 0 420.65266607509329 -491.34402277346817 0 0 0 0 177.84960919195117 -33.007361315567891 0 -33.007361315567891 -70.342262986312562 0 0 0 0 493.8608127006737 237.87756580485438 0 237.87756580485438 321.64107970820623 0 0 0 0 12.655556939616886 -8.1373683044775813 0 -8.1373683044775813 -18.29667862162492 0 0 0 0 -21.418750229247962 -20.87669903285132 0 -20.87669903285132 77.41428093664581 0 0 0 0 34.994685125677449 -17.283709905178505 0 -17.283709905178505 -5.2623148805654694 0 0 0 0 15.014464201136434 11.94310409220634 0 11.94310409220634 -21.758008730626898 0 0 0 0 24.356663176754893 9.5926852610553652 0 9.5926852610553652 -9.9975558591356872 0 0 0 0 56.043163832439902 14.265486721054721 0 14.265486721054721 -9.2595067910330968 0 0 0 0 36.768175729717768 -83.356716906273505 0 -83.356716906273505 96.822529199765995 0 0 0 0 6.5935301473623085 -6.7362722101761534 0 -6.7362722101761534 -2.2461332729913543 0 0 0 0 519.25019324024834 -46.963154959626991 0 -46.963154959626991 -861.52233441999306 0 0 0 0 507.34154303996365 -75.248292383684202 0 -75.248292383684202 107.07641104335926 0 0 0 0 850.75286077874262 438.34697349408816 0 438.34697349408816 363.09596325921302 0 0 0 0 362.83900800194533 416.77248662381317 0 416.77248662381317 621.72008388122777 0 0 0 0 6.5031668024453602 -0.73676711902341907 0 -0.73676711902341907 -0.034505259822680046 0 0 0 0 734.46128923549259 104.16904124137 0 104.16904124137 -131.35638552255114 0 0 0 0 241.94162951767794 -35.037174060671532 0 -35.037174060671532 -121.3454843767031 0 0 0 0 -187.75233872225363 -65.450921326344542 0 -65.450921326344542 -287.90222964935492 0 0 0 0 344.61796544378103 244.918708223664 0 244.918708223664 -132.96268962524846 0 0 0 0 195.96809469763321 96.241051181776129 0 96.241051181776129 -77.154358765903453 0 0 0 0 93.193815031916529 -21.648032136063648 0 -21.648032136063648 182.16136634189024 0 0 0 0 309.78233995383198 346.8095162432619 0 346.8095162432619 438.84419727817294 0 0 0 0 25.694865909776127 -108.92821149987321 0 -108.92821149987321 553.53335121400596 0 0 0 0 90.359640157184913 7.5617901709338184 0 7.5617901709338184 164.56417407745903 0 0 0 0 3.5406979918840449 11.586402763344871 0 11.586402763344871 -3.4357432467234901 0 0 0 0 -41.342410310957348 158.31167736537827 0 158.31167736537827 -53.546788763753284 0 0 0 0 1383.9547883633277 -910.59102991374857 0 -910.59102991374857 -553.01835972438482 0 0 0 0 -101.48141942933944 235.30520289583546 0 235.30520289583546 2.7737418628421437 0 0 0 0 -96.705624227797671 207.97825373493833 0 207.97825373493833 -43.843225356180938 0 0 0 0 291.15252183321718 -205.9016570054755 0 -205.9016570054755 -1229.9876468123432 0 0 0 0 -767.73067567850376 -20.466529004609583 0 -20.466529004609583 -201.90300267528983 0 0 0 0 39.434729776236921 3.3545166656401015 0 3.3545166656401015 -2.5982869687104522 0 0 0 0 450.1949921916239 1370.1685398003574 0 1370.1685398003574 65.068460064419014 0 0 0 0 2845.3127817255627 262.28664321066208 0 262.28664321066208 -987.83096151410427 0 0 0 0 45.313048643348004 6.3174872461405869 0 6.3174872461405869 -3.7270557038844156 0 0 0 0 -7.9827273029040953 245.71477972588491 0 245.71477972588491 15.638191251975513 0 0 0 0 159.35697144747246 5.7795391003828627 0 5.7795391003828627 51.535036078926623 0 0 0 0 103.28188124119333 388.76589385467378 0 388.76589385467378 -276.86260420217877 0 0 0 0 -757.5342230343158 595.96562651079694 0 595.96562651079694 270.11872618640609 0 0 0 0 215.8255306842002 171.88482668572033 0 171.88482668572033 -237.30986897236608 0 0 0 0 -327.06749412354657 -164.21853639455185 0 -164.21853639455185 -197.47163420417564 0 0 0 0 278.33224730458824 -589.52998581027896 0 -589.52998581027896 -409.7357080750262 0 0 0 0 14.238680470795501 1.5462137490743828 0 1.5462137490743828 -0.50801376587124025 0 0 0 0 182.26556643936055 460.35541361487503 0 460.35541361487503 748.98265810668363 0 0 0 0 637.01573851034118 -436.45182735626258 0 -436.45182735626258 -344.85656330172242 0 0 0 0 342.42933047699626 -398.3279457759545 0 -398.3279457759545 84.165679624693439 0 0 0 0 119.69087114277499 -594.51316385745486 0 -594.51316385745486 -82.166080729934947 0 0 0 0 189.2518887104834 -478.15318962197989 0 -478.15318962197989 67.894886098547431 0 0 0 0 243.40172024072672 -291.17551168690079 0 -291.17551168690079 -232.62865106100799 0 0 0 0 664.03371867779788 -634.59902558952081 0 -634.59902558952081 366.85597781884007 0 0 0 0 387.74568726829239 -333.3986441716379 0 -333.3986441716379 84.970923810786189 0 0 0 0 210.00005883833774 -301.00024431361453 0 -301.00024431361453 199.6399679465394 0 0 0 0 170.07711741308958 -460.59071027443042 0 -460.59071027443042 496.30879005764655 0 0 0 0 169.53388287449707 -426.74106838953048 0 -426.74106838953048 177.88369315668388 0 0 0 0 237.33850188174983 -422.47133888764711 0 -422.47133888764711 86.818619212244812 0 0 0 0 603.58007902077043 481.32686558691739 0 481.32686558691739 -160.12908476586199 0 0 0 0 41.139560573044946 66.137169278500323 0 66.137169278500323 -15.974198576916024 0 0 0 0 814.39582644541224 324.31667812038995 0 324.31667812038995 -239.02908734087669 0 0 0 0 1327.3967329158731 49.397434783077188 0 49.397434783077188 -19.842656432803778 0 0 0 0 833.04437318535747 253.99843169779479 0 253.99843169779479 -141.53801345645661 0 0 0 0 992.51818844728768 602.98257673675198 0 602.98257673675198 485.0905433983171 0 0 0 0 666.6854958626127 71.095320148301596 0 71.095320148301596 960.39995633195031 0 0 0 0 873.76856324061737 96.203928444324902 0 96.203928444324902 200.31935903526983 0 0 0 0 1488.356083153416 -290.33346050492673 0 -290.33346050492673 442.6061881348578 0 0 0 0 1666.6414416332391 23.773462352334718 0 23.773462352334718 -144.2070201947372 0 0 0 0 1546.4858991414076 175.42884723221869 0 175.42884723221869 -71.469381275002888 0 0 0 0 143.97444602161704 -340.73579018917553 0 -340.73579018917553 873.18117725085722 0 0 0 0 46.547074861395231 -86.269510595054271 0 -86.269510595054271 254.25694203497733 0 0 0 0 205.1583685601945 -264.40482692649221 0 -264.40482692649221 442.09199879980588 0 0 0 0 97.509778991763596 -138.18432516564053 0 -138.18432516564053 311.0429401150468 0 0 0 0 113.40100751158025 -246.75460992828084 0 -246.75460992828084 490.95202875137431 0 0 0 0 14.18447268728157 -3.2924595840385891 0 -3.2924595840385891 -1.8166742806424097 0 0 0 0 104.26230000322539 -12.961819227268279 0 -12.961819227268279 2.8367020718524145 0 0 0 0 0.63423515104105377 2.7135170582044807 0 2.7135170582044807 0.26009442896212054 0 0 0 0 96.029961250045744 -82.183660481282914 0 -82.183660481282914 -107.73279703612843 0 0 0 0 23.106204244516405 -7.4512354683845956 0 -7.4512354683845956 1.2800404923484354 0 0 0 0 20.321285409940174 -7.1694431558339602 0 -7.1694431558339602 -2.1990709041619994 0 0 0 0 -24.009184241789626 -4.1481578566445023 0 -4.1481578566445023 -113.6999615616769 0 0 0 0 16.566686396778096 277.96925916113923 0 277.96925916113923 239.02740241897709 0 0 0 0 1127.356587976421 425.9517161260992 0 425.9517161260992 241.29470035121449 0 0 0 0 15.536537046530782 -3.918469610342795 0 -3.918469610342795 -0.32197009296910117 0 0 0 0 7.2664737084124056 -3.343915867698847 0 -3.343915867698847 0.7108929298934541 0 0 0 0 -36.814799278909049 148.17264639582118 0 148.17264639582118 -297.24417068853654 0 0 0 0 1306.6877242633418 -168.31640553324542 0 -168.31640553324542 -259.0246789492212 0 0 0 0 1948.445272350531 -38.52135215185308 0 -38.52135215185308 -242.37020050464525 0 0 0 0 166.81654767504369 -109.36546867760353 0 -109.36546867760353 -410.83631068911745 0 0 0 0 207.37402059580927 -338.45940677934323 0 -338.45940677934323 -110.30602966851438 0 0 0 0 41.97693862664164 -382.82444646887234 0 -382.82444646887234 162.06461300154365 0 0 0 0 -0.032167277866690824 0.36111395164055438 0 0.36111395164055438 2.0593283478361979 0 0 0 0 106.42431292466563 902.14921469587512 0 902.14921469587512 -507.86651078260184 0 0 0 0 -1.3885287602366816 -0.0046211502243007629 0 -0.0046211502243007629 -1.0924954449050432 0 0 0 0 -83.232821972102101 -190.70646196018197 0 -190.70646196018197 393.00473756570454 0 0 0 0 10.430373725343088 -121.82836504773695 0 -121.82836504773695 56.52406546893144 0 0 0 0 54.146845292460057 -119.89681194338937 0 -119.89681194338937 -67.888705450319776 0 0 0 0 24.434689949441236 -10.918509239547802 0 -10.918509239547802 251.96468102574272 0 0 0 0 726.16221128054167 -7.0400460308014772 0 -7.0400460308014772 -1008.832756438409 0 0 0 0 818.30670498010295 164.6853288968083 0 164.6853288968083 -188.28173969914644 0 0 0 0 1312.8859834811738 806.18995040668415 0 806.18995040668415 -500.60145845338684 0 0 0 0 587.54952577591757 -435.69585393738544 0 -435.69585393738544 -433.33206526655977 0 0 0 0 208.86541782524 176.03129687642672 0 176.03129687642672 17.913915106226341 0 0 0 0 1569.3322127862484 22.062786553488195 0 22.062786553488195 -94.544414760641075 0 0 0 0 1439.9940265305777 568.7546758109429 0 568.7546758109429 -57.760221450548556 0 0 0 0 1875.9914753173653 988.32512436570642 0 988.32512436570642 -81.169384415103366 0 0 0 0 1341.8596218293314 533.0156061626999 0 533.0156061626999 -60.938926293054465 0 0 0 0 822.19383063103032 450.48672286502506 0 450.48672286502506 347.09704077669107 0 0 0 0 747.73124801378435 458.56624992904773 0 458.56624992904773 354.18722357214324 0 0 0 0 1290.3792695619195 323.55977225895731 0 323.55977225895731 66.240640237874686 0 0 0 0 1400.0961078641121 277.84603482864804 0 277.84603482864804 67.594667196915907 0 0 0 0 1406.6860673702904 246.77497355612877 0 246.77497355612877 -103.51493169064543 0 0 0 0 1771.2950033944126 425.43362631741616 0 425.43362631741616 -58.250343533631167 0 0 0 0 15.940804489604488 -15.458591184598845 0 -15.458591184598845 0.69403415002125257 0 0 0 0 4.1526455573330168 -19.559898161594901 0 -19.559898161594901 14.396064927834232 0 0 0 0 -12.295400149836496 -10.333724221179182 0 -10.333724221179182 25.42650383160435 0 0 0 0 1.8414663259760715 -10.22079297030665 0 -10.22079297030665 3.1032002867178647 0 0 0 0 12.870781959820306 -11.685910271779903 0 -11.685910271779903 -5.0601944745498031 0 0 0 0 1.5773488733764225 -24.885256464335598 0 -24.885256464335598 11.736955904018041 0 0 0 0 -5.4424107158993138 -28.051099862941555 0 -28.051099862941555 -15.024014043650823 0 0 0 0 -0.73829024925777276 -30.603273762652375 0 -30.603273762652375 19.769391118141023 0 0 0 0 15.402881292493802 -11.225271991687762 0 -11.225271991687762 -3.4065361828711644 0 0 0 0 9.8892717965946844 -12.009328018347546 0 -12.009328018347546 5.3868397133397998 0 0 0 0 4.0272760488114727 -13.905301672321457 0 -13.905301672321457 -0.50844184955167293 0 0 0 0 -10.859899296352523 -45.030578611778765 0 -45.030578611778765 11.794778893309285 0 0 0 0 2.6448897375885281 -14.712219022144382 0 -14.712219022144382 4.8774151603902283 0 0 0 0 -8.6621132260552258 -17.565485842613271 0 -17.565485842613271 86.427022283285623 0 0 0 0 -36.560159646709508 -45.181792258728819 0 -45.181792258728819 49.997461981357446 0 0 0 0 16.574855818915239 -42.891904351405174 0 -42.891904351405174 38.771680393443603 0 0 0 0 -25.670142299099098 -24.113156168847127 0 -24.113156168847127 42.550016303273878 0 0 0 0 14.861178009014246 -20.508782080037676 0 -20.508782080037676 23.822450273226774 0 0 0 0 -98.561334620217167 -123.13474555704795 0 -123.13474555704795 -24.712981858855073 0 0 0 0 -5.2589514201708027 -4.4683301280938785 0 -4.4683301280938785 5.7719593146570602 0 0 0 0 -79.752042911066383 -83.498368725548744 0 -83.498368725548744 -42.397237093176955 0 0 0 0 7.2268096919506206 -183.45382508249224 0 -183.45382508249224 -350.93802695477166 0 0 0 0 -75.862545792571837 -108.50181698097971 0 -108.50181698097971 -39.500395849264351 0 0 0 0 -137.51818359139725 165.77064272823509 0 165.77064272823509 -208.78897562471025 0 0 0 0 -182.83990308505599 -322.05111398893825 0 -322.05111398893825 12.564361360305611 0 0 0 0 110.48532290923322 85.077713267548006 0 85.077713267548006 -68.017822531306592 0 0 0 0 16.264027969904419 -16.286782568526178 0 -16.286782568526178 -6.1975958316261313 0 0 0 0 -23.409811146499123 -95.075671506271647 0 -95.075671506271647 50.181606126129736 0 0 0 0 -6.6258052677749788 -6.8750350123717965 0 -6.8750350123717965 2.9974264461302216 0 0 0 0 21.231158211406481 -9.686489739757473 0 -9.686489739757473 3.1131438927809008 0 0 0 0 24.550009043799946 -8.1277155046382177 0 -8.1277155046382177 -2.5569442829282707 0 0 0 0 11.112075541761442 -8.168366606610121 0 -8.168366606610121 -1.714663555089615 0 0 0 0 19.413887528140549 -12.163791480574673 0 -12.163791480574673 1.4399347426569875 0 0 0 0 20.001867597085948 -12.810071004084421 0 -12.810071004084421 -4.1117650735259303 0 0 0 0 16.579157903073735 -7.7017175627996632 0 -7.7017175627996632 0.58486535979551402 0 0 0 0 17.776524690460064 -10.212449690284302 0 -10.212449690284302 3.4132268118610227 0 0 0 0 29.595412356837187 -19.857058453852005 0 -19.857058453852005 -3.7685301436827103 0 0 0 0 43.148401492500852 18.765267791640326 0 18.765267791640326 51.692530669031839 0 0 0 0 5.2303520505360694 -2.5074134297173885 0 -2.5074134297173885 -3.8469177545999358 0 0 0 0 34.332796261376643 3.7633158332355379 0 3.7633158332355379 38.088215488856804 0 0 0 0 4.985269204341364 -10.738833019231832 0 -10.738833019231832 2.5478918702611502 0 0 0 0 8.6530440168789937 34.969347510629632 0 34.969347510629632 87.824821614050961 0 0 0 0 42.972775143112813 53.897178051609444 0 53.897178051609444 27.522871501918416 0 0 0 0 4.2750800206194981 -9.5322042691941533 0 -9.5322042691941533 -1.3809758825887002 0 0 0 0 8.0020678270593635 -15.600442808820844 0 -15.600442808820844 -11.699626065113989 0 0 0 0 2.4325824907751752 -12.348648397052656 0 -12.348648397052656 1.5399289547649806 0 0 0 0 2.3552140056199278 -18.426668629775122 0 -18.426668629775122 3.5591068747648933 0 0 0 0 4.6523338425649854 -18.015665202787659 0 -18.015665202787659 -0.40707131128147012 0 0 0 0 -140.10915367209236 -80.420496991979235 0 -80.420496991979235 120.19793273991127 0 0 0 0 70.559762900189526 2.2868685380863099 0 2.2868685380863099 -131.96338201397157 0 0 0 0 -110.13320328545706 -79.620997314245869 0 -79.620997314245869 -4.4389986024907557 0 0 0 0 -39.990317682910245 -43.209434975695331 0 -43.209434975695331 2.7944313974621764 0 0 0 0 23.787001677512308 -22.456033708671384 0 -22.456033708671384 -45.937978924939671 0 0 0 0 6.5168469322961755 -18.494513048148292 0 -18.494513048148292 3.4990287388409342 0 0 0 0 -40.487451572385908 -35.197041068417093 0 -35.197041068417093 5.0484130918230221 0 0 0 0 -67.294857172586489 -21.313355571732245 0 -21.313355571732245 15.293648486229358 0 0 0 0 -2.6345289170312753 5.1166966649952883 0 5.1166966649952883 9.52325526983077 0 0 0 0 -86.338444622750103 -42.395413913839548 0 -42.395413913839548 -13.204491060387227 0 0 0 0 -66.85623225744348 -60.295179589171312 0 -60.295179589171312 3.2350927807925416 0 0 0 0 3.2674019373764338 1.6440296181291458 0 1.6440296181291458 6.597322163311631 0 0 0 0 -0.36842613946646452 17.568007061745448 0 17.568007061745448 41.19414248272551 0 0 0 0 260.27528310068737 -387.8674130611962 0 -387.8674130611962 138.9448217297213 0 0 0 0 56.857775958273123 -23.536951565418349 0 -23.536951565418349 -8.4932077448938799 0 0 0 0 37.004828740798985 -14.209841364070599 0 -14.209841364070599 48.278248630005692 0 0 0 0 39.205092431526282 -11.47703134155563 0 -11.47703134155563 -5.8821230263747566 0 0 0 0 24.512384227717575 8.5680076794327249 0 8.5680076794327249 35.740711110192933 0 0 0 0 6.5970434459813987 -18.395658012319927 0 -18.395658012319927 -0.50426649614382768 0 0 0 0 48.899676879471372 -10.503363486057424 0 -10.503363486057424 -13.754962223547409 0 0 0 0 48.730885163146013 -14.222177306927733 0 -14.222177306927733 -6.6780066827075188 0 0 0 0 2.042800676419553 3.1726563489733692 0 3.1726563489733692 4.9803667363531829 0 0 0 0 404.19361407186807 58.790884654894398 0 58.790884654894398 -82.839886818077503 0 0 0 0 828.97137520624528 214.79966831784077 0 214.79966831784077 -25.563788745640522 0 0 0 0 894.11102276934253 -191.50443118892508 0 -191.50443118892508 -200.91300815235559 0 0 0 0 342.73934775309124 -417.39134722086061 0 -417.39134722086061 -227.93624174788783 0 0 0 0 377.94474840704788 -274.58504727331274 0 -274.58504727331274 38.051209424072113 0 0 0 0 647.16644346866815 -553.56831631582827 0 -553.56831631582827 266.44897728510841 0 0 0 0 10.413799468020443 -295.13363622852285 0 -295.13363622852285 860.49338173535398 0 0 0 0 -22.018200414258899 -131.46387384390277 0 -131.46387384390277 327.724236860975 0 0 0 0 0.66531658378845293 1.3159617631178477 0 1.3159617631178477 3.0082305128143645 0 0 0 0 44.646626322883094 -347.93194352285263 0 -347.93194352285263 253.50140535355968 0 0 0 0 104.01086723028493 -399.28054935109503 0 -399.28054935109503 -301.2511867347057 0 0 0 0 211.57078673434262 -149.45868112010703 0 -149.45868112010703 -106.83922437870933 0 0 0 0 62.089664060014911 289.3191168283829 0 289.3191168283829 -184.51766027380654 0 0 0 0 1045.7586419877043 252.86215300760068 0 252.86215300760068 -184.94401717041183 0 0 0 0 49.280845987058946 -30.956460665795731 0 -30.956460665795731 -9.2500588762366469 0 0 0 0 -343.48252771001717 -181.88087664576801 0 -181.88087664576801 41.790676234335479 0 0 0 0 -130.43565371773275 -115.80864840165441 0 -115.80864840165441 -46.396800451395393 0 0 0 0 61.181701810965933 -22.162669887912671 0 -22.162669887912671 -5.4615506721322618 0 0 0 0 8.6599122819061449 -45.415417444663035 0 -45.415417444663035 10.626680752862029 0 0 0 0 -48.934142595153389 41.95594541481023 0 41.95594541481023 3.6981295807891001 0 0 0 0 63.589797968343802 -24.922393044974495 0 -24.922393044974495 -13.372685726912586 0 0 0 0 -89.713446208163987 -413.22896130937409 0 -413.22896130937409 -187.67457558660317 0 0 0 0 -238.68734991991369 16.866832905225237 0 16.866832905225237 158.31309683154359 0 0 0 0 151.85285362902846 -457.68582375960966 0 -457.68582375960966 -191.05968359109829 0 0 0 0 164.18359217180114 -143.65818183468218 0 -143.65818183468218 -211.73406084980888 0 0 0 0 63.541054740388972 -19.657738549628903 0 -19.657738549628903 -6.1024897108491132 0 0 0 0 60.830096933490495 -18.254429239786987 0 -18.254429239786987 -5.1041876279023199 0 0 0 0 60.07941103694202 -21.510775226040096 0 -21.510775226040096 -4.2850733401301113 0 0 0 0 33.710671555572205 -24.868774027568204 0 -24.868774027568204 -2.296176972451601 0 0 0 0 61.533827809015975 -20.538801111241696 0 -20.538801111241696 0.069375431799926446 0 0 0 0 65.684734891929111 -21.495443157958107 0 -21.495443157958107 -4.3186596215909958 0 0 0 0 11.493169036874555 -12.552080466649896 0 -12.552080466649896 -6.8137982386660241 0 0 0 0 48.400431495597786 -26.941653362678153 0 -26.941653362678153 -16.603111649453695 0 0 0 0 31.406497987618422 -6.4269713898265763 0 -6.4269713898265763 5.5418745840888732 0 0 0 0 16.917465802089076 -15.66789617507508 0 -15.66789617507508 4.166723975014623 0 0 0 0 9.6651311625228118 0.064027518628790858 0 0.064027518628790858 29.260338605548895 0 0 0 0 76.36890989317908 33.138047286860456 0 33.138047286860456 27.451072572714111 0 0 0 0 71.43807147239022 70.552885259558025 0 70.552885259558025 45.637203252632389 0 0 0 0 57.573703368345377 62.304323435746483 0 62.304323435746483 41.517013210035657 0 0 0 0 118.29987422124941 100.86581742424823 0 100.86581742424823 27.006976562914133 0 0 0 0 56.462329666901496 32.43924766804048 0 32.43924766804048 81.473810351099019 0 0 0 0 2.3149583465079715 -0.21377263389280898 0 -0.21377263389280898 -0.19746126271528652 0 0 0 0 200.94719331713861 53.23305774668043 0 53.23305774668043 44.925321588927545 0 0 0 0 37.120388570427167 43.93543461439549 0 43.93543461439549 86.032648237819558 0 0 0 0 6.2181221759783512 -20.812048975997641 0 -20.812048975997641 23.764785713159654 0 0 0 0 41.384665136088188 45.578900223158143 0 45.578900223158143 70.298099856028784 0 0 0 0 11.17640817645276 -12.901378764057498 0 -12.901378764057498 1.0497584119345689 0 0 0 0 -21.882373379930868 -39.304794190325993 0 -39.304794190325993 160.34261658429932 0 0 0 0 0.078443420208103021 -0.42825497101443943 0 -0.42825497101443943 1.3907932507194047 0 0 0 0 293.40969195617072 -95.226803073937845 0 -95.226803073937845 30.944094034282443 0 0 0 0 315.25522762989385 -116.07760282114486 0 -116.07760282114486 36.18050708879673 0 0 0 0 229.69826238602218 -12.943216348144233 0 -12.943216348144233 12.353525445766536 0 0 0 0 271.66313868155248 -43.477686481382534 0 -43.477686481382534 -77.930608812495848 0 0 0 0 233.50721438519849 -85.823970931728127 0 -85.823970931728127 85.705801086268366 0 0 0 0 155.53330716423807 -174.89465356927758 0 -174.89465356927758 61.329717772749973 0 0 0 0 20.08760383561912 -48.787898656532889 0 -48.787898656532889 -35.341721531232906 0 0 0 0 36.823997603776348 -32.634926900140826 0 -32.634926900140826 2.7175545143143935 0 0 0 0 24.14930685152558 -42.198188362875044 0 -42.198188362875044 0.66781469406669203 0 0 0 0 -65.730304707400137 -118.81060823580538 0 -118.81060823580538 40.172550472303101 0 0 0 0 -8.9473389646511432 -40.888142431525935 0 -40.888142431525935 1.6101407512810511 0 0 0 0 71.357733909774595 -46.787163823152177 0 -46.787163823152177 -27.41778725639259 0 0 0 0 5.2098080434807343 -30.014875227876473 0 -30.014875227876473 -0.17931221422259114 0 0 0 0 9.8168690314377756 -9.349137347036816 0 -9.349137347036816 -2.051754619998551 0 0 0 0 -94.53572486608391 -41.334725792140262 0 -41.334725792140262 10.861308863628437 0 0 0 0 45.878550544847151 -22.70705642399437 0 -22.70705642399437 -15.606003229218622 0 0 0 0 43.07417302041722 -15.951565042447328 0 -15.951565042447328 -17.284833765952499 0 0 0 0 -96.313888534202306 -58.285713270095584 0 -58.285713270095584 -0.85283998057093413 0 0 0 0 62.058216378989528 -16.514659776988992 0 -16.514659776988992 -0.11399736584411357 0 0 0 0 40.87527732226971 -34.992891348210676 0 -34.992891348210676 -9.8266915119492708 0 0 0 0 38.564691464172938 -26.844670616250369 0 -26.844670616250369 4.4258409077210672 0 0 0 0 -8.5103036133868315 -18.600677030823039 0 -18.600677030823039 -3.6562815659067454 0 0 0 0 -12.240085146933779 -30.335406749680487 0 -30.335406749680487 10.927830395763522 0 0 0 0 14.50268466012637 -12.203512420914219 0 -12.203512420914219 1.1763804180484172 0 0 0 0 4.1655512553970766 -40.272879235328219 0 -40.272879235328219 2.9067462026250723 0 0 0 0 62.628490673296142 -21.794951625194699 0 -21.794951625194699 -6.1947176468893304 0 0 0 0 34.174649853663595 -27.58697622388172 0 -27.58697622388172 19.714419537842332 0 0 0 0 -390.07401684841898 -606.92250015967966 0 -606.92250015967966 208.1640427255852 0 0 0 0 3.6988595748428637 -4.0742424087944258 0 -4.0742424087944258 4.8747327621988461 0 0 0 0 1410.4796338675314 218.81767046607274 0 218.81767046607274 51.067885327766817 0 0 0 0 149.43069321136136 -697.44230137575869 0 -697.44230137575869 219.97670593840303 0 0 0 0 853.86523258209854 -482.9666968945603 0 -482.9666968945603 -117.00527749960111 0 0 0 0 245.55003587204374 -112.52268900870286 0 -112.52268900870286 664.72796145096618 0 0 0 0 643.50100947537976 210.28475377081759 0 210.28475377081759 -132.98514430261821 0 0 0 0 -0.011112254903919094 0.030473006744067277 0 0.030473006744067277 0.76974899918837991 0 0 0 0 -202.48255575775329 169.42304497855685 0 169.42304497855685 296.70416897236646 0 0 0 0 240.01051201558033 37.989759038723278 0 37.989759038723278 149.8233965782747 0 0 0 0 155.0373623706837 -38.144107941106085 0 -38.144107941106085 83.828710902863349 0 0 0 0 190.82627041427708 -125.79949706578124 0 -125.79949706578124 195.69823144514794 0 0 0 0 78.657883122283693 -0.36893830147789686 0 -0.36893830147789686 155.45831583200015 0 0 0 0 240.79084891949242 -148.60991842017302 0 -148.60991842017302 157.55668838244401 0 0 0 0 177.82047397745555 -16.2074599548896 0 -16.2074599548896 45.005943427937837 0 0 0 0 297.98231266682888 -63.736548783663466 0 -63.736548783663466 17.790400083375062 0 0 0 0 -0.18895013859202159 -1.4814753381245076 0 -1.4814753381245076 -0.42515205848145143 0 0 0 0 -30.500557019562621 18.549135545930994 0 18.549135545930994 10.876496258213592 0 0 0 0 69.79267418937161 -126.96473918382981 0 -126.96473918382981 67.994416347797596 0 0 0 0 517.94372459016995 -109.73653607890355 0 -109.73653607890355 -64.964348769326989 0 0 0 0 430.95238676903477 96.684690366329619 0 96.684690366329619 161.51089641456201 0 0 0 0 575.38486504597859 36.583831330487101 0 36.583831330487101 11.302423287441798 0 0 0 0 346.81285754758574 20.507228234345348 0 20.507228234345348 90.870074869264499 0 0 0 0 305.02944783018938 -18.525917954594206 0 -18.525917954594206 -9.500936495975111 0 0 0 0 453.59769577428051 52.015042330467622 0 52.015042330467622 3.4960612544437026 0 0 0 0 372.58282176657485 -55.660215588682945 0 -55.660215588682945 -50.763391097565545 0 0 0 0 244.81367999624854 -78.653983095798139 0 -78.653983095798139 -16.200700996537762 0 0 0 0 287.21716629265939 -4.8988550282533652 0 -4.8988550282533652 -16.421650074758873 0 0 0 0 157.09432730115805 -52.130764359854766 0 -52.130764359854766 21.447432289448443 0 0 0 0 151.09929734967318 -71.330732150713629 0 -71.330732150713629 -8.5670268020148796 0 0 0 0 -3.8165087734836067 -2.8403994089291018 0 -2.8403994089291018 -5.6486139568441658 0 0 0 0 46.701562014535739 -100.06694153198441 0 -100.06694153198441 53.796589056622452 0 0 0 0 139.7988565325868 -100.24535991407356 0 -100.24535991407356 -68.542822346436878 0 0 0 0 -3.4210853073373073 -20.492268676173808 0 -20.492268676173808 41.09371169732367 0 0 0 0 349.6293290564372 383.08697214769927 0 383.08697214769927 248.00196810228135 0 0 0 0 82.42976446654211 -31.160999294917929 0 -31.160999294917929 10.958968347877089 0 0 0 0 87.617433110612183 -20.975364263587835 0 -20.975364263587835 -34.520019091876748 0 0 0 0 101.83269443429526 -42.714211453661846 0 -42.714211453661846 -3.3266187868648558 0 0 0 0 101.82410157736012 -69.575218808615318 0 -69.575218808615318 -1.4332632616642513 0 0 0 0 82.635151780887099 -61.811253968604433 0 -61.811253968604433 -18.923744830045962 0 0 0 0 72.215849088744108 -47.88088336252622 0 -47.88088336252622 5.7804316252713761 0 0 0 0 25.021191100673406 -9.9991410429010514 0 -9.9991410429010514 -16.253423818965167 0 0 0 0 95.901399568411762 -46.600979246864426 0 -46.600979246864426 -12.963596356490598 0 0 0 0 74.55014839202704 -46.007681099337788 0 -46.007681099337788 5.0355492002081519 0 0 0 0 97.505695245175957 -53.507572304989253 0 -53.507572304989253 4.889387412382348 0 0 0 0 74.728851317210768 -51.204809142951632 0 -51.204809142951632 -3.4634657249144745 0 0 0 0 81.33819115377446 -70.788788233290688 0 -70.788788233290688 -7.0535066135812485 0 0 0 0 147.95548723840784 -43.565524603541917 0 -43.565524603541917 10.757926672491521 0 0 0 0 83.084864700806065 -42.67936641724009 0 -42.67936641724009 5.0431890996178481 0 0 0 0 175.37484745912298 -0.065555674280631138 0 -0.065555674280631138 -5.567744958349067 0 0 0 0 144.28948040152272 -50.785726303242882 0 -50.785726303242882 -4.6692014420605119 0 0 0 0 189.2296129546703 -62.924992679090337 0 -62.924992679090337 -12.249428514696774 0 0 0 0 143.59303485448072 -45.216162903700933 0 -45.216162903700933 -9.5082493060108391 0 0 0 0 143.31857534302253 -26.686798496918527 0 -26.686798496918527 -1.8690227017973484 0 0 0 0 227.66217387469442 -30.203966163388941 0 -30.203966163388941 -25.213265037682504 0 0 0 0 228.5311570046706 -50.041608709610955 0 -50.041608709610955 -29.856200783646614 0 0 0 0 -10.248529301827148 -157.51967243262334 0 -157.51967243262334 -70.222814962913617 0 0 0 0 -2.2232946466617953 -0.76416430792399126 0 -0.76416430792399126 -0.3506159224602996 0 0 0 0 270.29432481122421 -25.161998665848387 0 -25.161998665848387 -98.198390226358242 0 0 0 0 241.22951238965288 -37.020133802552664 0 -37.020133802552664 -25.878149093962747 0 0 0 0 95.607444949962883 -62.021411124318774 0 -62.021411124318774 -7.9636074869149525 0 0 0 0 49.284909349863504 -31.81364233651701 0 -31.81364233651701 3.0467002427117822 0 0 0 0 7.8532873170079256 -16.28078614450169 0 -16.28078614450169 0.37126860080206825 0 0 0 0 3.2262256658210777 -6.0027980983467799 0 -6.0027980983467799 -11.036203355366389 0 0 0 0 54.743639037322282 -48.771441632125061 0 -48.771441632125061 13.862583588052985 0 0 0 0 72.045008287062956 -31.933398801209478 0 -31.933398801209478 -59.712213594488276 0 0 0 0 5.0706696664174977 -28.285467124794721 0 -28.285467124794721 -5.5603182381137586 0 0 0 0 19.300995890003833 -48.680673360134278 0 -48.680673360134278 -4.5729866747533379 0 0 0 0 52.536570187612142 -46.386184212126409 0 -46.386184212126409 -19.551020303721089 0 0 0 0 66.762105830794098 -131.3162331902613 0 -131.3162331902613 -70.635404927274521 0 0 0 0 51.121074345094286 -26.065068602260226 0 -26.065068602260226 -7.0231726400417642 0 0 0 0 93.16599020157264 -28.669535904189615 0 -28.669535904189615 -56.946261166058321 0 0 0 0 -55.862052909431441 -146.18292375213969 0 -146.18292375213969 190.15871459818754 0 0 0 0 288.49911951501008 44.579836785359475 0 44.579836785359475 -62.745336165951812 0 0 0 0 1.8452051843161144 -18.743705444085002 0 -18.743705444085002 3.1766008403806278 0 0 0 0 646.15039263028484 -486.87160686627976 0 -486.87160686627976 -497.74591048733873 0 0 0 0 91.894365287247638 -51.800018014659145 0 -51.800018014659145 0.013833759364388243 0 0 0 0 72.949539066556468 -53.202166306203225 0 -53.202166306203225 17.664830933581911 0 0 0 0 85.371405637696398 -49.943983298304602 0 -49.943983298304602 20.818963007079219 0 0 0 0 85.413879892228579 -49.555049941069228 0 -49.555049941069228 16.375390480785427 0 0 0 0 83.103099908264994 -55.713501952623119 0 -55.713501952623119 20.669574052976714 0 0 0 0 83.381493107059214 -50.472511671492612 0 -50.472511671492612 20.717679222581864 0 0 0 0 82.721242465850082 -51.07435962248428 0 -51.07435962248428 28.087470834312626 0 0 0 0 83.643437542428728 -44.960021713446622 0 -44.960021713446622 23.939944598396323 0 0 0 0 218.87833602995306 -176.56430313895362 0 -176.56430313895362 -65.936926467826197 0 0 0 0 80.39866608338707 -54.008579795489368 0 -54.008579795489368 17.742216394479328 0 0 0 0 65.31216798285503 -57.673732285998902 0 -57.673732285998902 21.370738961909634 0 0 0 0 90.298594378265989 -43.119005445335461 0 -43.119005445335461 16.644374447618247 0 0 0 0 39.682101952353761 -4.3765312046517408 0 -4.3765312046517408 0.040317064830297511 0 0 0 0 95.269746628346184 -46.214392436396338 0 -46.214392436396338 14.617108717078736 0 0 0 0 89.935025802602468 -46.670871091788285 0 -46.670871091788285 16.059633873645453 0 0 0 0 82.16672485939489 -40.258892732234017 0 -40.258892732234017 32.058090456266655 0 0 0 0 81.502982761099702 -44.354474484764069 0 -44.354474484764069 29.123638614899392 0 0 0 0 83.704096950939856 -41.45706119816532 0 -41.45706119816532 27.096145202021944 0 0 0 0 83.836963328260026 -43.159529674917394 0 -43.159529674917394 17.651280479716661 0 0 0 0 87.229904349653225 -33.082639535704402 0 -33.082639535704402 21.849616077965038 0 0 0 0 89.507686696386372 -35.844894653614574 0 -35.844894653614574 18.695836016862813 0 0 0 0 92.130133887068951 -27.972612294639475 0 -27.972612294639475 19.791900601205271 0 0 0 0 87.543625067381072 -34.277926802538786 0 -34.277926802538786 25.719719190192336 0 0 0 0 92.198087180920993 -24.422899437766318 0 -24.422899437766318 24.953494902147213 0 0 0 0 93.687085405894322 -33.943525402759406 0 -33.943525402759406 35.44308606292725 0 0 0 0 93.9031533524103 -26.832590860431083 0 -26.832590860431083 51.173278817281243 0 0 0 0 107.98484563287639 -42.51638685823491 0 -42.51638685823491 54.988906426136964 0 0 0 0 84.355963653375511 -42.841398855298394 0 -42.841398855298394 42.579026210408756 0 0 0 0 89.155251165910158 -27.603417851339145 0 -27.603417851339145 37.644280725678982 0 0 0 0 81.884157589676761 -41.585578911434823 0 -41.585578911434823 43.636971710715443 0 0 0 0 81.282792109326692 -57.663499495078213 0 -57.663499495078213 36.382264661884619 0 0 0 0 84.917154065500654 -50.631152180888421 0 -50.631152180888421 44.799350889243215 0 0 0 0 89.344113460363587 -32.408293720418442 0 -32.408293720418442 64.340812193797319 0 0 0 0 112.65844505010318 -40.817050406746603 0 -40.817050406746603 53.329834993368422 0 0 0 0 87.920563245701487 -58.748453304957366 0 -58.748453304957366 60.170126521804832 0 0 0 0 86.0162841115839 -56.356402026112278 0 -56.356402026112278 46.301514400503947 0 0 0 0 84.697292283399293 -70.840018018125079 0 -70.840018018125079 32.030024131065147 0 0 0 0 89.973492425342556 -67.269584143352404 0 -67.269584143352404 10.358562845175584 0 0 0 0 82.920063322601436 -54.268154288600726 0 -54.268154288600726 30.9506495199239 0 0 0 0 -2.3876108098772875 -5.9913519059566234 0 -5.9913519059566234 -2.9237093789095194 0 0 0 0 7.137340475419478 -21.122107691685414 0 -21.122107691685414 85.92193244399914 0 0 0 0 165.07176310228533 -29.014298912708909 0 -29.014298912708909 -61.051716293150093 0 0 0 0 0.48928896588488158 -2.4113439094161109 0 -2.4113439094161109 -0.64864319260851167 0 0 0 0 128.02524389393511 -169.53153564527383 0 -169.53153564527383 222.50165399911702 0 0 0 0 91.889373018784681 -135.31908763493266 0 -135.31908763493266 190.52068232638703 0 0 0 0 -0.72078131457922723 -0.31646499002853545 0 -0.31646499002853545 0.14976565105232709 0 0 0 0 198.25015665726096 -88.623571057149093 0 -88.623571057149093 77.075834193612536 0 0 0 0 104.07515616576711 -37.893328845773794 0 -37.893328845773794 90.186752435708968 0 0 0 0 77.941225552101969 -76.934568037020654 0 -76.934568037020654 163.38274797974736 0 0 0 0 22.555580438463949 -17.974275865635718 0 -17.974275865635718 84.245066621984734 0 0 0 0 72.711778081487864 -56.396765191802842 0 -56.396765191802842 85.445304468223185 0 0 0 0 -62.436465141647204 -26.16269466418089 0 -26.16269466418089 220.46937810115924 0 0 0 0 18.026014469451184 -35.066354314157252 0 -35.066354314157252 68.025545611606503 0 0 0 0 42.098807555172243 -58.405873582161803 0 -58.405873582161803 88.875877161393646 0 0 0 0 41.708228754945594 -56.008856480345912 0 -56.008856480345912 89.506930973126146 0 0 0 0 139.28767007955321 -57.044304768103757 0 -57.044304768103757 61.13252147485764 0 0 0 0 89.296815523237456 -46.28588871374086 0 -46.28588871374086 59.598978011081726 0 0 0 0 94.55805852269259 -50.303429225004948 0 -50.303429225004948 42.578503002558136 0 0 0 0 107.45665328678297 -32.986413341283878 0 -32.986413341283878 33.357497613520536 0 0 0 0 89.394756175393923 -37.39464969633309 0 -37.39464969633309 32.35752976519143 0 0 0 0 86.973084779063356 -30.104206968918334 0 -30.104206968918334 15.797034299477673 0 0 0 0 62.855692994533456 -45.100999684011185 0 -45.100999684011185 42.237538519183545 0 0 0 0 62.902573152328841 -42.580306617528549 0 -42.580306617528549 19.347693815983803 0 0 0 0 20.176570463012467 -37.031725177250337 0 -37.031725177250337 21.31185663472661 0 0 0 0 68.209986105630378 -30.816013227408803 0 -30.816013227408803 9.0024493103919667 0 0 0 0 31.397732203869964 -46.007743351416138 0 -46.007743351416138 28.148596923163495 0 0 0 0 75.822615438861249 -39.935788493139626 0 -39.935788493139626 14.455255303051899 0 0 0 0 68.264660377557448 -15.830646083117244 0 -15.830646083117244 18.644496439848808 0 0 0 0 87.38930076136603 -32.689114168578271 0 -32.689114168578271 7.1080135482498008 0 0 0 0 93.067607589196996 -24.672543623506499 0 -24.672543623506499 11.489580327637668 0 0 0 0 95.788174707242433 -30.353340143677769 0 -30.353340143677769 6.3566962205786695 0 0 0 0 94.866108897411323 -27.804673606564393 0 -27.804673606564393 3.1548408808084787 0 0 0 0 83.498437568498048 -24.594534182185271 0 -24.594534182185271 10.017220786623511 0 0 0 0 93.657170937673072 -31.528410152545803 0 -31.528410152545803 14.749955659635816 0 0 0 0 92.78545578437479 -32.493593797812537 0 -32.493593797812537 6.7093838516047981 0 0 0 0 89.524734696751693 -35.482035073931911 0 -35.482035073931911 11.825428972626469 0 0 0 0 101.27043667856924 -41.972563186576735 0 -41.972563186576735 1.350869388137653 0 0 0 0 99.436123596875404 -29.65962939435849 0 -29.65962939435849 4.4980611596911331 0 0 0 0 187.13042984620279 -56.453396382793471 0 -56.453396382793471 -2.6848233416640142 0 0 0 0 71.092237331140495 -40.687061670908406 0 -40.687061670908406 10.808380716648571 0 0 0 0 1.6566809153620738 0.54155113162976676 0 0.54155113162976676 -0.33105318660604865 0 0 0 0 122.4373359576075 -37.091966710964243 0 -37.091966710964243 -3.0385552937459579 0 0 0 0 115.59994856297635 -31.033576809055376 0 -31.033576809055376 -6.253465421771125 0 0 0 0 104.69135459214885 -31.871952314344526 0 -31.871952314344526 5.0049953996667682 0 0 0 0 119.79878891428598 -39.411134661965662 0 -39.411134661965662 1.0287961098438245 0 0 0 0 106.16077244237749 -30.81296557654332 0 -30.81296557654332 5.1823007759849133 0 0 0 0 105.50945476458946 -20.893626089815371 0 -20.893626089815371 12.588394559134031 0 0 0 0 115.50794350522301 -23.558322054044311 0 -23.558322054044311 13.128091049158684 0 0 0 0 111.88871663034297 -27.02091202498741 0 -27.02091202498741 16.690767564517955 0 0 0 0 119.95848903852311 -23.615691575257188 0 -23.615691575257188 12.5658306964433 0 0 0 0 113.79386991752835 -30.480768308352708 0 -30.480768308352708 4.9683273349724004 0 0 0 0 126.2004908749559 -30.608893577380968 0 -30.608893577380968 -5.634079057166673 0 0 0 0 120.18248696754017 -25.377125058646016 0 -25.377125058646016 7.2856756552646402 0 0 0 0 143.84689984055512 -4.4947185985529359 0 -4.4947185985529359 27.510099370438184 0 0 0 0 125.91310027125678 -27.632980635135027 0 -27.632980635135027 7.9765679407792049 0 0 0 0 127.05664715709838 -8.4708713131327045 0 -8.4708713131327045 29.477660873977584 0 0 0 0 122.62440997851081 -14.527417261127994 0 -14.527417261127994 34.793102631141664 0 0 0 0 120.57343499465787 -5.5319356998497824 0 -5.5319356998497824 37.20336602194493 0 0 0 0 33.280492462935911 -20.095860725977559 0 -20.095860725977559 39.684593250199143 0 0 0 0 33.788370996258891 28.155695254281227 0 28.155695254281227 59.530572458875668 0 0 0 0 60.778135797962022 38.211188805508982 0 38.211188805508982 49.25959148500624 0 0 0 0 13.958756782218565 -24.677414346875473 0 -24.677414346875473 35.447030337718672 0 0 0 0 71.368378721257614 -23.807115207802326 0 -23.807115207802326 22.396534781335504 0 0 0 0 -62.073523281695088 -54.230169645999467 0 -54.230169645999467 94.056414150050841 0 0 0 0 90.01780099449752 -5.300668468988988 0 -5.300668468988988 38.000931589347601 0 0 0 0 226.08624873413009 38.158741328754104 0 38.158741328754104 -10.271206435873864 0 0 0 0 189.56092112765236 23.654741817360446 0 23.654741817360446 7.8319446543055165 0 0 0 0 407.20994922953014 91.604085727168467 0 91.604085727168467 -8.2456553803986026 0 0 0 0 204.03280431754047 20.142704243823118 0 20.142704243823118 -14.589920435241766 0 0 0 0 67.453381884357754 -44.489968350053395 0 -44.489968350053395 -9.6914262362633679 0 0 0 0 133.2744442271287 -54.639964369056088 0 -54.639964369056088 -0.74342355797034543 0 0 0 0 135.51157724945733 -14.502730166332185 0 -14.502730166332185 -5.1390424574219651 0 0 0 0 114.73130336194663 -35.002951160807243 0 -35.002951160807243 -13.279545167567449 0 0 0 0 81.757212774926302 -46.737541519053593 0 -46.737541519053593 2.1776083575459779 0 0 0 0 120.27858998604268 -35.537658403285768 0 -35.537658403285768 -3.8288063551608502 0 0 0 0 81.08546425518216 -23.126808092370993 0 -23.126808092370993 16.433212990396896 0 0 0 0 127.9595005825322 -37.738419140529913 0 -37.738419140529913 20.418759004217463 0 0 0 0 80.685176929124736 -19.325052013697643 0 -19.325052013697643 -14.592248188069789 0 0 0 0 68.401673755619413 -39.921551589210594 0 -39.921551589210594 -7.3483392970247223 0 0 0 0 85.422229557399987 -23.048236667609672 0 -23.048236667609672 -5.7920209940257337 0 0 0 0 198.95096315805131 7.2614600900888036 0 7.2614600900888036 -16.451944335960377 0 0 0 0 83.015068296100168 -30.412341847678466 0 -30.412341847678466 -19.06071576040852 0 0 0 0 72.775326603848953 -58.339033463596024 0 -58.339033463596024 29.667020736401128 0 0 0 0 63.653772278043618 -4.0447396182971644 0 -4.0447396182971644 -12.539222412358143 0 0 0 0 136.25398462186786 26.065424441011146 0 26.065424441011146 102.22527604855713 0 0 0 0 234.1599327018339 40.746195819621335 0 40.746195819621335 -36.700519505448938 0 0 0 0 168.81113208548777 -20.994594797145055 0 -20.994594797145055 21.186646239344554 0 0 0 0 36.40280203712463 5.3762762583577981 0 5.3762762583577981 -9.9474162128042956 0 0 0 0 150.60701641142168 47.964168063565921 0 47.964168063565921 -9.8938660385356343 0 0 0 0 201.31079230335899 11.588544349051062 0 11.588544349051062 -18.182657931882204 0 0 0 0 148.27410007235952 32.737341211024699 0 32.737341211024699 -8.3916019897969161 0 0 0 0 142.86145206297624 -122.37859526847774 0 -122.37859526847774 -215.4235515650289 0 0 0 0 170.84624494401214 -31.859345602433677 0 -31.859345602433677 -142.55238746435498 0 0 0 0 225.90261421359901 17.251253871889276 0 17.251253871889276 -499.28628315574724 0 0 0 0 134.6374154261002 4.3541301228712328 0 4.3541301228712328 -0.31949352593285885 0 0 0 0 246.16558062309559 91.53442172556538 0 91.53442172556538 -205.478745318851 0 0 0 0 107.87644483333062 0.92768795262546888 0 0.92768795262546888 -0.78609819850722928 0 0 0 0 152.32230659983907 -69.426625187900754 0 -69.426625187900754 -195.87915436154799 0 0 0 0 97.432226669414376 -140.07307753558052 0 -140.07307753558052 14.348651890916699 0 0 0 0 177.91562359197269 5.9944304925811593 0 5.9944304925811593 -381.93637782533006 0 0 0 0 77.00999408682037 56.995157912292143 0 56.995157912292143 -155.44179751753472 0 0 0 0 86.78281935335508 128.70893210502027 0 128.70893210502027 -117.34400119006568 0 0 0 0 58.010962624146487 42.738431097523062 0 42.738431097523062 -0.99391543874071431 0 0 0 0 83.585287548368797 -45.849624430210383 0 -45.849624430210383 -64.754554522143735 0 0 0 0 77.623584389336486 10.158937486146144 0 10.158937486146144 -1.1624754236565249 0 0 0 0 123.70717856164993 55.162819760450475 0 55.162819760450475 -262.83579773032579 0 0 0 0 73.585333506837287 -3.2367397260523703 0 -3.2367397260523703 -11.181982411194447 0 0 0 0 100.67303948069457 85.254014742973595 0 85.254014742973595 -88.213143586443948 0 0 0 0 82.458612325856848 164.47904018536781 0 164.47904018536781 -8.1602388503979455 0 0 0 0 52.597057314400445 162.75073363975662 0 162.75073363975662 125.60346964017481 0 0 0 0 56.402578462075326 139.66965945345146 0 139.66965945345146 28.423835808229342 0 0 0 0 27.949022720218636 163.36739792698609 0 163.36739792698609 126.43144653712443 0 0 0 0 -46.572732679916953 184.26048017132598 0 184.26048017132598 187.48318674937582 0 0 0 0 103.94934402596846 266.97084438058482 0 266.97084438058482 223.94286077139009 0 0 0 0 268.43411108839064 173.32394499536531 0 173.32394499536531 39.713199120915306 0 0 0 0 168.26248055766337 168.77452336647093 0 168.77452336647093 -42.93635591508064 0 0 0 0 164.53899332651235 193.97374923998655 0 193.97374923998655 42.124266468166752 0 0 0 0 295.5942105565191 48.938346236705911 0 48.938346236705911 -156.84692280853426 0 0 0 0 229.58709160328544 14.278907916901517 0 14.278907916901517 -65.41052048255915 0 0 0 0 290.65746174533706 219.91402144334006 0 219.91402144334006 137.38534602091022 0 0 0 0 532.93367022261373 94.649301762471623 0 94.649301762471623 -45.562007211104628 0 0 0 0 363.59570448755767 -126.72778647708333 0 -126.72778647708333 25.507157022919273 0 0 0 0 333.08101309212361 -92.527479532128382 0 -92.527479532128382 -12.744041906185885 0 0 0 0 176.51515145405574 -114.52351646660463 0 -114.52351646660463 -11.760542330323005 0 0 0 0 18.231416737810093 1.3835980834862625 0 1.3835980834862625 3.8306659619630778 0 0 0 0 98.743252709606168 38.982108870632828 0 38.982108870632828 39.670556731460238 0 0 0 0 76.571335364351398 39.964271612931952 0 39.964271612931952 47.044635919030043 0 0 0 0 19.437363274243637 -12.555690079329437 0 -12.555690079329437 11.029935552942202 0 0 0 0 80.703006348676354 4.1173286198411461 0 4.1173286198411461 0.44588559090516355 0 0 0 0 138.22171582766168 -11.146718129449255 0 -11.146718129449255 -23.303186962151813 0 0 0 0 78.133066256632446 13.8554688346901 0 13.8554688346901 23.001531010646431 0 0 0 0 71.696985524264164 14.978929457264712 0 14.978929457264712 44.695827936535352 0 0 0 0 11.205288593605431 -3.2728584450224076 0 -3.2728584450224076 4.7911446675295757 0 0 0 0 59.867418323010497 26.235724809002932 0 26.235724809002932 52.179042057067363 0 0 0 0 58.46035508560081 12.771590686441309 0 12.771590686441309 6.4400703642693635 0 0 0 0 60.104249442665605 13.64512896045926 0 13.64512896045926 39.508389630285819 0 0 0 0 89.504522494593402 16.663046437599405 0 16.663046437599405 38.964843325293259 0 0 0 0 261.40417614251783 212.28802869285573 0 212.28802869285573 -186.992486663568 0 0 0 0 108.83416518835786 -8.003363662074154 0 -8.003363662074154 7.2228338655132092 0 0 0 0 110.2985034456251 -8.0043996743825119 0 -8.0043996743825119 62.077058272625436 0 0 0 0 122.01102429020466 -3.0857759976979651 0 -3.0857759976979651 62.586296496894647 0 0 0 0 90.988613242836436 134.9470741589148 0 134.9470741589148 -23.322907442212454 0 0 0 0 15.726241396182445 -11.136103197349968 0 -11.136103197349968 -2.4943326834235648 0 0 0 0 237.47696621605428 -288.49101020834678 0 -288.49101020834678 -51.58905598632839 0 0 0 0 123.87358140214289 0.2987420502689595 0 0.2987420502689595 -4.1680383681201674 0 0 0 0 26.556256908232172 66.620380074213244 0 66.620380074213244 -52.320183480183914 0 0 0 0 177.77440797041345 161.17624746176079 0 161.17624746176079 -39.092784010331343 0 0 0 0 103.06129534580032 141.46358692684112 0 141.46358692684112 -13.285191121212847 0 0 0 0 108.10191166869481 123.29904179032383 0 123.29904179032383 -64.433481840392233 0 0 0 0 122.53012587996636 -22.925542209954074 0 -22.925542209954074 133.24377651347277 0 0 0 0 224.38507202166511 114.71980808844364 0 114.71980808844364 -47.532590087022982 0 0 0 0 -0.052315199734039197 -2.6064556153287555 0 -2.6064556153287555 -0.087939894874136115 0 0 0 0 116.96061063753586 88.835293308205109 0 88.835293308205109 11.5725253587716 0 0 0 0 152.23920689163788 113.13418745026593 0 113.13418745026593 -27.063565274957909 0 0 0 0 98.5909871998374 108.98403157439679 0 108.98403157439679 28.063689272508782 0 0 0 0 79.797575980541296 127.94255229996634 0 127.94255229996634 20.025961268975152 0 0 0 0 129.20289080217481 141.67280928024593 0 141.67280928024593 -15.768584411363918 0 0 0 0 66.957152905662952 122.56989931764883 0 122.56989931764883 33.850917021136411 0 0 0 0 115.51101285826007 49.553767521539157 0 49.553767521539157 113.0067395368751 0 0 0 0 -82.626443244211259 41.536115394081207 0 41.536115394081207 199.99051623330251 0 0 0 0 85.605125047906768 125.30133165504731 0 125.30133165504731 65.664084577316316 0 0 0 0 41.456302007747581 10.951657508529024 0 10.951657508529024 98.216813675538106 0 0 0 0 1.1661142355305714 -2.4288193798214905 0 -2.4288193798214905 0.81478286925377041 0 0 0 0 168.46443284917041 -131.09844614175108 0 -131.09844614175108 -24.309837262933343 0 0 0 0 15.452661652379902 -0.33378123443890217 0 -0.33378123443890217 125.17019713452692 0 0 0 0 79.151154802834526 27.46235211192618 0 27.46235211192618 43.050365007851724 0 0 0 0 48.887300614398555 108.52079519347353 0 108.52079519347353 47.266042017883592 0 0 0 0 19.492875822512303 -17.079958609713501 0 -17.079958609713501 10.961356040201693 0 0 0 0 105.67805716737348 30.958533015585317 0 30.958533015585317 4.1072028309499728 0 0 0 0 101.85402348011849 21.496332440644437 0 21.496332440644437 -34.61259699108632 0 0 0 0 102.95230191247538 17.407573541797774 0 17.407573541797774 -21.651390837028885 0 0 0 0 45.652502339260536 41.227999112986254 0 41.227999112986254 26.044994284925451 0 0 0 0 87.840473048476269 46.570569821959907 0 46.570569821959907 -29.146225836612302 0 0 0 0 113.17025055456543 41.09150289597801 0 41.09150289597801 21.630665445483828 0 0 0 0 116.81422314009978 33.992500603800181 0 33.992500603800181 0.034743335269922682 0 0 0 0 89.585220556407876 38.878746204851268 0 38.878746204851268 4.6810761902343074 0 0 0 0 158.75858915008212 23.039958637438986 0 23.039958637438986 17.959731130868022 0 0 0 0 144.80709595743974 -36.04453108462576 0 -36.04453108462576 73.506650490069433 0 0 0 0 68.345250936472439 11.986166712817976 0 11.986166712817976 49.675538388471978 0 0 0 0 41.074664263316663 -64.107407846870956 0 -64.107407846870956 120.23041858866691 0 0 0 0 168.24611727437878 30.786932741414603 0 30.786932741414603 -28.96596009731033 0 0 0 0 215.43581650148917 71.550980005062854 0 71.550980005062854 -0.092275594708553399 0 0 0 0 187.62585651642075 166.07446610248809 0 166.07446610248809 32.138720973844102 0 0 0 0 77.420837527359254 141.78340296857004 0 141.78340296857004 30.569408737213507 0 0 0 0 44.194827324528887 119.49794943048573 0 119.49794943048573 83.618604683748345 0 0 0 0 83.141316680703312 62.721846454545812 0 62.721846454545812 26.107513047788643 0 0 0 0 79.981439577670244 63.940420125439005 0 63.940420125439005 61.209069348224148 0 0 0 0 53.010755169132608 78.6202787085208 0 78.6202787085208 89.190376479122278 0 0 0 0 133.98124475860095 50.660259001694612 0 50.660259001694612 1.5743062875189935 0 0 0 0 143.4239115797609 92.005806521226532 0 92.005806521226532 33.875203205760954 0 0 0 0 122.80406037154899 65.54635028350549 0 65.54635028350549 4.4987879104253352 0 0 0 0 101.69677980491542 31.885446512770613 0 31.885446512770613 4.9574725608745212 0 0 0 0 101.28530622055405 33.838499930727266 0 33.838499930727266 9.1051697366747248 0 0 0 0 89.929510539477633 23.778645555168168 0 23.778645555168168 26.698447860348097 0 0 0 0 91.870434762546211 14.189317016853238 0 14.189317016853238 -2.9534768803468978 0 0 0 0 84.52228917184766 14.558292004028317 0 14.558292004028317 27.765603298910719 0 0 0 0 86.576512772429851 17.973479611208859 0 17.973479611208859 19.812780525087874 0 0 0 0 86.578186398284743 21.457066670082895 0 21.457066670082895 35.193630006211606 0 0 0 0 78.223316995819914 29.950212052868665 0 29.950212052868665 26.565745316494031 0 0 0 0 101.54791345432841 47.839259156895992 0 47.839259156895992 37.300429536066076 0 0 0 0 62.808615441725124 37.087469608373794 0 37.087469608373794 64.446561585845757 0 0 0 0 66.112719447075506 20.809224281876595 0 20.809224281876595 59.795853000405259 0 0 0 0 53.701472848343656 26.590812391528402 0 26.590812391528402 74.228851154664881 0 0 0 0 53.855838378509361 28.716088843687089 0 28.716088843687089 56.766528405136341 0 0 0 0 53.29782905614411 11.742940274390094 0 11.742940274390094 69.919091384866988 0 0 0 0 66.091638155703549 18.788825162523608 0 18.788825162523608 39.893532708229031 0 0 0 0 78.296421512612142 32.463664131493715 0 32.463664131493715 51.342246927664746 0 0 0 0 690.4821189204813 316.66130745153714 0 316.66130745153714 -84.64512474538742 0 0 0 0 75.6354345093132 7.1518789466081216 0 7.1518789466081216 35.846676043592197 0 0 0 0 73.29114388518903 5.2176385310664495 0 5.2176385310664495 0.95333506218565811 0 0 0 0 66.468838375963969 6.3247792889233097 0 6.3247792889233097 37.187504011153578 0 0 0 0 75.78731898337719 12.986063490553533 0 12.986063490553533 41.153810055460781 0 0 0 0 60.954704367351951 11.469438747413733 0 11.469438747413733 45.045591375968797 0 0 0 0 58.593644490436418 9.8510353637921071 0 9.8510353637921071 44.602203052915684 0 0 0 0 86.363714537481428 44.527971302096375 0 44.527971302096375 -173.10575535523276 0 0 0 0 18.982590974262649 6.3443242499979888 0 6.3443242499979888 -1.926890035008439 0 0 0 0 41.714589429707587 -6.2982355852291292 0 -6.2982355852291292 14.890931985756394 0 0 0 0 64.61631813069107 -9.2306210068345536 0 -9.2306210068345536 -18.437490711643477 0 0 0 0 83.4818498394161 18.466601675681886 0 18.466601675681886 22.319990573014366 0 0 0 0 89.182492052175803 6.7057633401402654 0 6.7057633401402654 29.78583250396332 0 0 0 0 41.848498383304104 14.434762105945993 0 14.434762105945993 9.14790457439085 0 0 0 0 32.877536529226532 8.5324289341692037 0 8.5324289341692037 19.670234536549636 0 0 0 0 89.976972793519963 10.931935739403343 0 10.931935739403343 23.292387083070935 0 0 0 0 43.616294265103335 -3.6816611916997743 0 -3.6816611916997743 5.6974996207524775 0 0 0 0 84.262298113084398 12.696665334975478 0 12.696665334975478 25.309519481666939 0 0 0 0 75.889342219864375 14.406779865657768 0 14.406779865657768 30.799219773536606 0 0 0 0 83.861143109505065 6.1612934475015209 0 6.1612934475015209 34.911645536669312 0 0 0 0 82.865496715385234 9.5051070402423647 0 9.5051070402423647 33.152316337720549 0 0 0 0 -46.439872845665377 -59.192609976892072 0 -59.192609976892072 -62.149665398958405 0 0 0 0 216.04443216498476 329.92520555430383 0 329.92520555430383 -887.23705406229669 0 0 0 0 126.95972700353013 -100.27408713120167 0 -100.27408713120167 -173.17316831857056 0 0 0 0 16.171921064751785 -4.441219431571632 0 -4.441219431571632 -2.986878213548152 0 0 0 0 36.206175745047858 9.0691066289139695 0 9.0691066289139695 0.35468194926807706 0 0 0 0 -6.9221170203236397 62.79041409131969 0 62.79041409131969 5.1113557151256828 0 0 0 0 -37.185622071679973 9.5021207524769125 0 9.5021207524769125 62.404742089525826 0 0 0 0 19.418478099018103 -1.257469896801922 0 -1.257469896801922 61.374065776217321 0 0 0 0 -6.1738678550900659 -10.909902252436041 0 -10.909902252436041 121.06222988132504 0 0 0 0 59.71437575307209 -12.658455280890848 0 -12.658455280890848 32.06675447267753 0 0 0 0 40.252660441969056 26.577239861548151 0 26.577239861548151 63.027069092556303 0 0 0 0 86.918500047642738 -83.507820757838999 0 -83.507820757838999 19.642505445595816 0 0 0 0 90.365975386899663 17.823271930656119 0 17.823271930656119 -131.53118340904075 0 0 0 0 -223.85804660384019 -209.90620629934347 0 -209.90620629934347 57.301077607237175 0 0 0 0 56.635401203928382 5.0873385154641788 0 5.0873385154641788 -0.66817421877571559 0 0 0 0 189.33334088962874 81.998324958449302 0 81.998324958449302 -84.972418120329962 0 0 0 0 50.473007115826476 -13.297441260247069 0 -13.297441260247069 18.818452651566304 0 0 0 0 46.968565864634002 -1.910570904639826 0 -1.910570904639826 46.847770939753445 0 0 0 0 60.534448245009116 11.291555384418643 0 11.291555384418643 41.042448434141988 0 0 0 0 35.95178145985119 -0.13836619448375131 0 -0.13836619448375131 91.48614971844836 0 0 0 0 -0.28497304246411659 -25.422360538783323 0 -25.422360538783323 51.217371223250666 0 0 0 0 36.376893797365483 -13.577772500615538 0 -13.577772500615538 52.504414436635443 0 0 0 0 4.4595578016887885 -3.7387192107125884 0 -3.7387192107125884 98.492034969334782 0 0 0 0 29.671722396858968 3.1460519044112516 0 3.1460519044112516 93.019900630852135 0 0 0 0 20.786111642119067 15.206090070983919 0 15.206090070983919 154.68056790109949 0 0 0 0 33.496626524618478 16.58869411465821 0 16.58869411465821 84.64297826496022 0 0 0 0 36.185189996627741 25.150684454278235 0 25.150684454278235 110.55497997683779 0 0 0 0 35.231817093561403 63.276297439772407 0 63.276297439772407 98.036414937687596 0 0 0 0 29.983884121422307 50.916386338331449 0 50.916386338331449 122.44261417521011 0 0 0 0 19.761843132000649 61.920592304570619 0 61.920592304570619 202.02100940106993 0 0 0 0 54.529509107611375 8.4328148994445655 0 8.4328148994445655 147.59852685197075 0 0 0 0 13.188697528938064 31.394676170144976 0 31.394676170144976 135.49090653732128 0 0 0 0 70.082728338980814 -21.265718163955171 0 -21.265718163955171 123.28331843134401 0 0 0 0 53.405086688792835 84.394739575795654 0 84.394739575795654 214.40245847569167 0 0 0 0 106.08052188497095 61.955510909907389 0 61.955510909907389 194.81965593082532 0 0 0 0 104.49105989408781 56.448810633115954 0 56.448810633115954 168.27149432398619 0 0 0 0 72.369933008289081 117.5625601124143 0 117.5625601124143 192.60833516117964 0 0 0 0 183.6879317349667 159.67007193486188 0 159.67007193486188 228.51273423924249 0 0 0 0 28.725338028489205 58.71594970679007 0 58.71594970679007 155.99924651861511 0 0 0 0 34.737873414087517 73.273232723092633 0 73.273232723092633 144.08533279830317 0 0 0 0 16.20567279405077 115.94597644695477 0 115.94597644695477 124.5583656775359 0 0 0 0 39.048808516592544 123.43431645020019 0 123.43431645020019 102.18524984644864 0 0 0 0 -3.2631376961508067 173.76914114489546 0 173.76914114489546 68.961765813452075 0 0 0 0 -53.875746800786146 122.05447290941765 0 122.05447290941765 150.00104357354758 0 0 0 0 98.644709300289833 1.5034507880728825 0 1.5034507880728825 57.032222908740096 0 0 0 0 290.46137948521937 49.025719545716356 0 49.025719545716356 56.119636065786835 0 0 0 0 1090.005735800878 -95.009662910358202 0 -95.009662910358202 -138.01065992495251 0 0 0 0 566.68882448624208 -9.9938443622827435 0 -9.9938443622827435 -98.187180341177282 0 0 0 0 1007.7738414860287 30.725370816240115 0 30.725370816240115 -223.26470507193608 0 0 0 0 1131.0038001196299 190.01700846638414 0 190.01700846638414 -286.24876230864857 0 0 0 0 1127.3807052052944 276.83323246568534 0 276.83323246568534 -51.656698014048743 0 0 0 0 381.89156046255084 192.92745393902464 0 192.92745393902464 141.4582790598306 0 0 0 0 257.04372085805517 89.163358007058378 0 89.163358007058378 169.99688292380506 0 0 0 0 1119.7940851263556 397.04346449714581 0 397.04346449714581 -153.14719221878744 0 0 0 0 1330.2582305062897 136.46554129296305 0 136.46554129296305 -282.21141499602436 0 0 0 0 918.80839095349074 105.88999921812047 0 105.88999921812047 -275.21569687880901 0 0 0 0 369.25518052582265 -315.20299744727185 0 -315.20299744727185 -291.43891587474809 0 0 0 0 1533.630857860946 -463.6861920017036 0 -463.6861920017036 126.6793527019172 0 0 0 0 2015.4754552319791 568.86375469173618 0 568.86375469173618 -124.92242057707426 0 0 0 0 544.54087618447738 -338.50232766747854 0 -338.50232766747854 823.96761886389322 0 0 0 0 435.67854911006543 163.36019751093374 0 163.36019751093374 150.66085042347731 0 0 0 0 490.80743807492945 393.65842129729754 0 393.65842129729754 292.37602738528585 0 0 0 0 37.097505144571187 46.228310141514157 0 46.228310141514157 270.58930961120814 0 0 0 0 202.07124943393865 227.60719341018739 0 227.60719341018739 320.04499850851221 0 0 0 0 953.46192720755789 920.11173886522556 0 920.11173886522556 703.29997970988643 0 0 0 0 566.71165331195516 351.02743832894885 0 351.02743832894885 244.38255691053382 0 0 0 0 1190.6527790032269 -710.67039013150497 0 -710.67039013150497 -149.04789603125425 0 0 0 0 335.85077685830765 504.69106732085675 0 504.69106732085675 1024.6456624761745 0 0 0 0 20.726464929763466 3.1471094770531671 0 3.1471094770531671 -0.1347963786693902 0 0 0 0 -88.394729612860829 -212.64745388807933 0 -212.64745388807933 -188.19019734075118 0 0 0 0 -269.81527713264222 -162.03207943351845 0 -162.03207943351845 -1999.3843411725793 0 0 0 0 -164.18720740023855 -234.3729273192763 0 -234.3729273192763 112.74359700600326 0 0 0 0 43.186290324389489 5.5212512345503022 0 5.5212512345503022 -4.8814804228594646 0 0 0 0 -150.80183778965147 18.158987837887253 0 18.158987837887253 431.64383618680586 0 0 0 0 96.289817439348553 359.22413990956284 0 359.22413990956284 601.29814190073921 0 0 0 0 106.84354580316676 96.788373780747833 0 96.788373780747833 254.33394453394794 0 0 0 0 78.223858485636811 49.730693425056074 0 49.730693425056074 177.82404074460646 0 0 0 0 -92.507494937977754 -86.691003379561153 0 -86.691003379561153 357.72931160970256 0 0 0 0 6.0137008910387522 -144.12622534937509 0 -144.12622534937509 27.884967032754503 0 0 0 0 79.550123441935284 -57.580768809151778 0 -57.580768809151778 34.950935865603242 0 0 0 0 69.342196713521844 -97.910938713048381 0 -97.910938713048381 -39.29552759514263 0 0 0 0 15.599339047796093 -108.00844778278406 0 -108.00844778278406 116.49660647289056 0 0 0 0 13.273293005418964 -255.9793933472065 0 -255.9793933472065 -71.393516920239563 0 0 0 0 -75.130367471283535 391.4795540119776 0 391.4795540119776 -627.84145037505004 0 0 0 0 106.13045301383681 423.09699983356359 0 423.09699983356359 -470.21393189187256 0 0 0 0 15.792503998120083 450.6338483789641 0 450.6338483789641 -606.03310461094588 0 0 0 0 201.65263166406658 329.30025283866144 0 329.30025283866144 -541.33863868917251 0 0 0 0 16.967050804785686 272.92285624667693 0 272.92285624667693 91.08131119946438 0 0 0 0 375.22162552535883 281.45193382365869 0 281.45193382365869 -254.19924132706819 0 0 0 0 -178.9643131449011 393.39966607455563 0 393.39966607455563 -786.682289288834 0 0 0 0 -30.728756052070821 142.21319123231024 0 142.21319123231024 -287.32367616313059 0 0 0 0 -285.36463205650216 267.75652270051432 0 267.75652270051432 -315.07488222484471 0 0 0 0 1435.2943170970175 -202.01104451947413 0 -202.01104451947413 -249.07775243942046 0 0 0 0 -287.0009596242262 -221.4316248815112 0 -221.4316248815112 -150.66853858402919 0 0 0 0 333.17118290210647 -519.91252641468532 0 -519.91252641468532 -143.82181858005879 0 0 0 0 663.51835061848396 -197.7921278292215 0 -197.7921278292215 -88.996315752367082 0 0 0 0 1838.7035329328864 258.86873175082496 0 258.86873175082496 65.437055020400393 0 0 0 0 637.31534379473305 138.0599055448215 0 138.0599055448215 268.02974305033104 0 0 0 0 313.3588343559386 79.443080465767707 0 79.443080465767707 57.450967825630869 0 0 0 0 489.53856140418975 290.2692364174772 0 290.2692364174772 309.71906346038531 0 0 0 0 1369.0743887533772 586.94336284343717 0 586.94336284343717 386.50812169141363 0 0 0 0 410.15282348811161 -0.72142121794240666 0 -0.72142121794240666 93.975170652325232 0 0 0 0 2063.7653031863265 -501.72773638616616 0 -501.72773638616616 -573.83593938916079 0 0 0 0 1442.9007128345538 -432.69290995032418 0 -432.69290995032418 -363.92229040310667 0 0 0 0 1853.5380522156483 -254.74411782399358 0 -254.74411782399358 -310.87264596041439 0 0 0 0 296.16623420249016 272.10087176360639 0 272.10087176360639 52.802470619726591 0 0 0 0 -225.95343114981006 -667.99389411612947 0 -667.99389411612947 -201.84095522832189 0 0 0 0 1256.9642931764301 -577.56676890704125 0 -577.56676890704125 -203.82900878346163 0 0 0 0 2134.805681922895 1896.7030340529523 0 1896.7030340529523 1294.8638186211213 0 0 0 0 983.18889099791159 802.8431910128777 0 802.8431910128777 726.46130457931929 0 0 0 0 20.205631146644407 -4.6329648394901604 0 -4.6329648394901604 1.0927922949821851 0 0 0 0 472.30733744707686 -183.34825898553234 0 -183.34825898553234 -846.31790348358925 0 0 0 0 52.396042196007528 -15.535120250830431 0 -15.535120250830431 2.9968959229109 0 0 0 0 579.89054310515803 -75.396071397786656 0 -75.396071397786656 502.81030455495556 0 0 0 0 139.26106454960973 279.77554883854782 0 279.77554883854782 826.52732909855513 0 0 0 0 766.98629246360179 492.98003650219437 0 492.98003650219437 1042.9409516710768 0 0 0 0 604.23590401716501 -261.36757982124595 0 -261.36757982124595 1344.8511686538181 0 0 0 0 714.38687930950982 48.901048194184341 0 48.901048194184341 337.51605377208921 0 0 0 0 2698.5047059405661 -27.788469158697879 0 -27.788469158697879 274.03263811431475 0 0 0 0 73.065403858432546 88.470027036402485 0 88.470027036402485 561.74512744672688 0 0 0 0 489.80424835895246 -382.90281691574768 0 -382.90281691574768 236.02084493112216 0 0 0 0 5.5841431161315995 -185.4412775640582 0 -185.4412775640582 324.74319002573293 0 0 0 0 -98.654313585851924 -56.669421717104797 0 -56.669421717104797 182.56669675874014 0 0 0 0 -117.63383555824112 136.28252472566146 0 136.28252472566146 533.64403474815344 0 0 0 0 76.415527276700232 102.93824656385124 0 102.93824656385124 350.86819644438947 0 0 0 0 -125.46814358443589 85.400823108540408 0 85.400823108540408 215.27715627164298 0 0 0 0 -111.55696467070084 49.369585537926923 0 49.369585537926923 269.67169959990224 0 0 0 0 -134.10299776084321 -157.81072982340322 0 -157.81072982340322 184.60474434258958 0 0 0 0 -68.106550763288396 -114.76218660794802 0 -114.76218660794802 -40.64437747260385 0 0 0 0 -72.786953111586627 -10.768354762548142 0 -10.768354762548142 79.420759006950902 0 0 0 0 -75.88935190327993 -137.02661866382451 0 -137.02661866382451 -16.208121285138986 0 0 0 0 14.989478485578289 -22.256833364855716 0 -22.256833364855716 31.111291770889821 0 0 0 0 15.541664409116493 -60.383037875032642 0 -60.383037875032642 12.242337349206082 0 0 0 0 27.339930610181909 -34.179030100722684 0 -34.179030100722684 -2.5859409976765164 0 0 0 0 48.746901626480394 -4.3454019504097232 0 -4.3454019504097232 28.505629555989742 0 0 0 0 -129.99328106209941 -89.498438021217339 0 -89.498438021217339 50.498688827072783 0 0 0 0 -123.64537580259275 3.2257251272566805 0 3.2257251272566805 135.96418936675764 0 0 0 0 -63.718716407260217 96.434891552246881 0 96.434891552246881 147.808134177336 0 0 0 0 -15.174703688026057 139.43912290121398 0 139.43912290121398 164.6290807177229 0 0 0 0 67.094789861148456 57.153536333241846 0 57.153536333241846 58.235618506217179 0 0 0 0 -4.0957589949539397 124.98767534567878 0 124.98767534567878 169.4715715694731 0 0 0 0 -22.30913899236657 180.84812523811445 0 180.84812523811445 40.014523548744364 0 0 0 0 -38.731749777813093 57.402190919856594 0 57.402190919856594 186.28160348129404 0 0 0 0 -0.36764294179737078 0.5305287978434805 0 0.5305287978434805 1.7157201389316992 0 0 0 0 159.52659375088115 132.36436888662001 0 132.36436888662001 96.871236105294429 0 0 0 0 52.054345027710951 46.631538246136188 0 46.631538246136188 57.104224136208359 0 0 0 0 -25.942018147550698 -114.05241997341523 0 -114.05241997341523 -3.2832919605843927 0 0 0 0 -110.63733448441235 -69.498299771762504 0 -69.498299771762504 128.71144915391596 0 0 0 0 -147.03743736298929 53.611159875338217 0 53.611159875338217 27.638159789382371 0 0 0 0 15.920195393920636 7.4396823872043001 0 7.4396823872043001 6.046570944887554 0 0 0 0 84.616021495916357 54.638781301356175 0 54.638781301356175 50.92461985499267 0 0 0 0 64.400889481934428 146.55614414604474 0 146.55614414604474 -57.497077715390333 0 0 0 0 231.56186829495709 -118.98047230756492 0 -118.98047230756492 -39.859137175527394 0 0 0 0 312.99168838119658 138.34456192516245 0 138.34456192516245 -100.4168516313448 0 0 0 0 -118.14754645677749 215.83499653443869 0 215.83499653443869 -67.964057336607766 0 0 0 0 73.981644091079943 231.12721372032775 0 231.12721372032775 -117.24287886261209 0 0 0 0 5.6570703450539384 -0.14730354695870318 0 -0.14730354695870318 -0.15593473829688764 0 0 0 0 89.302161468840495 196.34132699987299 0 196.34132699987299 41.969880323928919 0 0 0 0 11.414511400420452 285.55312838615191 0 285.55312838615191 -57.223211858989771 0 0 0 0 -92.204620960692409 192.14236995409465 0 192.14236995409465 12.293117023129525 0 0 0 0 -166.05212864214263 255.9211644813231 0 255.9211644813231 -38.372816320410493 0 0 0 0 -248.41974917810512 100.12965078000505 0 100.12965078000505 -129.16888314208336 0 0 0 0 -42.452352817679639 -68.532744038165674 0 -68.532744038165674 -567.98690893136336 0 0 0 0 214.35880168175208 97.509415593069207 0 97.509415593069207 -800.48076272598337 0 0 0 0 -256.37776943848166 -3.3849989402940537 0 -3.3849989402940537 -214.97553280728607 0 0 0 0 146.12490901700221 248.18379365282271 0 248.18379365282271 -452.66984808388406 0 0 0 0 58.159248806114192 194.27901403542 0 194.27901403542 -257.92227346254549 0 0 0 0 204.06978359205823 199.88895070632225 0 199.88895070632225 -258.94102172861449 0 0 0 0 10.012607029668288 352.98042896403422 0 352.98042896403422 -24.259321122716301 0 0 0 0 -78.321426646100008 168.75544720634662 0 168.75544720634662 -259.12538281486127 0 0 0 0 -114.05674384898157 146.58788011831984 0 146.58788011831984 -143.76077544646614 0 0 0 0 -93.367107157777355 178.51433753823039 0 178.51433753823039 134.25158554870222 0 0 0 0 -9.3086253498695442 355.25743945980332 0 355.25743945980332 374.18600806006498 0 0 0 0 -75.710451522201765 240.53752174790861 0 240.53752174790861 229.55150210628199 0 0 0 0 -49.938427610602957 285.65354127996056 0 285.65354127996056 66.427702266893903 0 0 0 0 -90.479530507547679 132.07930070779264 0 132.07930070779264 262.72691028123381 0 0 0 0 4561.574520886159 252.96380496162715 0 252.96380496162715 317.02502488362825 0 0 0 0 3499.7149887119976 13.197047118901306 0 13.197047118901306 705.8056995111582 0 0 0 0 3509.3160553945017 731.1892278735188 0 731.1892278735188 2181.0258066454189 0 0 0 0 3666.7826123913128 545.27216240676773 0 545.27216240676773 -98.30854601910255 0 0 0 0 2665.687180263667 -401.58755670409619 0 -401.58755670409619 197.69802047114703 0 0 0 0 2833.8176933961804 -657.28016298650118 0 -657.28016298650118 56.592932390415626 0 0 0 0 463.40912112205842 -448.68126579427911 0 -448.68126579427911 605.64202156969804 0 0 0 0 761.09248903524895 -420.51362731175402 0 -420.51362731175402 446.75212753094934 0 0 0 0 3052.139900440905 -1488.6702364929731 0 -1488.6702364929731 781.46832313370555 0 0 0 0 847.97712874449098 -782.29347300013796 0 -782.29347300013796 857.43800997449739 0 0 0 0 27.823800265957324 -13.508566891650865 0 -13.508566891650865 7.8703045648595413 0 0 0 0 221.93895862645422 -825.34395492001909 0 -825.34395492001909 1270.8394152694086 0 0 0 0 290.98281046959187 311.38818203778357 0 311.38818203778357 -141.35549059988807 0 0 0 0 1372.0937223193428 -71.973126808359666 0 -71.973126808359666 -47.131942591415509 0 0 0 0 4658.942122785782 1482.15298362163 0 1482.15298362163 782.9115000123104 0 0 0 0 1855.87379036725 1382.1799009664751 0 1382.1799009664751 876.18233421562127 0 0 0 0 3770.2901577324674 -551.9128504317697 0 -551.9128504317697 2124.2198131821647 0 0 0 0 3500.1772823178053 153.251450079215 0 153.251450079215 989.79362145148116 0 0 0 0 3336.2273968086647 -142.63054758189105 0 -142.63054758189105 799.73831521294051 0 0 0 0 3336.3805096470146 1030.5356065793023 0 1030.5356065793023 512.4335421911494 0 0 0 0 3499.2772262296553 50.250885691103591 0 50.250885691103591 311.88503764966561 0 0 0 0 2517.3811934249466 -412.08072754858568 0 -412.08072754858568 95.30545158935783 0 0 0 0 3500.220157044851 -695.14204362315729 0 -695.14204362315729 -437.27748375102988 0 0 0 0 2564.65399887885 -291.42769277448269 0 -291.42769277448269 259.56017663500404 0 0 0 0 2389.906751482647 -790.23239386854743 0 -790.23239386854743 -454.29708902752981 0 0 0 0 1201.5712149362871 -677.07785435338906 0 -677.07785435338906 150.63573626295278 0 0 0 0 2430.446806507256 -1179.4973134909142 0 -1179.4973134909142 -526.41044860554518 0 0 0 0 1376.2313341786758 491.26051355273273 0 491.26051355273273 -38.49685735198652 0 0 0 0 476.90171792226124 246.98429423150714 0 246.98429423150714 -79.466889814797241 0 0 0 0 1403.882271762373 -102.92762779009729 0 -102.92762779009729 -84.374192652429628 0 0 0 0 756.3557716139353 -35.983161409576496 0 -35.983161409576496 755.10605491768558 0 0 0 0 1611.3306197400116 244.06145744782248 0 244.06145744782248 795.96928702365744 0 0 0 0 829.00921439339606 835.20606688677617 0 835.20606688677617 664.3618423482867 0 0 0 0 2557.2172140616422 760.91280058460609 0 760.91280058460609 663.01493062526151 0 0 0 0 1376.8689926573161 196.64922405819635 0 196.64922405819635 1958.9217522772435 0 0 0 0 1550.7908963873269 1299.2198463711291 0 1299.2198463711291 1794.8526662941736 0 0 0 0 1985.1864273804804 725.29768335676511 0 725.29768335676511 937.11399037769638 0 0 0 0 1591.9337687215939 298.83217114054997 0 298.83217114054997 1077.9798296115218 0 0 0 0 1757.6787912644675 1137.6702507038876 0 1137.6702507038876 990.37285091444915 0 0 0 0 926.15444591952792 693.55852549057158 0 693.55852549057158 988.89161197690601 0 0 0 0 20.802049439635415 6.3960102881587595 0 6.3960102881587595 22.846358823853812 0 0 0 0 1872.0534283954635 768.67454472740621 0 768.67454472740621 297.6296272148229 0 0 0 0 412.65207154926111 -146.12014423799292 0 -146.12014423799292 7.5412545998406131 0 0 0 0 8.9959002304920848 8.4149923299950267 0 8.4149923299950267 -4.6926655134080431 0 0 0 0 93.636164235222168 90.197070794201863 0 90.197070794201863 36.091249200102538 0 0 0 0 55.151416748515999 -72.494871308608481 0 -72.494871308608481 150.41461846253151 0 0 0 0 62.058034097732602 23.113383520918177 0 23.113383520918177 3.4609654377169612 0 0 0 0 63.764328575927038 24.669348685075363 0 24.669348685075363 -18.111860990466084 0 0 0 0 63.203300045166543 18.674164288990141 0 18.674164288990141 -12.337526939190866 0 0 0 0 76.270176546796051 19.957009432139735 0 19.957009432139735 -5.7354376580540389 0 0 0 0 15.313147933386375 161.41292534118867 0 161.41292534118867 645.81972441044309 0 0 0 0 2.821936181359229 -4.5389443928759832 0 -4.5389443928759832 -1.0632523236460898 0 0 0 0 169.40803939133639 367.26076027563613 0 367.26076027563613 290.90631866479271 0 0 0 0 -38.68300752156506 406.20136282618978 0 406.20136282618978 1132.8384592218208 0 0 0 0 222.41227571815352 -434.13105985886159 0 -434.13105985886159 1042.2035498114419 0 0 0 0 -10.905020410968518 205.42155072169635 0 205.42155072169635 635.94200016163916 0 0 0 0 -251.24802445950718 814.45479725753648 0 814.45479725753648 2779.9922878145089 0 0 0 0 1399.9600910365277 2082.7592278401603 0 2082.7592278401603 1834.0249446411481 0 0 0 0 933.61130389939592 1521.8135605523607 0 1521.8135605523607 803.71576173531469 0 0 0 0 427.78844798481168 1129.9702813757708 0 1129.9702813757708 956.60596821675563 0 0 0 0 371.95603544619007 1146.357923518096 0 1146.357923518096 1131.2966949403083 0 0 0 0 215.58644390562222 869.06061285917121 0 869.06061285917121 642.39327349756422 0 0 0 0 499.45147009552238 1112.4189800887666 0 1112.4189800887666 729.93764181327379 0 0 0 0 557.38813777527548 1244.4429532816878 0 1244.4429532816878 507.29349834662298 0 0 0 0 782.80321796316275 1136.7899047656269 0 1136.7899047656269 368.40774224311514 0 0 0 0 436.44189472375206 1294.5969605176454 0 1294.5969605176454 383.21849054264425 0 0 0 0 260.41393741687466 874.38836209587555 0 874.38836209587555 159.57711183771107 0 0 0 0 981.79837623396497 828.9224450989318 0 828.9224450989318 61.836824886918023 0 0 0 0 1199.3898602588363 1003.9464591362113 0 1003.9464591362113 145.58917515645715 0 0 0 0 585.8074904337011 1154.1360072347086 0 1154.1360072347086 477.35124880794791 0 0 0 0 1223.9451446970961 483.89437191130253 0 483.89437191130253 127.55739825456931 0 0 0 0 591.81562892707552 -43.288446708339052 0 -43.288446708339052 -28.042918394743424 0 0 0 0 771.74514020000788 1016.2650152644801 0 1016.2650152644801 442.30138419152445 0 0 0 0 910.46201552715138 1024.0124437084753 0 1024.0124437084753 388.08595096807949 0 0 0 0 519.54813784475118 860.10515391897093 0 860.10515391897093 339.81717131898313 0 0 0 0 580.82968534114752 433.49502235782302 0 433.49502235782302 189.1573459086012 0 0 0 0 347.05783461202736 720.27225003815511 0 720.27225003815511 489.66034195072052 0 0 0 0 373.18136819104166 729.23554508631537 0 729.23554508631537 470.87417516759342 0 0 0 0 336.26682332988275 185.66877975586794 0 185.66877975586794 60.39071774713068 0 0 0 0 208.85907644996041 178.38459698954694 0 178.38459698954694 81.96489528993061 0 0 0 0 2.8375418671023453 1.6031257010994651 0 1.6031257010994651 -3.1162504644182274 0 0 0 0 140.71315915945524 -3.3633933745513787 0 -3.3633933745513787 -48.570870248113351 0 0 0 0 84.222355159439758 426.77158884108212 0 426.77158884108212 574.59588520773013 0 0 0 0 136.79707822153887 50.359234463075154 0 50.359234463075154 -70.164954478911568 0 0 0 0 142.55704100625508 -65.043759809531707 0 -65.043759809531707 -42.264633548507845 0 0 0 0 88.570425617192996 163.21727254725118 0 163.21727254725118 8.6755354101183002 0 0 0 0 41.352271345487679 134.28306615021313 0 134.28306615021313 53.781455379658837 0 0 0 0 121.38418538827955 212.98579561670164 0 212.98579561670164 -58.306617099212417 0 0 0 0 830.54954442414964 368.87220379535916 0 368.87220379535916 -386.55663976702112 0 0 0 0 66.009247663524604 28.787560071226508 0 28.787560071226508 -21.361975272378107 0 0 0 0 7.7543000871137338 95.631673750150185 0 95.631673750150185 37.531094200247765 0 0 0 0 5.0250091322823991 4.2634402003962073 0 4.2634402003962073 1.9071234426947452 0 0 0 0 142.75653420594972 -369.88457691717264 0 -369.88457691717264 225.19501196598458 0 0 0 0 23.996888123088866 -188.49712556074064 0 -188.49712556074064 186.11018790228445 0 0 0 0 221.97612499169918 29.884282733133659 0 29.884282733133659 -73.286170312066133 0 0 0 0 78.990298118008866 15.356509864892143 0 15.356509864892143 -27.921031665103243 0 0 0 0 299.21060578115066 -125.4794570454433 0 -125.4794570454433 -157.37979015900237 0 0 0 0 -532.91356742076368 29.820493315035264 0 29.820493315035264 315.29631994258125 0 0 0 0 77.651493014832397 19.742159384851213 0 19.742159384851213 -6.8072889804287247 0 0 0 0 189.2718539591142 -72.653260707447316 0 -72.653260707447316 9.0087720480987628 0 0 0 0 18.150868931775811 3.8812491154084157 0 3.8812491154084157 1.8557274315167405 0 0 0 0 68.417002788926766 21.345868553251421 0 21.345868553251421 -21.509502846747637 0 0 0 0 79.640019246011065 10.840376160525029 0 10.840376160525029 -8.2675782011947874 0 0 0 0 71.60631047896095 14.962691025981258 0 14.962691025981258 -15.951247938835877 0 0 0 0 84.003861091959408 13.693042319225015 0 13.693042319225015 -4.736395417537107 0 0 0 0 50.151465833216207 62.852196445015579 0 62.852196445015579 -20.951265556868748 0 0 0 0 2.9291349573740177 7.7359085657127622 0 7.7359085657127622 -1.9173077102120981 0 0 0 0 -14.960040277852386 -28.022147557196149 0 -28.022147557196149 -150.04128310607462 0 0 0 0 73.039083890311815 -28.357714435713628 0 -28.357714435713628 17.988441248583122 0 0 0 0 243.33370496042335 -113.13140622217088 0 -113.13140622217088 -292.13875620079216 0 0 0 0 47.663199017626539 39.99167325469989 0 39.99167325469989 -105.98031291599636 0 0 0 0 6.4648940789411427 48.660439032340037 0 48.660439032340037 -94.145816959248805 0 0 0 0 113.91705431735318 114.93934592086521 0 114.93934592086521 594.74425418548071 0 0 0 0 186.70930352764299 138.55608235764225 0 138.55608235764225 -64.88146098019206 0 0 0 0 -1.4754302188302972 200.00282468747901 0 200.00282468747901 -68.526224777559037 0 0 0 0 39.379094719617569 99.497161242571565 0 99.497161242571565 256.58025498187726 0 0 0 0 64.939164530616836 115.85420081146094 0 115.85420081146094 -164.40761751607351 0 0 0 0 4.3089511747893994 -29.057950467731871 0 -29.057950467731871 244.38131348070829 0 0 0 0 -70.859281072844169 -123.06340121013545 0 -123.06340121013545 130.0036997490688 0 0 0 0 113.22274425694195 -173.32610576810384 0 -173.32610576810384 277.61194574748572 0 0 0 0 53.456169794611924 -191.71203638496172 0 -191.71203638496172 319.43670236212063 0 0 0 0 321.50906086281611 -431.6975895302553 0 -431.6975895302553 761.09655283280131 0 0 0 0 129.5693557461891 -118.75717863449597 0 -118.75717863449597 390.56253444795948 0 0 0 0 464.48469570903399 -390.6727353882531 0 -390.6727353882531 331.41058571839369 0 0 0 0 161.54339409861859 -361.42382713169013 0 -361.42382713169013 544.29689961521194 0 0 0 0 191.66241650718439 -294.88650356221444 0 -294.88650356221444 325.69522894213299 0 0 0 0 151.00599031217735 -191.32680091702147 0 -191.32680091702147 257.64521242745195 0 0 0 0 286.2403491174482 -84.113732850526731 0 -84.113732850526731 187.7422580551015 0 0 0 0 203.20091709237749 -183.09570296794885 0 -183.09570296794885 104.41867204180352 0 0 0 0 274.14060914520815 -205.32545682731495 0 -205.32545682731495 54.725963712254753 0 0 0 0 142.01994099898729 -168.36285271786804 0 -168.36285271786804 37.369999472074809 0 0 0 0 65.104028997251589 -21.060370107622589 0 -21.060370107622589 -26.278698360789349 0 0 0 0 204.91120924297866 -219.01808920003441 0 -219.01808920003441 208.35236867108779 0 0 0 0 337.93571199892176 -135.42011292006327 0 -135.42011292006327 23.558544575209567 0 0 0 0 -61.281013162304589 -4.6750481877115817 0 -4.6750481877115817 278.48733224086004 0 0 0 0 517.11633715098105 92.403839355864648 0 92.403839355864648 -181.35988901532437 0 0 0 0 -157.99760101228912 81.85795642913439 0 81.85795642913439 202.94362824480959 0 0 0 0 77.999434742090671 24.062373548113115 0 24.062373548113115 131.99864315144077 0 0 0 0 3.867650120201759 3.2730196817761978 0 3.2730196817761978 -0.80939758893657476 0 0 0 0 469.44948401024885 -274.84420505330218 0 -274.84420505330218 -3.1720768518273417 0 0 0 0 137.58311591375605 30.45117061896724 0 30.45117061896724 -28.775694634523916 0 0 0 0 28.576162510163869 5.1398055820680177 0 5.1398055820680177 7.1494188357091222 0 0 0 0 112.17393061260373 45.72533388545753 0 45.72533388545753 -38.516823480159587 0 0 0 0 25.50428773112132 1.3999197750558032 0 1.3999197750558032 -3.9990676625980024 0 0 0 0 151.09040106779912 -94.420285870040914 0 -94.420285870040914 32.959222676810896 0 0 0 0 6.6800906619173475 -49.789169483043224 0 -49.789169483043224 37.19505392859628 0 0 0 0 121.86556635359739 46.040978649607496 0 46.040978649607496 4.1972561328652773 0 0 0 0 111.17290119446625 17.182524815995976 0 17.182524815995976 -66.969588132968283 0 0 0 0 211.98395522892497 65.851325317362807 0 65.851325317362807 -35.829630538917854 0 0 0 0 76.165194497786345 22.979630594618172 0 22.979630594618172 -18.480178119757188 0 0 0 0 -97.428415429005327 132.58577452804909 0 132.58577452804909 78.301376640665239 0 0 0 0 44.798658276922652 -44.829509491127737 0 -44.829509491127737 -53.875804399096523 0 0 0 0 4.5707934866821915 12.193884921297649 0 12.193884921297649 -2.7813404551649206 0 0 0 0 97.242794625606621 -26.883001951746337 0 -26.883001951746337 -53.733769775705071 0 0 0 0 71.918542853716644 -30.918536490464703 0 -30.918536490464703 -43.567252420465707 0 0 0 0 21.292477507988224 52.301727277170869 0 52.301727277170869 -72.711987147136369 0 0 0 0 137.78927226016822 21.610314606148791 0 21.610314606148791 -76.450761285239693 0 0 0 0 18.229213932515862 -5.4997124389542975 0 -5.4997124389542975 -5.0526091397122741 0 0 0 0 116.29237504060802 27.131606047128514 0 27.131606047128514 -44.961298778509899 0 0 0 0 25.790693768971117 -1.8246116629420897 0 -1.8246116629420897 -6.5393965219190813 0 0 0 0 163.88784880789171 -19.271834114279272 0 -19.271834114279272 -23.746955926195824 0 0 0 0 94.740404907991518 -10.964415517522774 0 -10.964415517522774 -0.52048740232904001 0 0 0 0 111.49087970482651 10.747268742842607 0 10.747268742842607 -7.4963708717168629 0 0 0 0 126.03870917842706 12.673063908483002 0 12.673063908483002 -19.630043977582538 0 0 0 0 99.141088373758464 -6.3451418269249658 0 -6.3451418269249658 -15.375129255284085 0 0 0 0 38.140034963216749 4.603473957271035 0 4.603473957271035 -25.019974830425781 0 0 0 0 60.469631026391525 5.8044829926351547 0 5.8044829926351547 -6.607069796303195 0 0 0 0 63.864334368036609 31.245750158799012 0 31.245750158799012 -8.2090123254553653 0 0 0 0 48.491241418095221 24.3471463585926 0 24.3471463585926 -10.080350139243986 0 0 0 0 53.09950416414722 26.427654541687843 0 26.427654541687843 -15.566107237501569 0 0 0 0 37.393607684748915 27.546646797280776 0 27.546646797280776 -14.30953066785704 0 0 0 0 21.853445975626073 28.308700161102877 0 28.308700161102877 -13.333913969714558 0 0 0 0 129.5914155124027 102.03895388758974 0 102.03895388758974 22.947935261485327 0 0 0 0 112.18956173980268 86.10727413482482 0 86.10727413482482 9.2679439137064037 0 0 0 0 221.65884356658353 84.858182998284974 0 84.858182998284974 -31.199107927846399 0 0 0 0 191.57089148468003 55.046593020470027 0 55.046593020470027 -24.52378683076131 0 0 0 0 153.71661182896241 77.111803020858133 0 77.111803020858133 -32.028539093855215 0 0 0 0 116.09828969560522 71.551496158081136 0 71.551496158081136 -0.098959297387409606 0 0 0 0 171.77878638545553 95.892712121497425 0 95.892712121497425 -10.777195414735615 0 0 0 0 108.21288275751704 133.46671456337481 0 133.46671456337481 -22.93109467965769 0 0 0 0 26.284291961070938 7.5620265693200892 0 7.5620265693200892 -9.2829667640419391 0 0 0 0 52.840302797871118 40.32379765038695 0 40.32379765038695 -34.302567353546237 0 0 0 0 9.6530790634596997 -14.439249392790771 0 -14.439249392790771 15.072434650537616 0 0 0 0 56.29853049256576 33.684171010526484 0 33.684171010526484 -23.72017566152681 0 0 0 0 59.613041269988571 26.568579202288049 0 26.568579202288049 -90.460699256628004 0 0 0 0 33.11096813779659 48.466461714418159 0 48.466461714418159 -16.748091436321047 0 0 0 0 29.688239711788107 24.959148460717898 0 24.959148460717898 -36.570195843586106 0 0 0 0 86.911205747262102 -22.434129293584192 0 -22.434129293584192 -36.050063316350133 0 0 0 0 67.090329567914296 -15.785910607866185 0 -15.785910607866185 -89.871970939302628 0 0 0 0 13.981031205834478 4.1306110189355447 0 4.1306110189355447 -2.3840027931579328 0 0 0 0 27.524327085005098 59.951622362876151 0 59.951622362876151 14.202919295874381 0 0 0 0 241.33414539117985 -117.23630681062878 0 -117.23630681062878 -4.0892155271449155 0 0 0 0 124.97446901406693 -25.84794630106262 0 -25.84794630106262 -88.198780066434665 0 0 0 0 124.08627912706265 -26.290378902919429 0 -26.290378902919429 -63.312214617597419 0 0 0 0 158.01483370487585 -17.802836910123915 0 -17.802836910123915 -61.318414733983445 0 0 0 0 112.30198627417849 -1.9782164318244213 0 -1.9782164318244213 -19.599077909469997 0 0 0 0 63.452150099214123 26.594430483091173 0 26.594430483091173 -16.942758297094088 0 0 0 0 32.209379605167399 6.3100531603441219 0 6.3100531603441219 -24.382100027486885 0 0 0 0 63.383069905798664 28.485620681153101 0 28.485620681153101 -18.789546224764536 0 0 0 0 134.0276500425407 111.27034075532993 0 111.27034075532993 -75.295792334822863 0 0 0 0 39.849537673100187 41.407801481885457 0 41.407801481885457 -15.287042869243738 0 0 0 0 113.95539748269221 -13.574777291910664 0 -13.574777291910664 -220.07657938948864 0 0 0 0 113.28645402486291 85.782887324285866 0 85.782887324285866 -104.20639024967022 0 0 0 0 -0.33273299503978038 0.11430368348475284 0 0.11430368348475284 -1.084942025280645 0 0 0 0 207.4795615770563 -42.22234390340202 0 -42.22234390340202 -69.738888432392059 0 0 0 0 -168.87089100925732 118.50433572369809 0 118.50433572369809 225.60034857581752 0 0 0 0 112.74639980944448 30.039476523015992 0 30.039476523015992 -94.066058747338502 0 0 0 0 85.221626467076931 -35.716077043536018 0 -35.716077043536018 21.339314642526915 0 0 0 0 -36.218516116656247 57.652142709397594 0 57.652142709397594 18.549323152195029 0 0 0 0 -45.434677434186597 -5.4940712865984551 0 -5.4940712865984551 3.1559888311858231 0 0 0 0 80.572376041563984 -54.379463226676876 0 -54.379463226676876 -52.331429603023025 0 0 0 0 109.15461627346667 25.832505231973755 0 25.832505231973755 -30.378780436999932 0 0 0 0 11.059764846744656 9.8916583552711472 0 9.8916583552711472 5.0214872640681847 0 0 0 0 25.164347483045276 84.678645636694228 0 84.678645636694228 30.428450349666491 0 0 0 0 82.836269124381943 127.42311747265626 0 127.42311747265626 -57.594549531007488 0 0 0 0 47.539085002145384 110.49668809126604 0 110.49668809126604 8.1306999177227226 0 0 0 0 60.081752303249232 109.19360655646369 0 109.19360655646369 3.036680478438484 0 0 0 0 115.52933046141698 101.68511724281393 0 101.68511724281393 -39.113261257776458 0 0 0 0 53.477945137386541 77.014490926235794 0 77.014490926235794 -46.767528108466195 0 0 0 0 79.898129174846872 144.16673906904623 0 144.16673906904623 -24.581875149093321 0 0 0 0 102.25619967906492 11.772319491845234 0 11.772319491845234 -9.3394898387879 0 0 0 0 133.74878196110512 -39.25111529746664 0 -39.25111529746664 -92.307650056873172 0 0 0 0 107.57489119230013 122.5773747666035 0 122.5773747666035 -62.368508245218209 0 0 0 0 59.051719210213911 19.981775195616308 0 19.981775195616308 -12.178201028726644 0 0 0 0 113.65974065991941 -9.1617757883468585 0 -9.1617757883468585 -39.298446776857418 0 0 0 0 129.96682397997574 101.71232769791618 0 101.71232769791618 30.971941718946027 0 0 0 0 24.051852632446717 5.677889003702667 0 5.677889003702667 -10.218606296137576 0 0 0 0 59.171400393747717 70.340970823761268 0 70.340970823761268 26.620077206851875 0 0 0 0 89.821419664411223 -30.16587585134107 0 -30.16587585134107 36.833402887856664 0 0 0 0 82.327031395710947 -6.2411560189755164 0 -6.2411560189755164 -37.141857777168298 0 0 0 0 448.39042008694014 45.093829134935959 0 45.093829134935959 -33.350231730132691 0 0 0 0 398.43880477122184 161.61284298473549 0 161.61284298473549 137.99354761766273 0 0 0 0 3.0145606763707065 7.5594790534303016 0 7.5594790534303016 0.73753678047111926 0 0 0 0 -5.1178152924203459 -43.671448426876054 0 -43.671448426876054 91.85630106171584 0 0 0 0 232.72820711494569 -0.18140510744721894 0 -0.18140510744721894 -634.12939594459715 0 0 0 0 314.06975223834525 -147.49684793256074 0 -147.49684793256074 -367.33367074244234 0 0 0 0 -107.01734283786573 156.52046346234053 0 156.52046346234053 -296.3006944630589 0 0 0 0 -6.37278349607368 203.78779491493037 0 203.78779491493037 -422.50701880070926 0 0 0 0 -1.1943666875702839 -2.3275985298789266 0 -2.3275985298789266 -7.2289956752392968 0 0 0 0 95.230434768644045 -21.877196279669761 0 -21.877196279669761 -61.476228993334189 0 0 0 0 117.59107794737793 13.703592211133468 0 13.703592211133468 -74.362171961456511 0 0 0 0 87.262336400074673 -5.638242490450267 0 -5.638242490450267 -34.804994505592049 0 0 0 0 100.87002885956827 26.267521745630461 0 26.267521745630461 -19.548760916448373 0 0 0 0 144.13661775584205 22.492602793721744 0 22.492602793721744 -12.563226840306697 0 0 0 0 36.553636150873793 -24.793963563578743 0 -24.793963563578743 -29.066960810623009 0 0 0 0 145.76945802528462 32.555462501664977 0 32.555462501664977 -38.025793162494892 0 0 0 0 143.96774712883598 49.749362494189739 0 49.749362494189739 6.7240554082127346 0 0 0 0 190.40039560950208 40.050924117560726 0 40.050924117560726 -28.231299992815366 0 0 0 0 70.999015629244241 11.378851260664703 0 11.378851260664703 -16.598924360843739 0 0 0 0 5.7952864725687547 -2.4244996520704802 0 -2.4244996520704802 -20.454830092885246 0 0 0 0 115.70871321651794 -48.803061412404645 0 -48.803061412404645 -14.948059852630195 0 0 0 0 138.56116665264926 82.086922148204224 0 82.086922148204224 21.667574353025429 0 0 0 0 41.360363290559889 -22.422179458625411 0 -22.422179458625411 -29.721547441709447 0 0 0 0 168.72761831834214 31.553297371948929 0 31.553297371948929 18.999188499275988 0 0 0 0 69.125484206648252 25.125088072066433 0 25.125088072066433 -20.688466586351865 0 0 0 0 30.247906386892556 35.741390934261219 0 35.741390934261219 -4.217611761357805 0 0 0 0 3.4386701470823056 8.1873052936469364 0 8.1873052936469364 -5.8814841459539675 0 0 0 0 67.586302332001651 27.687914617420233 0 27.687914617420233 -23.456471513872998 0 0 0 0 116.93070706616891 1.1145728349820274 0 1.1145728349820274 -20.620049520748353 0 0 0 0 137.83859606536771 25.633430571929239 0 25.633430571929239 -11.665978269184052 0 0 0 0 159.86503027337994 14.338529595060663 0 14.338529595060663 -44.059503007667445 0 0 0 0 -1.8072400601452285 27.305978807750275 0 27.305978807750275 -17.689110755779062 0 0 0 0 180.33107002649103 34.069860622107626 0 34.069860622107626 -26.716338552072557 0 0 0 0 145.21711588241033 25.673273554712523 0 25.673273554712523 -5.3994079916974442 0 0 0 0 425.833809522774 15.121290903393856 0 15.121290903393856 -155.23561943017739 0 0 0 0 -2.3826316750913303 26.871751662077116 0 26.871751662077116 -7.0329699109918735 0 0 0 0 162.92329087729013 33.163227927054777 0 33.163227927054777 -3.1599050765016727 0 0 0 0 177.91849369811155 46.555601338079668 0 46.555601338079668 9.8406394369085319 0 0 0 0 40.506549673777045 -191.87953095304442 0 -191.87953095304442 -228.37151713146363 0 0 0 0 37.161649257800505 -25.568780437656365 0 -25.568780437656365 -27.512913558231254 0 0 0 0 126.8795272110292 -22.642979560635695 0 -22.642979560635695 -229.10447098105669 0 0 0 0 159.17252069606002 32.366807961600898 0 32.366807961600898 -0.6927683505909954 0 0 0 0 371.62948365060038 -166.46967753689478 0 -166.46967753689478 25.498941355024726 0 0 0 0 115.33275770945693 -623.45632779233529 0 -623.45632779233529 65.246769344034874 0 0 0 0 278.96143590380234 -92.538889456650395 0 -92.538889456650395 87.73225089784458 0 0 0 0 416.32408951640173 128.45323334071327 0 128.45323334071327 -36.989337861557942 0 0 0 0 -263.07852957162322 -58.28683223605276 0 -58.28683223605276 45.355888430919549 0 0 0 0 42.506587163150471 61.193048755686959 0 61.193048755686959 48.202171117258331 0 0 0 0 12.067952264542583 -12.487431795608888 0 -12.487431795608888 11.004153164900323 0 0 0 0 -18.75119281145453 -240.77072601127747 0 -240.77072601127747 -303.34620307906152 0 0 0 0 334.9645219026479 -46.290623032185977 0 -46.290623032185977 -174.87577746315401 0 0 0 0 397.18220318754902 113.47878426639545 0 113.47878426639545 84.929836859789248 0 0 0 0 682.65794302487802 281.77003320785388 0 281.77003320785388 139.0340721701632 0 0 0 0 408.8489137060842 101.84068742917043 0 101.84068742917043 32.372412873237408 0 0 0 0 345.46532345265769 100.4964134982863 0 100.4964134982863 61.085110039632127 0 0 0 0 317.39721748005468 46.17775242208063 0 46.17775242208063 -4.2483475864401044 0 0 0 0 309.02390017469043 127.36108354280532 0 127.36108354280532 29.352991942396329 0 0 0 0 324.23966220119837 102.45634569484901 0 102.45634569484901 60.573791550456008 0 0 0 0 417.18903926832195 207.4231034178556 0 207.4231034178556 127.45964022167027 0 0 0 0 16.765049320806124 -18.555786167347261 0 -18.555786167347261 17.099032590348656 0 0 0 0 -144.46431688451594 -115.94741411039922 0 -115.94741411039922 44.834871558679879 0 0 0 0 176.63660208373949 18.763238014137642 0 18.763238014137642 -43.231708060482106 0 0 0 0 205.51239511720269 44.074671734349067 0 44.074671734349067 -90.598598116408539 0 0 0 0 250.65762741887374 -8.8148777663082001 0 -8.8148777663082001 -215.35875332689648 0 0 0 0 0.99588745152064995 24.679649786478578 0 24.679649786478578 -24.770232652348646 0 0 0 0 328.29190960279789 116.88708561940314 0 116.88708561940314 25.596044119431099 0 0 0 0 25.806171830224841 -23.747781780413433 0 -23.747781780413433 19.898365399144268 0 0 0 0 30.467979030366223 226.84154770112627 0 226.84154770112627 -109.38142876378515 0 0 0 0 227.40015527917967 -118.46012119864281 0 -118.46012119864281 -83.18613224551882 0 0 0 0 397.25479078225635 108.0038214405331 0 108.0038214405331 3.4119505991293408 0 0 0 0 789.22755203311135 295.215936341001 0 295.215936341001 -462.8365657698796 0 0 0 0 10.713127001844352 1.5713957685585491 0 1.5713957685585491 -6.519786352507019 0 0 0 0 526.41369210759149 -770.06998082110113 0 -770.06998082110113 815.95140883465137 0 0 0 0 55.978370838027331 293.25545562076695 0 293.25545562076695 563.93083018427797 0 0 0 0 7.1961697192614267 -1.4551771113780489 0 -1.4551771113780489 0.71811446200177009 0 0 0 0 207.3649404749076 -219.41199748028157 0 -219.41199748028157 187.44927489626207 0 0 0 0 661.28994694297035 -243.03789175395377 0 -243.03789175395377 -82.985260268948878 0 0 0 0 218.2267041155028 631.52666735956336 0 631.52666735956336 -189.15090520334525 0 0 0 0 180.63852050679998 -2.8967925107644987 0 -2.8967925107644987 -67.78802153849665 0 0 0 0 128.67641045749133 23.389390575405059 0 23.389390575405059 -22.599577329928252 0 0 0 0 160.68423532171619 32.358816799572196 0 32.358816799572196 -22.126341466097983 0 0 0 0 165.03718916204707 27.591366481580735 0 27.591366481580735 -44.736670550098552 0 0 0 0 247.46226621175038 39.489934674423694 0 39.489934674423694 -51.200481896501515 0 0 0 0 191.54132290006783 49.115780016052668 0 49.115780016052668 -28.860760892777762 0 0 0 0 74.714970459963297 -19.490838258459917 0 -19.490838258459917 -5.6252189590422859 0 0 0 0 13.170299244863953 0.21329459472886469 0 0.21329459472886469 -2.6145134973978159 0 0 0 0 280.29487751789475 -60.832102028809913 0 -60.832102028809913 25.509041624063684 0 0 0 0 688.9505593950089 192.70931779227703 0 192.70931779227703 -120.30341379738093 0 0 0 0 683.42030374229773 304.27284779717706 0 304.27284779717706 31.897335493085848 0 0 0 0 16.224401689559386 4.6678480891755534 0 4.6678480891755534 -4.0342681897876886 0 0 0 0 233.88497165242734 4.9877436344931994 0 4.9877436344931994 132.82003051495894 0 0 0 0 333.08253757097918 159.65892770125083 0 159.65892770125083 41.16660407265681 0 0 0 0 246.10435192073692 50.281443488662262 0 50.281443488662262 -62.74636896807533 0 0 0 0 82.214489569782017 25.451701369705916 0 25.451701369705916 -31.396370739851591 0 0 0 0 137.74633780076147 -21.324848786741313 0 -21.324848786741313 -12.565960021456704 0 0 0 0 265.96641695555263 80.130413862556452 0 80.130413862556452 -28.427392038465086 0 0 0 0 190.31325229414506 35.025082849370392 0 35.025082849370392 17.072732133105092 0 0 0 0 330.95833995676912 113.66436119133778 0 113.66436119133778 3.4664556796542456 0 0 0 0 330.26380275949123 115.21877326062622 0 115.21877326062622 26.483239340631371 0 0 0 0 244.98541278699577 90.579557360341369 0 90.579557360341369 30.668367615910029 0 0 0 0 99.985292629446121 -4.5809632964333105 0 -4.5809632964333105 4.4223106494828244 0 0 0 0 70.023905099335792 9.3389306705398596 0 9.3389306705398596 -1.287457811188677 0 0 0 0 24.63778070025834 3.6059985113052306 0 3.6059985113052306 -3.8846300590001519 0 0 0 0 99.863962027488014 -12.944839710515225 0 -12.944839710515225 -59.13914688303089 0 0 0 0 140.82208797908061 13.230702050419495 0 13.230702050419495 -74.025179290531014 0 0 0 0 125.66304882223085 45.193372152908069 0 45.193372152908069 -60.415439018655889 0 0 0 0 84.332907799933309 31.716108829933546 0 31.716108829933546 -40.395692630245321 0 0 0 0 530.76907812017134 23.189519394640001 0 23.189519394640001 -41.769815073123027 0 0 0 0 14.127106003382435 -1.1309074941022175 0 -1.1309074941022175 -2.0221250037117926 0 0 0 0 438.70532791361802 43.220037645930006 0 43.220037645930006 25.56069401224886 0 0 0 0 556.26453816400681 138.67896831507915 0 138.67896831507915 2.1127774575579679 0 0 0 0 159.12552178590522 35.716408591878917 0 35.716408591878917 0.81745350659912219 0 0 0 0 542.38696398899992 31.753193323540472 0 31.753193323540472 -102.03544370364568 0 0 0 0 4.3868968809481217 36.146352620367779 0 36.146352620367779 12.773071117727522 0 0 0 0 461.2456494751641 73.534262293424035 0 73.534262293424035 -10.892146379630503 0 0 0 0 149.66161134056347 44.250320616709473 0 44.250320616709473 -5.0153972078114748 0 0 0 0 186.49940553627312 45.098350898460922 0 45.098350898460922 -29.584966964678415 0 0 0 0 56.183892043201318 -12.669032928143608 0 -12.669032928143608 -20.196597296823079 0 0 0 0 142.97074690865702 23.054199060313749 0 23.054199060313749 -20.687239460179114 0 0 0 0 188.60132779119067 78.226887557417285 0 78.226887557417285 24.460137509048764 0 0 0 0 77.590230345195437 2.4083893231327806 0 2.4083893231327806 -25.4351171636042 0 0 0 0 94.238176240345908 10.265897918019526 0 10.265897918019526 -16.38635969711504 0 0 0 0 94.324451490342724 19.085432623911586 0 19.085432623911586 27.365352298205835 0 0 0 0 107.33810138891567 62.30070630154114 0 62.30070630154114 25.848615299448966 0 0 0 0 105.30958219746299 50.190478888567441 0 50.190478888567441 -26.153377912878568 0 0 0 0 520.3905595328888 17.55251370186852 0 17.55251370186852 12.678535020437266 0 0 0 0 476.79138036378572 29.143142256108149 0 29.143142256108149 -4.5162252355239616 0 0 0 0 476.05662637450951 27.332233969985282 0 27.332233969985282 53.036906614808686 0 0 0 0 9.7297733729135238 -34.814859173629067 0 -34.814859173629067 -2.6049842325448971 0 0 0 0 -4.888471077378604 33.614488472359994 0 33.614488472359994 10.83296300082959 0 0 0 0 470.7137581621032 19.975736313323296 0 19.975736313323296 5.3040035639587586 0 0 0 0 484.50133768510204 61.920853242053454 0 61.920853242053454 0.97612924502482201 0 0 0 0 439.70855564787598 62.767139677180921 0 62.767139677180921 15.807046519269761 0 0 0 0 56.610678057705627 68.868526486407063 0 68.868526486407063 14.962976090178927 0 0 0 0 171.12979075612748 51.26917262963525 0 51.26917262963525 -11.999554999101747 0 0 0 0 99.890765822338835 11.065185899705739 0 11.065185899705739 17.932543116527086 0 0 0 0 38.345768399855977 45.479189891124577 0 45.479189891124577 15.429245078236875 0 0 0 0 118.84863096106892 53.476149534304568 0 53.476149534304568 12.513942742738323 0 0 0 0 40.980492173189461 -28.371117745057077 0 -28.371117745057077 -3.8879787062120492 0 0 0 0 362.77678945589105 38.76958437350163 0 38.76958437350163 2.2675182915615437 0 0 0 0 20.493634081099763 34.081090221398526 0 34.081090221398526 9.4025567682637128 0 0 0 0 233.24719344311961 4.9165217420736553 0 4.9165217420736553 -11.525688865754319 0 0 0 0 92.691646812266299 6.4692615264593769 0 6.4692615264593769 18.785046325449912 0 0 0 0 125.26263030590746 9.0715048280763426 0 9.0715048280763426 -5.3760220305084658 0 0 0 0 49.544035857089277 -23.55097252790565 0 -23.55097252790565 -5.5606471522646395 0 0 0 0 177.19020618210197 20.650728768140652 0 20.650728768140652 18.68923119275496 0 0 0 0 157.16086404569432 -12.527052886624915 0 -12.527052886624915 20.548038394629657 0 0 0 0 135.67731920369289 28.044081976152391 0 28.044081976152391 -2.5703067759359985 0 0 0 0 119.65391155543693 -18.382474841700969 0 -18.382474841700969 27.001841304868321 0 0 0 0 103.0385984735658 31.501484702352172 0 31.501484702352172 18.560227785343926 0 0 0 0 290.03919720255362 -135.73187811844582 0 -135.73187811844582 -296.02988689837548 0 0 0 0 148.99676717308648 32.85014717736567 0 32.85014717736567 -76.769088923036179 0 0 0 0 154.76189515719884 -12.84232206843966 0 -12.84232206843966 -6.8371080929663961 0 0 0 0 50.155619530616313 -14.048666887989256 0 -14.048666887989256 -19.000041619383985 0 0 0 0 4.7731209567710664 -11.594356267925285 0 -11.594356267925285 -1.2809278720896007 0 0 0 0 76.074474622393609 -211.58588326133395 0 -211.58588326133395 201.49527735541415 0 0 0 0 224.17828909014497 -371.5314709657946 0 -371.5314709657946 204.15625918998558 0 0 0 0 693.72708753903862 -104.46672982437121 0 -104.46672982437121 -171.08936641522951 0 0 0 0 76.997695696045412 -104.36410990165859 0 -104.36410990165859 66.912508714354772 0 0 0 0 496.60955256019952 -235.91165292770347 0 -235.91165292770347 -112.54824113954601 0 0 0 0 43.110760109877447 3.02654809975229 0 3.02654809975229 -115.48142433694738 0 0 0 0 186.79544171248563 -221.02599264507808 0 -221.02599264507808 -111.76248780011156 0 0 0 0 651.73598140833201 -44.525481982098427 0 -44.525481982098427 19.009137456592725 0 0 0 0 182.1082330220961 -188.39785198829122 0 -188.39785198829122 -20.001175018818685 0 0 0 0 151.43123500338334 -141.11693059124593 0 -141.11693059124593 37.660728760230995 0 0 0 0 279.72571126703406 -95.072653353952774 0 -95.072653353952774 -131.44952062192806 0 0 0 0 160.58404409492505 -155.7650918815998 0 -155.7650918815998 8.5159286483394681 0 0 0 0 222.32597874832572 -197.08825546390108 0 -197.08825546390108 7.2410396032760218 0 0 0 0 196.74712370401539 -247.80275285645257 0 -247.80275285645257 39.430417716010197 0 0 0 0 151.39990042909631 -234.97055914515295 0 -234.97055914515295 39.418276703167066 0 0 0 0 234.18709554031375 -348.83308684451731 0 -348.83308684451731 115.34730604263314 0 0 0 0 150.50070469995262 -192.55254873343438 0 -192.55254873343438 84.996346945124969 0 0 0 0 -140.40614840626949 -303.03396966360015 0 -303.03396966360015 111.18531953787897 0 0 0 0 70.42282364203129 -151.96382269047535 0 -151.96382269047535 166.23059443436796 0 0 0 0 320.16220317513216 -226.26856853149002 0 -226.26856853149002 -65.164508889851277 0 0 0 0 -0.54132595222390023 -8.3715887320152405 0 -8.3715887320152405 -0.73581642909304712 0 0 0 0 370.58868159908161 -32.10747955062925 0 -32.10747955062925 -19.14887609005018 0 0 0 0 225.6660939026624 -792.71319707189468 0 -792.71319707189468 -27.135525589357712 0 0 0 0 757.17187351547182 -256.81140289842369 0 -256.81140289842369 -96.614739404831198 0 0 0 0 198.19661677358818 -12.994627655547447 0 -12.994627655547447 -20.098348332774549 0 0 0 0 424.90819557217765 -167.3623840570508 0 -167.3623840570508 -34.607612732454072 0 0 0 0 195.4418982675852 -111.83627328438433 0 -111.83627328438433 -44.477176788279394 0 0 0 0 90.411047608606168 -101.62785393446075 0 -101.62785393446075 78.234588019250623 0 0 0 0 270.84949743302786 -251.53866281079445 0 -251.53866281079445 66.10735814412692 0 0 0 0 92.908067582902731 -106.40266087955433 0 -106.40266087955433 168.88656987344496 0 0 0 0 193.22235554159852 -245.22003555579613 0 -245.22003555579613 145.99636361524449 0 0 0 0 176.92199229512698 -210.04711782177367 0 -210.04711782177367 90.471725091520057 0 0 0 0 -1.3557193118685973 -34.859782810418437 0 -34.859782810418437 29.983871214919418 0 0 0 0 -23.596155101735349 -38.714421046515781 0 -38.714421046515781 89.222852451097424 0 0 0 0 13.493806137077627 -26.431702541904997 0 -26.431702541904997 -0.18390891098920292 0 0 0 0 1.7790569834115395 -20.225239875507881 0 -20.225239875507881 0.46146234844262324 0 0 0 0 60.137045562340063 36.382169294767664 0 36.382169294767664 2.3324470092512115 0 0 0 0 24.342319922268871 -25.154620025884469 0 -25.154620025884469 1.6995582468607608 0 0 0 0 12.591927180787025 -24.933521121738295 0 -24.933521121738295 -0.45313097689358983 0 0 0 0 6.0947974022269715 -23.886846099787164 0 -23.886846099787164 4.5033642943123127 0 0 0 0 1.9422317219047471 -16.000797403642906 0 -16.000797403642906 -0.29082488498080394 0 0 0 0 -45.794798426621128 -1.5406593817097018 0 -1.5406593817097018 -22.144952238888436 0 0 0 0 28.287885119668601 -20.138834125955313 0 -20.138834125955313 -0.23158214177495751 0 0 0 0 4.7658422202803195 -24.76104141288306 0 -24.76104141288306 2.9745823350676801 0 0 0 0 0.047150289145065472 -13.546050602079049 0 -13.546050602079049 2.1323475667159073 0 0 0 0 -3.8450539014636078 -18.914435081031115 0 -18.914435081031115 3.3512307956659484 0 0 0 0 -3.498805696206432 -44.0710214737543 0 -44.0710214737543 -2.0018795144386665 0 0 0 0 7.0145802385074205 -30.285658912861905 0 -30.285658912861905 -0.36954907519395874 0 0 0 0 -137.99400791287189 -16.979103686608141 0 -16.979103686608141 13.622953773205154 0 0 0 0 18.604197149044612 -29.184408969955186 0 -29.184408969955186 -3.0775862837633312 0 0 0 0 44.356106704915874 -27.141087499142941 0 -27.141087499142941 -8.8815285660530208 0 0 0 0 29.719915269361366 -16.917771999198877 0 -16.917771999198877 -3.2135847120091015 0 0 0 0 48.834080839165836 -18.676500114041119 0 -18.676500114041119 -0.072233066830449388 0 0 0 0 45.875337684963597 -22.479189986681376 0 -22.479189986681376 1.7075302758121325 0 0 0 0 46.55184340539563 -12.750230328738326 0 -12.750230328738326 0.85905251234362368 0 0 0 0 12.55476499948063 -0.68762079525259878 0 -0.68762079525259878 6.1189518174871225 0 0 0 0 60.36109986610245 19.034528342869635 0 19.034528342869635 0.61650709217974509 0 0 0 0 -7.3231567173076826 -1.777633470332141 0 -1.777633470332141 0.59801463537796984 0 0 0 0 -86.847732073816587 -27.164862945852292 0 -27.164862945852292 6.6757728616166787 0 0 0 0 31.067184928644565 26.324764574213759 0 26.324764574213759 1.6832757212559954 0 0 0 0 24.813096956418832 16.849803517489871 0 16.849803517489871 6.8471847606304852 0 0 0 0 -70.844585491417092 64.511312807084323 0 64.511312807084323 -7.8077154052889455 0 0 0 0 62.821320193877909 9.0471455372753553 0 9.0471455372753553 8.7033060516114347 0 0 0 0 33.332229818630744 15.205182226253804 0 15.205182226253804 3.1279048281366251 0 0 0 0 58.793812939590168 -45.35185194778672 0 -45.35185194778672 -17.313319637986947 0 0 0 0 29.082256081059413 -12.847906647326027 0 -12.847906647326027 -7.084738421159706 0 0 0 0 48.54810590975103 -28.356888781072485 0 -28.356888781072485 -9.1730661419642274 0 0 0 0 32.391680627636276 3.4172649641673019 0 3.4172649641673019 -1.7630356701759382 0 0 0 0 26.656814272428164 -5.4582093388598878 0 -5.4582093388598878 -4.7053034741402371 0 0 0 0 59.667134413279015 13.568293825570848 0 13.568293825570848 4.2121380523427803 0 0 0 0 59.407401010518214 -9.602483153250251 0 -9.602483153250251 -6.5087945711317889 0 0 0 0 33.343246483709663 -6.446215023745026 0 -6.446215023745026 -4.9384190618511639 0 0 0 0 105.57627943093394 -5.5962668441329697 0 -5.5962668441329697 -5.5844767420749122 0 0 0 0 65.85680414036058 6.8979478546774899 0 6.8979478546774899 -5.3729019622687915 0 0 0 0 115.5455299923633 -0.39262820751082472 0 -0.39262820751082472 -8.8422406988065632 0 0 0 0 106.77478413371136 1.7407948935269815 0 1.7407948935269815 3.2185644800338196 0 0 0 0 95.946839580574306 -1.7514436961937463 0 -1.7514436961937463 -6.3693577790836571 0 0 0 0 62.332444900646806 -52.793413384442829 0 -52.793413384442829 87.685955334454775 0 0 0 0 81.159312531310476 -32.438295476826852 0 -32.438295476826852 -14.014977106515282 0 0 0 0 47.707132287329031 -17.712479882404722 0 -17.712479882404722 -5.7531820121077146 0 0 0 0 73.895873426110484 -56.522981731357504 0 -56.522981731357504 78.846832089453528 0 0 0 0 347.73038107518914 16.678412976044569 0 16.678412976044569 -0.17115440383895475 0 0 0 0 136.0935779088677 24.628248096533127 0 24.628248096533127 5.8131395175332727 0 0 0 0 231.14564025062145 32.711876032478472 0 32.711876032478472 9.5085601473983843 0 0 0 0 95.117043438668588 -9.6480241313129227 0 -9.6480241313129227 -11.97069251044195 0 0 0 0 74.722086776491778 -122.44464257013442 0 -122.44464257013442 -75.530204118622351 0 0 0 0 74.056469942455493 -89.688377457685363 0 -89.688377457685363 -24.632889460471169 0 0 0 0 92.771024180174138 -52.75354643221354 0 -52.75354643221354 -10.135385577720754 0 0 0 0 40.038738481292967 -26.196515012772579 0 -26.196515012772579 -9.0971242232189979 0 0 0 0 128.69273656308914 4.1389813430411309 0 4.1389813430411309 -13.035857774300904 0 0 0 0 140.80889766398656 -5.2166081234143284 0 -5.2166081234143284 -17.301537169585036 0 0 0 0 113.19976916434825 -3.5633070967660387 0 -3.5633070967660387 -10.460121519037784 0 0 0 0 -3.1043923181600519 15.088891749598801 0 15.088891749598801 7.7480885654132283 0 0 0 0 10.328747926221695 85.074903778044018 0 85.074903778044018 65.514361220900355 0 0 0 0 84.050705607236068 25.760676563104738 0 25.760676563104738 -1.8664884412910396 0 0 0 0 64.401240710989313 37.578456481629672 0 37.578456481629672 5.8957243567581141 0 0 0 0 45.743757933763845 99.237701430632114 0 99.237701430632114 178.17501886537684 0 0 0 0 0.3419444606261095 0.087974575168118463 0 0.087974575168118463 15.218942357864648 0 0 0 0 16.99887716207013 22.098629014100879 0 22.098629014100879 7.4258944238486038 0 0 0 0 4.9778764835658365 3.0841748144701757 0 3.0841748144701757 1.4505911592754086 0 0 0 0 8.6010404610678393 7.5732789715977944 0 7.5732789715977944 2.537462869727328 0 0 0 0 -3.7884330497836345 186.07476111952928 0 186.07476111952928 321.26918593810933 0 0 0 0 106.64414002017293 249.83253417239757 0 249.83253417239757 219.59695194572646 0 0 0 0 51.395402495385497 187.37228702523862 0 187.37228702523862 229.75004254806481 0 0 0 0 3.1794395124285018 0.15545136275605387 0 0.15545136275605387 -0.70371216751498977 0 0 0 0 -87.515586549918226 186.8438961267143 0 186.8438961267143 1351.7483458825518 0 0 0 0 -74.700622016360285 410.42641058782374 0 410.42641058782374 -344.16417996322707 0 0 0 0 -267.62914236257711 398.16917118727133 0 398.16917118727133 358.44798631732738 0 0 0 0 -64.82497524444625 -104.67839420385508 0 -104.67839420385508 415.37214093198781 0 0 0 0 -121.57815640197077 65.504506734983806 0 65.504506734983806 12.973828806914753 0 0 0 0 -121.29702850088506 52.737725426120051 0 52.737725426120051 78.53176810590594 0 0 0 0 -163.64962566467875 -0.0029273442505655112 0 -0.0029273442505655112 78.927911519470072 0 0 0 0 -175.19547737610264 -18.438777564196243 0 -18.438777564196243 253.13078086288533 0 0 0 0 -197.65224051538098 123.39736349929171 0 123.39736349929171 148.41491509890693 0 0 0 0 129.95110082639439 -257.36680235524818 0 -257.36680235524818 -203.95532057600121 0 0 0 0 -1.3887282853479235 1.016451914825403 0 1.016451914825403 -0.33581912429326621 0 0 0 0 -147.72152596262458 54.550374595539324 0 54.550374595539324 339.19648304706971 0 0 0 0 52.184857210675546 -51.005403622061749 0 -51.005403622061749 -131.82398775128058 0 0 0 0 -1.276404190750327 -73.08974283509724 0 -73.08974283509724 44.890449056317266 0 0 0 0 970.93217621206713 328.64753100508551 0 328.64753100508551 -84.432311732755807 0 0 0 0 867.89436237625341 368.39824503708314 0 368.39824503708314 -96.733631333736412 0 0 0 0 853.84991790238564 -75.473049417594666 0 -75.473049417594666 -226.36291168109528 0 0 0 0 687.78921617393644 45.494883801180549 0 45.494883801180549 -60.59331125530116 0 0 0 0 215.5953075860707 -499.98326230388648 0 -499.98326230388648 468.5820020554911 0 0 0 0 1772.4690360148088 -593.51697887845512 0 -593.51697887845512 179.12162488973627 0 0 0 0 223.57384459247987 32.26948269843524 0 32.26948269843524 330.97114021383777 0 0 0 0 508.65370447764144 -550.14935591329413 0 -550.14935591329413 1251.6558325588376 0 0 0 0 1808.773943986278 582.84429102888771 0 582.84429102888771 -85.941694628018922 0 0 0 0 1450.9511792502308 -531.02228761641709 0 -531.02228761641709 162.82658071121841 0 0 0 0 1668.0753235826924 -797.32478624169926 0 -797.32478624169926 -1052.5384617308318 0 0 0 0 746.03005093818138 -178.84602630727295 0 -178.84602630727295 -840.42187775055208 0 0 0 0 1746.8084737530953 856.0330436331551 0 856.0330436331551 209.70161220266027 0 0 0 0 45.346582393685821 203.02819625776101 0 203.02819625776101 855.69524263728908 0 0 0 0 1.7394147598570839 1.067750572597868 0 1.067750572597868 1.2194638446948369 0 0 0 0 -1005.9226016795728 -204.19984386824035 0 -204.19984386824035 1105.6855582643248 0 0 0 0 145.59397273448849 830.84720660364383 0 830.84720660364383 14.448969380100607 0 0 0 0 384.40297319540696 218.51485062320171 0 218.51485062320171 -556.34112996244039 0 0 0 0 1852.843275406221 -303.44019886051876 0 -303.44019886051876 -58.930047382245903 0 0 0 0 3.4175455368708469 -0.4555739200014699 0 -0.4555739200014699 -1.0274565842103378 0 0 0 0 985.38079508907686 -1275.747884115819 0 -1275.747884115819 -435.09308884443999 0 0 0 0 1705.4237868911937 678.665917567826 0 678.665917567826 232.25441393466554 0 0 0 0 1348.8778348825363 -25.407862268983081 0 -25.407862268983081 -56.187320703423211 0 0 0 0 646.08582761956495 369.38187227666913 0 369.38187227666913 322.17876756102305 0 0 0 0 628.3201219511393 -84.855449257341206 0 -84.855449257341206 -45.937834198641212 0 0 0 0 693.56313778641925 -57.527707220617231 0 -57.527707220617231 -63.095326646523972 0 0 0 0 443.480164386463 -69.410223339366894 0 -69.410223339366894 -130.91077346731527 0 0 0 0 489.52823746167996 -11.959016788262034 0 -11.959016788262034 -66.936963246217147 0 0 0 0 560.12366085997928 -166.61793593382379 0 -166.61793593382379 -105.36353292611147 0 0 0 0 332.78580523913843 114.40433307196668 0 114.40433307196668 -62.517496228219557 0 0 0 0 240.40813182065904 214.90774213317638 0 214.90774213317638 217.39838657150631 0 0 0 0 375.95069957879605 113.82392420033261 0 113.82392420033261 -214.69793047913936 0 0 0 0 389.80182361966581 38.938388720539479 0 38.938388720539479 -25.327494341277088 0 0 0 0 373.135466802476 232.0703748044391 0 232.0703748044391 204.4208463504965 0 0 0 0 1.1149368993565787 1.8818531694041454 0 1.8818531694041454 -9.6590735310481364 0 0 0 0 613.9162471521413 207.04020503859135 0 207.04020503859135 100.48484376385204 0 0 0 0 377.50168964224576 185.62921679141982 0 185.62921679141982 207.08655401875785 0 0 0 0 95.813297993197921 -150.54312235487487 0 -150.54312235487487 -375.14512224833379 0 0 0 0 112.72227377992385 142.49313093419687 0 142.49313093419687 -98.47203094008546 0 0 0 0 31.70884610198118 60.200144696138523 0 60.200144696138523 -30.740290301336245 0 0 0 0 38.949151944594632 65.15713323101545 0 65.15713323101545 7.9228115695768793 0 0 0 0 20.518573907274757 24.584643244370362 0 24.584643244370362 -19.313244267762588 0 0 0 0 106.82209419062565 71.978757849069552 0 71.978757849069552 -0.11027700106433258 0 0 0 0 38.499579008870207 53.020613433592125 0 53.020613433592125 11.610595849997303 0 0 0 0 98.378716786945006 93.415715485283272 0 93.415715485283272 -21.639628638517934 0 0 0 0 222.02849927338866 218.25811830789962 0 218.25811830789962 -77.585946102833532 0 0 0 0 35.065918215812417 26.108821612729116 0 26.108821612729116 87.485716883806617 0 0 0 0 239.15752648759371 87.860871703216162 0 87.860871703216162 -15.070636976598962 0 0 0 0 364.81619416849935 9.5643677306297832 0 9.5643677306297832 -51.389133831663003 0 0 0 0 -1.3755743114075827 2.3989473557707299 0 2.3989473557707299 -2.8411200565101442 0 0 0 0 62.039015670457701 81.52109538625939 0 81.52109538625939 0.7334482177435282 0 0 0 0 86.798531196291151 92.743744205906751 0 92.743744205906751 33.321601396030701 0 0 0 0 204.79258186821016 44.97827802800316 0 44.97827802800316 -6.8336368911850514 0 0 0 0 150.30550522061731 46.51650723415969 0 46.51650723415969 -6.9861376141634537 0 0 0 0 158.86047278460683 43.271717466292557 0 43.271717466292557 -6.3583825278574295 0 0 0 0 185.68355953600803 50.884442610080441 0 50.884442610080441 -25.133762499025806 0 0 0 0 189.38901539738072 -25.214181611894446 0 -25.214181611894446 10.700905904951469 0 0 0 0 191.15940961164597 29.467814504518401 0 29.467814504518401 -19.082270638339196 0 0 0 0 204.74205663077009 22.374052667927344 0 22.374052667927344 -65.4498870778948 0 0 0 0 153.5432899044099 35.183120870510947 0 35.183120870510947 -66.382619044239846 0 0 0 0 157.45162098541596 -9.5688052060293707 0 -9.5688052060293707 -42.037274562493963 0 0 0 0 189.97605003519857 -16.976389765107228 0 -16.976389765107228 -63.875620702726565 0 0 0 0 269.37384056057635 -97.215778431803216 0 -97.215778431803216 -45.638225434068431 0 0 0 0 110.17063938627143 -70.933709917486567 0 -70.933709917486567 -14.040227570560717 0 0 0 0 202.49401343872887 -13.330355504868749 0 -13.330355504868749 -68.990393812277716 0 0 0 0 375.3043942663644 -109.53611527488283 0 -109.53611527488283 -115.09774098608614 0 0 0 0 435.5211092531099 -42.541524948000188 0 -42.541524948000188 -155.63173289371116 0 0 0 0 -53.512189231025332 180.38161344899669 0 180.38161344899669 -67.261876842926995 0 0 0 0 329.47439904716884 -339.53626667906497 0 -339.53626667906497 -27.90467982247992 0 0 0 0 418.6300643226059 -332.14820096916037 0 -332.14820096916037 -27.941723825430572 0 0 0 0 460.47027470140893 -246.44014869969351 0 -246.44014869969351 -71.222972150033684 0 0 0 0 319.17607494270487 -208.66661731138396 0 -208.66661731138396 -81.311718067043188 0 0 0 0 226.29566115584385 -177.02159526055038 0 -177.02159526055038 4.3812967121200472 0 0 0 0 250.44288722908823 -151.39412252267641 0 -151.39412252267641 -24.048917828289632 0 0 0 0 282.28926447683989 -200.73897389226263 0 -200.73897389226263 49.51586920488262 0 0 0 0 334.78938118042106 -290.8458629682325 0 -290.8458629682325 57.140023646068016 0 0 0 0 284.38190306843171 -351.10101228953783 0 -351.10101228953783 153.14583994886277 0 0 0 0 334.92458933886519 -379.30793838093246 0 -379.30793838093246 157.65611495709334 0 0 0 0 440.74854130639142 -553.24682199492122 0 -553.24682199492122 221.16967474682258 0 0 0 0 627.98545641341479 -349.55248940271309 0 -349.55248940271309 22.330669545163346 0 0 0 0 280.9585545216778 -376.02102032679136 0 -376.02102032679136 380.01746981084898 0 0 0 0 506.23684647793561 -413.34591791446792 0 -413.34591791446792 -260.17965926698434 0 0 0 0 473.58591196401176 -297.02327153418383 0 -297.02327153418383 -269.84042229263105 0 0 0 0 387.24708041109261 -393.48762371676366 0 -393.48762371676366 -35.159622175062054 0 0 0 0 398.72003974190375 -436.70804443289308 0 -436.70804443289308 -40.318727645738363 0 0 0 0 405.48870282240387 -373.75953515961737 0 -373.75953515961737 -128.24892189630054 0 0 0 0 418.62040106923087 -252.88711339246902 0 -252.88711339246902 -274.45677458398404 0 0 0 0 355.24825489136856 -289.8982755377607 0 -289.8982755377607 -116.07861658501861 0 0 0 0 550.26977940121287 -371.3481578122005 0 -371.3481578122005 -368.06411952927374 0 0 0 0 397.28751717085106 -254.48580186456911 0 -254.48580186456911 -242.25909959368011 0 0 0 0 480.77767037708509 -144.05224908331843 0 -144.05224908331843 -651.13698731841123 0 0 0 0 234.7711711446791 82.04174265047368 0 82.04174265047368 -430.65305965517427 0 0 0 0 305.00419274397427 10.456358569963868 0 10.456358569963868 -357.69035765196895 0 0 0 0 60.999036733781395 151.45868662967951 0 151.45868662967951 -209.05768206030552 0 0 0 0 71.657685926626073 185.95449052504955 0 185.95449052504955 -199.55676796724219 0 0 0 0 230.97244396297901 -68.149130212890668 0 -68.149130212890668 -215.33172469647593 0 0 0 0 305.46389170800103 -139.11152643970127 0 -139.11152643970127 -149.99075169394473 0 0 0 0 499.20727214988437 -346.58531061931171 0 -346.58531061931171 10.610266408427378 0 0 0 0 244.09749788230693 -200.15683680360144 0 -200.15683680360144 -35.47349993900616 0 0 0 0 442.37568707333412 -349.67532108461592 0 -349.67532108461592 -92.549573413914345 0 0 0 0 501.43614048384188 -268.94840259968896 0 -268.94840259968896 -89.872214586413975 0 0 0 0 675.34756351216492 -99.132764731325096 0 -99.132764731325096 -80.586558546816377 0 0 0 0 400.52871514543585 -297.34785921506796 0 -297.34785921506796 -93.389121595992492 0 0 0 0 647.01937074868329 -353.62356194985705 0 -353.62356194985705 -76.627411588562609 0 0 0 0 644.27548828170256 -209.98897977106571 0 -209.98897977106571 -5.5899121047314111 0 0 0 0 702.59662782863597 -303.09474221035271 0 -303.09474221035271 73.402637985593174 0 0 0 0 714.91252209415688 -266.47301811227044 0 -266.47301811227044 116.49293481533095 0 0 0 0 542.72343247946992 -688.56626225493892 0 -688.56626225493892 235.82246265590402 0 0 0 0 13.062986634853587 -142.65973653153014 0 -142.65973653153014 178.80738597279651 0 0 0 0 65.139468530909681 6.7197829940567715 0 6.7197829940567715 1.0309967605874757 0 0 0 0 133.91637825643738 236.19020764235802 0 236.19020764235802 -406.64036617199417 0 0 0 0 809.89642739445844 -621.95580400807012 0 -621.95580400807012 282.92639647313035 0 0 0 0 -357.29877481082804 -154.69683027008932 0 -154.69683027008932 341.70444934353327 0 0 0 0 25.649335106094469 1.9495908519289529 0 1.9495908519289529 0.31567201695506331 0 0 0 0 146.09555463361903 459.48324542154387 0 459.48324542154387 350.06632279316364 0 0 0 0 733.78432383551262 761.15462470509374 0 761.15462470509374 370.46323955969365 0 0 0 0 193.20476876357134 -22.697394512205847 0 -22.697394512205847 -336.79665900990767 0 0 0 0 39.841767332029121 -54.580087086616459 0 -54.580087086616459 40.960793587883018 0 0 0 0 671.51751997512474 230.88427376940672 0 230.88427376940672 76.410576801984121 0 0 0 0 167.80224605077456 -60.712130318870095 0 -60.712130318870095 98.638346984722375 0 0 0 0 530.371739623748 429.3731786612716 0 429.3731786612716 40.536979882454943 0 0 0 0 874.67009544800294 535.25929853276148 0 535.25929853276148 58.226981159641582 0 0 0 0 50.885114651595359 -36.015030966980703 0 -36.015030966980703 7.3289820575596423 0 0 0 0 124.11145239638427 2.5124627314830832 0 2.5124627314830832 12.066882621496006 0 0 0 0 46.739712576360034 -47.556243566968988 0 -47.556243566968988 30.348246193290834 0 0 0 0 63.690101710493764 -82.822394742086999 0 -82.822394742086999 -32.982196209737594 0 0 0 0 91.062209452861708 10.928895449646799 0 10.928895449646799 -5.8162170231294628 0 0 0 0 40.331235029532763 115.11159967373351 0 115.11159967373351 -153.75089261186349 0 0 0 0 199.86673873339714 -73.486804160371094 0 -73.486804160371094 -142.36756222541226 0 0 0 0 64.556280463497387 18.975439301576898 0 18.975439301576898 -110.78449655570239 0 0 0 0 70.929516157061016 126.21507323243469 0 126.21507323243469 -178.82424421376163 0 0 0 0 52.722794128931127 -4.3383640049548831 0 -4.3383640049548831 -18.476707337338667 0 0 0 0 -67.690525762765901 175.07353099505326 0 175.07353099505326 -142.21982615267189 0 0 0 0 92.246183762435976 28.554121840828884 0 28.554121840828884 -137.07869879509417 0 0 0 0 42.797438178226002 93.767101995756093 0 93.767101995756093 -120.50421048988119 0 0 0 0 27.744494625275514 16.422075694842448 0 16.422075694842448 -19.466439070706624 0 0 0 0 -6.2940187240747036 63.037889774186397 0 63.037889774186397 -98.892590829880646 0 0 0 0 -39.959317545683007 96.562877658958314 0 96.562877658958314 50.741031889599981 0 0 0 0 15.136062197944923 0.60129454586560627 0 0.60129454586560627 -23.72619519514199 0 0 0 0 682.03676019526392 879.47380100413091 0 879.47380100413091 1063.8547702282813 0 0 0 0 -128.10707013432693 -35.187178188581356 0 -35.187178188581356 524.06351595146987 0 0 0 0 20.282143869970334 -9.9067887827024919 0 -9.9067887827024919 -17.873061773206249 0 0 0 0 1017.3150403328473 447.29355157141964 0 447.29355157141964 -42.388869305662638 0 0 0 0 8.9649047241109656 435.77884407685087 0 435.77884407685087 -10.220791029476914 0 0 0 0 1064.4375916270219 409.09209625674697 0 409.09209625674697 -173.87421759051549 0 0 0 0 72.640803958638571 -19.390501023508477 0 -19.390501023508477 -19.365655502408117 0 0 0 0 20.682537209739849 -17.425939250128195 0 -17.425939250128195 -16.597174494713549 0 0 0 0 883.1656593127118 -199.26195410056806 0 -199.26195410056806 -279.4905292558816 0 0 0 0 11.63800531861483 -1.7803989285929038 0 -1.7803989285929038 -3.798432355600887 0 0 0 0 -128.7314709337661 -450.33386801727676 0 -450.33386801727676 517.77043199858747 0 0 0 0 115.39330572432664 -36.948262412504846 0 -36.948262412504846 -132.21063008370288 0 0 0 0 78.252901176365413 -6.780838566578268 0 -6.780838566578268 -16.787428404501043 0 0 0 0 46.478535824439149 -6.6723503190834386 0 -6.6723503190834386 -27.40445231557894 0 0 0 0 90.760356135418988 -16.623221270098838 0 -16.623221270098838 -26.833341137514253 0 0 0 0 12.377694566159825 -15.443831270059491 0 -15.443831270059491 -30.315700074303145 0 0 0 0 53.080727338267025 -13.448765698111856 0 -13.448765698111856 -19.191327211332009 0 0 0 0 83.698267906118417 -21.27385422330326 0 -21.27385422330326 -25.514096034322392 0 0 0 0 645.28752039042593 296.44084627565263 0 296.44084627565263 -540.10642004708552 0 0 0 0 43.000554549438675 -23.176702955230667 0 -23.176702955230667 -24.329841899540952 0 0 0 0 45.383947330669059 -15.443628709384498 0 -15.443628709384498 -19.618093847127405 0 0 0 0 -9.9613593205067446 -87.239996899614823 0 -87.239996899614823 283.44843530786693 0 0 0 0 61.392908847650688 -18.929153721333478 0 -18.929153721333478 -32.302572347672594 0 0 0 0 26.549746586243032 -18.064923065337638 0 -18.064923065337638 -26.998984544473927 0 0 0 0 2.1378361715761756 -17.281457952361961 0 -17.281457952361961 -19.043926174085904 0 0 0 0 69.838138037324825 -13.877282414566707 0 -13.877282414566707 -31.95090957521461 0 0 0 0 3494.3235370774019 -2055.1784411770127 0 -2055.1784411770127 644.80967140804876 0 0 0 0 16.040521540984486 5.2670153536078921 0 5.2670153536078921 4.6590895966419286 0 0 0 0 1523.1071687690273 -475.82198093693637 0 -475.82198093693637 175.89017642341582 0 0 0 0 330.44242545808811 269.41834297153355 0 269.41834297153355 -69.618778358839677 0 0 0 0 45.49462587848663 3.6308209553150448 0 3.6308209553150448 0.23077963976545535 0 0 0 0 460.4483757040307 405.52838961135757 0 405.52838961135757 753.36825167356244 0 0 0 0 803.1957069116761 171.1745623018171 0 171.1745623018171 -152.2695797754063 0 0 0 0 3494.2125819872708 1958.3713179532137 0 1958.3713179532137 180.26545875781014 0 0 0 0 671.87188914439321 1841.5786041122203 0 1841.5786041122203 2269.1887484319805 0 0 0 0 2150.4195405775718 1373.5534729141928 0 1373.5534729141928 300.39359343381619 0 0 0 0 2702.5478105464572 797.75965228729626 0 797.75965228729626 -303.2592169762712 0 0 0 0 2675.3775165596089 580.0944553829205 0 580.0944553829205 -338.76978104228112 0 0 0 0 2086.0956896551725 1160.4991210850174 0 1160.4991210850174 244.01841624409542 0 0 0 0 2783.1065724530927 882.35648477091047 0 882.35648477091047 398.07454578765294 0 0 0 0 3500.5803402701022 877.56068148233123 0 877.56068148233123 -497.09689153664635 0 0 0 0 2950.8117861756073 392.24337381353587 0 392.24337381353587 -919.02216052865219 0 0 0 0 3499.432952495943 582.34334018462039 0 582.34334018462039 -1080.6626777520653 0 0 0 0 2738.9025838964517 249.30852653871966 0 249.30852653871966 -1003.3049775847643 0 0 0 0 2213.0796440778213 404.67500366809463 0 404.67500366809463 -585.63339269311814 0 0 0 0 2530.0567056457694 811.25718751723207 0 811.25718751723207 -381.52274440574524 0 0 0 0 3.7916734014804465 1.1798815227778547 0 1.1798815227778547 -10.99300391798071 0 0 0 0 1416.4808591158981 191.62077796808921 0 191.62077796808921 -226.18610661387947 0 0 0 0 1456.2832163621497 660.71117069339925 0 660.71117069339925 -54.405685230595651 0 0 0 0 1142.5800251902037 285.5874957976456 0 285.5874957976456 -2.5413149304840772 0 0 0 0 -740.87675932382626 559.82082258398566 0 559.82082258398566 -327.77463850108734 0 0 0 0 -132.06410043645155 377.93958409439665 0 377.93958409439665 -380.35544251025749 0 0 0 0 -264.18630326380662 152.39472817583919 0 152.39472817583919 -76.557328808614784 0 0 0 0 308.80784981764737 184.25842570335726 0 184.25842570335726 -584.47299589851309 0 0 0 0 -73.253102788683464 645.47051145690625 0 645.47051145690625 -1000.4770323587754 0 0 0 0 604.76652167621796 81.652556846635662 0 81.652556846635662 -1096.0853382242869 0 0 0 0 1728.771982362774 34.032497233503136 0 34.032497233503136 -855.45597746534418 0 0 0 0 2421.384547245867 683.90538142632977 0 683.90538142632977 -1284.9138796974703 0 0 0 0 654.01561804775156 217.70711651081635 0 217.70711651081635 -509.04681439362935 0 0 0 0 461.77859757637634 -494.54609856738443 0 -494.54609856738443 -32.809240615130648 0 0 0 0 990.95216342451749 -372.68855880938236 0 -372.68855880938236 -641.7104774956706 0 0 0 0 1152.1012399362662 -697.50675486277976 0 -697.50675486277976 230.62033603510213 0 0 0 0 1251.4253704332327 -249.15853759350608 0 -249.15853759350608 7.7608641524382165 0 0 0 0 2377.939020823218 -358.90263019669567 0 -358.90263019669567 -366.56796447156978 0 0 0 0 3499.9519212352552 -75.129920444598966 0 -75.129920444598966 -537.16597935584934 0 0 0 0 2665.8318262289686 515.79919463066824 0 515.79919463066824 -955.06610524648181 0 0 0 0 3569.5187307956517 195.50327638266191 0 195.50327638266191 687.70603416611448 0 0 0 0 3692.9224088371529 -1036.0163012544917 0 -1036.0163012544917 152.61827214125645 0 0 0 0 3498.873738988601 -536.5485826589445 0 -536.5485826589445 1722.5916565846801 0 0 0 0 3468.9031823130426 -1567.5574910242426 0 -1567.5574910242426 1258.1458429961067 0 0 0 0 3076.9987477609538 -1461.4643088931605 0 -1461.4643088931605 1553.6803592229771 0 0 0 0 3086.9504712411726 814.48246299676384 0 814.48246299676384 29.488285608604201 0 0 0 0 420.95891699373169 177.38631421629907 0 177.38631421629907 999.63500492115236 0 0 0 0 1566.7529481145102 554.58192372114195 0 554.58192372114195 355.57769842252401 0 0 0 0 2151.0911001043714 -372.49024880231127 0 -372.49024880231127 482.88334856919641 0 0 0 0 2276.1679321497177 -288.75462599066981 0 -288.75462599066981 39.599537347673333 0 0 0 0 1087.4079097381764 -111.25802971036927 0 -111.25802971036927 256.73482324278001 0 0 0 0 265.93484609531151 140.5845862779322 0 140.5845862779322 399.17964887485789 0 0 0 0 1116.3801662654109 161.51922248331226 0 161.51922248331226 -227.47679550387022 0 0 0 0 -802.4392039493905 724.25072727878432 0 724.25072727878432 -21.932743356830201 0 0 0 0 1715.4622643460461 147.94092801857425 0 147.94092801857425 -435.26159043090064 0 0 0 0 2771.7134501401961 -195.90481312391987 0 -195.90481312391987 -160.02751544064947 0 0 0 0 1974.1563201565659 -790.36219368835521 0 -790.36219368835521 -193.94456354399063 0 0 0 0 3443.3627116173084 -410.72028512458542 0 -410.72028512458542 -267.7089191608963 0 0 0 0 3215.5118584109914 -736.57404945753353 0 -736.57404945753353 278.39295411828323 0 0 0 0 3500.7444643142298 -577.67429671771549 0 -577.67429671771549 -193.85610736799171 0 0 0 0 3137.664698599132 -812.70005728725778 0 -812.70005728725778 -304.75002776599092 0 0 0 0 3499.0843290665143 -1103.0239318790968 0 -1103.0239318790968 188.418385425363 0 0 0 0 2989.7708209101256 -538.12015370195604 0 -538.12015370195604 -390.74331169726872 0 0 0 0 2966.1262200155206 -626.50495811931546 0 -626.50495811931546 -353.81552554327487 0 0 0 0 -334.50478464014122 -331.913229609783 0 -331.913229609783 96.457545117589916 0 0 0 0 4088.1735289555218 -1061.9915936249045 0 -1061.9915936249045 186.26729365443339 0 0 0 0 4018.4112835300839 -487.12569927991996 0 -487.12569927991996 -153.64690310423745 0 0 0 0 3501.3633737722412 -728.3260220771017 0 -728.3260220771017 176.34042461313291 0 0 0 0 4.2688283867908012 -5.2672938563544847 0 -5.2672938563544847 6.4476981836937641 0 0 0 0 4538.6992566674053 -621.44903412549093 0 -621.44903412549093 -194.64306242920699 0 0 0 0 17.647700893987817 -15.786632803386496 0 -15.786632803386496 13.185743719121652 0 0 0 0 1538.5614026932381 -438.07728215452391 0 -438.07728215452391 104.51611159249705 0 0 0 0 1531.9555092243918 -475.94562701177006 0 -475.94562701177006 76.788432143794438 0 0 0 0 1549.2348869140133 -430.56342838493185 0 -430.56342838493185 38.119671551277591 0 0 0 0 119.24509362157551 -16.982735613389423 0 -16.982735613389423 -88.584924169445003 0 0 0 0 -1.7015001365616627 -142.18821414123192 0 -142.18821414123192 -154.70955413084039 0 0 0 0 329.3495105133552 -125.02316775182589 0 -125.02316775182589 -166.14860770985038 0 0 0 0 -18.859164406741911 51.977096598442245 0 51.977096598442245 -107.62224640450677 0 0 0 0 250.3016917092973 140.80288773309911 0 140.80288773309911 -100.76636182582854 0 0 0 0 8.4089421134979148 -4.4258092028440643 0 -4.4258092028440643 -45.198242427569355 0 0 0 0 -205.5256489536041 137.15883764424018 0 137.15883764424018 -40.393531215423167 0 0 0 0 899.83914308080421 -937.16042043304333 0 -937.16042043304333 348.77056594253639 0 0 0 0 588.44014265667647 -316.15652382018959 0 -316.15652382018959 17.011731846063242 0 0 0 0 676.56251625748519 256.02974311809055 0 256.02974311809055 -265.55840204117624 0 0 0 0 433.85461166586902 173.93359337386369 0 173.93359337386369 -4.8179862148560915 0 0 0 0 583.32646278548782 205.76735263321939 0 205.76735263321939 1.8052742862584523 0 0 0 0 271.10390073467624 187.28921890716867 0 187.28921890716867 105.21337522522117 0 0 0 0 -0.01609292650922356 1.2112945977503387 0 1.2112945977503387 -23.956370510021834 0 0 0 0 102.01959219962009 -19.04626925706998 0 -19.04626925706998 1.839052872256616 0 0 0 0 241.11452684150026 415.25699928192319 0 415.25699928192319 339.30578975305161 0 0 0 0 4.5569714052433028 3.953725465109045 0 3.953725465109045 2.9093058344339084 0 0 0 0 75.203487233338819 24.282767014327533 0 24.282767014327533 -54.789476586222008 0 0 0 0 94.575752389471745 -55.596138422856257 0 -55.596138422856257 7.4997550336347558 0 0 0 0 15.380398596296118 5.9477677121546293 0 5.9477677121546293 -5.4576408984210936 0 0 0 0 713.80225905495399 379.72898777182286 0 379.72898777182286 51.737563213126123 0 0 0 0 661.31746706387639 487.53235923788725 0 487.53235923788725 174.97675856790283 0 0 0 0 961.30773777408467 -84.165314014992873 0 -84.165314014992873 4.7207899115160217 0 0 0 0 875.23441610069131 323.18359654452888 0 323.18359654452888 -18.629408079446875 0 0 0 0 799.22193705180689 -12.030499537705509 0 -12.030499537705509 146.46750230751104 0 0 0 0 526.54535186066641 204.06952185198497 0 204.06952185198497 407.55463839626327 0 0 0 0 555.03314306134234 175.05128628560931 0 175.05128628560931 3.3644097281339782 0 0 0 0 537.15897398506058 293.31984319665571 0 293.31984319665571 -9.6761926021775935 0 0 0 0 664.87865564869571 190.07953171234271 0 190.07953171234271 3.7797490811030912 0 0 0 0 482.36608659302146 196.24985485068771 0 196.24985485068771 -104.60427688429309 0 0 0 0 601.08527813658293 86.485898328324311 0 86.485898328324311 -35.549991565744449 0 0 0 0 504.54635710266302 37.644967191858761 0 37.644967191858761 234.58912250658511 0 0 0 0 578.95644934555821 78.111387804751985 0 78.111387804751985 -110.68053822332649 0 0 0 0 114.34138095204253 81.398223615820825 0 81.398223615820825 -2.7280931767184029 0 0 0 0 637.23428366352164 243.24421260980736 0 243.24421260980736 47.3656288168646 0 0 0 0 411.14550750087074 187.51954881864719 0 187.51954881864719 8.9056469520640391 0 0 0 0 463.07739615311584 291.78668301493639 0 291.78668301493639 19.028338774541226 0 0 0 0 896.11166378873895 303.8515851296055 0 303.8515851296055 -132.55490628846655 0 0 0 0 372.81085270173207 530.88359096607564 0 530.88359096607564 -212.96087044506271 0 0 0 0 0.10104395875677596 0.034870335132524133 0 0.034870335132524133 -6.4377021051054228 0 0 0 0 128.80832187811029 626.61965392347929 0 626.61965392347929 192.86939034674685 0 0 0 0 458.12503028738865 346.32898468483415 0 346.32898468483415 90.603257188376517 0 0 0 0 222.54680270436802 381.83906245983053 0 381.83906245983053 86.153321330922665 0 0 0 0 123.28868976835292 63.580420091243042 0 63.580420091243042 49.552101667780335 0 0 0 0 115.52036792268336 93.907196723671404 0 93.907196723671404 484.3945502268474 0 0 0 0 185.59425123819892 463.19507974833135 0 463.19507974833135 437.96472724866339 0 0 0 0 436.07453021759284 76.809251044890971 0 76.809251044890971 161.62033613044696 0 0 0 0 72.771668353722731 -28.260757244225722 0 -28.260757244225722 12.000827200155634 0 0 0 0 196.53975151355553 27.31288745308666 0 27.31288745308666 -140.70234179321733 0 0 0 0 219.92742492895923 -38.750125442700664 0 -38.750125442700664 -161.85303211283281 0 0 0 0 141.22489571361803 -2.1972032979720098 0 -2.1972032979720098 68.905137761496007 0 0 0 0 105.17779162992514 -38.492850021379972 0 -38.492850021379972 7.258486195032761 0 0 0 0 193.48643639325746 17.055852113324363 0 17.055852113324363 42.615964471307279 0 0 0 0 187.25331322617421 -35.447256248360645 0 -35.447256248360645 -124.16943868077942 0 0 0 0 32.465966860298209 -1.3705631758492416 0 -1.3705631758492416 -27.526025964290923 0 0 0 0 14.600222822867522 -18.151619996705829 0 -18.151619996705829 -8.5235180538683935 0 0 0 0 72.452708109826403 -5.4381620201008545 0 -5.4381620201008545 -10.845707616858995 0 0 0 0 122.36175462051324 -30.843480209980953 0 -30.843480209980953 -47.741823756283338 0 0 0 0 64.06925087053969 2.9885269273692074 0 2.9885269273692074 -44.544132714912848 0 0 0 0 136.44191679034702 -20.704248534426824 0 -20.704248534426824 -50.310164373720909 0 0 0 0 138.85711884800185 0.61295183226148708 0 0.61295183226148708 -290.57198640076604 0 0 0 0 39.153511059843872 -4.9496341726343758 0 -4.9496341726343758 -2.6501423191405191 0 0 0 0 68.624202543227881 -5.7351160514954103 0 -5.7351160514954103 -7.9836235622188161 0 0 0 0 496.45293556963588 80.126536187097031 0 80.126536187097031 -278.06859273147506 0 0 0 0 329.08206844874803 214.11547484361154 0 214.11547484361154 -145.24997542201618 0 0 0 0 302.62652274920401 297.34929226065105 0 297.34929226065105 173.49321957460052 0 0 0 0 178.20024281145379 -17.261294165736217 0 -17.261294165736217 -9.1471349570533675 0 0 0 0 183.02795780927408 -27.595565853795051 0 -27.595565853795051 6.2474610020076398 0 0 0 0 70.471965994222472 -17.568655231965458 0 -17.568655231965458 2.2607644642746401 0 0 0 0 31.809937549463939 2.7952769080884536 0 2.7952769080884536 24.189748511314519 0 0 0 0 45.564818108148756 -18.156400602389567 0 -18.156400602389567 -6.3471950480218311 0 0 0 0 65.063614074519137 -9.496087426588474 0 -9.496087426588474 -2.5643560415464322 0 0 0 0 61.724315375868173 12.748338944133081 0 12.748338944133081 -27.549731309446202 0 0 0 0 68.137664320141255 4.5107082954667064 0 4.5107082954667064 -6.4646234972713721 0 0 0 0 110.80974228618288 -11.088516547091587 0 -11.088516547091587 -15.752848556509434 0 0 0 0 60.203474137073499 11.047578948700163 0 11.047578948700163 14.687245509351371 0 0 0 0 82.51164406346652 -18.994864567764807 0 -18.994864567764807 29.413912303595907 0 0 0 0 110.80965461819142 -11.143157019725436 0 -11.143157019725436 7.7963382214092007 0 0 0 0 38.331722814487875 -31.603966920794846 0 -31.603966920794846 38.681278306572494 0 0 0 0 218.40155772349681 -63.403045578305296 0 -63.403045578305296 6.0888860685961959 0 0 0 0 0.43594825092699807 1.2560678003659405 0 1.2560678003659405 0.83745083589607194 0 0 0 0 96.503398485860089 -9.3463889538049898 0 -9.3463889538049898 8.8017313497047098 0 0 0 0 148.38820648767432 34.17753033036206 0 34.17753033036206 -13.475976213290778 0 0 0 0 99.492679925620905 40.014829141491191 0 40.014829141491191 4.8408525048389492 0 0 0 0 17.700246759227582 -9.1798296424557861 0 -9.1798296424557861 0.32435655077823755 0 0 0 0 82.411212462734397 -13.809174403278917 0 -13.809174403278917 -0.22328258817550806 0 0 0 0 212.37266098485998 -128.47658143715574 0 -128.47658143715574 14.865505967180979 0 0 0 0 17.043199042542255 -161.78295113203626 0 -161.78295113203626 -42.822073794583389 0 0 0 0 39.44185229876166 48.686285545941473 0 48.686285545941473 -41.998363974259291 0 0 0 0 1.9984582186734769 3.0821523924187204 0 3.0821523924187204 80.749791602012635 0 0 0 0 12.213110265147407 65.701832400633066 0 65.701832400633066 70.172940733739836 0 0 0 0 62.28527146180204 -53.378749169132561 0 -53.378749169132561 -82.606976332315298 0 0 0 0 68.131671634595477 -71.876720570918508 0 -71.876720570918508 -25.507571403887368 0 0 0 0 55.799421782721765 -113.61597887369089 0 -113.61597887369089 -39.158286313134113 0 0 0 0 89.558331979831564 -74.706350410700452 0 -74.706350410700452 -185.43110920253474 0 0 0 0 36.585049590285053 -110.51053731012553 0 -110.51053731012553 -82.433730300680963 0 0 0 0 99.781564386837999 8.0609166492881741 0 8.0609166492881741 -282.44091653985862 0 0 0 0 92.48765480727161 -207.93672605934495 0 -207.93672605934495 -154.25695534331746 0 0 0 0 -74.011072197708927 -14.406438846180436 0 -14.406438846180436 253.1890041222577 0 0 0 0 9.4067320687736924 2.5427008557835258 0 2.5427008557835258 0.311649990293066 0 0 0 0 257.08664161814522 -325.8435509022151 0 -325.8435509022151 450.9604791964116 0 0 0 0 -21.587609402682574 -15.796388828533225 0 -15.796388828533225 155.94668546759965 0 0 0 0 3.3415304565030794 1.1517124455095953 0 1.1517124455095953 0.36717501876517389 0 0 0 0 3.1758632929613668 -34.172778810289174 0 -34.172778810289174 -39.794028342519596 0 0 0 0 297.38423613513442 282.61055848108072 0 282.61055848108072 -199.57711786592347 0 0 0 0 305.17777582813869 18.20566775669181 0 18.20566775669181 -2.7473712165710822 0 0 0 0 126.60498841400386 15.877665010765355 0 15.877665010765355 29.50623305922727 0 0 0 0 291.28869920110446 44.006240372753837 0 44.006240372753837 -49.178995426179029 0 0 0 0 325.3823016184615 -42.502743829055362 0 -42.502743829055362 23.675467359207687 0 0 0 0 260.22267813987855 6.8055769557449821 0 6.8055769557449821 78.231846262695399 0 0 0 0 538.3365908735027 -0.74784862979555555 0 -0.74784862979555555 47.504319014837165 0 0 0 0 357.92848925122235 87.442526358639043 0 87.442526358639043 21.683019958437853 0 0 0 0 547.08304590111038 149.92153391117961 0 149.92153391117961 50.40617354405731 0 0 0 0 411.71986958198977 105.49800983477235 0 105.49800983477235 143.91532203713632 0 0 0 0 320.91005617443443 -84.304937148328463 0 -84.304937148328463 -14.000316393829053 0 0 0 0 452.92999465615139 12.696142500335782 0 12.696142500335782 1.2404392971202469 0 0 0 0 185.0517328823662 -97.405221519118641 0 -97.405221519118641 69.133283373206723 0 0 0 0 534.51536157654846 4.4859309326720904 0 4.4859309326720904 -5.1774349351171622 0 0 0 0 313.03477509281947 -106.9570919055418 0 -106.9570919055418 -31.164411784794083 0 0 0 0 732.11784042297268 258.23942461947553 0 258.23942461947553 -97.551563838413131 0 0 0 0 507.01715579174925 147.22919665918471 0 147.22919665918471 55.414405788347722 0 0 0 0 -7.3844677353772568 -25.401808846099811 0 -25.401808846099811 61.911371981398588 0 0 0 0 -2.5362677741135826 2.5412434391762844 0 2.5412434391762844 1.0048531729693178 0 0 0 0 -16.553290560172172 -26.185359309126397 0 -26.185359309126397 71.270470112143812 0 0 0 0 266.70308817049954 -219.73863997362696 0 -219.73863997362696 -24.818691363430844 0 0 0 0 -54.49952023421065 -69.257064166787586 0 -69.257064166787586 95.052452582294791 0 0 0 0 99.213022503943648 -125.89979275505902 0 -125.89979275505902 55.23307640291614 0 0 0 0 15.72295523234061 -108.77455454576648 0 -108.77455454576648 107.31464441691992 0 0 0 0 18.812246914178104 -84.001362367642287 0 -84.001362367642287 64.25810540627208 0 0 0 0 7.8766481276024933 -52.319033322926941 0 -52.319033322926941 32.536642415701863 0 0 0 0 44.711958771920763 -72.319273984137681 0 -72.319273984137681 31.647725992862433 0 0 0 0 64.877652637871506 -122.13764411991815 0 -122.13764411991815 30.391032747725959 0 0 0 0 151.22788053216209 -49.240678173315473 0 -49.240678173315473 48.86070225740059 0 0 0 0 113.26197449816527 -122.34715900554642 0 -122.34715900554642 27.330283714866709 0 0 0 0 78.710876500743325 -77.771052962561726 0 -77.771052962561726 -29.873647689584686 0 0 0 0 45.280307385626656 -71.158480491692444 0 -71.158480491692444 -30.933954244079359 0 0 0 0 52.733326920861145 -94.047154968481564 0 -94.047154968481564 -16.917857633668063 0 0 0 0 18.685673904300128 -43.677207878685053 0 -43.677207878685053 -5.2448189962687888 0 0 0 0 52.376620435853397 -83.026734002875926 0 -83.026734002875926 -1.3280229002839405 0 0 0 0 32.433589855019818 -36.504129649098559 0 -36.504129649098559 -1.1051570265383646 0 0 0 0 32.385117835081473 -44.38520805880944 0 -44.38520805880944 -0.46714243290716695 0 0 0 0 29.818833501049085 -46.96005437424833 0 -46.96005437424833 6.8443909160805561 0 0 0 0 -0.24835818131396081 -71.952510533094483 0 -71.952510533094483 27.860287094314117 0 0 0 0 1.8387448581604549 -41.321539441566301 0 -41.321539441566301 4.5969723130467592 0 0 0 0 9.985569345040858 -56.256420642152079 0 -56.256420642152079 0.026752599009341793 0 0 0 0 -42.687644242687384 -36.212820528563043 0 -36.212820528563043 48.370302500354228 0 0 0 0 6.6679867073578478 -42.561872058975325 0 -42.561872058975325 13.782660977162969 0 0 0 0 56.275296096966485 -58.083628828615019 0 -58.083628828615019 30.76438753011098 0 0 0 0 19.589660702877154 -58.926722267620335 0 -58.926722267620335 18.504323377384935 0 0 0 0 28.374944800205412 -46.814194709328603 0 -46.814194709328603 8.0238645806466593 0 0 0 0 14.538178768620128 -69.33238085974881 0 -69.33238085974881 26.80404357709449 0 0 0 0 54.850892400543671 -52.383014585676392 0 -52.383014585676392 9.1366917467039457 0 0 0 0 -12.334685085952515 -38.409912083649033 0 -38.409912083649033 44.428668365295835 0 0 0 0 8.2536450632961547 -6.4139430725699782 0 -6.4139430725699782 -1.4786365426591637 0 0 0 0 117.10234473931632 -26.139015964002624 0 -26.139015964002624 -28.751995588951104 0 0 0 0 4.6032649363698113 -20.892770705328054 0 -20.892770705328054 -1.0790176018629554 0 0 0 0 15.89827772550052 -44.140335327112098 0 -44.140335327112098 -8.9359043787026167 0 0 0 0 41.388881329253621 -36.211980639210253 0 -36.211980639210253 -0.25707394345445422 0 0 0 0 13.231803296519502 -57.156498193899552 0 -57.156498193899552 -55.436478830335545 0 0 0 0 -2.7204119858260469 -11.13644990259353 0 -11.13644990259353 4.9350994968520165 0 0 0 0 -9.3966633145819287 -38.716478875481528 0 -38.716478875481528 22.100065647098745 0 0 0 0 129.56476251679487 -93.562694144304714 0 -93.562694144304714 17.765535877597358 0 0 0 0 27.972940504405699 1.7161558410204947 0 1.7161558410204947 -0.83632271504212774 0 0 0 0 13.453582103102235 -45.994858950823755 0 -45.994858950823755 20.067001994707425 0 0 0 0 156.54646442134981 6.7061520479559249 0 6.7061520479559249 -20.153006076749193 0 0 0 0 -16.389657341620648 -28.400126258934748 0 -28.400126258934748 -1.8943692791389779 0 0 0 0 154.00022281868223 -3.6896151736441993 0 -3.6896151736441993 14.611432511440853 0 0 0 0 801.71829575391166 85.174921333288921 0 85.174921333288921 15.199220302204708 0 0 0 0 34.083003971725702 -39.820465003409481 0 -39.820465003409481 9.1397442985746693 0 0 0 0 -16.871735322288004 -19.327408966349296 0 -19.327408966349296 17.963938257804031 0 0 0 0 27.759886891741189 -45.734190104732988 0 -45.734190104732988 13.793213796293458 0 0 0 0 46.368608250041973 -21.807868828780443 0 -21.807868828780443 7.1920020101415538 0 0 0 0 36.627257829502923 -41.817419456729908 0 -41.817419456729908 4.2882747600870061 0 0 0 0 33.460380068063387 -39.907389551508913 0 -39.907389551508913 7.0299422358475567 0 0 0 0 568.28469876691997 392.92928306030012 0 392.92928306030012 -215.0529384198162 0 0 0 0 534.64156072630431 503.77894790769301 0 503.77894790769301 -277.31291314992677 0 0 0 0 1728.8289667959325 -335.65546157016797 0 -335.65546157016797 215.58148927398724 0 0 0 0 1871.5853213788796 27.034445023347416 0 27.034445023347416 -418.0028104856392 0 0 0 0 2388.6132463471731 1400.6925989209012 0 1400.6925989209012 -213.45962253410971 0 0 0 0 1226.8240980929695 655.84692851011096 0 655.84692851011096 -168.4506621185792 0 0 0 0 6.3603310465918526 5.8236121560483838 0 5.8236121560483838 4.9816570390656967 0 0 0 0 1258.5897102460149 -456.67784983334172 0 -456.67784983334172 -2.2480212233422208 0 0 0 0 718.71399980814022 61.113718369893377 0 61.113718369893377 -19.037294108009519 0 0 0 0 1461.7417259446811 -7.2196399607091735 0 -7.2196399607091735 -122.58549190730901 0 0 0 0 931.15027651411947 21.180778271235795 0 21.180778271235795 -113.8185486208605 0 0 0 0 1625.9180868376279 -76.534290663952561 0 -76.534290663952561 -285.3576917264545 0 0 0 0 1032.5555119093915 -41.362549956696057 0 -41.362549956696057 -157.36889238548611 0 0 0 0 982.70634194268496 -10.181423677240673 0 -10.181423677240673 -160.16327082324892 0 0 0 0 794.52469822512649 125.17518287758639 0 125.17518287758639 -127.19202553482501 0 0 0 0 901.47313381833374 -84.466495328060319 0 -84.466495328060319 -96.331026802396082 0 0 0 0 634.76080269223894 -177.4999241185028 0 -177.4999241185028 521.21233382285209 0 0 0 0 1170.6164061469899 -232.15324055068322 0 -232.15324055068322 -25.110071512393915 0 0 0 0 1191.2403299758735 77.604436643982694 0 77.604436643982694 -149.38940021683084 0 0 0 0 276.74514986135182 51.614645045679026 0 51.614645045679026 100.95012208594173 0 0 0 0 558.03154527492006 47.079769583993766 0 47.079769583993766 116.61457859165637 0 0 0 0 799.79089105748426 35.984909813934109 0 35.984909813934109 -123.30241688853403 0 0 0 0 536.02133226537262 -126.23660818230201 0 -126.23660818230201 95.073931525052444 0 0 0 0 408.27269195430563 60.362983459307998 0 60.362983459307998 25.111590373091531 0 0 0 0 172.92051035654731 -108.75454572121407 0 -108.75454572121407 96.387800127233277 0 0 0 0 705.45103875016503 93.821237020360854 0 93.821237020360854 -79.029724749087109 0 0 0 0 484.03744227453717 203.23342951165705 0 203.23342951165705 -60.591237106997141 0 0 0 0 21.295717564309598 0.18150191104541591 0 0.18150191104541591 85.037697136620181 0 0 0 0 897.83184163427359 -28.551370646613123 0 -28.551370646613123 -135.66283335750813 0 0 0 0 38.446271643028012 -181.38145754644756 0 -181.38145754644756 -90.857036652930219 0 0 0 0 41.448510958731788 -34.318616035824597 0 -34.318616035824597 14.591710127924305 0 0 0 0 19.959682798857102 -45.773470363462593 0 -45.773470363462593 -7.9258599742815932 0 0 0 0 13.168148301878318 -198.77383819624237 0 -198.77383819624237 9.7451557697277167 0 0 0 0 61.066498711507478 -22.322328579612744 0 -22.322328579612744 2.7136415524527449 0 0 0 0 87.693748253113881 -76.572316088862408 0 -76.572316088862408 -35.149652179329223 0 0 0 0 31.169096224330133 -26.868237613665201 0 -26.868237613665201 -8.756427183253038 0 0 0 0 30.836426384048536 -5.3141464860930228 0 -5.3141464860930228 -7.1940732454438603 0 0 0 0 44.551079483277761 -16.86471505842227 0 -16.86471505842227 2.7739236207468019 0 0 0 0 -52.479879489783343 -36.460295008853564 0 -36.460295008853564 34.341431694789208 0 0 0 0 39.907041969908391 -28.20353238505804 0 -28.20353238505804 13.19042156330562 0 0 0 0 1.6470099369288391 -8.1302492634205041 0 -8.1302492634205041 1.391419176801862 0 0 0 0 112.24309458010248 -41.856807430151093 0 -41.856807430151093 39.715289096246124 0 0 0 0 27.815159666351974 -151.42789241507853 0 -151.42789241507853 -15.802092158236519 0 0 0 0 -78.679918319714488 -107.74252185415389 0 -107.74252185415389 -5.2527393046307225 0 0 0 0 -83.420392372499919 -101.80470800621697 0 -101.80470800621697 -125.00625308869962 0 0 0 0 15.790943237429019 25.770968844189156 0 25.770968844189156 26.001816297718051 0 0 0 0 123.56449706695275 -82.576949019409767 0 -82.576949019409767 100.53933366617639 0 0 0 0 137.83956337360723 51.885461248948104 0 51.885461248948104 131.74661860416199 0 0 0 0 -22.821050484912121 -113.88638884846364 0 -113.88638884846364 56.540924451905994 0 0 0 0 32.567376188791968 -11.135362928618036 0 -11.135362928618036 10.940084164812561 0 0 0 0 26.726145764405373 -12.823727051935521 0 -12.823727051935521 15.001286802327286 0 0 0 0 4.2226381896706986 -10.805301594500406 0 -10.805301594500406 12.233948467913294 0 0 0 0 -157.01532850545482 -35.038639214185423 0 -35.038639214185423 133.40252963243165 0 0 0 0 6.8476131350010405 0.48646389019799585 0 0.48646389019799585 4.7436008133661893 0 0 0 0 43.872136359277647 -12.215721327676761 0 -12.215721327676761 10.830368949192518 0 0 0 0 2.6836413131928225 -8.1010854117255633 0 -8.1010854117255633 12.548076311171785 0 0 0 0 88.853781128229457 96.072436502459368 0 96.072436502459368 33.686596389739861 0 0 0 0 195.69998713012319 5.1894615259475358 0 5.1894615259475358 -49.044262379990869 0 0 0 0 256.8585825367918 -54.487605507630633 0 -54.487605507630633 -2.691224359748503 0 0 0 0 420.43313537348877 -22.708867117176851 0 -22.708867117176851 -10.680926017425008 0 0 0 0 252.44342819346639 110.21268890046963 0 110.21268890046963 93.879877501789451 0 0 0 0 548.65233238396468 -14.223938988930968 0 -14.223938988930968 -37.073807027355087 0 0 0 0 676.99805961431412 -173.76886186017452 0 -173.76886186017452 -25.334949991181929 0 0 0 0 709.12871912917035 -86.091856537577087 0 -86.091856537577087 -108.72048897065451 0 0 0 0 549.06953132558033 -27.431237743642185 0 -27.431237743642185 -31.209873654728653 0 0 0 0 959.51587212368213 -497.15870626225893 0 -497.15870626225893 169.07549604651194 0 0 0 0 668.36743794083304 -61.979726741209561 0 -61.979726741209561 -24.193317774793513 0 0 0 0 1036.1582071993944 193.45909813592851 0 193.45909813592851 113.1662792635816 0 0 0 0 4.3248384597181939 1.7893327388445073 0 1.7893327388445073 1.322622934626219 0 0 0 0 381.52421208027226 -88.551206284144428 0 -88.551206284144428 153.67577406982309 0 0 0 0 380.96647489731549 123.34495038991827 0 123.34495038991827 256.51883268019901 0 0 0 0 272.32931779601495 -29.685938806884224 0 -29.685938806884224 71.336208476985121 0 0 0 0 674.74094015626451 104.54609728743779 0 104.54609728743779 2.7969544301613496 0 0 0 0 295.52352838262595 -19.57382381609591 0 -19.57382381609591 42.630064333839073 0 0 0 0 234.11163953351934 -114.23856080729456 0 -114.23856080729456 -42.318808919499133 0 0 0 0 731.40616474455601 42.268142355431223 0 42.268142355431223 70.857910679493216 0 0 0 0 581.24387480183213 -407.26709198893832 0 -407.26709198893832 148.64281530060634 0 0 0 0 952.65625109565372 178.46601945652367 0 178.46601945652367 125.98824039324427 0 0 0 0 1039.2225669670879 -25.020633885860207 0 -25.020633885860207 -40.773365858674197 0 0 0 0 554.31433318357995 -82.299091960867486 0 -82.299091960867486 -69.706753076265159 0 0 0 0 814.39475605278858 -166.06171519798136 0 -166.06171519798136 -103.99048694317457 0 0 0 0 311.57787194098637 -15.447267842212796 0 -15.447267842212796 -28.399025745488871 0 0 0 0 523.87469497103666 -198.75658140166922 0 -198.75658140166922 -18.781148364643741 0 0 0 0 117.76676729135215 5.5384589585173671 0 5.5384589585173671 -34.479709035775159 0 0 0 0 33.152720982005121 51.632612917426286 0 51.632612917426286 -6.5141201762089622 0 0 0 0 121.40087397834577 -70.661953851172257 0 -70.661953851172257 59.987861862855425 0 0 0 0 -69.495534566638526 -6.0163095571674603 0 -6.0163095571674603 61.930564358417541 0 0 0 0 74.012763493773946 -2.6470336531807357 0 -2.6470336531807357 6.1629613913964363 0 0 0 0 119.86593450048531 -33.884732334513103 0 -33.884732334513103 -2.9188722063770456 0 0 0 0 -83.859399338660296 69.048211062457085 0 69.048211062457085 8.1170886056602285 0 0 0 0 32.455406662766002 -7.1594582648586709 0 -7.1594582648586709 8.6009900087360585 0 0 0 0 19.931184854489402 57.616938421230998 0 57.616938421230998 -35.196052488807254 0 0 0 0 14.102892286854603 15.387395479218696 0 15.387395479218696 -1.2172324630675195 0 0 0 0 42.139873968539177 4.1870103177102465 0 4.1870103177102465 6.4694290140730573 0 0 0 0 22.617700521310326 59.916773341720727 0 59.916773341720727 -48.981713296561793 0 0 0 0 15.579492078955809 5.782652189610431 0 5.782652189610431 3.9323848156154781 0 0 0 0 12.759470889987853 1.4881379302378832 0 1.4881379302378832 9.9722054830907165 0 0 0 0 15.166227109067677 9.1490295977284717 0 9.1490295977284717 5.949562631862416 0 0 0 0 17.518712730826394 13.254943439388683 0 13.254943439388683 3.3541130361060709 0 0 0 0 -5.9807793232466793 35.765168321862802 0 35.765168321862802 33.043278998371079 0 0 0 0 54.819409196818015 49.378267059681093 0 49.378267059681093 32.615647183145029 0 0 0 0 -3.868905120252748 -3.5526524677607085 0 -3.5526524677607085 -7.0962264460285951 0 0 0 0 79.011403422438889 45.229523998836157 0 45.229523998836157 -57.278722893575832 0 0 0 0 -2.6016323758554449 1.9519566255088279 0 1.9519566255088279 3.3975668302898283 0 0 0 0 40.255878405114345 7.9384008752069803 0 7.9384008752069803 0.68488167231498664 0 0 0 0 30.719889070212957 -7.1284787880188105 0 -7.1284787880188105 -20.021410195129647 0 0 0 0 31.140006181958597 8.4357755503783665 0 8.4357755503783665 0.89487957142364394 0 0 0 0 10.413728155079298 62.774456713259042 0 62.774456713259042 -8.186338435273683 0 0 0 0 2.5278830333755096 17.647174849228179 0 17.647174849228179 0.84933101346540774 0 0 0 0 -39.404375949554378 68.345034606693389 0 68.345034606693389 -7.3399795558607366 0 0 0 0 -164.11252910169424 136.67689292991781 0 136.67689292991781 62.723342883769874 0 0 0 0 -404.41675783222308 14.026598148947869 0 14.026598148947869 23.479637354961483 0 0 0 0 -125.34830126816087 322.98919195665371 0 322.98919195665371 122.22706487340656 0 0 0 0 -73.780136712142848 32.356395686495034 0 32.356395686495034 18.242892473548636 0 0 0 0 -59.370594288338907 32.644544532971281 0 32.644544532971281 18.222062979964903 0 0 0 0 5.6899405823813431 2.3360177258247745 0 2.3360177258247745 -1.6058438191476476 0 0 0 0 34.926683041519027 17.127325553854376 0 17.127325553854376 -47.359630741803358 0 0 0 0 -39.166888430336257 74.493241770383293 0 74.493241770383293 43.549229805317509 0 0 0 0 1259.1304015170317 973.18282406616345 0 973.18282406616345 339.27820941486061 0 0 0 0 -126.36338270222768 105.38286686452602 0 105.38286686452602 32.640058853827213 0 0 0 0 27.394820305053145 13.545083520957633 0 13.545083520957633 -3.214883117089812 0 0 0 0 24.711714456701884 26.563170090672884 0 26.563170090672884 -7.7305821814588853 0 0 0 0 22.493892854013041 12.429092638591186 0 12.429092638591186 -0.94625405368938154 0 0 0 0 23.835744360182616 9.9806449652388523 0 9.9806449652388523 -0.075264578582537656 0 0 0 0 61.48114037883488 -2.9429213892472106 0 -2.9429213892472106 -62.755899214928831 0 0 0 0 41.440452227025673 10.303311787471323 0 10.303311787471323 -1.414617907734685 0 0 0 0 15.818231861463147 5.6517687634260199 0 5.6517687634260199 0.21644979499195571 0 0 0 0 -158.52972915646387 25.288268149932264 0 25.288268149932264 57.25677221965816 0 0 0 0 61.10235243907664 45.214248044982469 0 45.214248044982469 -2.6488880418864937 0 0 0 0 119.69143578030344 41.392357801501475 0 41.392357801501475 -35.018552717802777 0 0 0 0 50.637799737945898 50.196590119853226 0 50.196590119853226 144.66978598749802 0 0 0 0 1999.1604981639975 -0.71783840046327896 0 -0.71783840046327896 -103.24758110852963 0 0 0 0 -1.042805804057565 0.31572370895459301 0 0.31572370895459301 2.6515614768205715 0 0 0 0 7.2214031888361205 -142.11882249436735 0 -142.11882249436735 205.14910110392429 0 0 0 0 1064.789226518129 -196.35635599477155 0 -196.35635599477155 68.785914943497119 0 0 0 0 899.18315969363903 -83.684532420893902 0 -83.684532420893902 225.31634561472481 0 0 0 0 1130.0819601197381 -652.14939819832591 0 -652.14939819832591 338.83406666657356 0 0 0 0 803.4985473237175 -241.82808654274095 0 -241.82808654274095 4.0639471641270575 0 0 0 0 168.55893399633351 84.277019435473846 0 84.277019435473846 -61.387420866214143 0 0 0 0 308.85791758686537 276.51309220829626 0 276.51309220829626 -8.324550671518864 0 0 0 0 577.12268999498338 -120.40859067761062 0 -120.40859067761062 15.052735783387348 0 0 0 0 1.615237307508238 -0.52602866791514202 0 -0.52602866791514202 -1.5131943986324594 0 0 0 0 3.503642000934633 -121.44633167844643 0 -121.44633167844643 72.616927436645256 0 0 0 0 63.339056512952084 -22.131294726520082 0 -22.131294726520082 -40.592222478731458 0 0 0 0 7.9704547367582563 9.518186020576934 0 9.518186020576934 26.328063319444368 0 0 0 0 1.5061727626089123 60.082384017660416 0 60.082384017660416 -11.505976621898071 0 0 0 0 81.723271031631157 2.5479200632117909 0 2.5479200632117909 -15.950591150286982 0 0 0 0 33.39115332047686 11.219724660510465 0 11.219724660510465 -14.538650129481653 0 0 0 0 110.73397148351069 3.1803462444810293 0 3.1803462444810293 -33.836159825515892 0 0 0 0 9.669321776415245 0.49647547947262183 0 0.49647547947262183 -1.7432755509104778 0 0 0 0 39.082505173217214 -10.442963262173372 0 -10.442963262173372 -5.6136286204992984 0 0 0 0 39.659414235997247 -8.1797619759078373 0 -8.1797619759078373 -15.79804896304886 0 0 0 0 172.61285579833202 -60.30677968977777 0 -60.30677968977777 -23.44339642787412 0 0 0 0 0.3169783991488373 0.74622982801744797 0 0.74622982801744797 -0.52342484613213336 0 0 0 0 64.914010344335111 -54.865804073362099 0 -54.865804073362099 27.106454171530647 0 0 0 0 56.116065910071484 -56.586497693106537 0 -56.586497693106537 -4.6599232189055213 0 0 0 0 4.947906802786747 30.634310398598856 0 30.634310398598856 -8.9655455941598632 0 0 0 0 0.66804639404350041 0.21710944162092005 0 0.21710944162092005 0.33384886344945125 0 0 0 0 -7.888025033465965 5.6889821490214674 0 5.6889821490214674 -0.003932498073114135 0 0 0 0 5.9729017910867697 88.007654534836533 0 88.007654534836533 -43.944364650822344 0 0 0 0 1.3754685227941081 1.6136277770162781 0 1.6136277770162781 1.5637856719601189 0 0 0 0 -4.9048973650787957 5.5395373158705556 0 5.5395373158705556 2.8757656984487721 0 0 0 0 -0.38848971310653724 5.1330685693090787 0 5.1330685693090787 -0.00065566047523055843 0 0 0 0 -6.1675185902931844 2.7942936746094036 0 2.7942936746094036 -2.8448283250145749 0 0 0 0 -2.8127730275551812 1.5603750927507321 0 1.5603750927507321 -0.74372397769443443 0 0 0 0 0.054629047052003443 4.2174624060313333 0 4.2174624060313333 -2.6336192744611715 0 0 0 0 0.19201717747637304 5.8689990196792481 0 5.8689990196792481 3.8344804330022662 0 0 0 0 -0.82486539058461972 0.089526381046766801 0 0.089526381046766801 0.14749978152907164 0 0 0 0 -62.980200118981884 -9.9711972322494375 0 -9.9711972322494375 -5.3663225918373882 0 0 0 0 -37.132602199111716 18.327877305664089 0 18.327877305664089 5.7216946219029978 0 0 0 0 1.0444260450718161 0.34670319814699724 0 0.34670319814699724 -0.89532518314588216 0 0 0 0 -7.4656700048362836 5.9873583811720472 0 5.9873583811720472 1.3511691216835686 0 0 0 0 -7.3530897841701517 10.276512207558152 0 10.276512207558152 -0.73243091824640416 0 0 0 0 -0.13582467553342781 2.4284981349245243 0 2.4284981349245243 0.10388460888458234 0 0 0 0 -8.3928143767407164 7.1706383631464661 0 7.1706383631464661 7.8268757992740063 0 0 0 0 -5.7668326580314897 5.8434334775964487 0 5.8434334775964487 -2.9339806540462376 0 0 0 0 -4.4925704934232726 4.4211976442156526 0 4.4211976442156526 -1.1533101604272198 0 0 0 0 24.020273692207411 42.466615956474016 0 42.466615956474016 -15.371756673319851 0 0 0 0 6.6506034571897317 6.9581841421238266 0 6.9581841421238266 -5.3048717218898105 0 0 0 0 33.454532676428471 8.1432389170405983 0 8.1432389170405983 -1.3357094605420343 0 0 0 0 24.312146449636202 46.39545115574083 0 46.39545115574083 -20.049091558576947 0 0 0 0 -35.978476431657327 48.223699290952709 0 48.223699290952709 25.891525052617908 0 0 0 0 -40.273530646314612 35.85686634319427 0 35.85686634319427 10.09025364566287 0 0 0 0 -345.21601041758549 -280.42577229250287 0 -280.42577229250287 -87.138576414284785 0 0 0 0 0.78021340345756585 2.9515172889111625 0 2.9515172889111625 2.2574896846035077 0 0 0 0 -59.548380146850832 63.782915881480221 0 63.782915881480221 59.4357554727967 0 0 0 0 -49.454368628590601 42.014036277270407 0 42.014036277270407 52.060714995071521 0 0 0 0 -39.498404976606253 58.200295025937066 0 58.200295025937066 78.205478353921535 0 0 0 0 2.9132324650709052 68.932427698202218 0 68.932427698202218 54.650271088581121 0 0 0 0 33.650076393649215 42.576400966524147 0 42.576400966524147 45.630372805241223 0 0 0 0 62.335329669542261 92.905671142267465 0 92.905671142267465 126.97540684809042 0 0 0 0 43.325493940144952 68.308735332665762 0 68.308735332665762 70.325872213550667 0 0 0 0 153.04561911003111 -14.570656111670075 0 -14.570656111670075 93.196833378269957 0 0 0 0 -35.298196201925748 -6.229072880552792 0 -6.229072880552792 64.928183825321597 0 0 0 0 -8.6825528873887379 5.9056355081466876 0 5.9056355081466876 2.4865249257940505 0 0 0 0 -50.816330746689346 -87.513093081821779 0 -87.513093081821779 -24.654450195359985 0 0 0 0 103.06808621298114 -85.473570032034587 0 -85.473570032034587 -89.118276428271145 0 0 0 0 -79.716272183066394 -12.600519557982835 0 -12.600519557982835 111.34605458244692 0 0 0 0 -0.95257547981259449 0.25733085241846254 0 0.25733085241846254 -0.0069013139010088917 0 0 0 0 -9.894199353426302 14.024705072158275 0 14.024705072158275 0.027767631576744521 0 0 0 0 -0.0012892931073338332 0.042579063657228744 0 0.042579063657228744 -0.0597421020662941 0 0 0 0 0.58685513150703628 -16.826909375606718 0 -16.826909375606718 2.4865249257880011 0 0 0 0 5.2517242195899598 4.4716911280260678 0 4.4716911280260678 0.0044251730198358614 0 0 0 0 93.110752650783979 -16.813046090083276 0 -16.813046090083276 170.85544732972255 0 0 0 0 552.81876311051019 -138.43108560810415 0 -138.43108560810415 117.29213154356241 0 0 0 0 397.84303311241092 60.397674422069571 0 60.397674422069571 -0.59348464022527736 0 0 0 0 460.46006130205933 68.416678848238021 0 68.416678848238021 159.06316601056824 0 0 0 0 395.30443426695274 -26.078899849502122 0 -26.078899849502122 68.881578544134868 0 0 0 0 219.27697087585693 106.51815100541273 0 106.51815100541273 191.49310842716045 0 0 0 0 798.02545648743398 -166.00735385670527 0 -166.00735385670527 56.891369104571822 0 0 0 0 556.62876112568483 123.04716031165674 0 123.04716031165674 74.32439633292438 0 0 0 0 363.55422333995739 115.78986487341948 0 115.78986487341948 -13.294696800035581 0 0 0 0 311.33012048378077 -45.576832375644301 0 -45.576832375644301 133.59985052620777 0 0 0 0 333.0757417154673 0.66514508896671032 0 0.66514508896671032 -145.07424731065748 0 0 0 0 211.27215305434947 112.73075435243072 0 112.73075435243072 -37.356780549848281 0 0 0 0 190.0254389012407 37.66114233233202 0 37.66114233233202 -48.409482521030213 0 0 0 0 207.52496943921142 58.895255657843563 0 58.895255657843563 147.35829991122796 0 0 0 0 211.60114743744725 94.816403206934311 0 94.816403206934311 32.947804898356935 0 0 0 0 84.744960925090709 74.341902385284584 0 74.341902385284584 36.459700915990879 0 0 0 0 88.368345692535513 95.419133020985328 0 95.419133020985328 -2.1274849379269654 0 0 0 0 -48.716761526709888 62.281084643726444 0 62.281084643726444 45.273670984674197 0 0 0 0 -40.192562600539532 45.264118164134629 0 45.264118164134629 47.17657737585705 0 0 0 0 13.812628740211949 80.001865241403721 0 80.001865241403721 58.403297738611627 0 0 0 0 9.1374242134734232 58.374348279445599 0 58.374348279445599 -3.4637647337722228 0 0 0 0 -26.517137761111371 33.489142672754497 0 33.489142672754497 -20.710418947066159 0 0 0 0 6.0862129804736469 98.428795795166025 0 98.428795795166025 -33.136022103596815 0 0 0 0 31.388620887912111 80.179377760520424 0 80.179377760520424 -27.88387134752611 0 0 0 0 21.119897623371799 93.110935443637572 0 93.110935443637572 -23.620699976253491 0 0 0 0 102.55327117855268 48.041255551807126 0 48.041255551807126 -74.964073144056783 0 0 0 0 87.242685044693644 111.94355273988504 0 111.94355273988504 -37.923632105908382 0 0 0 0 35.61067910624115 93.060270920322296 0 93.060270920322296 4.7362854758830508 0 0 0 0 35.173561988965957 68.426516928501769 0 68.426516928501769 -64.580719138291101 0 0 0 0 39.378755098601687 73.390924555129914 0 73.390924555129914 -65.23836053959576 0 0 0 0 59.511355628914316 85.278734622106185 0 85.278734622106185 -61.229577696847628 0 0 0 0 9.3808168702526018 72.767863352273707 0 72.767863352273707 -34.596381068417941 0 0 0 0 102.66979348415043 -35.090289277334477 0 -35.090289277334477 3.0338372290672737 0 0 0 0 71.266278202235242 6.1463743854962445 0 6.1463743854962445 -6.6808585724460734 0 0 0 0 70.629675391493947 -20.335442579690806 0 -20.335442579690806 10.363904751595101 0 0 0 0 82.23360355036948 23.81604964177302 0 23.81604964177302 -33.467285854247621 0 0 0 0 71.793103020492566 3.5191709582063169 0 3.5191709582063169 -7.302928353119853 0 0 0 0 86.423650977740181 66.37722425616721 0 66.37722425616721 -152.49891089236417 0 0 0 0 141.02633967761358 -20.78938992822782 0 -20.78938992822782 -114.18738811866115 0 0 0 0 98.720828186225845 -33.115748867700859 0 -33.115748867700859 -40.387649853834318 0 0 0 0 83.273094654403394 7.6407689828574803 0 7.6407689828574803 -127.68931408138519 0 0 0 0 120.303567769457 -41.100720724547955 0 -41.100720724547955 -133.8892510066421 0 0 0 0 76.065586234122748 74.797568972501608 0 74.797568972501608 -86.523633109236926 0 0 0 0 -2.5256934246279243 3.0877068567056085 0 3.0877068567056085 -14.503764028388254 0 0 0 0 131.43363562917511 -88.248595934039713 0 -88.248595934039713 -121.52229491379785 0 0 0 0 26.973741344248992 -85.173292456344825 0 -85.173292456344825 -70.70191072603393 0 0 0 0 113.98722841183917 -20.840075252825045 0 -20.840075252825045 -41.15728665705592 0 0 0 0 177.42249567781982 -10.527454749182652 0 -10.527454749182652 -8.1332012781731464 0 0 0 0 271.34428083985222 25.677145970016795 0 25.677145970016795 -16.757387214873233 0 0 0 0 320.40206427607336 -125.11525738265755 0 -125.11525738265755 -57.601947888124414 0 0 0 0 67.264405764894036 -180.02547951582778 0 -180.02547951582778 -69.412593881876091 0 0 0 0 210.61743289628066 -130.52147747409253 0 -130.52147747409253 100.58460706313144 0 0 0 0 490.76092296830029 -93.429544181794427 0 -93.429544181794427 0.73105913933704869 0 0 0 0 179.12589378707344 -23.303789502780091 0 -23.303789502780091 37.554970249988401 0 0 0 0 296.09234741078399 -97.841957566369047 0 -97.841957566369047 265.88950695236008 0 0 0 0 398.46124317240901 -256.01526034326525 0 -256.01526034326525 378.02064065182867 0 0 0 0 8.6604153855749928 -2.579043657763151 0 -2.579043657763151 -5.9551018499700241 0 0 0 0 315.76647846102151 -201.96093876331625 0 -201.96093876331625 104.37637672836263 0 0 0 0 2143.7982193083153 -1642.7780833157394 0 -1642.7780833157394 637.51120405288714 0 0 0 0 1745.9982358309062 -1203.9428921886929 0 -1203.9428921886929 619.0589253011367 0 0 0 0 988.47884008310211 -519.61343815292969 0 -519.61343815292969 30.766665842181283 0 0 0 0 11.484960087918552 -2.1814546997604509 0 -2.1814546997604509 -8.6989239053044081 0 0 0 0 1105.7184309574659 -205.045495505904 0 -205.045495505904 -254.4248415028901 0 0 0 0 366.74930288959877 -824.79066864719516 0 -824.79066864719516 39.65667951093161 0 0 0 0 526.22037414164515 102.71319354131083 0 102.71319354131083 113.64013152407512 0 0 0 0 -476.50602986550075 -321.78671916110056 0 -321.78671916110056 20.633896741630451 0 0 0 0 549.19978877317044 -215.50358127885443 0 -215.50358127885443 174.6153688323302 0 0 0 0 -0.057715578677431267 1.2736852815384339 0 1.2736852815384339 -4.3116077296191779 0 0 0 0 432.26468508095422 39.265040728657823 0 39.265040728657823 -130.77302844216661 0 0 0 0 164.42688908105629 -133.81325230830134 0 -133.81325230830134 -167.45393230292666 0 0 0 0 -15.770703198359115 -77.363658672901238 0 -77.363658672901238 -117.18184636070475 0 0 0 0 113.14708651945693 -437.28383585311462 0 -437.28383585311462 -178.65084004249366 0 0 0 0 246.30625061146566 635.81931650888907 0 635.81931650888907 -396.41547566409184 0 0 0 0 5.1595370847176696 -0.59550048067596606 0 -0.59550048067596606 -3.7553195713222003 0 0 0 0 527.15850971015971 -592.63526767398184 0 -592.63526767398184 732.90108123141204 0 0 0 0 26.31052127287694 -7.057540043300861 0 -7.057540043300861 253.35440929398032 0 0 0 0 1187.5013062730577 -132.27104023379064 0 -132.27104023379064 -86.061182830597318 0 0 0 0 610.38374088726414 -49.658263237874003 0 -49.658263237874003 -118.42294198419408 0 0 0 0 578.56051055929856 50.247290423610863 0 50.247290423610863 362.8556878357453 0 0 0 0 1235.4027067351271 -408.50004823547056 0 -408.50004823547056 208.88973770086673 0 0 0 0 733.81956307485962 3.3309485707238489 0 3.3309485707238489 0.82442604731340785 0 0 0 0 2208.1116043234651 -189.16397236294364 0 -189.16397236294364 974.71200814405586 0 0 0 0 3003.9651795210375 -1360.1098096530777 0 -1360.1098096530777 743.63242929564683 0 0 0 0 3656.4180683195664 -351.3323018022266 0 -351.3323018022266 -785.30017673072302 0 0 0 0 1254.9939650018714 -308.97572169025221 0 -308.97572169025221 698.83701438092862 0 0 0 0 2071.0975680581469 -506.55152834690676 0 -506.55152834690676 0.21942632330286646 0 0 0 0 1748.7137848585553 -729.01094764025072 0 -729.01094764025072 480.57008710433917 0 0 0 0 1803.7959914219682 -124.23578013085881 0 -124.23578013085881 330.44778074126657 0 0 0 0 2230.7270514208212 -881.9975936581327 0 -881.9975936581327 311.66325755813341 0 0 0 0 3464.3468414227827 -648.01978450307001 0 -648.01978450307001 145.63221795358254 0 0 0 0 2400.4781772052156 -838.05706144987369 0 -838.05706144987369 -131.44117102230075 0 0 0 0 2005.6916772216791 -533.33110794237871 0 -533.33110794237871 100.33502247845138 0 0 0 0 1160.3593755194161 -466.95962539436334 0 -466.95962539436334 287.11541202583544 0 0 0 0 1760.5851254695008 -433.90694340702066 0 -433.90694340702066 -195.37882391158928 0 0 0 0 1691.4340801253275 -724.08763591364959 0 -724.08763591364959 29.792950405632382 0 0 0 0 812.44282384842518 -593.64314716169486 0 -593.64314716169486 -232.61557091997338 0 0 0 0 1181.8729668499145 -232.66823606090475 0 -232.66823606090475 -50.911165925036585 0 0 0 0 1326.216421155088 -708.25097544846994 0 -708.25097544846994 10.723045720113987 0 0 0 0 1718.4887570571736 -852.54934788258811 0 -852.54934788258811 -10.320824584558295 0 0 0 0 1937.6952693051717 -815.40529166427791 0 -815.40529166427791 -140.02783176209778 0 0 0 0 1878.5135519355008 -843.93465274967366 0 -843.93465274967366 -97.769990121760202 0 0 0 0 1911.3333921067824 -614.18458123410301 0 -614.18458123410301 -118.84724702898075 0 0 0 0 1670.4257976773079 -701.50114102860584 0 -701.50114102860584 -161.62516908128646 0 0 0 0 1953.7653241551307 -892.55225308130309 0 -892.55225308130309 -46.087162671167562 0 0 0 0 1305.9084902568284 -201.71471818060695 0 -201.71471818060695 -87.331524345757771 0 0 0 0 1590.2614136485063 -718.25339156366908 0 -718.25339156366908 56.841089894075708 0 0 0 0 987.53228034581116 -611.71847322186375 0 -611.71847322186375 306.13009193165107 0 0 0 0 1008.2953158562159 -479.40226567273726 0 -479.40226567273726 247.3571991728445 0 0 0 0 1141.1422770326899 -553.02735462112207 0 -553.02735462112207 48.55253750096827 0 0 0 0 2149.4727715009794 -1303.4319796974273 0 -1303.4319796974273 286.33775630660614 0 0 0 0 1636.5162468272902 -837.68795040424232 0 -837.68795040424232 -34.669850096453665 0 0 0 0 1447.8288309603377 -915.18197265686013 0 -915.18197265686013 400.26085348490261 0 0 0 0 890.33557771507185 -583.2228492042118 0 -583.2228492042118 465.17032107880448 0 0 0 0 19.153677826622243 2.177098723903768 0 2.177098723903768 -0.15983393132702695 0 0 0 0 1232.8273701850994 -1067.2486572500443 0 -1067.2486572500443 862.4977066930461 0 0 0 0 2771.1206590514685 -2294.8701227731799 0 -2294.8701227731799 1597.3927976304819 0 0 0 0 61.421169095148798 42.409351971406068 0 42.409351971406068 -66.91110040675585 0 0 0 0 -220.76967178247287 -55.064740177024419 0 -55.064740177024419 61.972520803269958 0 0 0 0 134.92646637368307 -61.917333483669154 0 -61.917333483669154 -125.75153062811216 0 0 0 0 47.804375924674503 10.958576807868013 0 10.958576807868013 -4.3436751128156104 0 0 0 0 -106.89097845244396 -131.7923628396473 0 -131.7923628396473 26.20093546287444 0 0 0 0 19.534578183971462 -6.3572905171025447 0 -6.3572905171025447 0.025410631963348123 0 0 0 0 -1.3447336975140445 -1.2888970852812065 0 -1.2888970852812065 -0.53236942705470147 0 0 0 0 382.47169008891797 220.65945703072202 0 220.65945703072202 -837.68981495110575 0 0 0 0 695.8696344543132 -565.57798273172239 0 -565.57798273172239 -0.56286697229311822 0 0 0 0 3494.2551781027141 -1041.7665341913012 0 -1041.7665341913012 -220.97124083389315 0 0 0 0 2176.2411082038598 -113.6854436838624 0 -113.6854436838624 1.202968802248388 0 0 0 0 2676.6042601305671 -218.04034898961964 0 -218.04034898961964 -161.23493985171243 0 0 0 0 1429.9786142038356 -420.14013175112814 0 -420.14013175112814 337.08806628423565 0 0 0 0 3.5153110134828012 -2.6477336579474695 0 -2.6477336579474695 -0.058027566968627535 0 0 0 0 26.182043302243983 -12.947021669271482 0 -12.947021669271482 0.44323056706468833 0 0 0 0 2115.3023563957831 -932.86679059681114 0 -932.86679059681114 239.29865025634825 0 0 0 0 4.7077158596015636 -4.1641601372976424 0 -4.1641601372976424 -3.6763896541861145 0 0 0 0 834.20694361405913 -181.74532875494731 0 -181.74532875494731 -9.0388749748898647 0 0 0 0 2324.2122038074667 -1753.2056006130615 0 -1753.2056006130615 1077.5225532491952 0 0 0 0 11.090000708250159 1.5763897870823058 0 1.5763897870823058 1.9923285421535946 0 0 0 0 85.456083807584946 -15.669838372625065 0 -15.669838372625065 -28.507673863442847 0 0 0 0 22.149366315828956 2.3293520322918653 0 2.3293520322918653 -1.2857388901265949 0 0 0 0 30.967292143470928 -8.1382317071543184 0 -8.1382317071543184 -7.9846419325220896 0 0 0 0 22.898861984597431 4.1672091149924029 0 4.1672091149924029 -2.3071204423799059 0 0 0 0 27.413313661347217 12.452233548310474 0 12.452233548310474 3.2932295781497674 0 0 0 0 580.57608384116611 -327.84667442361069 0 -327.84667442361069 308.57591494089502 0 0 0 0 53.961918312434136 40.27562970749895 0 40.27562970749895 288.67085786892216 0 0 0 0 13.286126786241987 2.6399969040654696 0 2.6399969040654696 -5.655877418142822 0 0 0 0 3493.8829100473959 509.50751351865239 0 509.50751351865239 267.37353231672375 0 0 0 0 3080.9064269095834 1075.5495924003746 0 1075.5495924003746 391.89574839914894 0 0 0 0 9.5932364099662095 3.6625804603444436 0 3.6625804603444436 6.6606878193001435 0 0 0 0 3630.0009605366795 642.17632897130613 0 642.17632897130613 -320.22454651422987 0 0 0 0 2019.9449219226371 320.52497660374138 0 320.52497660374138 -367.84777259164633 0 0 0 0 1817.1346496088954 1278.6366243107277 0 1278.6366243107277 512.88814372174033 0 0 0 0 3500.5733242437054 209.98584976138147 0 209.98584976138147 -497.31119446882582 0 0 0 0 987.29015901530511 788.09443954712617 0 788.09443954712617 509.1185157853638 0 0 0 0 1464.8936574030004 -343.72836892105386 0 -343.72836892105386 -23.646261645815684 0 0 0 0 1.9140847647055708 5.8666273435649714 0 5.8666273435649714 17.454535932371236 0 0 0 0 1652.6796817378126 -267.57087496688837 0 -267.57087496688837 -93.478075399051704 0 0 0 0 2128.1811700859398 -745.56445454923687 0 -745.56445454923687 -166.98441384940998 0 0 0 0 1821.6130028259795 -769.0950904292672 0 -769.0950904292672 88.246946684842442 0 0 0 0 2212.7086828681931 -1029.1205341717789 0 -1029.1205341717789 -168.68081051080662 0 0 0 0 2356.4035875827249 -1267.9303787343906 0 -1267.9303787343906 199.91367003282335 0 0 0 0 2921.1329555730481 -369.03785239798981 0 -369.03785239798981 -200.01463816069099 0 0 0 0 4320.5418987127778 -1504.5146797483021 0 -1504.5146797483021 -62.957131650533256 0 0 0 0 3372.1412386385764 716.69031084421408 0 716.69031084421408 351.91301067541281 0 0 0 0 1049.3454591582704 -1844.2015011330795 0 -1844.2015011330795 2053.501491109284 0 0 0 0 28.761356973942441 -10.702718530453666 0 -10.702718530453666 5.1254042966025857 0 0 0 0 2906.0526087272883 -1954.7765767819881 0 -1954.7765767819881 1534.9756705657037 0 0 0 0 4.0059936009588384 0.38495331796718801 0 0.38495331796718801 14.455250517693502 0 0 0 0 2164.6169138900659 -1483.2438354831952 0 -1483.2438354831952 1677.4424412745611 0 0 0 0 3499.9432228902829 -244.51345045094351 0 -244.51345045094351 -4.0517820018729997 0 0 0 0 3034.2423622531642 209.0925788847222 0 209.0925788847222 1427.0569054025234 0 0 0 0 2703.5484591311906 90.973660383831444 0 90.973660383831444 -134.39498425573484 0 0 0 0 1237.6587682468453 -101.23883487108515 0 -101.23883487108515 293.38186979644433 0 0 0 0 4.9416833564982738 5.8079781489862796 0 5.8079781489862796 26.922876265365826 0 0 0 0 821.88119033331168 1233.8117350965672 0 1233.8117350965672 804.50911117724831 0 0 0 0 1764.9080281418283 -661.25249288536259 0 -661.25249288536259 60.900036266470856 0 0 0 0 15.642111076516699 10.777531036297844 0 10.777531036297844 7.2208934502647493 0 0 0 0 2228.9885623748924 1415.4423996113787 0 1415.4423996113787 633.36005570277973 0 0 0 0 626.71796613602783 572.08672950811217 0 572.08672950811217 267.74417570906098 0 0 0 0 1.5763057708734891 -0.76197554609368012 0 -0.76197554609368012 0.19169494238553708 0 0 0 0 3.3335066743529751 -244.35847464505869 0 -244.35847464505869 199.35862439608621 0 0 0 0 32.988499120740926 73.145227525782062 0 73.145227525782062 28.556062955729494 0 0 0 0 82.914304466437898 -90.679248424192608 0 -90.679248424192608 140.42996719534904 0 0 0 0 32.305629600181419 -10.395671838497151 0 -10.395671838497151 6.4355087908562645 0 0 0 0 17.669959298131289 22.844957998689722 0 22.844957998689722 12.394186652953039 0 0 0 0 35.724843260730268 22.541929463642361 0 22.541929463642361 -46.773469311189501 0 0 0 0 31.835808386298595 33.562022266887396 0 33.562022266887396 -22.563206284792102 0 0 0 0 -5.6720635543877904 1.3926708556483476 0 1.3926708556483476 -0.006107304657181345 0 0 0 0 24.490647773222008 -26.333419930851434 0 -26.333419930851434 -93.116455602834193 0 0 0 0 42.633864537790942 -226.57975660496982 0 -226.57975660496982 147.80696288166337 0 0 0 0 -68.980790891971992 235.58337564342168 0 235.58337564342168 346.49015752980949 0 0 0 0 -43.552761205537536 185.19666396888488 0 185.19666396888488 -82.912340587358358 0 0 0 0 0.64756028772697505 19.757460174849456 0 19.757460174849456 -5.6922780804905759 0 0 0 0 40.66742737183813 7.3504486690872568 0 7.3504486690872568 -46.982717884579998 0 0 0 0 208.15800797258635 150.89090305689524 0 150.89090305689524 -7.0155244967918406 0 0 0 0 88.847497047099978 26.44295501099851 0 26.44295501099851 -1.4579117758046518 0 0 0 0 351.28153672546614 174.8907368286109 0 174.8907368286109 -27.369381768779476 0 0 0 0 164.88566447496123 36.562399943468336 0 36.562399943468336 111.96878599781849 0 0 0 0 188.91128666056534 93.71132170638576 0 93.71132170638576 262.33530774196697 0 0 0 0 1690.1898822544827 -479.87996458889529 0 -479.87996458889529 -238.33850467605862 0 0 0 0 753.98949253911269 1474.5619818359141 0 1474.5619818359141 2396.3084728017852 0 0 0 0 31.955746578216065 11.122076289888874 0 11.122076289888874 5.621462905006763 0 0 0 0 2997.63989206728 806.75985899918032 0 806.75985899918032 -600.59198672161574 0 0 0 0 2520.9340353551524 582.83227706075593 0 582.83227706075593 -562.36368747701181 0 0 0 0 2617.0001168106537 790.27706977550747 0 790.27706977550747 -577.39141030599512 0 0 0 0 -606.31503788180999 -290.52543903655078 0 -290.52543903655078 1881.3856707514658 0 0 0 0 1946.0490710927697 1510.4171835045986 0 1510.4171835045986 1270.5198176538843 0 0 0 0 -610.78143210917187 549.50842443916054 0 549.50842443916054 309.83118922403168 0 0 0 0 -246.15381263378367 -308.53241120117309 0 -308.53241120117309 333.12903589404698 0 0 0 0 32.052304529676661 26.649554002038876 0 26.649554002038876 19.856657136886039 0 0 0 0 95.921548625832884 278.16330183426851 0 278.16330183426851 -243.45541173816719 0 0 0 0 -223.73817910541402 -240.93650039024328 0 -240.93650039024328 -55.208988393158506 0 0 0 0 62.632900383946662 -16.054527157181909 0 -16.054527157181909 2.4759837393968773 0 0 0 0 91.708780349475546 -13.201973978251118 0 -13.201973978251118 -2.1769041373136133 0 0 0 0 46.666339926950116 28.588926104064832 0 28.588926104064832 24.066486183278457 0 0 0 0 105.17398241056071 51.490173152128591 0 51.490173152128591 -132.06274763049066 0 0 0 0 79.012287831642425 -39.812200466917346 0 -39.812200466917346 -100.30489657079806 0 0 0 0 139.5694969612814 -16.031496458857873 0 -16.031496458857873 -106.62369549517121 0 0 0 0 186.92053577754632 -119.16669095573513 0 -119.16669095573513 -32.996898714026884 0 0 0 0 187.97708955737744 -119.05837699082568 0 -119.05837699082568 -63.390342436132642 0 0 0 0 80.95808492226206 74.794292969809305 0 74.794292969809305 216.07120339578239 0 0 0 0 247.18178401640034 121.15678666946485 0 121.15678666946485 -118.90235660641414 0 0 0 0 527.25074531797873 296.20281914807248 0 296.20281914807248 134.80302656577635 0 0 0 0 91.102786335017299 627.2864652108716 0 627.2864652108716 821.05797385008634 0 0 0 0 -123.05239956494916 -139.84891699651348 0 -139.84891699651348 -29.263949087722267 0 0 0 0 227.808819768783 430.48408534975755 0 430.48408534975755 502.28563842305789 0 0 0 0 401.28547853087366 478.27889771166861 0 478.27889771166861 236.28092738668607 0 0 0 0 619.56554403300834 592.9250851648128 0 592.9250851648128 290.07309657615497 0 0 0 0 650.5845290585894 565.05577730736206 0 565.05577730736206 143.82996086531719 0 0 0 0 661.94093218055787 545.95836932852876 0 545.95836932852876 161.24074709993826 0 0 0 0 735.74435456891842 529.9180552662483 0 529.9180552662483 89.176951649452917 0 0 0 0 981.37380247896363 475.97286891512249 0 475.97286891512249 100.89597135541123 0 0 0 0 873.9430369414913 265.65429343039114 0 265.65429343039114 165.07336571422388 0 0 0 0 712.95863168947835 679.65050040495726 0 679.65050040495726 126.36790803466647 0 0 0 0 515.01483539551919 501.16999998689676 0 501.16999998689676 160.36993890503197 0 0 0 0 309.05132467803924 -11.212423940666248 0 -11.212423940666248 249.24656508279315 0 0 0 0 397.46203795474139 271.92483063750103 0 271.92483063750103 159.91868917484467 0 0 0 0 692.28151047639858 244.1305346518354 0 244.1305346518354 132.93038557287747 0 0 0 0 877.54904285968223 283.79937164045373 0 283.79937164045373 134.28052959383928 0 0 0 0 523.54279947261603 -81.018290290727634 0 -81.018290290727634 254.39942034549722 0 0 0 0 427.45396381601677 38.79444161628134 0 38.79444161628134 228.45407270931892 0 0 0 0 1236.0084114531783 -187.61037089920899 0 -187.61037089920899 237.87142239354949 0 0 0 0 1144.8352945880533 375.31012816410214 0 375.31012816410214 205.71753545810589 0 0 0 0 1511.3077445023955 275.10888995510845 0 275.10888995510845 -152.45746463182988 0 0 0 0 1416.5213515854521 -9.4466599671276583 0 -9.4466599671276583 532.95956961610273 0 0 0 0 6.510176722591936 -4.2580135217981194 0 -4.2580135217981194 2.4557620913848677 0 0 0 0 77.940703012566701 -300.50959704986639 0 -300.50959704986639 477.68698998494779 0 0 0 0 492.15836767597648 696.09415190827156 0 696.09415190827156 297.77850213522856 0 0 0 0 1207.9804997022948 30.778450238778987 0 30.778450238778987 654.84240761668104 0 0 0 0 1162.4289334055284 459.70506669691645 0 459.70506669691645 123.83171394124653 0 0 0 0 1624.5311003523966 178.69589653273579 0 178.69589653273579 -273.39919360759166 0 0 0 0 7.2978690812533955 2.1410897855141764 0 2.1410897855141764 -0.1694895489902819 0 0 0 0 898.94411869570467 -318.38835845552092 0 -318.38835845552092 -267.84585504606912 0 0 0 0 173.61113896910683 -240.31387954895592 0 -240.31387954895592 -84.743816917289564 0 0 0 0 -144.44764002358716 179.11499950076131 0 179.11499950076131 -16.565906344868949 0 0 0 0 13.043714016607595 2.6528949415556671 0 2.6528949415556671 -0.80486399501282357 0 0 0 0 116.64338763357955 107.07749966442202 0 107.07749966442202 -312.22093011676316 0 0 0 0 -18.975103058684908 50.358659687677687 0 50.358659687677687 -49.059998474592817 0 0 0 0 -5.5562023231686908 26.431008201353563 0 26.431008201353563 -54.603554617962345 0 0 0 0 -24.584231896100391 71.762987868880543 0 71.762987868880543 116.75707540519988 0 0 0 0 275.31099005582655 46.217780017612256 0 46.217780017612256 -504.52127179335594 0 0 0 0 287.33071802678387 155.02913626185335 0 155.02913626185335 -1.1625008177916243 0 0 0 0 628.10564423424512 436.2279350206494 0 436.2279350206494 52.408875054200138 0 0 0 0 444.71962501683083 -4.5141801784583606 0 -4.5141801784583606 -61.346189173033395 0 0 0 0 579.6985934227414 -375.90460315992613 0 -375.90460315992613 122.43806537093745 0 0 0 0 1244.3827139002533 271.30749299146163 0 271.30749299146163 -31.057085854886168 0 0 0 0 760.98797046416439 670.87887109401709 0 670.87887109401709 233.66215594830135 0 0 0 0 37.792116367316339 1.6911682165277426 0 1.6911682165277426 31.65255511659791 0 0 0 0 224.15194068730489 -30.495041790655961 0 -30.495041790655961 88.575647252187508 0 0 0 0 160.84276358381612 -162.39768163347446 0 -162.39768163347446 115.88112168069432 0 0 0 0 145.12941997287271 -103.87673074982996 0 -103.87673074982996 -43.560479458785835 0 0 0 0 73.166908782266546 -19.762178792228468 0 -19.762178792228468 -93.304278399077816 0 0 0 0 123.14102099141746 -109.08173270901318 0 -109.08173270901318 25.806070786471942 0 0 0 0 426.47592645691475 64.380180948548741 0 64.380180948548741 -138.92846482611799 0 0 0 0 66.681046740362945 -227.3212478640871 0 -227.3212478640871 -83.710406802043167 0 0 0 0 279.5403281992767 -208.89606598785087 0 -208.89606598785087 -290.57265700633559 0 0 0 0 5.7981625935780414 1.5905592238270712 0 1.5905592238270712 -0.30777395969064825 0 0 0 0 21.361718725805986 154.98150130364183 0 154.98150130364183 89.10577848750745 0 0 0 0 206.47006181029428 235.37789325936495 0 235.37789325936495 107.44180802774235 0 0 0 0 476.31272348217317 32.516143217508784 0 32.516143217508784 -29.252405460737599 0 0 0 0 162.34060628349107 -237.09315232633764 0 -237.09315232633764 53.16386943721227 0 0 0 0 -80.743513372872258 -53.358690602908155 0 -53.358690602908155 122.33291511627374 0 0 0 0 114.66665745114005 -12.847726315690124 0 -12.847726315690124 -97.465107575474974 0 0 0 0 -0.033729395601819867 -0.86256533130996615 0 -0.86256533130996615 -3.12647260282119 0 0 0 0 -185.16344952963118 126.56432660929164 0 126.56432660929164 79.323504285903937 0 0 0 0 164.04514310829109 -25.763653432961462 0 -25.763653432961462 -56.099038843847893 0 0 0 0 108.45605399728811 262.4799347639231 0 262.4799347639231 36.223027810805299 0 0 0 0 153.70290962840227 -2.4434682339806386 0 -2.4434682339806386 -101.18363322084906 0 0 0 0 146.22282384219943 -10.055004974716368 0 -10.055004974716368 -27.261546835990202 0 0 0 0 43.606177036286681 36.53478181515402 0 36.53478181515402 -38.404411430279936 0 0 0 0 6.1211445465742145 91.946499489608414 0 91.946499489608414 -52.173605531679641 0 0 0 0 174.83776013404713 -54.064557077731479 0 -54.064557077731479 67.03696951980055 0 0 0 0 215.75228643959963 95.612146444470795 0 95.612146444470795 -18.518291200411568 0 0 0 0 69.128635663095338 -78.766356087791792 0 -78.766356087791792 71.883671368990974 0 0 0 0 18.554963846894481 -17.864803788811301 0 -17.864803788811301 11.056720801364495 0 0 0 0 -77.854489182598627 -26.572599167621007 0 -26.572599167621007 43.799123630888062 0 0 0 0 -23.402578880311921 146.70893110720112 0 146.70893110720112 138.40098995690244 0 0 0 0 44.534957905751071 -8.4649406442687223 0 -8.4649406442687223 -4.6490492146502902 0 0 0 0 25.976853659143671 93.521564342353031 0 93.521564342353031 104.34063350451879 0 0 0 0 -151.70735881393921 111.85342708240114 0 111.85342708240114 126.79694990889766 0 0 0 0 3.4866293479942101 -6.6502344300784557 0 -6.6502344300784557 4.5854751909992757 0 0 0 0 -176.21003638425464 -138.72154776720697 0 -138.72154776720697 -19.132083166990924 0 0 0 0 29.637000153590634 -53.259128066496146 0 -53.259128066496146 10.122833990923027 0 0 0 0 12.885488587606233 -17.761605471101504 0 -17.761605471101504 17.770118230182455 0 0 0 0 1.5531670106556277 -10.027334115349305 0 -10.027334115349305 -8.1602994477771524 0 0 0 0 56.514267127546191 -15.511527170245813 0 -15.511527170245813 -16.641452422675513 0 0 0 0 45.239985764266748 -5.3304678197820294 0 -5.3304678197820294 -4.0270097401299552 0 0 0 0 -11.670471643301426 -25.362172641666348 0 -25.362172641666348 24.986196686978928 0 0 0 0 5.091304635774577 -48.263224715712113 0 -48.263224715712113 -25.311251271216861 0 0 0 0 58.333138770918595 -26.529473231107659 0 -26.529473231107659 -17.014825109818048 0 0 0 0 -2.4198721527922089 -3.4303974769520806 0 -3.4303974769520806 -6.8835412669923333 0 0 0 0 87.273086282919394 -1.2096667619252912 0 -1.2096667619252912 7.5694544850884995 0 0 0 0 79.382392869229079 -80.314438747845657 0 -80.314438747845657 -17.84509422121937 0 0 0 0 125.85828148871951 -47.422118198338922 0 -47.422118198338922 7.491272607386307 0 0 0 0 25.463441378120478 10.974169689352244 0 10.974169689352244 -27.053049780079363 0 0 0 0 204.83484688924227 -17.338449330831214 0 -17.338449330831214 -14.037159797677759 0 0 0 0 -11.814368776482297 -12.54862694579819 0 -12.54862694579819 12.517497579010922 0 0 0 0 0.21101291932074506 -0.32246923611540979 0 -0.32246923611540979 -9.6773786103373496 0 0 0 0 121.34820066648535 -35.542254230281287 0 -35.542254230281287 -16.196195619527998 0 0 0 0 113.23027191183792 -26.609847785824513 0 -26.609847785824513 24.347501742802024 0 0 0 0 476.03180121880723 502.48572243908484 0 502.48572243908484 368.01880661250107 0 0 0 0 219.36965570654138 317.0901787206277 0 317.0901787206277 259.21029928040207 0 0 0 0 9.2615476808066433 4.9535259747562996 0 4.9535259747562996 1.7879967732066575 0 0 0 0 371.21409314618359 -434.92270974446092 0 -434.92270974446092 445.98218227150392 0 0 0 0 992.95579760352848 -84.300375290916236 0 -84.300375290916236 25.383776409421444 0 0 0 0 676.72195140136319 446.5137739789468 0 446.5137739789468 409.77014041704933 0 0 0 0 395.36286677842145 146.75834354632116 0 146.75834354632116 134.14314413111632 0 0 0 0 1115.9136910747875 27.828094513189967 0 27.828094513189967 4.5345436152633738 0 0 0 0 268.17835139597446 -83.865270976488318 0 -83.865270976488318 892.13440107257145 0 0 0 0 63.164443268578907 50.925109206578327 0 50.925109206578327 94.608230711950455 0 0 0 0 268.6736459453241 -102.19595569901776 0 -102.19595569901776 181.55095715977041 0 0 0 0 157.57206822287844 292.36470163272952 0 292.36470163272952 521.26938963474458 0 0 0 0 54.912662568065571 100.85709940121069 0 100.85709940121069 191.28319569299822 0 0 0 0 -1.9344438065018039 181.05358303879598 0 181.05358303879598 173.65418206827235 0 0 0 0 -104.17686915896775 51.537057203184304 0 51.537057203184304 117.9709645988537 0 0 0 0 -176.84848032672744 -69.435756879591281 0 -69.435756879591281 238.62454296602144 0 0 0 0 -8.8069322331248259 -25.007636397000283 0 -25.007636397000283 6.2028682492837106 0 0 0 0 10.063058051256434 -11.151137279210019 0 -11.151137279210019 11.719582388332675 0 0 0 0 -51.968213163701876 -74.734814759588517 0 -74.734814759588517 -3.9200800002122378 0 0 0 0 5.2306160476026378 -4.367687433785818 0 -4.367687433785818 2.5215833890832471 0 0 0 0 348.91017965297215 -132.48712161842286 0 -132.48712161842286 -161.57316522122551 0 0 0 0 -51.862166148639517 -257.09913340447054 0 -257.09913340447054 36.966035942278495 0 0 0 0 382.76314607493987 -56.968680688294739 0 -56.968680688294739 -178.18692257490989 0 0 0 0 357.73292763782229 44.630114524028734 0 44.630114524028734 -40.438463668265967 0 0 0 0 426.00031382005545 -11.28950634904777 0 -11.28950634904777 5.3643290182749439 0 0 0 0 91.890855374047533 -20.949385836675901 0 -20.949385836675901 -53.313168030449788 0 0 0 0 293.6240014592986 -200.60101312266306 0 -200.60101312266306 22.527893839204808 0 0 0 0 284.09229194458749 198.75784331181057 0 198.75784331181057 -196.65203422254672 0 0 0 0 -41.83030413382221 648.72652124052092 0 648.72652124052092 -283.73193721262442 0 0 0 0 5.2777322402544087 382.09261081593831 0 382.09261081593831 -114.4389478641998 0 0 0 0 549.77391537796029 249.83834906228532 0 249.83834906228532 -82.322814754136971 0 0 0 0 544.0298805815255 362.77333953106199 0 362.77333953106199 35.991840560179185 0 0 0 0 17.833613663402502 87.190349849259292 0 87.190349849259292 227.33951694108077 0 0 0 0 73.077653933840338 -101.16088072507864 0 -101.16088072507864 73.773297532877677 0 0 0 0 409.563000166032 373.76326210455909 0 373.76326210455909 93.96513113770834 0 0 0 0 437.84983775633009 -240.61085871715295 0 -240.61085871715295 80.825918808736787 0 0 0 0 865.54524825945555 -355.85010551504365 0 -355.85010551504365 106.09867973313158 0 0 0 0 -291.81159469767954 53.907341494869797 0 53.907341494869797 -167.21494922542297 0 0 0 0 37.748651504152804 95.60705817490043 0 95.60705817490043 -603.49143829238619 0 0 0 0 175.8702047169354 288.45033750686343 0 288.45033750686343 -559.507346143625 0 0 0 0 -148.52197754307417 638.31946457822596 0 638.31946457822596 183.37486818005164 0 0 0 0 22.431597543915188 12.648512438889895 0 12.648512438889895 7.3605138497785596 0 0 0 0 16.488126899941562 58.492409389914314 0 58.492409389914314 -8.643089343221618 0 0 0 0 17.881157455550806 -6.3047199764145319 0 -6.3047199764145319 -7.1042721756898608 0 0 0 0 21.904200830613263 11.362134256426543 0 11.362134256426543 -14.761547602885003 0 0 0 0 22.340244086022722 0.21163372735009034 0 0.21163372735009034 -5.1252992677992779 0 0 0 0 24.331238252465425 4.9714626083007829 0 4.9714626083007829 -2.3514601239403543 0 0 0 0 18.138984130310888 7.2031664129295905 0 7.2031664129295905 0.38566919592434523 0 0 0 0 27.753503414918669 4.4464137594259228 0 4.4464137594259228 -14.40492096789248 0 0 0 0 13.279492622154066 8.2669110844180977 0 8.2669110844180977 -4.3929702057002942 0 0 0 0 161.42461525576073 98.582450586140112 0 98.582450586140112 -713.94367944783528 0 0 0 0 397.56425030124592 -697.49202177958455 0 -697.49202177958455 -543.85957393221906 0 0 0 0 -44.380204405533732 -2.3388052771110779 0 -2.3388052771110779 138.2346198083751 0 0 0 0 -56.593420350185625 39.143375370340664 0 39.143375370340664 -152.172417366015 0 0 0 0 7.9549061373254517 -46.905687952169046 0 -46.905687952169046 -138.91408166896508 0 0 0 0 24.185007444526207 9.9986002139055046 0 9.9986002139055046 -1.8050759588578273 0 0 0 0 35.358517757224035 8.2739534359629943 0 8.2739534359629943 -3.7591233144776197 0 0 0 0 21.831672357846401 4.3139358144780999 0 4.3139358144780999 3.1817199069195397 0 0 0 0 9.7147480919229565 12.494471618163061 0 12.494471618163061 2.9073500386930391 0 0 0 0 38.131770439155616 3.3919053267009289 0 3.3919053267009289 -3.1535914944245871 0 0 0 0 44.855773961746308 5.1425187332019959 0 5.1425187332019959 -4.570907177434492 0 0 0 0 36.230133780547476 -0.99348956097492191 0 -0.99348956097492191 3.0648585505550727 0 0 0 0 28.335276100847864 8.6732683165687945 0 8.6732683165687945 -2.8934657301212532 0 0 0 0 37.482767691348272 -3.9044012962560828 0 -3.9044012962560828 3.4273343791428488 0 0 0 0 34.358650676127581 -2.4599370393675599 0 -2.4599370393675599 2.9656587265981216 0 0 0 0 29.606862600048771 2.4194534044199827 0 2.4194534044199827 2.066429177403279 0 0 0 0 16.195192357516873 -4.2575504211229713 0 -4.2575504211229713 4.5203628766549855 0 0 0 0 39.040397268036031 -1.7849867554962202 0 -1.7849867554962202 1.3478311542876327 0 0 0 0 36.631699814395688 -0.44200653565485482 0 -0.44200653565485482 0.72769638199679321 0 0 0 0 -0.39201877021696419 -44.118894685454507 0 -44.118894685454507 39.934443863914339 0 0 0 0 11.083407842019 -11.640467398601146 0 -11.640467398601146 14.990506501034627 0 0 0 0 38.688061685083085 -18.15284236713228 0 -18.15284236713228 -36.801867865791792 0 0 0 0 28.592758952421718 -24.363551876414022 0 -24.363551876414022 17.656261147923033 0 0 0 0 33.120589740075843 -1.0792901169674494 0 -1.0792901169674494 -2.7932896940707934 0 0 0 0 248.52520050665771 -95.330529961925095 0 -95.330529961925095 79.419891565662056 0 0 0 0 409.12684100877959 51.555638834942329 0 51.555638834942329 -23.934111572293659 0 0 0 0 285.46893111990357 -132.06195800395926 0 -132.06195800395926 21.550365591783475 0 0 0 0 38.530006910150405 -28.62041364191964 0 -28.62041364191964 -74.233725603784478 0 0 0 0 293.96095598451211 -41.529246436289668 0 -41.529246436289668 -1.0849341999446551 0 0 0 0 14.794834399072045 0.26188703256583068 0 0.26188703256583068 4.3236656727828073 0 0 0 0 48.079091504863754 210.19243206047236 0 210.19243206047236 -110.39686749450448 0 0 0 0 203.13919648752199 -109.75500875561875 0 -109.75500875561875 -113.3340916259309 0 0 0 0 244.53152597903681 120.61861844511623 0 120.61861844511623 -268.02110890427912 0 0 0 0 7.359447810362326 56.50549284857334 0 56.50549284857334 29.186714730185713 0 0 0 0 -41.005947767902398 39.40796696482721 0 39.40796696482721 28.994652476674673 0 0 0 0 -67.452377904366585 86.512673712306878 0 86.512673712306878 48.47389844940335 0 0 0 0 17.406628661206923 110.21571167920592 0 110.21571167920592 51.474244748777664 0 0 0 0 155.95014748247922 128.00416974362997 0 128.00416974362997 -50.501635843133045 0 0 0 0 37.509649859875935 15.858972422565657 0 15.858972422565657 -22.172638166102047 0 0 0 0 13.959355472965399 10.573912588872069 0 10.573912588872069 -21.818082057712786 0 0 0 0 -0.21534778296629575 0.25534261669405112 0 0.25534261669405112 -16.36356695298776 0 0 0 0 281.53672735037162 -32.422546698356626 0 -32.422546698356626 -43.728170186514944 0 0 0 0 -5.8773028702053125 13.755725487469647 0 13.755725487469647 4.3212988764565807 0 0 0 0 -1.0657550378440561 -1.6993369245421803 0 -1.6993369245421803 -1.7368485625687207 0 0 0 0 196.10975813418918 -28.568697600880114 0 -28.568697600880114 0.81619468437202158 0 0 0 0 201.91218732722336 -23.925795865166037 0 -23.925795865166037 4.473977998687019 0 0 0 0 79.425729606111418 169.7738110182936 0 169.7738110182936 -203.0230180739436 0 0 0 0 60.620867917626128 -5.7209178572726103 0 -5.7209178572726103 -98.295481316983569 0 0 0 0 56.810371537838364 -33.302418762209982 0 -33.302418762209982 -135.47561005716398 0 0 0 0 28.884157482054434 -38.524327292825546 0 -38.524327292825546 -4.9249549362539256 0 0 0 0 43.668851622835064 -36.928596590236793 0 -36.928596590236793 -109.36812462349644 0 0 0 0 16.281760205572937 -2.9420610984225277 0 -2.9420610984225277 -109.92457663937282 0 0 0 0 17.214244237642703 6.5642184286670258 0 6.5642184286670258 -0.20014833955788447 0 0 0 0 13.075439646338054 -10.932864133734256 0 -10.932864133734256 -125.2625865508935 0 0 0 0 8.132093745021848 -5.974925572005759 0 -5.974925572005759 -126.97720971945773 0 0 0 0 2.6196110279614402 0.81468950485782443 0 0.81468950485782443 -0.096745054859891155 0 0 0 0 7.5173878790083108 -37.30380932601247 0 -37.30380932601247 -132.4848489926278 0 0 0 0 236.9281737564495 -122.26863867074167 0 -122.26863867074167 -87.594458270146788 0 0 0 0 2.1456319899074572 2.1551350446587563 0 2.1551350446587563 1.2683162727756283 0 0 0 0 630.35156859633571 134.16509137066441 0 134.16509137066441 -106.26246760031722 0 0 0 0 1017.3461998902203 -224.08560750797733 0 -224.08560750797733 -155.90522100239286 0 0 0 0 -9.730045722793875 16.928681282403204 0 16.928681282403204 118.06695082902297 0 0 0 0 19.267715399397275 21.473678176495923 0 21.473678176495923 -9.6313134586262095 0 0 0 0 6.1547166458476568 17.233657657101048 0 17.233657657101048 3.4675333745572061 0 0 0 0 27.561719474557322 14.164217263862156 0 14.164217263862156 -8.4662714209916885 0 0 0 0 2.9187761128123952 11.28703193959565 0 11.28703193959565 -4.1497097171842938 0 0 0 0 11.570462791918544 11.284380256797704 0 11.284380256797704 20.651267198296409 0 0 0 0 44.585650987042754 23.82401277109193 0 23.82401277109193 -22.8961349354513 0 0 0 0 -24.864820757618872 76.482017574229758 0 76.482017574229758 6.8929583165732424 0 0 0 0 41.094288932366169 15.129682058040089 0 15.129682058040089 -1.2680891736124629 0 0 0 0 13.178308558781282 35.527608349239927 0 35.527608349239927 -18.384760493208887 0 0 0 0 77.066164817020763 137.8645221301299 0 137.8645221301299 77.893535236602474 0 0 0 0 545.54276295345335 -100.20656272691258 0 -100.20656272691258 -115.78890689160562 0 0 0 0 126.92246875127603 -109.6934505650861 0 -109.6934505650861 -100.05869804114423 0 0 0 0 37.72099434203119 164.24995881452514 0 164.24995881452514 193.45928822110818 0 0 0 0 4.6655037745960897 0.86560616249404632 0 0.86560616249404632 -3.6829823330829043 0 0 0 0 289.33750228579447 26.199544335857809 0 26.199544335857809 -56.548833265682333 0 0 0 0 2.0787399214605102 57.80851540936419 0 57.80851540936419 209.95170606533793 0 0 0 0 -1.9503196401346941 111.23251820354653 0 111.23251820354653 97.705499541338213 0 0 0 0 39.095945803208451 11.351304112662774 0 11.351304112662774 -35.397398552882919 0 0 0 0 6.0154396045469873 0.80782645185857405 0 0.80782645185857405 -21.915374456175371 0 0 0 0 179.9544233285269 86.584704086875263 0 86.584704086875263 15.568913855246137 0 0 0 0 100.97781036165543 36.580453354643396 0 36.580453354643396 142.82310436932084 0 0 0 0 40.332175987921801 4.4103014908045743 0 4.4103014908045743 -20.860443669388133 0 0 0 0 39.884157035426625 5.7453290606292491 0 5.7453290606292491 -25.921521575762927 0 0 0 0 38.53715284520149 -90.460801994089707 0 -90.460801994089707 -97.906673341007263 0 0 0 0 53.286849633295787 11.859056496111407 0 11.859056496111407 -28.384240125111774 0 0 0 0 64.652804233634527 5.4417292377295325 0 5.4417292377295325 -34.724828759821129 0 0 0 0 45.46758237462678 -4.95558200603557 0 -4.95558200603557 -28.384158804069578 0 0 0 0 -316.35362906953378 -47.105507073758417 0 -47.105507073758417 73.136712247811829 0 0 0 0 193.98727048374712 76.450052567335661 0 76.450052567335661 -52.844904518281965 0 0 0 0 80.876576199261763 -7.9199442789727268 0 -7.9199442789727268 -46.824824883106572 0 0 0 0 65.247168278277968 42.462450483210432 0 42.462450483210432 88.90235585082155 0 0 0 0 20.883942047490649 1.8609951593154506 0 1.8609951593154506 -30.944713449317895 0 0 0 0 242.13317012460902 5.0522582474547448 0 5.0522582474547448 -60.649856110845803 0 0 0 0 191.21300357367727 -24.553791842305145 0 -24.553791842305145 18.29999636685352 0 0 0 0 534.87728780161706 137.99550289126546 0 137.99550289126546 -57.815368077879043 0 0 0 0 -1.3081829341298201 -3.4960157546118467 0 -3.4960157546118467 -9.8444629083204376 0 0 0 0 -269.92214702475758 246.13241590932302 0 246.13241590932302 -129.3874312921148 0 0 0 0 440.10218935645116 91.01037645701399 0 91.01037645701399 -64.670791392918545 0 0 0 0 291.49660472787218 445.4996655795569 0 445.4996655795569 -710.30890619090974 0 0 0 0 -7.8411620629485697 -89.569833820612303 0 -89.569833820612303 52.609783877388281 0 0 0 0 154.16764667835378 107.21151462341271 0 107.21151462341271 -486.61402274230613 0 0 0 0 13.758950420102337 12.736209720800616 0 12.736209720800616 -447.01363062714609 0 0 0 0 5.3936542643493794 -2.3708216177393808 0 -2.3708216177393808 -8.8620575682067031 0 0 0 0 251.98361707752338 -4.9829415671802053 0 -4.9829415671802053 -560.27954271705516 0 0 0 0 434.9353651869751 133.8584209769258 0 133.8584209769258 -560.56985710849472 0 0 0 0 -32.842792061506771 -50.853779399659743 0 -50.853779399659743 -36.822505592687321 0 0 0 0 127.21150215159287 -48.450666292700703 0 -48.450666292700703 -44.25083958858454 0 0 0 0 74.082355121571453 -22.595457090558185 0 -22.595457090558185 -21.545360991358912 0 0 0 0 88.345878088613972 14.514053227081604 0 14.514053227081604 86.439531540629105 0 0 0 0 21.154264105087918 -7.5451199987582385 0 -7.5451199987582385 -16.706875553641289 0 0 0 0 217.91367740856367 -110.00661562231204 0 -110.00661562231204 -39.135942903526796 0 0 0 0 42.770326375924242 8.4078283923643795 0 8.4078283923643795 -6.9024882965837469 0 0 0 0 71.651031801884528 18.378151637646624 0 18.378151637646624 -64.264302132274679 0 0 0 0 84.883572361475672 63.960208052516464 0 63.960208052516464 -33.336884812079461 0 0 0 0 59.892166408775125 15.839351866719525 0 15.839351866719525 -5.7420424144436648 0 0 0 0 92.109835413531982 135.65157068454209 0 135.65157068454209 -76.867970438374414 0 0 0 0 26.885153594310395 14.029477846488589 0 14.029477846488589 -30.509724429313792 0 0 0 0 96.38838133338993 37.563129797667074 0 37.563129797667074 -23.66981365624433 0 0 0 0 43.091984422356859 5.7010823935304558 0 5.7010823935304558 -4.492881009033006 0 0 0 0 26.716546315437881 -0.42441363320540404 0 -0.42441363320540404 -34.364422354611634 0 0 0 0 -21.322566636954434 182.83882735661609 0 182.83882735661609 57.067890308707319 0 0 0 0 64.890082856127265 2.3707530944850532 0 2.3707530944850532 -79.267044728651854 0 0 0 0 26.241453432012349 -192.51208875875659 0 -192.51208875875659 -565.01081608485424 0 0 0 0 0.083703533696507293 15.318759755711781 0 15.318759755711781 -11.413449985605302 0 0 0 0 -3.8650530994054861 -95.174290046306169 0 -95.174290046306169 -505.89832369058809 0 0 0 0 342.51197913248325 -159.1041011682114 0 -159.1041011682114 -608.70639151795194 0 0 0 0 5.2659135531066568 72.309684532407573 0 72.309684532407573 -51.101422761889353 0 0 0 0 192.16553258491331 -15.12158295539848 0 -15.12158295539848 -1055.8296383493259 0 0 0 0 -230.34387275058907 -685.03670201901696 0 -685.03670201901696 -1073.2561999549621 0 0 0 0 -4.5040961934325878 2.6830280165365252 0 2.6830280165365252 -3.015658752581885 0 0 0 0 -58.050255344627658 47.889568877518741 0 47.889568877518741 185.41116036171888 0 0 0 0 -90.618705531189335 278.46067769973865 0 278.46067769973865 -291.89184105226059 0 0 0 0 348.83827205889247 361.8398088040542 0 361.8398088040542 -117.84664959885959 0 0 0 0 398.99627695372328 200.37943234124668 0 200.37943234124668 223.53726442040966 0 0 0 0 618.76588882876968 593.86086735255321 0 593.86086735255321 330.4776586366545 0 0 0 0 2515.7494062480037 1373.3162539105156 0 1373.3162539105156 460.70038191000322 0 0 0 0 839.37631183707708 161.99583987925951 0 161.99583987925951 -780.0263436949881 0 0 0 0 208.00040951035044 576.38877131231357 0 576.38877131231357 592.94584494171158 0 0 0 0 383.96982925310112 110.73222600381301 0 110.73222600381301 -515.32537409308361 0 0 0 0 502.26368971301417 -216.19042684330668 0 -216.19042684330668 137.52531170105348 0 0 0 0 23.426492433078238 -75.333921317763725 0 -75.333921317763725 -223.91235836204646 0 0 0 0 5.008841887135361 -8.3480009606254555 0 -8.3480009606254555 9.3011496062584023 0 0 0 0 736.09291132311773 19.115871087353526 0 19.115871087353526 -30.287481318508981 0 0 0 0 -41.94119021557708 -149.0240232854967 0 -149.0240232854967 -197.12496862307307 0 0 0 0 37.272826050873846 -31.322855372452977 0 -31.322855372452977 -31.595126860252776 0 0 0 0 52.950820895614015 -64.581980122393816 0 -64.581980122393816 -168.78125935719709 0 0 0 0 191.23475090616557 -64.674100427726898 0 -64.674100427726898 -327.05772108029578 0 0 0 0 182.67809764905542 -7.0162322752653381 0 -7.0162322752653381 -217.31949772406097 0 0 0 0 151.7329058578398 63.104793441490528 0 63.104793441490528 -357.84172482297436 0 0 0 0 72.259655328125518 -2.1366723053347414 0 -2.1366723053347414 -55.589154650833734 0 0 0 0 78.093854128048406 34.918069237499367 0 34.918069237499367 -6.8594360395400145 0 0 0 0 6.8345058975046697 3.422014641271204 0 3.422014641271204 0.81078941698118001 0 0 0 0 39.075869530752243 20.238885627940363 0 20.238885627940363 -189.47170719287442 0 0 0 0 29.526214917823381 282.02308919679064 0 282.02308919679064 -576.78629802033083 0 0 0 0 128.48535188568349 70.914995960409215 0 70.914995960409215 -170.39893517338646 0 0 0 0 265.41017491403909 -224.50910635051378 0 -224.50910635051378 -731.87466426128367 0 0 0 0 -198.69126418451197 -272.92376333065249 0 -272.92376333065249 -33.025788420835397 0 0 0 0 286.34374026478326 -61.999399170121706 0 -61.999399170121706 57.17233880462436 0 0 0 0 295.87207388249226 -161.0530536122069 0 -161.0530536122069 -109.49837735223423 0 0 0 0 336.61697119515156 -362.37246166055297 0 -362.37246166055297 23.062208318907551 0 0 0 0 339.56695697494797 -326.147831711739 0 -326.147831711739 4.0096514930710327 0 0 0 0 265.10626619677828 -237.35428974650435 0 -237.35428974650435 -201.36371327446886 0 0 0 0 309.51935806244728 -72.192538869197506 0 -72.192538869197506 -476.07299825636892 0 0 0 0 286.80027864343356 -176.31962459141653 0 -176.31962459141653 -200.83267746024649 0 0 0 0 146.39268880231248 -203.92723922772825 0 -203.92723922772825 -230.74733895644658 0 0 0 0 308.41124627136742 -307.58927769178126 0 -307.58927769178126 -40.048777027726373 0 0 0 0 161.30514174902055 -152.76367440142769 0 -152.76367440142769 -179.85382727778779 0 0 0 0 293.22492647761828 -157.17242851209221 0 -157.17242851209221 -182.32252237182138 0 0 0 0 348.45131884576404 -246.74854867978956 0 -246.74854867978956 120.02649485513598 0 0 0 0 433.83305840883986 -433.48699754129859 0 -433.48699754129859 154.00469121009905 0 0 0 0 367.31886968742765 -419.68723339358951 0 -419.68723339358951 299.99104356562748 0 0 0 0 275.69992859565536 -266.42322863997583 0 -266.42322863997583 38.236584001813753 0 0 0 0 317.90567331450075 -474.45508728441257 0 -474.45508728441257 157.41029916370098 0 0 0 0 356.30683472545934 -436.85853893512831 0 -436.85853893512831 190.50938471539439 0 0 0 0 451.92557813771418 -532.40880764043732 0 -532.40880764043732 233.74264357329525 0 0 0 0 327.0605824344093 -512.90662837480386 0 -512.90662837480386 410.63194629440432 0 0 0 0 460.68320368041168 -448.9948348619705 0 -448.9948348619705 211.42495090664215 0 0 0 0 415.24948380270507 -573.28251304095511 0 -573.28251304095511 55.23678510967693 0 0 0 0 875.53962210843474 -525.18739294150191 0 -525.18739294150191 39.871835183292205 0 0 0 0 -302.84716343117179 -189.74113411455664 0 -189.74113411455664 -84.119154376457118 0 0 0 0 -488.7391625320306 -660.21149975279855 0 -660.21149975279855 57.084350060105862 0 0 0 0 258.5445830191893 -751.50496419164165 0 -751.50496419164165 42.358024844610554 0 0 0 0 2.1198293377363342 -2.5900861802458337 0 -2.5900861802458337 3.5469030212591122 0 0 0 0 135.79809282079805 -394.12861943835009 0 -394.12861943835009 -62.849846260172853 0 0 0 0 200.88017871431657 -321.62439996659759 0 -321.62439996659759 4.849261544496585 0 0 0 0 23.239011380646843 5.8695239401462374 0 5.8695239401462374 2.6562374154283077 0 0 0 0 41.170750169956591 -3.3143254835137554 0 -3.3143254835137554 -76.405854498401823 0 0 0 0 116.37705618580367 6.8328040125441731 0 6.8328040125441731 -56.074812207893785 0 0 0 0 38.10299051227048 8.5594140903452853 0 8.5594140903452853 -41.9601357561246 0 0 0 0 63.768092201877153 62.487076087099354 0 62.487076087099354 -89.979416565986185 0 0 0 0 91.471117971916101 -3.1718992362098675 0 -3.1718992362098675 -52.467135622914299 0 0 0 0 57.086010987986811 19.47432368665136 0 19.47432368665136 -92.820826060686954 0 0 0 0 34.437240007283037 6.2482374077933542 0 6.2482374077933542 -1.687255119556045 0 0 0 0 53.736154103622539 44.994181294300859 0 44.994181294300859 -58.846406361615664 0 0 0 0 5.8131627909119743 -2.9169578662774143 0 -2.9169578662774143 -1.4050010183405015 0 0 0 0 472.8793766721501 -575.55440936175341 0 -575.55440936175341 414.91730289145607 0 0 0 0 455.92854333191644 -595.41814840423763 0 -595.41814840423763 400.74239679446453 0 0 0 0 386.05845051206416 -501.64419334043822 0 -501.64419334043822 448.48020038042387 0 0 0 0 542.62864578465815 -452.01142651890245 0 -452.01142651890245 463.05955149150441 0 0 0 0 -2.2053420757340518 2.7121479734415601 0 2.7121479734415601 2.1290471992362905 0 0 0 0 606.69055338357884 -411.10019111885117 0 -411.10019111885117 470.17700846275375 0 0 0 0 621.25804729590891 -696.05990489836995 0 -696.05990489836995 888.96063376841357 0 0 0 0 413.49448368197773 -440.71172528325667 0 -440.71172528325667 496.2711176612188 0 0 0 0 562.98930862525594 -494.13440421844234 0 -494.13440421844234 296.39156665527526 0 0 0 0 393.40498882284737 -429.32775262245855 0 -429.32775262245855 280.73246407022418 0 0 0 0 462.33326794413733 -329.45624387338501 0 -329.45624387338501 392.28277192404448 0 0 0 0 465.85631025984185 -497.62470221197782 0 -497.62470221197782 444.96773053151855 0 0 0 0 459.02762595340027 -439.33049410723345 0 -439.33049410723345 626.83308932114619 0 0 0 0 57.107556073344313 38.113133411935067 0 38.113133411935067 -95.213152300460422 0 0 0 0 509.84958041616483 -577.7576077385296 0 -577.7576077385296 567.62388745887506 0 0 0 0 -23.752070510745398 84.271432525712697 0 84.271432525712697 -66.891284940390719 0 0 0 0 22.004092417174718 6.0614572927123618 0 6.0614572927123618 -0.16675686081754437 0 0 0 0 657.60051807842683 -535.16495908936292 0 -535.16495908936292 467.22080403871809 0 0 0 0 551.30957627038879 -573.2574681427443 0 -573.2574681427443 598.07028941654903 0 0 0 0 511.88141447381122 -468.54343983368653 0 -468.54343983368653 473.56254618582659 0 0 0 0 384.20340054301778 -403.82749697817985 0 -403.82749697817985 489.90289774866926 0 0 0 0 400.02147624942882 -439.71626073600078 0 -439.71626073600078 400.26398042631536 0 0 0 0 329.73919773936359 -274.37972946324555 0 -274.37972946324555 261.36666387460809 0 0 0 0 396.13609816479197 -255.47827725517212 0 -255.47827725517212 272.09284608978942 0 0 0 0 179.29268522598431 -297.24845929836351 0 -297.24845929836351 264.82348989416596 0 0 0 0 470.69178935528907 -232.32925954171401 0 -232.32925954171401 198.10005904363231 0 0 0 0 331.88537878409261 -313.7018437285343 0 -313.7018437285343 441.68812006683072 0 0 0 0 617.8122536084702 -332.5842174055291 0 -332.5842174055291 427.81510057570927 0 0 0 0 1653.1327552758667 -714.9517229620692 0 -714.9517229620692 510.78890240069234 0 0 0 0 743.80304346851335 -422.63834255071703 0 -422.63834255071703 454.14555047182569 0 0 0 0 172.16387530618522 405.7530537070266 0 405.7530537070266 -115.56116021380029 0 0 0 0 1471.7421337197156 -148.4295128691482 0 -148.4295128691482 -0.071340941661695759 0 0 0 0 5.7137916940425271 1.5727382054068499 0 1.5727382054068499 -0.21251891841344184 0 0 0 0 30.049746226995921 -59.923533073120474 0 -59.923533073120474 -36.758692859925041 0 0 0 0 17.135821357398527 -32.277143524883158 0 -32.277143524883158 0.10243755404669677 0 0 0 0 48.849627741787117 -27.23845912997762 0 -27.23845912997762 -108.11676750826811 0 0 0 0 -29.320823546033353 101.77660495023882 0 101.77660495023882 -149.22357583502571 0 0 0 0 13.27789675259217 5.0224842084990797 0 5.0224842084990797 -0.32666864850358929 0 0 0 0 26.392501638583781 -7.2677269073675959 0 -7.2677269073675959 -47.930604279700773 0 0 0 0 52.824064911052119 20.530194973345232 0 20.530194973345232 -18.830347524834579 0 0 0 0 91.121157743444201 -61.873781453911292 0 -61.873781453911292 -29.928985096403267 0 0 0 0 21.519906522997189 -14.480233078760243 0 -14.480233078760243 -16.425424931507898 0 0 0 0 65.604495792125817 -46.439079241693911 0 -46.439079241693911 -17.766814848678465 0 0 0 0 170.44261555791309 -20.810398444273602 0 -20.810398444273602 -39.231102324725668 0 0 0 0 0.77196881453750166 0.32085118587954753 0 0.32085118587954753 -0.55600106401496741 0 0 0 0 44.045822161948308 -30.201228951981069 0 -30.201228951981069 0.0071770203631853101 0 0 0 0 72.725504910024029 -18.509890600401487 0 -18.509890600401487 4.0510094351661117 0 0 0 0 200.04343303226051 -128.44195455254842 0 -128.44195455254842 0.51303075991048797 0 0 0 0 105.32743386919901 -29.899515084116629 0 -29.899515084116629 -37.625056835179379 0 0 0 0 82.148060463470756 -21.358407300622162 0 -21.358407300622162 80.674352865154816 0 0 0 0 894.48194501359831 554.98045704573485 0 554.98045704573485 179.06422381646576 0 0 0 0 886.84000337464386 506.95594866974864 0 506.95594866974864 -104.24086215103353 0 0 0 0 866.91991564075579 145.20515638270967 0 145.20515638270967 1110.4024044570506 0 0 0 0 1613.6639100883258 1141.9571179168975 0 1141.9571179168975 394.22473537687438 0 0 0 0 264.74185133211722 423.51424916127257 0 423.51424916127257 534.58299153475446 0 0 0 0 262.63072101863872 105.7599288173389 0 105.7599288173389 368.9944226350251 0 0 0 0 453.6513919361314 156.64446674807982 0 156.64446674807982 186.1262782003684 0 0 0 0 715.59862830402562 86.724275201644446 0 86.724275201644446 334.29516409844229 0 0 0 0 925.08930806334683 109.46761871894464 0 109.46761871894464 294.83877734195994 0 0 0 0 753.13336437779071 584.0971781445088 0 584.0971781445088 427.84134469488436 0 0 0 0 507.65688809861604 365.18891878555945 0 365.18891878555945 313.56366519639528 0 0 0 0 876.64208885176049 288.37097727574121 0 288.37097727574121 306.85982806177554 0 0 0 0 879.50734726816881 332.21940682565548 0 332.21940682565548 54.009556540504718 0 0 0 0 952.49703848710487 254.70405379596025 0 254.70405379596025 189.8578215229584 0 0 0 0 902.00505963826436 276.33287362217078 0 276.33287362217078 305.63442234973752 0 0 0 0 776.30205763517006 130.96913733861237 0 130.96913733861237 372.88275114992086 0 0 0 0 1148.3324550910911 27.422426382350437 0 27.422426382350437 347.93390597498143 0 0 0 0 1127.370722831849 59.743525955840269 0 59.743525955840269 206.4178736242454 0 0 0 0 1119.4846117619018 63.059888920482166 0 63.059888920482166 322.51476374825427 0 0 0 0 1357.9248965593033 121.54428823478744 0 121.54428823478744 259.8332357823964 0 0 0 0 975.46951154804265 237.89292584666384 0 237.89292584666384 0.26675076208756421 0 0 0 0 858.91793748678174 278.37403476603032 0 278.37403476603032 163.28788724136319 0 0 0 0 862.0508414569631 269.22401064775852 0 269.22401064775852 -121.17904757727456 0 0 0 0 868.11116576311179 396.45993913292097 0 396.45993913292097 73.471177603024501 0 0 0 0 712.86681151782977 278.55880735445635 0 278.55880735445635 -0.045844563470910538 0 0 0 0 439.90364956687699 55.135616834398007 0 55.135616834398007 -34.009742187704205 0 0 0 0 284.90726544614517 261.27529354681639 0 261.27529354681639 -0.081220035949421079 0 0 0 0 72.025704517305712 96.511681649607837 0 96.511681649607837 -34.051164945472351 0 0 0 0 887.48489245780775 152.81794116466025 0 152.81794116466025 -228.8336036154642 0 0 0 0 -102.39081834397803 184.73300764129937 0 184.73300764129937 0.038915620631133414 0 0 0 0 53.266921576194363 182.5192529966005 0 182.5192529966005 -132.31328800460943 0 0 0 0 -92.165768275946903 133.67057154082715 0 133.67057154082715 -140.72457519357476 0 0 0 0 -79.893462975582224 172.2757018732417 0 172.2757018732417 -105.57337769031892 0 0 0 0 -112.50094815800549 179.35669178630781 0 179.35669178630781 -130.36624651225918 0 0 0 0 30.788383187129511 182.15603946277042 0 182.15603946277042 -151.77366132187728 0 0 0 0 46.518745290766674 167.05546227542749 0 167.05546227542749 -293.97599398513808 0 0 0 0 35.693034225390875 54.570198264106807 0 54.570198264106807 -205.35163726195412 0 0 0 0 -17.876246314241143 59.926756075459821 0 59.926756075459821 -125.3543430651057 0 0 0 0 -13.498537776573357 46.305966631645276 0 46.305966631645276 -86.714097837861573 0 0 0 0 -76.141173173746211 129.67526420760998 0 129.67526420760998 -141.65015089592794 0 0 0 0 220.81568723930104 -20.930812535053747 0 -20.930812535053747 -128.5771815036544 0 0 0 0 72.98900859655987 261.035116982251 0 261.035116982251 -82.232388039212537 0 0 0 0 285.37836477555538 223.09546023362418 0 223.09546023362418 -390.63928930053385 0 0 0 0 89.71642466825142 -86.921401335334394 0 -86.921401335334394 -620.32603079081855 0 0 0 0 -3.3283490373140125 1.2251727022204619 0 1.2251727022204619 -0.27723879199773371 0 0 0 0 41.189002321494627 178.91727312203102 0 178.91727312203102 158.42989201724595 0 0 0 0 1448.6718678698198 61.705845377501376 0 61.705845377501376 -595.77289723199783 0 0 0 0 206.44311968059628 -110.8047988261676 0 -110.8047988261676 -415.70479161313233 0 0 0 0 20.245222515002467 -3.1606124772505666 0 -3.1606124772505666 0.32596994658299394 0 0 0 0 1267.8750070689202 2349.4333216993268 0 2349.4333216993268 2299.8178317488964 0 0 0 0 1092.8853447590809 713.21415878451535 0 713.21415878451535 1544.2326424266266 0 0 0 0 1410.8482664988405 1176.5378526036698 0 1176.5378526036698 -274.38794708021123 0 0 0 0 1159.0218237501103 1364.3652679098823 0 1364.3652679098823 812.15887739155801 0 0 0 0 1374.4961720240244 761.94442521706014 0 761.94442521706014 20.80748530526165 0 0 0 0 960.12767596061167 158.65468006826563 0 158.65468006826563 -720.2354399030263 0 0 0 0 712.14533554809532 675.08690554282157 0 675.08690554282157 251.00796301187665 0 0 0 0 1051.6538718682714 830.32286945466421 0 830.32286945466421 210.95420572167245 0 0 0 0 1230.5043344981968 1093.8423456463515 0 1093.8423456463515 454.30332546663698 0 0 0 0 1351.5014085330185 945.62487094542848 0 945.62487094542848 556.92539404949457 0 0 0 0 934.64155031085102 1187.0398533416392 0 1187.0398533416392 1350.1223334226179 0 0 0 0 108.54844218969811 -18.496841336509647 0 -18.496841336509647 -260.12907185481163 0 0 0 0 48.11893618230053 -11.80447149831123 0 -11.80447149831123 -1.4333288535444737 0 0 0 0 80.579796484162216 106.54002585622629 0 106.54002585622629 16.384961440327061 0 0 0 0 0.45682355323515367 31.114284281854452 0 31.114284281854452 -133.32127387651644 0 0 0 0 131.21523372842785 82.297894230441443 0 82.297894230441443 -64.462771906109992 0 0 0 0 -2.5977843074737734 5.9033210476961528 0 5.9033210476961528 -6.7440759751929686 0 0 0 0 45.965059673442738 9.1728575864372033 0 9.1728575864372033 2.727977223755488 0 0 0 0 -23.754063131760631 -2.2505582417421977 0 -2.2505582417421977 -8.5440448940847773 0 0 0 0 3.9667318197607528 20.901781064423176 0 20.901781064423176 -107.28655572732544 0 0 0 0 11.666810259237536 -35.099176204861124 0 -35.099176204861124 -25.275558080208555 0 0 0 0 2.5707911738080895 -2.3064466324399291 0 -2.3064466324399291 -8.8191848122753811 0 0 0 0 88.805015873367665 -15.854199350339059 0 -15.854199350339059 -56.317913059801413 0 0 0 0 16.772675027474179 -8.6004008392545757 0 -8.6004008392545757 -26.288187241311334 0 0 0 0 30.613007491108874 -9.2572282526350023 0 -9.2572282526350023 -13.044208284440742 0 0 0 0 42.020748111359239 -2.5854457941097451 0 -2.5854457941097451 -7.7335915976594283 0 0 0 0 18.833114269538783 -9.6169018871040635 0 -9.6169018871040635 2.2722763634953935 0 0 0 0 23.940395713152611 -4.6404159822148898 0 -4.6404159822148898 -6.6370017011042801 0 0 0 0 30.330210917961608 -3.8886887285366072 0 -3.8886887285366072 -3.3166688023324689 0 0 0 0 758.77654912581784 828.90185508856882 0 828.90185508856882 271.2424168420564 0 0 0 0 101.97361051623011 -4.4513865968519895 0 -4.4513865968519895 -139.75632831125449 0 0 0 0 38.028260608934005 -4.2097322053313917 0 -4.2097322053313917 -7.5689195325815657 0 0 0 0 37.503508521637968 -11.762229307216863 0 -11.762229307216863 -4.2135574988806868 0 0 0 0 13.904966702451929 -8.4986308830930284 0 -8.4986308830930284 -23.896094569592606 0 0 0 0 29.321172933319446 2.1684599810216696 0 2.1684599810216696 -12.43539436091347 0 0 0 0 70.447576021086661 -19.11433142170921 0 -19.11433142170921 -7.6900771418226368 0 0 0 0 242.85519125671999 367.04237211377892 0 367.04237211377892 10.473065785122344 0 0 0 0 910.05437022114347 352.12495753096118 0 352.12495753096118 -261.81768415030274 0 0 0 0 1227.6006929452997 622.59831552560217 0 622.59831552560217 -165.36286534975147 0 0 0 0 999.0829459924571 827.50383010307314 0 827.50383010307314 -70.772752013299396 0 0 0 0 -253.97900125693559 -754.58392889366633 0 -754.58392889366633 -163.35299377348565 0 0 0 0 683.77187901233629 -235.85303504476769 0 -235.85303504476769 -549.21974575646755 0 0 0 0 1144.9423253649584 89.306693121127864 0 89.306693121127864 -458.68384974883634 0 0 0 0 2488.2573483664692 -589.7584738929296 0 -589.7584738929296 -643.67987067048398 0 0 0 0 3106.784838098818 1618.3045130757919 0 1618.3045130757919 205.73030763511088 0 0 0 0 1820.2497725589128 1138.063452678949 0 1138.063452678949 -182.55133868835128 0 0 0 0 1552.7881052680459 611.57668807220853 0 611.57668807220853 -445.22580572982952 0 0 0 0 173.94014533607697 614.9098186290289 0 614.9098186290289 1146.2114035866734 0 0 0 0 1051.1886848151335 1424.3320067695411 0 1424.3320067695411 815.9738126409361 0 0 0 0 908.94905535569706 740.48691004511375 0 740.48691004511375 194.72763438818743 0 0 0 0 332.63044494300266 194.82992973594355 0 194.82992973594355 122.94086720960109 0 0 0 0 349.62877461130847 216.3473442605241 0 216.3473442605241 59.2358078531297 0 0 0 0 395.27543740393594 523.07580523726301 0 523.07580523726301 511.42774713695007 0 0 0 0 621.18115910794586 464.78470295096076 0 464.78470295096076 -61.061972511194199 0 0 0 0 575.06799653798225 406.38269592924735 0 406.38269592924735 154.91320994743501 0 0 0 0 1170.6107250536152 662.76447521711657 0 662.76447521711657 -95.247087872267912 0 0 0 0 1203.6433444714639 772.49803584411575 0 772.49803584411575 44.355478078965916 0 0 0 0 1074.9140094424074 938.92484991570791 0 938.92484991570791 65.314383889956844 0 0 0 0 1107.754975841206 945.05078446084735 0 945.05078446084735 -8.5062330013416272 0 0 0 0 1048.7707034947234 801.19030655398694 0 801.19030655398694 -17.986496255851307 0 0 0 0 762.5541691025428 930.12900905577078 0 930.12900905577078 136.06274240533412 0 0 0 0 1090.7027005635318 948.77420720126383 0 948.77420720126383 70.228280005724628 0 0 0 0 -1.7743555616470985 -14.437042798917901 0 -14.437042798917901 -5.2622316734637025 0 0 0 0 93.841792133054696 42.1571457267396 0 42.1571457267396 17.198769267106911 0 0 0 0 75.482545846607536 29.403493607250311 0 29.403493607250311 -4.8944949992209494 0 0 0 0 50.848514132759817 5.7521140889160449 0 5.7521140889160449 -3.1881243018770666 0 0 0 0 188.31450853843126 80.335556922084493 0 80.335556922084493 -40.63892225972063 0 0 0 0 82.436362052278128 -35.126980830634011 0 -35.126980830634011 5.8249772736144223 0 0 0 0 40.358398754440714 9.3394888749385245 0 9.3394888749385245 2.1059794583439384 0 0 0 0 54.475126572186127 -38.017799946604782 0 -38.017799946604782 6.2989965729839241 0 0 0 0 132.43187906398089 14.421885904660826 0 14.421885904660826 2.3863612582263727 0 0 0 0 36.461570962855689 2.1126399244695762 0 2.1126399244695762 -4.4204593226167495 0 0 0 0 71.998540525881253 99.165917381136978 0 99.165917381136978 164.44548968369872 0 0 0 0 4.7844531256123446 110.69480133389334 0 110.69480133389334 41.016155517708285 0 0 0 0 36.60174070960278 -9.7990405931037685 0 -9.7990405931037685 16.001615416898574 0 0 0 0 -1.5167893967036434 -2.6063277250444017 0 -2.6063277250444017 5.5931138441093955 0 0 0 0 -54.43939276621677 -165.57347380513124 0 -165.57347380513124 90.792158870937783 0 0 0 0 62.069973273231881 -116.31045639154036 0 -116.31045639154036 44.957472890379904 0 0 0 0 -95.51144205390483 -217.52200094858847 0 -217.52200094858847 33.481558928922823 0 0 0 0 -6.535240820798208 -63.877053293361314 0 -63.877053293361314 119.2485640301029 0 0 0 0 2.6192759740496285 -0.80097977458320457 0 -0.80097977458320457 -3.6091578944380149 0 0 0 0 83.619198728891206 50.109073027263776 0 50.109073027263776 -15.300461622224248 0 0 0 0 -10.633575236352044 -147.47040309551357 0 -147.47040309551357 -466.11179840352725 0 0 0 0 -393.91651682386873 -616.87405854213694 0 -616.87405854213694 -109.55342040769392 0 0 0 0 -4.8588068611046538 -8.8039799424479099 0 -8.8039799424479099 -0.51331428223973141 0 0 0 0 -37.378369898229721 0.30988109019767762 0 0.30988109019767762 17.338142645576909 0 0 0 0 44.160806388016852 -11.087038816817078 0 -11.087038816817078 -4.2671059310778769 0 0 0 0 34.21917249247781 -5.2710603478943767 0 -5.2710603478943767 -25.222772787164274 0 0 0 0 -473.51446287553881 -159.58903072004205 0 -159.58903072004205 -31.766031459818805 0 0 0 0 26.522184421522866 -5.4459571381762331 0 -5.4459571381762331 -1.0458112038995147 0 0 0 0 51.142890723887831 -28.745218591742287 0 -28.745218591742287 -28.023566051762828 0 0 0 0 39.061943907124373 -5.791276738647241 0 -5.791276738647241 -2.4297844596381331 0 0 0 0 98.354341722988465 22.412812914519691 0 22.412812914519691 -106.14550958976179 0 0 0 0 44.959563242147112 -3.3188528667218904 0 -3.3188528667218904 4.1090897435199558 0 0 0 0 37.694279282859412 -16.725714488850443 0 -16.725714488850443 -0.43837772277042575 0 0 0 0 -13.444205094849167 -16.051896086642046 0 -16.051896086642046 39.033509203075937 0 0 0 0 41.423914645260083 -68.307420517178741 0 -68.307420517178741 -46.965281428386561 0 0 0 0 78.911497677501757 -13.992904451588856 0 -13.992904451588856 -48.724817116665449 0 0 0 0 87.002333628555789 50.54626422735209 0 50.54626422735209 17.860999046159577 0 0 0 0 78.766501466991031 3.0946724021194711 0 3.0946724021194711 -13.782958783857197 0 0 0 0 5.1442757469103526 -13.949172285742151 0 -13.949172285742151 0.76620993352685218 0 0 0 0 90.894548937641957 -14.494402986056429 0 -14.494402986056429 3.1606225406517581 0 0 0 0 156.35140221891925 15.296755136740273 0 15.296755136740273 -25.069259705754192 0 0 0 0 65.687888570431824 38.562851855269329 0 38.562851855269329 9.7032779815363028 0 0 0 0 218.6188175794523 -2.9797554033716551 0 -2.9797554033716551 -27.221336036662805 0 0 0 0 6.869789891250548 -10.191547086222897 0 -10.191547086222897 -46.238850731474031 0 0 0 0 -0.17088803366561933 0.012598313986359244 0 0.012598313986359244 1.2232801352578235 0 0 0 0 -22.101755750503798 11.321337849596262 0 11.321337849596262 2.3939203966876903 0 0 0 0 6.9143330888473429 -3.1372284690542642 0 -3.1372284690542642 5.6488157598062116 0 0 0 0 0.35811302601359785 -2.7740826852672953 0 -2.7740826852672953 8.0325764371088155 0 0 0 0 0.92743790675302762 0.74784898151142443 0 0.74784898151142443 2.6286039846251965 0 0 0 0 42.351969573472161 -9.9784178693136028 0 -9.9784178693136028 5.6701923776747662 0 0 0 0 0.89744046745909145 5.6522868635898362 0 5.6522868635898362 7.1900359404087339 0 0 0 0 3.3516913379717153 -0.12714569414248444 0 -0.12714569414248444 7.1887548466006592 0 0 0 0 0.8888486735522747 1.643993999960685 0 1.643993999960685 -2.0391268264071982 0 0 0 0 2.9288961216429357 1.8841832980616289 0 1.8841832980616289 0.66974327757957197 0 0 0 0 4.0010600388685589 -0.51432845173712849 0 -0.51432845173712849 -0.0029724943527774661 0 0 0 0 3.4708307267865166 0.23309237462360075 0 0.23309237462360075 -0.41208169019888735 0 0 0 0 -26.641785380168585 28.270774076590264 0 28.270774076590264 6.6468382702493045 0 0 0 0 3.0572390984256685 0.54092380548294727 0 0.54092380548294727 0.12905407802973265 0 0 0 0 2.1974382840689373 -0.15572122581003356 0 -0.15572122581003356 0.16230564909240192 0 0 0 0 3.1879698321281467 -0.32399763560350436 0 -0.32399763560350436 -0.1009014419505263 0 0 0 0 1.9751045183009523 2.1833760069830106 0 2.1833760069830106 1.2851488634344987 0 0 0 0 3.9779171854376614 -0.38703437425564857 0 -0.38703437425564857 -0.32190643093545268 0 0 0 0 -12.697419575881213 7.8212053082661157 0 7.8212053082661157 20.203167602820884 0 0 0 0 -0.25729121134025945 0.083285447118882416 0 0.083285447118882416 0.71737428998042851 0 0 0 0 7.3806917170877568 -11.736129626808577 0 -11.736129626808577 22.550907005247382 0 0 0 0 149.46508090598218 66.899770471774517 0 66.899770471774517 18.611345760154762 0 0 0 0 2.2272144352658074 0.080905615321249513 0 0.080905615321249513 0.18662803569042191 0 0 0 0 19.455593470658641 36.991611593831571 0 36.991611593831571 76.668817018061446 0 0 0 0 35.684700012468966 -26.859293366156024 0 -26.859293366156024 43.396631912846004 0 0 0 0 157.96618100373598 -75.908254962144525 0 -75.908254962144525 13.019774685911383 0 0 0 0 67.566474426806963 -4.0825874088586902 0 -4.0825874088586902 -22.315166941092535 0 0 0 0 1.8361694642007933 1.1377664156608756 0 1.1377664156608756 -7.3339815406737401 0 0 0 0 0.80923907284216057 -0.38641756501010605 0 -0.38641756501010605 0.31450016892559818 0 0 0 0 12.095091342096566 -19.474765832489275 0 -19.474765832489275 1.1004970663217855 0 0 0 0 15.897885247279191 -42.936212932326413 0 -42.936212932326413 39.553708885908129 0 0 0 0 -28.486390681893681 36.149058061034658 0 36.149058061034658 24.1412436224803 0 0 0 0 17.747626555414172 -40.365095960845366 0 -40.365095960845366 7.8296775130802416 0 0 0 0 225.56659136503004 -55.526775757530359 0 -55.526775757530359 13.099451051597285 0 0 0 0 73.093656108365394 47.449067418718705 0 47.449067418718705 100.18493500109774 0 0 0 0 218.78408301742456 37.620347858205164 0 37.620347858205164 -41.050418513756533 0 0 0 0 42.202685727148491 -17.667426568132608 0 -17.667426568132608 -11.402133106077528 0 0 0 0 -0.46666147100435751 -1.0120778291976649 0 -1.0120778291976649 -4.1736680418021264 0 0 0 0 -288.80530662159435 248.13109616933764 0 248.13109616933764 -117.46621278432679 0 0 0 0 0.08527692990713831 0.052388586212799737 0 0.052388586212799737 -1.4841679102530441 0 0 0 0 76.720382469618926 45.09548222363334 0 45.09548222363334 -18.484497272204557 0 0 0 0 103.33257486712682 -4.7130320376290964 0 -4.7130320376290964 -56.011843989208373 0 0 0 0 142.07675503955397 10.21084698409453 0 10.21084698409453 -94.795405543647263 0 0 0 0 -41.426551822303736 129.35925321212693 0 129.35925321212693 -77.42529568043301 0 0 0 0 -108.45074765306708 151.91914397948139 0 151.91914397948139 -143.45423214622332 0 0 0 0 -125.91985995975119 94.402344959756306 0 94.402344959756306 -0.056929679237534489 0 0 0 0 -2.7992869644440361 -14.568799770878433 0 -14.568799770878433 -16.463550956938484 0 0 0 0 13.392081248835893 3.480160188796761 0 3.480160188796761 -7.2276800742581599 0 0 0 0 117.16804122985923 6.0531114480922206 0 6.0531114480922206 -22.059423087371844 0 0 0 0 0.18282088624624748 -0.16486682944363906 0 -0.16486682944363906 0.16226483617425322 0 0 0 0 83.731323133986734 28.519343266442874 0 28.519343266442874 -0.11583295234812511 0 0 0 0 32.831321338904672 -9.5709771519927251 0 -9.5709771519927251 -16.030347507003533 0 0 0 0 10.703427010816085 19.172265892710978 0 19.172265892710978 0.029535242769290832 0 0 0 0 -13.359226393848076 9.4551304448161968 0 9.4551304448161968 -2.6619033463311652 0 0 0 0 -0.15848811534360152 -0.11527326057583309 0 -0.11527326057583309 -0.22223962238414535 0 0 0 0 5.0439978462964064 -6.0244378517667485 0 -6.0244378517667485 0.44512713264443637 0 0 0 0 -29.533769723260775 -16.505324206101417 0 -16.505324206101417 0.63120234524193741 0 0 0 0 -3.1564281796599971 -43.631462586799934 0 -43.631462586799934 0.026363203257262192 0 0 0 0 55.939737409709778 -4.6625279688614327 0 -4.6625279688614327 -6.8417733454596146 0 0 0 0 93.540204174387327 -47.628333399162159 0 -47.628333399162159 -0.014399611030182731 0 0 0 0 76.541759021609323 67.457806214120552 0 67.457806214120552 -85.368935951197784 0 0 0 0 -2.862239745532861 -30.748347222123869 0 -30.748347222123869 -15.32792185233663 0 0 0 0 5.0508071338094283 0.55151709252225345 0 0.55151709252225345 -0.21340252864961434 0 0 0 0 103.10599626503245 -17.368327805105494 0 -17.368327805105494 -11.212824975236742 0 0 0 0 7.7490582306782017 -10.946769320526158 0 -10.946769320526158 -50.029318141372627 0 0 0 0 106.27313864769349 -118.92707929408228 0 -118.92707929408228 74.893742755246222 0 0 0 0 2.1357974569153271 0.042191289602911297 0 0.042191289602911297 -0.093399101985899124 0 0 0 0 220.27358146036568 -238.70075070916329 0 -238.70075070916329 168.26727457972652 0 0 0 0 237.22554717145977 -145.08489730162921 0 -145.08489730162921 17.746956810379459 0 0 0 0 169.48485709150555 -98.014442811004415 0 -98.014442811004415 15.947156661191766 0 0 0 0 83.733580896860076 -25.327931743414922 0 -25.327931743414922 11.587103858810536 0 0 0 0 128.21727206293144 16.510444044219341 0 16.510444044219341 -2.2959776886021759 0 0 0 0 181.76954675682646 -88.68256473827222 0 -88.68256473827222 16.338752623064117 0 0 0 0 -14.186524772900157 -7.2300164676009047 0 -7.2300164676009047 27.476614228458942 0 0 0 0 -10.033595865897951 9.9761254747600248 0 9.9761254747600248 0.84337790902885956 0 0 0 0 6.498243818009712 1.0913721120889761 0 1.0913721120889761 -0.40429648914941879 0 0 0 0 2.1289622584461654 -0.49000845447286423 0 -0.49000845447286423 -0.34142438258659163 0 0 0 0 4.3956720611313358 6.322509970536764 0 6.322509970536764 -10.112040918714996 0 0 0 0 2.576022686844226 0.50790647012144063 0 0.50790647012144063 -0.83281903335975471 0 0 0 0 4.1087882759101149 1.282145086346425 0 1.282145086346425 -0.00032405396347703896 0 0 0 0 3.573132511195297 2.7559317297440202 0 2.7559317297440202 -0.45926696025374986 0 0 0 0 0.42630288264632554 -0.45964294878257306 0 -0.45964294878257306 -0.71446005509140087 0 0 0 0 7.8769010835239897 -2.0180678803214391 0 -2.0180678803214391 -10.241867901745394 0 0 0 0 5.4682426812214544 -6.7122684338333727 0 -6.7122684338333727 -4.5694413018560454 0 0 0 0 6.053297717422538 1.38318873102547 0 1.38318873102547 1.0441452741615649 0 0 0 0 5.861252138245618 -9.0850632905446531 0 -9.0850632905446531 -5.9579395291017931 0 0 0 0 201.58407079071912 -31.119801906067703 0 -31.119801906067703 0.07918660582840846 0 0 0 0 204.56896918754501 -49.916063391415847 0 -49.916063391415847 56.312191579707708 0 0 0 0 133.0951929611183 -27.851811088146853 0 -27.851811088146853 52.790504722133782 0 0 0 0 162.63644946931163 -83.943483935944215 0 -83.943483935944215 87.384878978083037 0 0 0 0 207.48903804813017 -63.484748823472671 0 -63.484748823472671 -0.033725421337286329 0 0 0 0 258.30587006827409 -110.7472764233321 0 -110.7472764233321 42.276974319135519 0 0 0 0 280.55532512457285 -2.8755635004937972 0 -2.8755635004937972 -73.831497761752033 0 0 0 0 274.81507541500469 -89.857795981800209 0 -89.857795981800209 -29.926726556191298 0 0 0 0 135.18791158006934 -62.553155688774631 0 -62.553155688774631 28.518795876646863 0 0 0 0 102.7508541875286 -102.81198737743681 0 -102.81198737743681 -20.655217675513057 0 0 0 0 99.98073033883702 -35.508315653361016 0 -35.508315653361016 7.178096243486717 0 0 0 0 337.35963760206141 -54.158668605846472 0 -54.158668605846472 23.708528287534222 0 0 0 0 149.50145888163388 65.396066858645028 0 65.396066858645028 -47.18265894277468 0 0 0 0 133.38395565275277 -17.457134024083345 0 -17.457134024083345 -58.260156225929649 0 0 0 0 -69.461055462612421 64.488616700581289 0 64.488616700581289 -23.388127901957198 0 0 0 0 2.1429210047372749 0.73087534717757308 0 0.73087534717757308 -0.24489507569497049 0 0 0 0 405.13968513018335 -394.76715601784127 0 -394.76715601784127 -17.95874347475808 0 0 0 0 198.13851319353853 -21.596841076394725 0 -21.596841076394725 -13.384720815596509 0 0 0 0 176.33249302505283 147.90197209367102 0 147.90197209367102 -46.831577547477764 0 0 0 0 407.54752350586932 269.77209135579534 0 269.77209135579534 14.838212077116964 0 0 0 0 4.3732819347580403 -1.2904891343241758 0 -1.2904891343241758 0.19887708706264579 0 0 0 0 -66.450446233880939 -434.97899785610497 0 -434.97899785610497 159.6748706530777 0 0 0 0 -14.752567184215877 -360.4598651385723 0 -360.4598651385723 -11.959364283597864 0 0 0 0 3.408223745501175 1.1842571854450341 0 1.1842571854450341 -1.1373451971907098 0 0 0 0 42.892779847825295 48.853432969300002 0 48.853432969300002 -44.110814531481367 0 0 0 0 543.06580995739205 261.34378128733442 0 261.34378128733442 523.91118701565927 0 0 0 0 528.8814327809996 -85.87991615547233 0 -85.87991615547233 -129.68579595806273 0 0 0 0 33.173725006075074 -44.6562243868416 0 -44.6562243868416 8.0354522185544823 0 0 0 0 169.16534071342903 -58.56689331628548 0 -58.56689331628548 -25.268648785637446 0 0 0 0 153.52137640471119 -88.451314761393647 0 -88.451314761393647 -3.9540615684646143 0 0 0 0 189.74651938774332 -68.595763471735594 0 -68.595763471735594 -19.590945971602419 0 0 0 0 102.54071560796001 -39.278864696964035 0 -39.278864696964035 -9.6090398685257128 0 0 0 0 114.3981309216033 -95.54045757413283 0 -95.54045757413283 8.4338848254843981 0 0 0 0 152.89031555996917 -119.36005453837328 0 -119.36005453837328 77.42452071778132 0 0 0 0 45.231886260822648 -9.8959452601937983 0 -9.8959452601937983 38.257748750239216 0 0 0 0 -9.7320902822248172 -112.42531691743636 0 -112.42531691743636 56.77680518721877 0 0 0 0 26.871802917681634 -69.432179178199021 0 -69.432179178199021 -3.1191842560692749 0 0 0 0 166.33643862552708 -56.505014519891972 0 -56.505014519891972 50.085282971581137 0 0 0 0 109.05507557559758 -135.70463711239699 0 -135.70463711239699 65.033119292395895 0 0 0 0 -172.53456011821982 -182.21379142380147 0 -182.21379142380147 69.611079786728169 0 0 0 0 0.9591976263917843 -0.22628117108538959 0 -0.22628117108538959 -1.341945869334922 0 0 0 0 150.71791432041209 -87.129955359825772 0 -87.129955359825772 20.866645564628925 0 0 0 0 200.33260848920327 -149.68446485588004 0 -149.68446485588004 -14.79414868877393 0 0 0 0 185.3628232832998 -118.44254566285008 0 -118.44254566285008 -62.008901474438062 0 0 0 0 133.23673129279632 -46.815649653555738 0 -46.815649653555738 -54.571718397243899 0 0 0 0 282.41786550363759 -101.35527845054116 0 -101.35527845054116 2.4107674601907547 0 0 0 0 -1.2849806419665128 -10.959036756571653 0 -10.959036756571653 21.944045269177877 0 0 0 0 -2.1195272804056913 20.94489548812841 0 20.94489548812841 62.220467765670264 0 0 0 0 -1.6885899583581363 3.9279825719525547 0 3.9279825719525547 -8.3664950606359447 0 0 0 0 25.265947314139339 -7.3959886981681393 0 -7.3959886981681393 -7.75158311507289 0 0 0 0 2.0131677456857915 -0.8101601412281525 0 -0.8101601412281525 -4.1171233361075705 0 0 0 0 28.319985553927836 10.263501565636489 0 10.263501565636489 -7.8135099149997131 0 0 0 0 107.27313912063983 109.40621013327632 0 109.40621013327632 -12.47029551447099 0 0 0 0 57.524094071763102 -59.74578629983364 0 -59.74578629983364 -68.250032126844189 0 0 0 0 239.38803213629581 27.682495427352933 0 27.682495427352933 -52.547777744799987 0 0 0 0 54.648441557957995 48.475923526422207 0 48.475923526422207 -3.279418279049878 0 0 0 0 138.75407166623336 22.109325004097855 0 22.109325004097855 -50.067310297928543 0 0 0 0 137.71798950002028 113.06648912138263 0 113.06648912138263 -39.279466224122189 0 0 0 0 223.28806869367691 122.47301039078837 0 122.47301039078837 -39.9041791896218 0 0 0 0 24.923885392759985 -24.591413085165478 0 -24.591413085165478 14.089202813610541 0 0 0 0 17.838813267826993 -17.116111692139668 0 -17.116111692139668 15.23807961615903 0 0 0 0 35.950934325082926 -18.188713925678712 0 -18.188713925678712 19.067175617089333 0 0 0 0 27.759200029486237 -34.547781246042383 0 -34.547781246042383 -7.58102049593316 0 0 0 0 8.132256624491788 -7.6097735591893354 0 -7.6097735591893354 4.835127293651988 0 0 0 0 36.927913455641828 -21.07382740146204 0 -21.07382740146204 7.0695832672351173 0 0 0 0 -6.5906446965891519 25.072681148576351 0 25.072681148576351 -13.747251207080581 0 0 0 0 31.025263677941211 -1.1426174299383405 0 -1.1426174299383405 -4.8390754037633847 0 0 0 0 0.43941535788800934 17.227324789672966 0 17.227324789672966 -13.140034426902275 0 0 0 0 5.5580426897592758 -0.49450701351165094 0 -0.49450701351165094 -0.98912292879209129 0 0 0 0 10.996396858841763 6.6266249092709018 0 6.6266249092709018 -4.2607292548430564 0 0 0 0 6.2389844100543996 -3.5916724308683996 0 -3.5916724308683996 0.75216591726096027 0 0 0 0 -5.7428717915245215 -17.580720094972936 0 -17.580720094972936 11.933754141005579 0 0 0 0 4.5660509294428948 -4.6863738992264814 0 -4.6863738992264814 0.11308283838530275 0 0 0 0 71.855683283210965 -53.974639857478962 0 -53.974639857478962 0.76647686641945256 0 0 0 0 -5.247621810536657 -11.296057637842221 0 -11.296057637842221 60.802409059818629 0 0 0 0 25.603299015943776 -46.010569760337518 0 -46.010569760337518 99.17462429834093 0 0 0 0 213.55918281307095 18.229870366419846 0 18.229870366419846 -37.87893210176523 0 0 0 0 0.55659998685035816 -0.61831904244984059 0 -0.61831904244984059 0.34143178640752225 0 0 0 0 92.240463299502153 -89.130324565388889 0 -89.130324565388889 51.703143224803668 0 0 0 0 290.37949978469987 -52.828671725623678 0 -52.828671725623678 18.051560651396038 0 0 0 0 222.01063269095175 -110.7366905793526 0 -110.7366905793526 7.302991328049103 0 0 0 0 252.16724576137494 -85.587730078184904 0 -85.587730078184904 0.59804428080391858 0 0 0 0 318.02080181745987 -164.54694738814385 0 -164.54694738814385 92.989683022481813 0 0 0 0 394.76594508913331 -22.616099626787246 0 -22.616099626787246 -45.815259466523372 0 0 0 0 45.600467526790453 24.323570130241023 0 24.323570130241023 51.814122185539929 0 0 0 0 54.848131940612802 -13.53394821882074 0 -13.53394821882074 13.99462124202995 0 0 0 0 11.510130247072084 -30.06962287446234 0 -30.06962287446234 31.686010931541858 0 0 0 0 497.191587425943 -116.25074154920833 0 -116.25074154920833 29.027218801608797 0 0 0 0 16.424960225209361 0.065076731278907118 0 0.065076731278907118 44.179903860856442 0 0 0 0 4.6875666675857417 -1.0715972586387323 0 -1.0715972586387323 1.7318336498591713 0 0 0 0 500.01738161730464 -79.888559553797336 0 -79.888559553797336 -32.314239497693734 0 0 0 0 247.95901388952916 -142.63806605709385 0 -142.63806605709385 6.5894020273806291 0 0 0 0 342.73040719967685 -10.402445927715235 0 -10.402445927715235 90.781539129212007 0 0 0 0 258.96166031586472 -70.851589015767104 0 -70.851589015767104 30.407982544574111 0 0 0 0 375.3658250013541 -102.25312742876031 0 -102.25312742876031 52.578154030076348 0 0 0 0 374.20571942849892 -80.930824963948481 0 -80.930824963948481 -16.226175417852119 0 0 0 0 274.81537581823068 -80.300935757884872 0 -80.300935757884872 53.92505389324424 0 0 0 0 81.937608410138637 84.791213964888811 0 84.791213964888811 75.568133263920004 0 0 0 0 264.01324136854964 -76.9223692302769 0 -76.9223692302769 80.682252469811829 0 0 0 0 1.5081801418470775 1.0829574659592112 0 1.0829574659592112 -1.8176860518857949 0 0 0 0 304.39463162305765 -30.644074906981814 0 -30.644074906981814 123.23337394476084 0 0 0 0 340.15042297285981 -71.02997810775878 0 -71.02997810775878 48.854450793424235 0 0 0 0 467.55201150233916 -162.41484463336963 0 -162.41484463336963 135.18630187007466 0 0 0 0 339.12957961083521 -90.287632759524726 0 -90.287632759524726 139.88196841122681 0 0 0 0 408.27368787606247 -78.714867667578801 0 -78.714867667578801 48.930582379434441 0 0 0 0 327.42003924596065 -105.29770252580602 0 -105.29770252580602 252.58947014120076 0 0 0 0 298.98743347838172 -37.752581979992556 0 -37.752581979992556 160.16984374477977 0 0 0 0 63.057192467676941 -174.78657620913759 0 -174.78657620913759 152.67704825153334 0 0 0 0 -5.784236646592035 0.93913585774436115 0 0.93913585774436115 151.02833544837449 0 0 0 0 -2.1328723914247121 0.040829684955667744 0 0.040829684955667744 3.863163415062977 0 0 0 0 544.47189126085141 -99.726882220498169 0 -99.726882220498169 22.718377987293763 0 0 0 0 32.863238251615257 -39.0642723790274 0 -39.0642723790274 11.090134548256174 0 0 0 0 -10.742718818164207 -8.4797617942484749 0 -8.4797617942484749 2.8687370088936679 0 0 0 0 28.531493818722083 -25.811856335495577 0 -25.811856335495577 20.609321377523429 0 0 0 0 33.874693531251978 -33.746920578029631 0 -33.746920578029631 21.645172840082523 0 0 0 0 32.444408214534633 -35.868924987180776 0 -35.868924987180776 27.204118465130705 0 0 0 0 11.420903603375677 -18.159471720024555 0 -18.159471720024555 21.790519817837463 0 0 0 0 35.513831012242008 -28.934918381480884 0 -28.934918381480884 17.451864103052117 0 0 0 0 36.012049958313582 -29.790482976809471 0 -29.790482976809471 6.7418614347662924 0 0 0 0 21.196195963106788 -3.1342072609594567 0 -3.1342072609594567 -5.8427218484693686 0 0 0 0 52.395415285340277 -23.185888451192284 0 -23.185888451192284 23.408427127917093 0 0 0 0 52.706218178427662 -22.883448540641098 0 -22.883448540641098 11.202300574920741 0 0 0 0 64.382779029430822 -30.418929220718383 0 -30.418929220718383 6.6996277218140676 0 0 0 0 61.708043183840346 -18.794332477841635 0 -18.794332477841635 11.39692661342113 0 0 0 0 105.56520463213587 -41.784742275085627 0 -41.784742275085627 -1.7348435175415187 0 0 0 0 24.618043007401866 -94.395384916006151 0 -94.395384916006151 -4.7736009914274291 0 0 0 0 37.862117912154645 -197.29408358993692 0 -197.29408358993692 -30.413350960514776 0 0 0 0 8.3465216538520792 -25.979702791869087 0 -25.979702791869087 -10.909502185741498 0 0 0 0 104.42476634141349 -87.078748907763838 0 -87.078748907763838 -163.15854194377414 0 0 0 0 105.54774956238543 -40.518027390623729 0 -40.518027390623729 -126.63767552265358 0 0 0 0 15.016750160904735 -8.1485847108002716 0 -8.1485847108002716 -0.81398009707237939 0 0 0 0 72.261442991861259 65.617030905044203 0 65.617030905044203 -205.23210071013591 0 0 0 0 213.96469091209292 17.662201757367711 0 17.662201757367711 -224.76579821099608 0 0 0 0 185.91085063455102 -18.831161260693079 0 -18.831161260693079 -98.47711143749973 0 0 0 0 169.48230858711213 -103.97906369173515 0 -103.97906369173515 -162.02293455102517 0 0 0 0 165.29022536413686 -123.1504025721876 0 -123.1504025721876 -198.21600358618889 0 0 0 0 155.42368139579048 3.9713017137361817 0 3.9713017137361817 133.3289030879763 0 0 0 0 222.99912765571935 -64.288300280450812 0 -64.288300280450812 -71.625573743953794 0 0 0 0 164.22178948296641 46.097385072138877 0 46.097385072138877 116.05321055853949 0 0 0 0 218.13554713025223 -19.019279925067735 0 -19.019279925067735 -85.688771630540771 0 0 0 0 146.68609761885455 -135.48150572553101 0 -135.48150572553101 -125.81473065189959 0 0 0 0 63.18887428961898 -94.686041958388387 0 -94.686041958388387 -126.2148983089769 0 0 0 0 120.77768806129461 -113.94543543369991 0 -113.94543543369991 -125.94655079127688 0 0 0 0 155.15558144786337 -85.652496442942947 0 -85.652496442942947 -252.33330327864178 0 0 0 0 104.83883398253238 -71.20234815942672 0 -71.20234815942672 -198.14961360015377 0 0 0 0 86.891227294705459 -137.73122278538176 0 -137.73122278538176 -436.06847155008472 0 0 0 0 17.421193407498265 -34.404340970438945 0 -34.404340970438945 -13.98623990046783 0 0 0 0 130.8140914363612 -267.76173981905339 0 -267.76173981905339 -208.47406589824277 0 0 0 0 99.037385191445765 -23.388958244029403 0 -23.388958244029403 -6.0069685183105417 0 0 0 0 151.64466962763981 13.999114076285196 0 13.999114076285196 -154.05049551705451 0 0 0 0 122.34246686641563 15.991729733916884 0 15.991729733916884 -87.728478889784128 0 0 0 0 38.705999859470523 -16.890131747594353 0 -16.890131747594353 -4.6512939530455792 0 0 0 0 42.452761788503267 -197.75654851132913 0 -197.75654851132913 -192.6310088827322 0 0 0 0 115.0604633731908 -44.965846529322569 0 -44.965846529322569 -1.6218981514179802 0 0 0 0 154.73377523613453 -146.09482834836899 0 -146.09482834836899 -162.8802043040771 0 0 0 0 126.05467316636532 -190.46494986514767 0 -190.46494986514767 -265.38847034742957 0 0 0 0 61.818977467926743 -76.668466909146758 0 -76.668466909146758 -44.023997373833026 0 0 0 0 325.68788473588938 -169.67186112396325 0 -169.67186112396325 -11.250453558384379 0 0 0 0 300.75283412303543 62.329512579391348 0 62.329512579391348 132.09132902573151 0 0 0 0 281.51441987422004 -31.158705183367829 0 -31.158705183367829 -75.075416206791942 0 0 0 0 162.94425809536187 112.33681091324104 0 112.33681091324104 12.086851535233109 0 0 0 0 3.146467239872436 17.713871670540584 0 17.713871670540584 30.390691814116508 0 0 0 0 115.37987143503415 53.235240764772584 0 53.235240764772584 -26.035646602318593 0 0 0 0 -7.0741002894937992 35.12737483015394 0 35.12737483015394 6.2195288820812493 0 0 0 0 6.9864391096125473 23.564064189165947 0 23.564064189165947 -30.222274301166635 0 0 0 0 7.4977326111843468 59.954958782849552 0 59.954958782849552 -53.52785733802034 0 0 0 0 -35.790527691933676 -34.865090136562799 0 -34.865090136562799 110.44043299184438 0 0 0 0 29.836002149868591 -4.8377819655639129 0 -4.8377819655639129 -5.996095025249824 0 0 0 0 -0.096006415784358978 2.1226988691203132 0 2.1226988691203132 -43.245174072387726 0 0 0 0 65.384692479216028 89.925445267194391 0 89.925445267194391 86.313314146780613 0 0 0 0 43.763671905719093 28.426401302689101 0 28.426401302689101 -6.3336271625113625 0 0 0 0 0.27769774493651767 9.964803049533927 0 9.964803049533927 -13.992575870227045 0 0 0 0 46.114029991505959 46.697050307750033 0 46.697050307750033 113.79878194128503 0 0 0 0 4.9566608932559291 -0.9296559228737209 0 -0.9296559228737209 1.1180933124448735 0 0 0 0 14.226026393116172 3.7562783965951922 0 3.7562783965951922 -2.3095978997306528 0 0 0 0 34.05669829348335 8.6480751021880451 0 8.6480751021880451 -11.365367896248131 0 0 0 0 46.060145315233967 44.314482352525459 0 44.314482352525459 89.636768117457677 0 0 0 0 70.445941066362138 157.56951010953199 0 157.56951010953199 440.33018365984515 0 0 0 0 354.54744411439606 -129.10879472065784 0 -129.10879472065784 19.807548765492811 0 0 0 0 -1.0710663107845448 -0.31267951950555073 0 -0.31267951950555073 2.8187173292331789 0 0 0 0 -7.9612923195345502 -14.632805356202084 0 -14.632805356202084 79.887833749201718 0 0 0 0 -76.71289213727141 -41.604163254829182 0 -41.604163254829182 127.56545525362445 0 0 0 0 30.600938561663497 -119.92936840836907 0 -119.92936840836907 -122.35250942341114 0 0 0 0 404.03347012161976 -86.729051440957846 0 -86.729051440957846 34.155920652229128 0 0 0 0 0.63976080012798775 -205.01174136782305 0 -205.01174136782305 353.80397977490315 0 0 0 0 1.1754278918233467 -106.22791238291882 0 -106.22791238291882 8.3074187947701432 0 0 0 0 48.298563109521638 -11.023570772304083 0 -11.023570772304083 32.102213599291986 0 0 0 0 -91.600555493292632 -194.35443020366043 0 -194.35443020366043 -87.76342253111639 0 0 0 0 96.528080557104715 -32.726163790515791 0 -32.726163790515791 -1.986270523907262 0 0 0 0 -0.69271447636629091 -200.63023459423067 0 -200.63023459423067 -29.511153904466369 0 0 0 0 -10.426617671262647 -77.909589724051898 0 -77.909589724051898 -85.654870804024142 0 0 0 0 -37.42586065245996 -104.57008697315069 0 -104.57008697315069 70.050350649212987 0 0 0 0 -142.36678880733962 -47.919794779386507 0 -47.919794779386507 51.756922445568534 0 0 0 0 -154.27543320805898 -193.60067859806045 0 -193.60067859806045 144.8942298173032 0 0 0 0 -57.73860995778783 -140.70493275612134 0 -140.70493275612134 41.430456772462236 0 0 0 0 -30.866311815388599 -3.7029278102336818 0 -3.7029278102336818 117.32858258423073 0 0 0 0 -57.13042361967382 -440.96753776773068 0 -440.96753776773068 -248.18754578712665 0 0 0 0 102.44721642903883 -33.526724499181725 0 -33.526724499181725 -2.4244019689967224 0 0 0 0 56.162634294814779 -87.150278384649312 0 -87.150278384649312 -2.2250221964851562 0 0 0 0 85.360332757627475 73.936847987393122 0 73.936847987393122 145.39537322565525 0 0 0 0 -113.93948335685491 -47.789392823269793 0 -47.789392823269793 29.267302687605024 0 0 0 0 -6.6870308754296275 -88.770449187541544 0 -88.770449187541544 -119.60678214840641 0 0 0 0 -27.253250585214118 -27.354577344419056 0 -27.354577344419056 40.813648743829958 0 0 0 0 457.87488631694941 324.80473316736732 0 324.80473316736732 224.31350246919226 0 0 0 0 -136.24950797410929 -190.96303697306962 0 -190.96303697306962 -110.61243347237922 0 0 0 0 10.549196163757557 -7.3001853133140315 0 -7.3001853133140315 3.145555477241559 0 0 0 0 262.39929155356003 215.1646439089144 0 215.1646439089144 258.56233566844446 0 0 0 0 682.36024734649254 269.32757612796149 0 269.32757612796149 246.99357200191156 0 0 0 0 350.69871814257203 190.15308163125479 0 190.15308163125479 169.21303588648254 0 0 0 0 135.69437313854723 109.01131553920936 0 109.01131553920936 97.473112964317608 0 0 0 0 6.0411195196456902 98.219871019639527 0 98.219871019639527 381.96963476347133 0 0 0 0 116.91099471513735 50.923757922063871 0 50.923757922063871 358.46049869751948 0 0 0 0 172.67210645169689 64.007586725810683 0 64.007586725810683 356.71888003680709 0 0 0 0 227.98279158074729 -101.28578005315259 0 -101.28578005315259 449.41560547540769 0 0 0 0 130.58017323106469 26.788773164213438 0 26.788773164213438 345.42130742897734 0 0 0 0 150.78975762972914 15.122027513064033 0 15.122027513064033 348.27036006424936 0 0 0 0 304.4569908912963 38.097561901597274 0 38.097561901597274 110.84441776389535 0 0 0 0 196.75132003025283 34.883835509463722 0 34.883835509463722 126.91522104757735 0 0 0 0 154.01576547701916 52.268797693544144 0 52.268797693544144 365.00504091176504 0 0 0 0 298.73099935022037 77.622246783611672 0 77.622246783611672 79.025521330739821 0 0 0 0 285.58165166220715 -281.88550817482604 0 -281.88550817482604 21.946181654400903 0 0 0 0 3.9055018466166302 -2.4538294523147499 0 -2.4538294523147499 1.278331658742665 0 0 0 0 325.66785103507209 -59.866978083604749 0 -59.866978083604749 368.05535901247174 0 0 0 0 57.41113557099743 -9.3599233809151556 0 -9.3599233809151556 -11.949836893842757 0 0 0 0 29.015223146678181 -28.876629076260713 0 -28.876629076260713 -1.5152223511588545 0 0 0 0 55.888597209588625 -3.4255507484074315 0 -3.4255507484074315 -26.770730926481519 0 0 0 0 116.99776469021162 -21.295805391759359 0 -21.295805391759359 -31.46926786106792 0 0 0 0 52.114765161298237 -0.9970631586401697 0 -0.9970631586401697 -33.575525097266983 0 0 0 0 45.434478837501956 16.941432413162691 0 16.941432413162691 -14.613183337331606 0 0 0 0 106.54407018409984 18.626779460214635 0 18.626779460214635 -22.528230956615459 0 0 0 0 21.995201010132917 -1.443813760338621 0 -1.443813760338621 -1.9779422975261589 0 0 0 0 15.45120647456497 -20.098433277758883 0 -20.098433277758883 -14.136097358394238 0 0 0 0 24.924209208737011 -25.159812174571947 0 -25.159812174571947 -26.314604427455727 0 0 0 0 -4.1588366532904644 -10.067827869193877 0 -10.067827869193877 -4.5674225661380321 0 0 0 0 90.796541192088625 -27.738579244379594 0 -27.738579244379594 82.373944858008599 0 0 0 0 16.840829156833934 -15.867503136657433 0 -15.867503136657433 -13.239745287272399 0 0 0 0 -235.02772533556202 -13.384390843843697 0 -13.384390843843697 17.163847196691677 0 0 0 0 196.99640017992351 428.17797352295224 0 428.17797352295224 -10.275470096291087 0 0 0 0 0.49146472164284205 -2.6383522224345413 0 -2.6383522224345413 0.1724152923140454 0 0 0 0 -234.97715593141038 169.90675979069601 0 169.90675979069601 62.905420619780671 0 0 0 0 212.80424319740268 -230.63171072868033 0 -230.63171072868033 62.518585152032756 0 0 0 0 358.49022252422583 81.724710131429333 0 81.724710131429333 113.13738673691228 0 0 0 0 422.73023191916582 -6.2864128044531071 0 -6.2864128044531071 205.38048763430697 0 0 0 0 604.12931757219485 25.297090373781202 0 25.297090373781202 30.820386752418926 0 0 0 0 551.5114462350175 268.58132441788877 0 268.58132441788877 -138.79643917821295 0 0 0 0 395.40249951471924 126.9401309229122 0 126.9401309229122 165.87543121831436 0 0 0 0 490.7400707777997 -27.902648085512055 0 -27.902648085512055 -13.141978125997412 0 0 0 0 388.56210137445305 90.356705065981259 0 90.356705065981259 53.741577708668046 0 0 0 0 298.78751916253532 37.404586777144345 0 37.404586777144345 28.684285606262165 0 0 0 0 235.6446204589738 -39.462291973119136 0 -39.462291973119136 7.7974891236383428 0 0 0 0 314.08404194590548 -33.089902196536286 0 -33.089902196536286 -43.787933345721285 0 0 0 0 209.55305154633243 -12.587581138775022 0 -12.587581138775022 -25.844989251459992 0 0 0 0 271.34325943354634 -5.1973898091923729 0 -5.1973898091923729 -35.614712842056178 0 0 0 0 327.31643671674465 39.444458595352046 0 39.444458595352046 -29.73424838702249 0 0 0 0 232.41647441621353 -18.428634603970181 0 -18.428634603970181 -39.163321188829286 0 0 0 0 206.33934185723774 -65.045491151003262 0 -65.045491151003262 -51.208115792064177 0 0 0 0 -8.1019956665038819 -11.567968311346846 0 -11.567968311346846 -6.5905165151412577 0 0 0 0 174.05544500457927 5.1822626408031596 0 5.1822626408031596 -8.3914495438430095 0 0 0 0 74.737447403589613 -16.685561019143734 0 -16.685561019143734 -3.3707056358002774 0 0 0 0 279.97174571950745 -0.83497422502659902 0 -0.83497422502659902 -62.795341872832978 0 0 0 0 269.45875655201962 6.3551147634293557 0 6.3551147634293557 -72.401635090219315 0 0 0 0 270.14954069073428 -14.203679612151973 0 -14.203679612151973 -71.952568703845785 0 0 0 0 176.62414824939333 42.619539684666051 0 42.619539684666051 -92.569717958567708 0 0 0 0 269.80464894517718 -4.1564931041230793 0 -4.1564931041230793 -59.221215884188496 0 0 0 0 321.01544652498706 -61.836143111633419 0 -61.836143111633419 -117.69262721652012 0 0 0 0 391.1234258319455 37.412340542482525 0 37.412340542482525 -95.091228752292409 0 0 0 0 205.61226758568955 171.27988248725387 0 171.27988248725387 -159.26523675813769 0 0 0 0 922.31498595981975 249.5209022867557 0 249.5209022867557 -193.68789804835887 0 0 0 0 362.61378285838873 -66.518423978969622 0 -66.518423978969622 -119.3623828043651 0 0 0 0 -125.86871261561464 57.86630015127048 0 57.86630015127048 85.261474246738544 0 0 0 0 16.191377856943291 39.280864787226619 0 39.280864787226619 -15.620660697313269 0 0 0 0 192.65635879500769 113.43667343768993 0 113.43667343768993 -15.560719275673364 0 0 0 0 -24.914768677408574 174.9531995696384 0 174.9531995696384 88.670185639483861 0 0 0 0 1.4190547392790904 -130.11802665578534 0 -130.11802665578534 -97.027383204358557 0 0 0 0 6.3880566983971505 -12.752760468285516 0 -12.752760468285516 -11.769338169608998 0 0 0 0 23.20563615381252 4.858009672743492 0 4.858009672743492 13.504602353226232 0 0 0 0 16.796281664617709 -19.12540569244743 0 -19.12540569244743 5.863675294265704 0 0 0 0 50.059845562675036 -28.858692406632258 0 -28.858692406632258 -16.511407341425183 0 0 0 0 47.174717196918209 -43.958106458851717 0 -43.958106458851717 33.685068395382132 0 0 0 0 125.49700066068908 -27.563204350972114 0 -27.563204350972114 -33.901055017031467 0 0 0 0 116.64491864864249 -75.633387302891038 0 -75.633387302891038 1.6153517221700895 0 0 0 0 195.68747853898094 -83.991266378407772 0 -83.991266378407772 -6.7089614918650113 0 0 0 0 102.14603362767957 -84.891010233757584 0 -84.891010233757584 58.139665122402221 0 0 0 0 -10.174548480717931 6.8426454377840855 0 6.8426454377840855 53.384487716184168 0 0 0 0 33.555728547995386 4.1330274765228978 0 4.1330274765228978 -30.871170334614362 0 0 0 0 72.450018328119768 -114.57979721059962 0 -114.57979721059962 156.7759350527499 0 0 0 0 4.6207484174940419 -0.30701089635338974 0 -0.30701089635338974 0.058313549038514267 0 0 0 0 -169.08865684655029 773.29996192992576 0 773.29996192992576 281.40703580197351 0 0 0 0 313.2684613923775 -432.81069094710983 0 -432.81069094710983 248.29528637724616 0 0 0 0 258.43177948243101 -187.78705803799016 0 -187.78705803799016 71.36564470832991 0 0 0 0 105.66525706771887 -30.380776437135893 0 -30.380776437135893 -8.3822288687044413 0 0 0 0 160.75231429882933 84.832568283162786 0 84.832568283162786 82.416848786417518 0 0 0 0 70.498000001563923 81.216710338226051 0 81.216710338226051 -68.385791431903328 0 0 0 0 273.87762166539324 98.695424351246061 0 98.695424351246061 -110.80023056035793 0 0 0 0 187.0053740413714 38.662216144356421 0 38.662216144356421 -80.951336330108973 0 0 0 0 237.1537860519602 8.4756878985622279 0 8.4756878985622279 -115.25031028144417 0 0 0 0 401.21073381745373 -66.019471499948736 0 -66.019471499948736 -81.439944237187774 0 0 0 0 68.437887862193747 -0.55506916726898226 0 -0.55506916726898226 74.798606537132287 0 0 0 0 77.646969810099108 -83.063236469331059 0 -83.063236469331059 -220.25503030873182 0 0 0 0 106.24368046295621 -31.579805347167657 0 -31.579805347167657 -6.1041842739166574 0 0 0 0 188.66063068296353 119.14981925242705 0 119.14981925242705 107.74691208037589 0 0 0 0 97.299680621232255 -36.744745368575991 0 -36.744745368575991 30.975686870152231 0 0 0 0 56.562807763693854 -276.95793071280923 0 -276.95793071280923 -337.6491693126747 0 0 0 0 105.11083486868586 -33.094405703244909 0 -33.094405703244909 -4.0777809139782963 0 0 0 0 250.76350741073475 51.058109956595459 0 51.058109956595459 -175.59342756717524 0 0 0 0 136.51845777186099 58.39969026577424 0 58.39969026577424 -101.47606538065145 0 0 0 0 208.02228071808349 -7.5116377652544912 0 -7.5116377652544912 16.275860325678138 0 0 0 0 346.08266568728141 187.8427266997526 0 187.8427266997526 -73.780127785013804 0 0 0 0 402.31763166892051 -33.694087921965263 0 -33.694087921965263 -290.15406272364322 0 0 0 0 91.121960464632139 42.61660815856365 0 42.61660815856365 -50.757504190634499 0 0 0 0 155.69754280103371 36.983666341138616 0 36.983666341138616 -52.473864641475529 0 0 0 0 173.27180210591177 111.17596898738483 0 111.17596898738483 -91.715293798241149 0 0 0 0 193.65296414313707 65.860437245810687 0 65.860437245810687 -114.66787232120532 0 0 0 0 94.428578700266371 92.438698390254615 0 92.438698390254615 31.956853700997669 0 0 0 0 88.481241864108597 70.111307535095307 0 70.111307535095307 -7.3950875224918491 0 0 0 0 44.539182482723845 51.524366780602833 0 51.524366780602833 36.945349963588939 0 0 0 0 138.59082856964233 93.832948108469253 0 93.832948108469253 -4.4055868031016416 0 0 0 0 33.825364160671597 -74.120528161218374 0 -74.120528161218374 -192.78567574149315 0 0 0 0 60.736507000459824 86.821859259225263 0 86.821859259225263 81.885995317930622 0 0 0 0 15.24626422316561 -1.5456508977014565 0 -1.5456508977014565 -0.14170696277906719 0 0 0 0 80.711392762397736 122.70221989946575 0 122.70221989946575 186.48537102879814 0 0 0 0 -2.9665211344035924 43.65392396521429 0 43.65392396521429 115.25259536323551 0 0 0 0 24.986265691739391 64.306578706338613 0 64.306578706338613 -19.254849591620371 0 0 0 0 -75.506941167499463 -64.941237187518112 0 -64.941237187518112 89.816027591409522 0 0 0 0 -31.612665405520602 83.783486978325811 0 83.783486978325811 164.37032163870504 0 0 0 0 -45.98958394874353 14.436500711021779 0 14.436500711021779 136.08830660531362 0 0 0 0 839.85537578511867 106.45751042204769 0 106.45751042204769 14.908523595423436 0 0 0 0 407.46262609357655 -179.29206325686704 0 -179.29206325686704 470.26919882442877 0 0 0 0 322.36421980065643 371.54424918180081 0 371.54424918180081 409.63487557962026 0 0 0 0 5.7520739450481528 -0.70168700392697048 0 -0.70168700392697048 0.32765715269643769 0 0 0 0 123.35691477562068 -168.15724157227305 0 -168.15724157227305 83.64600951948637 0 0 0 0 466.43649665093108 -289.23498225153725 0 -289.23498225153725 7.7501692106126825 0 0 0 0 488.22010841676092 113.3868242240049 0 113.3868242240049 440.19645518696512 0 0 0 0 695.29429659117159 -90.280728716446276 0 -90.280728716446276 -100.13192991781966 0 0 0 0 562.73876353462401 -274.72204847292971 0 -274.72204847292971 42.809347116694198 0 0 0 0 787.87812136225693 -9.7646205752791957 0 -9.7646205752791957 -12.649037546005502 0 0 0 0 604.00575638067676 -104.69578492487653 0 -104.69578492487653 -60.257035006295609 0 0 0 0 613.9183713497041 -53.213195429426719 0 -53.213195429426719 63.785839947711111 0 0 0 0 238.28781899252499 -27.862134251215366 0 -27.862134251215366 166.15921744570619 0 0 0 0 112.05884929462627 -85.736271835023217 0 -85.736271835023217 522.72984674099393 0 0 0 0 579.00100038765231 208.33474022328687 0 208.33474022328687 307.74978515026351 0 0 0 0 5.4323242393835471 1.1066003045370749 0 1.1066003045370749 0.55738104064386262 0 0 0 0 397.97431479216903 407.72860331471873 0 407.72860331471873 346.49420685842932 0 0 0 0 22.056169889350713 -34.278715332563479 0 -34.278715332563479 71.362471749184806 0 0 0 0 45.414079159250832 -28.029360782763035 0 -28.029360782763035 23.696196756443669 0 0 0 0 15.666287207757705 -60.458528382662053 0 -60.458528382662053 230.75505421679918 0 0 0 0 23.196118399995612 49.603167723434353 0 49.603167723434353 149.53139543894508 0 0 0 0 55.063461420679232 -67.454498593371341 0 -67.454498593371341 195.18378784154186 0 0 0 0 238.82061363986418 1.082581246523679 0 1.082581246523679 194.76534822487929 0 0 0 0 102.18991587417258 -212.83429872370493 0 -212.83429872370493 176.30603836148259 0 0 0 0 35.88463863528159 -17.913932650161428 0 -17.913932650161428 318.82488541598809 0 0 0 0 -1.8603529626270756 -251.52144780438039 0 -251.52144780438039 47.233915910397741 0 0 0 0 75.337458848982351 -136.07674632884391 0 -136.07674632884391 143.40459179529205 0 0 0 0 -36.252225651973276 -8.9144101274675904 0 -8.9144101274675904 28.169409999547497 0 0 0 0 0.92992733359670865 -0.36689793613550137 0 -0.36689793613550137 3.957689570902287 0 0 0 0 0.83826839819479915 -1.5320662936867677 0 -1.5320662936867677 9.1911241242794208 0 0 0 0 63.069190457737022 -37.835610930843956 0 -37.835610930843956 -71.383370585504963 0 0 0 0 188.01657926558983 19.838735504327815 0 19.838735504327815 -47.420186555532837 0 0 0 0 -169.84465147950687 -89.543105980033602 0 -89.543105980033602 203.57195536136874 0 0 0 0 138.05769271434838 159.82537930633259 0 159.82537930633259 30.974693741733972 0 0 0 0 422.96558411153092 -159.23687408757974 0 -159.23687408757974 -123.11005277617028 0 0 0 0 43.065578865513089 -35.980006760655129 0 -35.980006760655129 27.101804816465886 0 0 0 0 0.47005860052013304 -7.8997728376054539 0 -7.8997728376054539 9.7875887530011596 0 0 0 0 0.29539687427799777 0.78164343685560311 0 0.78164343685560311 1.1076612759352449 0 0 0 0 35.228754069787101 94.254990348430169 0 94.254990348430169 95.591275664120531 0 0 0 0 -89.801568675233284 55.368726554472659 0 55.368726554472659 231.44336491191791 0 0 0 0 24.608275517181028 74.568146595908672 0 74.568146595908672 218.5979554667658 0 0 0 0 0.7166112928309758 -1.6749426400630512 0 -1.6749426400630512 3.4886635752353845 0 0 0 0 60.632457999297912 148.50213047466707 0 148.50213047466707 208.10057144490577 0 0 0 0 132.48943726748985 -189.36701643482422 0 -189.36701643482422 84.085806462530869 0 0 0 0 224.14258854051877 -30.23441935711071 0 -30.23441935711071 166.83072517473192 0 0 0 0 -21.182486983248964 154.34484317777668 0 154.34484317777668 249.9120039807882 0 0 0 0 -163.65116770275927 -145.75650609399503 0 -145.75650609399503 268.37157169780244 0 0 0 0 385.01184287121578 181.88575714254463 0 181.88575714254463 -367.2185671048307 0 0 0 0 21.170908007128389 -1.7375005342950658 0 -1.7375005342950658 -0.5884371568576412 0 0 0 0 58.266312050538545 71.118589322301148 0 71.118589322301148 -36.646156005531736 0 0 0 0 43.393481826904463 -190.58500709182584 0 -190.58500709182584 -287.45781858701605 0 0 0 0 340.394953759489 185.78320632020393 0 185.78320632020393 46.410589257625361 0 0 0 0 233.90093757997965 196.62279167743668 0 196.62279167743668 78.910873312651404 0 0 0 0 354.92567907369812 194.86390387975064 0 194.86390387975064 72.964900875316857 0 0 0 0 393.42251193802804 143.59159471056785 0 143.59159471056785 88.345121325548917 0 0 0 0 378.1542236590758 115.00156254922206 0 115.00156254922206 46.607656114154679 0 0 0 0 442.45897645437071 57.301456184048362 0 57.301456184048362 94.160823166037972 0 0 0 0 463.95162464856548 126.84919942525758 0 126.84919942525758 -42.681918167365438 0 0 0 0 350.81782883373671 201.39402368473685 0 201.39402368473685 12.114936204409105 0 0 0 0 292.94367327092914 -99.775123419387455 0 -99.775123419387455 -423.41570792981162 0 0 0 0 170.40448065311648 222.00041378411481 0 222.00041378411481 26.301270830959766 0 0 0 0 99.385796054790262 275.14125732533034 0 275.14125732533034 20.285335845152872 0 0 0 0 11.09221856482327 64.229409517055046 0 64.229409517055046 -71.208162535347924 0 0 0 0 116.25758720567683 143.36362806849203 0 143.36362806849203 90.24348290871319 0 0 0 0 90.096500212908722 178.62774529564865 0 178.62774529564865 44.659943375636431 0 0 0 0 228.95950084360084 265.04664914656865 0 265.04664914656865 20.466965265962706 0 0 0 0 -77.397166842623847 -149.45759906694889 0 -149.45759906694889 -138.42351626880395 0 0 0 0 168.58081927185412 37.100987625030498 0 37.100987625030498 -190.16350868182371 0 0 0 0 198.83550100610591 14.848538942738401 0 14.848538942738401 236.29596077769352 0 0 0 0 197.56709394272184 160.09145741973171 0 160.09145741973171 133.7446065280717 0 0 0 0 166.79185122040508 88.460038262441913 0 88.460038262441913 119.905201900664 0 0 0 0 260.69418670726009 148.47839183981171 0 148.47839183981171 89.317184527811918 0 0 0 0 370.98799049743684 58.871345969337881 0 58.871345969337881 119.69627649175993 0 0 0 0 310.80827145426883 145.58073781528935 0 145.58073781528935 119.19873039208733 0 0 0 0 301.49122879642528 -57.538308279741273 0 -57.538308279741273 -7.645643322982778 0 0 0 0 425.51084811391047 288.86533263140541 0 288.86533263140541 130.95892397616421 0 0 0 0 404.81853340267844 122.01929659807843 0 122.01929659807843 113.04769712057555 0 0 0 0 469.26751505612629 196.66296040378938 0 196.66296040378938 86.361235698130372 0 0 0 0 337.13210848763265 192.38030611909579 0 192.38030611909579 92.35525052206458 0 0 0 0 360.83415025667637 156.78543548147786 0 156.78543548147786 85.695950441000377 0 0 0 0 438.60760059168388 178.50884618480222 0 178.50884618480222 172.11264226946832 0 0 0 0 1101.1943305451859 478.88035006949553 0 478.88035006949553 164.61513112287787 0 0 0 0 547.95755414874293 65.741311415970586 0 65.741311415970586 26.487895490790152 0 0 0 0 553.96579149356694 -165.34287714067943 0 -165.34287714067943 165.19759725649828 0 0 0 0 232.66882520314539 155.64688546372508 0 155.64688546372508 327.23723911084289 0 0 0 0 664.30341440475968 163.20880228003284 0 163.20880228003284 -46.146804387459269 0 0 0 0 -134.94925480018719 -293.58997758085252 0 -293.58997758085252 -70.410563780475513 0 0 0 0 13.70166365737532 -16.568230624784974 0 -16.568230624784974 -123.75575287221181 0 0 0 0 301.10902825783705 -265.41382307735807 0 -265.41382307735807 -69.313292436832569 0 0 0 0 4.6840281336333192 -2.2268254176208444 0 -2.2268254176208444 0.79048394085899787 0 0 0 0 195.75854038441321 -104.43723542574617 0 -104.43723542574617 19.68399554615462 0 0 0 0 29.136913451380678 -82.673275958760428 0 -82.673275958760428 27.181706976359692 0 0 0 0 252.59120602358598 -83.345155687210365 0 -83.345155687210365 -22.120089779798946 0 0 0 0 281.00624562671146 -139.66620981769319 0 -139.66620981769319 -94.240431197393264 0 0 0 0 221.10270328173647 -72.521363372497717 0 -72.521363372497717 -25.558198937297448 0 0 0 0 218.61503620432086 -45.169118849960952 0 -45.169118849960952 2.4486519618558305 0 0 0 0 284.20776234421646 -48.76149809171352 0 -48.76149809171352 -31.608046126063073 0 0 0 0 285.97530992753127 -58.331368847501466 0 -58.331368847501466 -79.57478593582573 0 0 0 0 282.14492794848047 -14.778661394360142 0 -14.778661394360142 -29.717823412847792 0 0 0 0 239.58938538123039 -12.600391778446692 0 -12.600391778446692 -6.6979513231649435 0 0 0 0 247.27126616603346 -39.851373086316016 0 -39.851373086316016 -33.559348500440024 0 0 0 0 292.76747371029342 7.3509226099677107 0 7.3509226099677107 -49.639563705250339 0 0 0 0 286.71259503433248 -24.692917435177378 0 -24.692917435177378 -49.666793093734441 0 0 0 0 333.35396159280208 -29.058209058375041 0 -29.058209058375041 -62.110429843957718 0 0 0 0 323.69358093063784 5.8342978690432119 0 5.8342978690432119 -74.115590542671725 0 0 0 0 311.05490059091244 17.053158898153242 0 17.053158898153242 -81.824894125297533 0 0 0 0 410.16106528919772 24.669241319064213 0 24.669241319064213 -101.5248717020495 0 0 0 0 417.13622860447504 -79.770336694653906 0 -79.770336694653906 -86.320132166810026 0 0 0 0 610.75276441891037 -139.65366233041027 0 -139.65366233041027 -118.84264104932845 0 0 0 0 338.41763431820436 40.361972538777309 0 40.361972538777309 -91.130813016740376 0 0 0 0 108.6356642935425 163.53838191171644 0 163.53838191171644 26.788941665145103 0 0 0 0 -67.891026347424486 79.393993917701437 0 79.393993917701437 56.022471474093891 0 0 0 0 199.3456636266128 7.6842503305495029 0 7.6842503305495029 -61.728147800754414 0 0 0 0 229.14152776362607 68.421525551133072 0 68.421525551133072 -68.349681688138844 0 0 0 0 349.83803698675183 67.406850830425014 0 67.406850830425014 -87.336916050337095 0 0 0 0 50.49557671599905 -113.82168139076157 0 -113.82168139076157 190.50255580234989 0 0 0 0 1.0525187844785506 1.4496848623330152 0 1.4496848623330152 10.078003593800204 0 0 0 0 298.51608857436804 -89.077330335770966 0 -89.077330335770966 -66.666445902767776 0 0 0 0 1.4130263091894193 -1.2071589863807048 0 -1.2071589863807048 4.9429741129050573 0 0 0 0 7.262243236436916 11.526302186711831 0 11.526302186711831 5.0024812153903895 0 0 0 0 216.26761464549054 368.16427935825459 0 368.16427935825459 919.38338388640204 0 0 0 0 420.70062685248558 -168.1269634470097 0 -168.1269634470097 -104.03711901541919 0 0 0 0 32.214755880329903 17.509190826814731 0 17.509190826814731 21.545324016249197 0 0 0 0 1.2551750920271729 -1.7421361330823686 0 -1.7421361330823686 1.7639108902023124 0 0 0 0 -1.8961560432508122 -7.6876339760631254 0 -7.6876339760631254 7.202489565991641 0 0 0 0 32.434674620017176 17.343442872878768 0 17.343442872878768 5.8351836102999641 0 0 0 0 190.46361598039221 21.767532086391952 0 21.767532086391952 -12.933909576534461 0 0 0 0 -18.968584892027138 15.72150742621551 0 15.72150742621551 22.601010577249554 0 0 0 0 2.3228555581562205 2.2433613708189455 0 2.2433613708189455 8.0627699162251929 0 0 0 0 311.82941230951474 32.444454505651507 0 32.444454505651507 -71.613174812331636 0 0 0 0 254.63711867493112 34.651940063260554 0 34.651940063260554 -60.899595202314686 0 0 0 0 224.29918178980006 32.506618611955901 0 32.506618611955901 -49.156219066226868 0 0 0 0 253.94765386855579 11.605827985137921 0 11.605827985137921 -33.286205436920511 0 0 0 0 238.12332111770229 9.6692915497883405 0 9.6692915497883405 -33.523120611751438 0 0 0 0 292.6562116214518 8.4393762074298024 0 8.4393762074298024 -46.155619440140981 0 0 0 0 254.29339437501039 10.267639919407884 0 10.267639919407884 -32.641457610015323 0 0 0 0 301.30557041458087 -18.900265481851193 0 -18.900265481851193 -16.646592979745037 0 0 0 0 282.13619033285067 -12.876101469590139 0 -12.876101469590139 -13.410589175515724 0 0 0 0 266.13362378237071 -47.709476049712976 0 -47.709476049712976 23.293477656518121 0 0 0 0 323.43664067858481 -46.894145072147865 0 -46.894145072147865 -1.7704176729117762 0 0 0 0 214.02223123254953 -19.814895258586262 0 -19.814895258586262 12.036186514133533 0 0 0 0 5.5295378719499979 -3.2623493985997527 0 -3.2623493985997527 2.7412673750336722 0 0 0 0 348.48309541528579 -106.37405499542041 0 -106.37405499542041 -14.573319848743495 0 0 0 0 35.419143433412501 -43.467419897164184 0 -43.467419897164184 97.809025204622912 0 0 0 0 -11.667803604883375 27.439056615694085 0 27.439056615694085 20.836510462742012 0 0 0 0 -21.058678298257291 5.7741286424544569 0 5.7741286424544569 3.2919881463626552 0 0 0 0 36.678332556824898 -11.843400930815051 0 -11.843400930815051 -30.722173875679232 0 0 0 0 2.6713844378653562 -0.62872830809925517 0 -0.62872830809925517 -0.62541594989361027 0 0 0 0 21.574702625555801 -20.065276325597836 0 -20.065276325597836 -2.8784843822172661 0 0 0 0 -42.509957044123439 -67.453112714398685 0 -67.453112714398685 112.14803559088443 0 0 0 0 4.2118568224250623 -3.4647129632086262 0 -3.4647129632086262 1.4735008373736909 0 0 0 0 16.111905301077059 1.9699631283422256 0 1.9699631283422256 2.7437888502994419 0 0 0 0 1.6393856644682359 -0.064623799541351445 0 -0.064623799541351445 -0.81467493219748899 0 0 0 0 230.38288457074668 31.127482136525906 0 31.127482136525906 -10.437247932753451 0 0 0 0 148.17002602190041 66.218622248806582 0 66.218622248806582 -25.331311748149744 0 0 0 0 2.589659397664775 4.2872287995949705 0 4.2872287995949705 3.8712321014909676 0 0 0 0 15.331734520230384 1.3903587282261718 0 1.3903587282261718 2.3131927048471823 0 0 0 0 308.81599976497819 -31.762916105886575 0 -31.762916105886575 9.6254592181439875 0 0 0 0 331.0776546880661 -54.715622430192866 0 -54.715622430192866 24.036647066357091 0 0 0 0 301.418554613163 -6.6957161151752871 0 -6.6957161151752871 -1.6893893604408845 0 0 0 0 340.55663655276294 -15.628332614047395 0 -15.628332614047395 -6.6855367601851583 0 0 0 0 289.5818909824884 3.9455922051732841 0 3.9455922051732841 5.2976539211906584 0 0 0 0 264.18602798617212 15.025741175013195 0 15.025741175013195 5.439814204878985 0 0 0 0 293.06497252352165 9.8360617966135067 0 9.8360617966135067 -10.244482196438867 0 0 0 0 297.87949992518406 -13.614619739044258 0 -13.614619739044258 -14.566807278536544 0 0 0 0 255.48632129721227 4.1673030748694373 0 4.1673030748694373 -10.376439414518245 0 0 0 0 280.79996435066278 -12.909766398968486 0 -12.909766398968486 -30.107046433184678 0 0 0 0 285.02416131501377 -4.8963834638872754 0 -4.8963834638872754 -15.297950254120678 0 0 0 0 303.04227157979039 -8.7035535639253112 0 -8.7035535639253112 -36.763148575840887 0 0 0 0 294.87342060846277 2.7919669337870801 0 2.7919669337870801 -48.498309668200818 0 0 0 0 302.57026851900446 -11.06702869109597 0 -11.06702869109597 -26.30957236495442 0 0 0 0 319.76132385697565 -27.956608697921979 0 -27.956608697921979 -10.936517840550096 0 0 0 0 292.89821361764916 -9.1291193892332103 0 -9.1291193892332103 -15.093881898242216 0 0 0 0 107.35253724340384 118.62579272986993 0 118.62579272986993 86.85889753665333 0 0 0 0 252.36929344529926 197.020678149753 0 197.020678149753 -101.68713121067441 0 0 0 0 54.594665605967748 -120.58627893741277 0 -120.58627893741277 -58.857446724427035 0 0 0 0 611.17031222733931 -131.38039649438008 0 -131.38039649438008 -58.836450441602437 0 0 0 0 10.981686838725125 -3.6195629906197553 0 -3.6195629906197553 0.10143736533423153 0 0 0 0 140.99613000649697 -164.40240512238995 0 -164.40240512238995 -446.56202283647951 0 0 0 0 -200.64416642162541 -252.24393128943427 0 -252.24393128943427 62.958999131728433 0 0 0 0 40.690043352762586 -143.02449424570705 0 -143.02449424570705 98.366684132905903 0 0 0 0 17.708384442346869 -407.97619468754033 0 -407.97619468754033 -136.82876133074365 0 0 0 0 151.37420252498123 -183.8332768675059 0 -183.8332768675059 -96.046737373802898 0 0 0 0 139.51832808170002 -296.46804930909548 0 -296.46804930909548 -70.022576544359254 0 0 0 0 238.76454796700273 -280.39029262340136 0 -280.39029262340136 -96.186944783650233 0 0 0 0 5.0276709213545132 -1.6072691054093866 0 -1.6072691054093866 0.03059560217395374 0 0 0 0 708.14935252733994 241.53523531104008 0 241.53523531104008 -237.3214347115445 0 0 0 0 571.74951887073985 69.120748969806783 0 69.120748969806783 -151.26160753310532 0 0 0 0 262.30612446491432 178.811512563788 0 178.811512563788 -7.7767054618001339 0 0 0 0 26.859538709060871 -9.4166542076256405 0 -9.4166542076256405 46.037121200590775 0 0 0 0 377.29088759413753 119.28561021367734 0 119.28561021367734 -39.942237589303033 0 0 0 0 220.47302430376294 97.10998093834678 0 97.10998093834678 -43.077879059591872 0 0 0 0 72.168471109165694 106.42588127000698 0 106.42588127000698 18.99564743300499 0 0 0 0 249.11771479845629 105.6452277366687 0 105.6452277366687 -16.642038029833998 0 0 0 0 112.73129204524594 -104.25714669508633 0 -104.25714669508633 -251.35618446530998 0 0 0 0 -59.614932801094255 30.430249963447352 0 30.430249963447352 -102.61983778125678 0 0 0 0 144.45191145809076 -2.3220058593850936 0 -2.3220058593850936 -124.92446112967517 0 0 0 0 61.219104646006599 88.325013574781508 0 88.325013574781508 0.95636090985382793 0 0 0 0 33.821537281488418 19.622596056420136 0 19.622596056420136 -160.28931313953126 0 0 0 0 105.92083618199104 -106.91120975009497 0 -106.91120975009497 -29.421023844642477 0 0 0 0 157.48502702833503 26.918192134230885 0 26.918192134230885 -283.38405419554124 0 0 0 0 10.426400500484021 -3.2520860813869632 0 -3.2520860813869632 0.054216789437001922 0 0 0 0 64.987018746018293 -182.43337879153313 0 -182.43337879153313 -347.90834629049311 0 0 0 0 230.04844077183225 -6.4602677248315583 0 -6.4602677248315583 120.41223322810077 0 0 0 0 153.61258942875429 0.90723529348850285 0 0.90723529348850285 121.52110267414977 0 0 0 0 322.23442722812979 -5.2820130850282929 0 -5.2820130850282929 17.061531405798291 0 0 0 0 229.99991240966483 16.826258634115131 0 16.826258634115131 31.215840972564639 0 0 0 0 445.94322415266652 159.09567421543716 0 159.09567421543716 95.131165246612682 0 0 0 0 238.29771197674563 90.068772777516955 0 90.068772777516955 82.394167976442674 0 0 0 0 168.20939169387202 128.16853174921096 0 128.16853174921096 64.34155044344034 0 0 0 0 -13.896371234281105 -15.209398036123645 0 -15.209398036123645 12.020628628558939 0 0 0 0 218.37817458101927 135.01456477215734 0 135.01456477215734 54.615945657107872 0 0 0 0 3.0616399527839633 -2.0525135869154099 0 -2.0525135869154099 0.70611154822460986 0 0 0 0 301.62848703922646 176.12024370553408 0 176.12024370553408 41.30953406709019 0 0 0 0 32.615431875688955 7.9549190837582557 0 7.9549190837582557 -26.500101327973162 0 0 0 0 27.774059660301646 17.530829504431743 0 17.530829504431743 -2.2071856225828981 0 0 0 0 68.488626542784914 -29.171997432481675 0 -29.171997432481675 44.77232927592226 0 0 0 0 0.09032156575800343 0.032843057785697738 0 0.032843057785697738 -0.16098829091341824 0 0 0 0 137.73324309755117 25.831447502906702 0 25.831447502906702 -0.042184862115722713 0 0 0 0 324.25069611228537 -36.156857763130105 0 -36.156857763130105 -22.155613679918805 0 0 0 0 1.2065226484516529 -0.62658513883940259 0 -0.62658513883940259 0.24972382959128883 0 0 0 0 18.295613058980052 -79.398545596857716 0 -79.398545596857716 6.2404702234926646 0 0 0 0 265.44014015650464 -25.413404246783671 0 -25.413404246783671 78.505479067861089 0 0 0 0 263.36284492710547 -2.0633207011743462 0 -2.0633207011743462 0.0059392702090538783 0 0 0 0 282.10509563378582 39.801927452913965 0 39.801927452913965 76.225927354406721 0 0 0 0 239.60628639552306 12.223611803109264 0 12.223611803109264 47.944370460071994 0 0 0 0 207.05952848177913 -46.218926095784582 0 -46.218926095784582 53.287590548979026 0 0 0 0 506.73898571393511 -47.927934519798086 0 -47.927934519798086 -13.101418153350195 0 0 0 0 418.20855579939962 -57.256899580130494 0 -57.256899580130494 21.941487235653767 0 0 0 0 1.4470591873954675 2.2419218208736709 0 2.2419218208736709 0.90103122958917259 0 0 0 0 368.67932003813621 5.3022624550907835 0 5.3022624550907835 18.886591378047257 0 0 0 0 375.48007598689583 8.9316730439887806 0 8.9316730439887806 3.4127776815073503 0 0 0 0 332.46020664563002 21.45799628364967 0 21.45799628364967 -2.0084185582556984 0 0 0 0 301.25432829369674 16.638854810602538 0 16.638854810602538 14.836721462942648 0 0 0 0 341.27955710533752 -31.495327604659842 0 -31.495327604659842 15.208368232417115 0 0 0 0 358.22729982080637 -23.993138758766463 0 -23.993138758766463 11.505274635208309 0 0 0 0 14.161939690980944 3.6633796176173803 0 3.6633796176173803 1.2748784657083512 0 0 0 0 1.8560605820690341 3.6866479200236881 0 3.6866479200236881 2.0496180337894465 0 0 0 0 395.54713442601496 -55.728346354519118 0 -55.728346354519118 6.0110162908264897 0 0 0 0 29.753053745662328 -5.8669953808563378 0 -5.8669953808563378 -13.660663291322578 0 0 0 0 -0.1529572469309386 0.13070166714345532 0 0.13070166714345532 -0.49160154822081403 0 0 0 0 18.866124865511665 6.4878909316053113 0 6.4878909316053113 -0.37321194943477565 0 0 0 0 6.1286503644514596 5.3532363445553051 0 5.3532363445553051 2.3918832907802301 0 0 0 0 13.591556099512673 2.4117544356019156 0 2.4117544356019156 0.61222762615087589 0 0 0 0 11.941810117395107 4.9479738430061602 0 4.9479738430061602 -0.17957113030421112 0 0 0 0 11.924095758258773 5.1166849434996493 0 5.1166849434996493 1.8415505649325894 0 0 0 0 11.352707619560533 6.3544962296843668 0 6.3544962296843668 0.013131301136345178 0 0 0 0 21.331255969140329 3.3886361981575437 0 3.3886361981575437 -1.9634758967724686 0 0 0 0 -0.90930274553829804 2.5386857092011219 0 2.5386857092011219 1.875876856643572 0 0 0 0 11.352413417535672 6.3450738662284447 0 6.3450738662284447 -0.01319373543488583 0 0 0 0 0.97143306309769173 0.79917779852726767 0 0.79917779852726767 0.17503786309118896 0 0 0 0 630.3215012384826 -59.390130397165713 0 -59.390130397165713 -8.285526230693776 0 0 0 0 433.45742468952812 -7.5014281698135292 0 -7.5014281698135292 6.688808443153647 0 0 0 0 400.49640354322173 29.287586772598189 0 29.287586772598189 7.7390317489988547 0 0 0 0 403.73005083377939 -21.732794856783698 0 -21.732794856783698 15.244726919197538 0 0 0 0 436.32529846448597 53.258458962423084 0 53.258458962423084 0.10354221348726723 0 0 0 0 359.53716538641311 -1.6218283306048562 0 -1.6218283306048562 18.375771980052008 0 0 0 0 244.26108886543079 59.690251184183829 0 59.690251184183829 0.0029917865514661537 0 0 0 0 314.74092611816013 46.137677069604635 0 46.137677069604635 -8.1579474852184717 0 0 0 0 298.79225503781345 32.427485106846049 0 32.427485106846049 9.8067215213145573 0 0 0 0 219.77179511548457 40.873828274609636 0 40.873828274609636 2.2766108968355638 0 0 0 0 233.19576475896611 67.322725475165157 0 67.322725475165157 17.14334604165029 0 0 0 0 310.93779863064992 47.696070712410773 0 47.696070712410773 27.052896071781696 0 0 0 0 306.71554180645035 37.824610028815414 0 37.824610028815414 15.535336674207258 0 0 0 0 259.44298789228196 50.945258691711956 0 50.945258691711956 16.032800479831451 0 0 0 0 308.28543179977714 38.537147122702919 0 38.537147122702919 8.111658275447553 0 0 0 0 251.55520598136354 59.519415913559442 0 59.519415913559442 18.226356145075002 0 0 0 0 239.53068751242972 46.133021657586738 0 46.133021657586738 10.956457877130106 0 0 0 0 222.07102748137549 68.322690508778834 0 68.322690508778834 11.180413970348752 0 0 0 0 224.58644545773132 59.330485482415355 0 59.330485482415355 13.064445702569401 0 0 0 0 256.32655091835477 45.222961922937003 0 45.222961922937003 7.469761850078271 0 0 0 0 221.04405935535033 53.514647047430969 0 53.514647047430969 7.6508125541295158 0 0 0 0 257.46996675705304 45.725346223965062 0 45.725346223965062 4.5741570541281362 0 0 0 0 255.09022288720007 39.378849664366953 0 39.378849664366953 10.611362890235682 0 0 0 0 308.94520310981534 35.660627501779501 0 35.660627501779501 2.7283699851508345 0 0 0 0 158.92325276452175 66.07335446124381 0 66.07335446124381 6.4271990141328388 0 0 0 0 130.44025461545243 56.734957542236913 0 56.734957542236913 11.895237220452941 0 0 0 0 158.61858140665572 61.710346231565609 0 61.710346231565609 -0.33735492967286973 0 0 0 0 135.20748878180166 50.966001732234872 0 50.966001732234872 9.6569434436978554 0 0 0 0 160.4034552788944 58.776575240189004 0 58.776575240189004 4.4845319238925185 0 0 0 0 182.61874139469001 62.587344104499152 0 62.587344104499152 3.867205518401363 0 0 0 0 175.20175345166354 69.157101001492947 0 69.157101001492947 6.298937014701778 0 0 0 0 185.11802654253552 56.831282591638342 0 56.831282591638342 9.4380788876444512 0 0 0 0 177.68577283681952 62.989762528994106 0 62.989762528994106 13.054857594870555 0 0 0 0 198.9870143175649 53.800663994483557 0 53.800663994483557 13.68854051742408 0 0 0 0 198.51937307641492 68.526569348829071 0 68.526569348829071 11.786750289454744 0 0 0 0 160.97913586942013 60.530784575271014 0 60.530784575271014 15.204845472126749 0 0 0 0 160.85992156341672 68.700470989095209 0 68.700470989095209 15.970161775413885 0 0 0 0 190.07779250496242 67.416076135129231 0 67.416076135129231 7.7280486962118857 0 0 0 0 186.78454874754243 51.671826850792229 0 51.671826850792229 7.1310692349426574 0 0 0 0 136.22781341080554 54.454907011313537 0 54.454907011313537 9.9380384051839172 0 0 0 0 133.98238209364354 67.898605183352089 0 67.898605183352089 11.754943327476951 0 0 0 0 158.67750499217073 53.105580445951773 0 53.105580445951773 11.432654022912999 0 0 0 0 109.72496503221919 45.18975235612865 0 45.18975235612865 15.380921326642351 0 0 0 0 108.29730661736903 69.30044349626256 0 69.30044349626256 4.7281650017205266 0 0 0 0 143.18143037660047 56.20156734118433 0 56.20156734118433 -19.099723882708673 0 0 0 0 101.10758009695564 41.924088476389656 0 41.924088476389656 0.84136081235482507 0 0 0 0 179.82313302683178 44.871350217433218 0 44.871350217433218 -12.583004467232186 0 0 0 0 186.46555265468487 58.823868668896246 0 58.823868668896246 9.2421174970845712 0 0 0 0 198.07623827812495 70.810160072154332 0 70.810160072154332 14.975257781599538 0 0 0 0 167.34523290017387 70.96821907521651 0 70.96821907521651 -0.44351691449401187 0 0 0 0 142.44884588443347 57.702206415371492 0 57.702206415371492 9.7832096637474706 0 0 0 0 211.47083503645263 21.234356362418303 0 21.234356362418303 -14.435663547586017 0 0 0 0 62.425945909519214 21.609807866558974 0 21.609807866558974 -8.5437898789105695 0 0 0 0 144.22126531799586 49.338624616429534 0 49.338624616429534 -0.031235377836654556 0 0 0 0 140.35118204810715 74.665863715767927 0 74.665863715767927 -7.285194454844536 0 0 0 0 68.435029468411813 18.441108975163907 0 18.441108975163907 -23.379391293798395 0 0 0 0 -19.324860561959213 3.1071938539806609 0 3.1071938539806609 -14.834624736026651 0 0 0 0 -0.16533732297267534 -0.045106834076813485 0 -0.045106834076813485 -0.033017952491683752 0 0 0 0 -14.994668450759491 0.21777913312272895 0 0.21777913312272895 -0.022014721716498573 0 0 0 0 1.3542612901874236 14.53279636579936 0 14.53279636579936 -36.665025710755749 0 0 0 0 37.822552563891804 -30.357253871173661 0 -30.357253871173661 -145.33220286142347 0 0 0 0 -24.085011137649417 -89.585842666550889 0 -89.585842666550889 -123.39795169609971 0 0 0 0 73.654377067214227 68.747609314701435 0 68.747609314701435 29.31422190580389 0 0 0 0 -0.17178125451505366 0.49647941831199205 0 0.49647941831199205 -0.9623771726206618 0 0 0 0 115.19009145984091 30.618759992133697 0 30.618759992133697 -66.803056481746466 0 0 0 0 104.41688908980905 50.930204914644762 0 50.930204914644762 10.103422923568814 0 0 0 0 79.437092203501379 82.614328872243135 0 82.614328872243135 -19.47407565462035 0 0 0 0 2.8942907537566498 1.0778887967415347 0 1.0778887967415347 0.001592652187970727 0 0 0 0 2.8193430574683589 8.3981867441607321 0 8.3981867441607321 -40.943783019384909 0 0 0 0 0.82922480435809121 -11.92855240260667 0 -11.92855240260667 -47.163148815376843 0 0 0 0 8.3505001566081773 0.80142460751500266 0 0.80142460751500266 -42.656231641977939 0 0 0 0 -19.812684661592357 4.0728870883865937 0 4.0728870883865937 -20.425030332432151 0 0 0 0 -11.183318323404819 2.5534636665000581 0 2.5534636665000581 0.3527139990912781 0 0 0 0 -0.045352979113204128 0.04550814282915816 0 0.04550814282915816 -0.025300361949596346 0 0 0 0 -50.563442496204516 -50.365288545269905 0 -50.365288545269905 -80.045916023470383 0 0 0 0 -34.40992419491522 -12.753108304528851 0 -12.753108304528851 -38.246436006187906 0 0 0 0 -10.783313423919026 -18.110032035256438 0 -18.110032035256438 -45.932149101431236 0 0 0 0 -14.959333966347913 -5.4587166658081792 0 -5.4587166658081792 -40.513105200637284 0 0 0 0 -5.0889345296600368 -2.3865438663380871 0 -2.3865438663380871 -34.496427803777266 0 0 0 0 -7.2722027437994257 3.992476723549089 0 3.992476723549089 -30.708872138903587 0 0 0 0 -22.866004620456806 -12.107948601255927 0 -12.107948601255927 -23.083704010517351 0 0 0 0 -19.757147707279728 -18.474058140684569 0 -18.474058140684569 -52.437710177862726 0 0 0 0 56.487175031463266 49.715371700032165 0 49.715371700032165 27.789701809376879 0 0 0 0 -40.549425087941927 -45.494782173944685 0 -45.494782173944685 -44.864929837080382 0 0 0 0 -0.4175714435989164 1.5745769330799249 0 1.5745769330799249 -2.9946671303062207 0 0 0 0 -33.673376606937381 -21.001504550756096 0 -21.001504550756096 -23.57906855034588 0 0 0 0 71.727156227570958 60.864955332302486 0 60.864955332302486 18.651987076391293 0 0 0 0 102.44181572101661 49.650409029873003 0 49.650409029873003 22.746060542422242 0 0 0 0 66.431980867870152 45.05176881199327 0 45.05176881199327 39.211139253756272 0 0 0 0 75.656660439650295 51.278536358107829 0 51.278536358107829 41.177667764100548 0 0 0 0 51.843716616232996 29.466302154762843 0 29.466302154762843 22.606862038002646 0 0 0 0 76.99054544180035 41.541232504324228 0 41.541232504324228 -3.2438506618341307 0 0 0 0 74.117762116598897 34.703578158316304 0 34.703578158316304 7.9376763778803934 0 0 0 0 103.64112609013682 43.038655727435071 0 43.038655727435071 9.4002071475252933 0 0 0 0 69.970282979662443 37.548494621704293 0 37.548494621704293 20.463699874841723 0 0 0 0 107.08800224369043 36.96429552296712 0 36.96429552296712 2.8224408963433234 0 0 0 0 117.36815512058092 48.139815656536939 0 48.139815656536939 5.2027469287315853 0 0 0 0 134.14607626747602 28.526340593826262 0 28.526340593826262 -35.355139190116461 0 0 0 0 144.81762017053552 60.632806264403428 0 60.632806264403428 -6.8649946773507509 0 0 0 0 88.750828719639685 37.827287932319223 0 37.827287932319223 -8.0169546445295055 0 0 0 0 109.67727708609891 30.454178610475338 0 30.454178610475338 -11.034564588146623 0 0 0 0 64.364374627395591 19.081444850993137 0 19.081444850993137 -49.861945088829202 0 0 0 0 61.902620680484688 28.626799385877348 0 28.626799385877348 -8.7378284369736434 0 0 0 0 86.879731344815809 22.639641778856571 0 22.639641778856571 -96.034827009477794 0 0 0 0 99.773064826586051 -34.167760828555856 0 -34.167760828555856 -61.568930541653515 0 0 0 0 -14.539780427556252 53.742232590563617 0 53.742232590563617 43.391143591977425 0 0 0 0 -0.4501830208586739 -0.040497934149470893 0 -0.040497934149470893 -0.35704991816038323 0 0 0 0 163.65402184002596 81.31065359477617 0 81.31065359477617 12.647054881044369 0 0 0 0 -0.54651957033252074 -0.41278583873439345 0 -0.41278583873439345 0.030573077045770169 0 0 0 0 175.52084925321651 67.033001936276776 0 67.033001936276776 -7.5917338567896877 0 0 0 0 175.39121488737146 64.866636326408766 0 64.866636326408766 -14.869224966225374 0 0 0 0 167.06184470327571 64.178993703742208 0 64.178993703742208 -2.0614421946147559 0 0 0 0 169.32984528119414 69.873428702197543 0 69.873428702197543 -5.0159203019552479 0 0 0 0 168.68496127129765 55.892284782399202 0 55.892284782399202 -26.559647211295783 0 0 0 0 155.18292090416071 66.107628403579952 0 66.107628403579952 -5.8541057921297579 0 0 0 0 -1.1735646775090629 2.6833582007650989 0 2.6833582007650989 -4.7398205569959755 0 0 0 0 42.959664559870362 48.046018577558087 0 48.046018577558087 8.2788443207905402 0 0 0 0 48.878880823700456 27.022594339685554 0 27.022594339685554 -13.976447378812281 0 0 0 0 25.260680495252018 18.511849294581339 0 18.511849294581339 22.143129066184287 0 0 0 0 4.0013646687439177 -39.754958231612363 0 -39.754958231612363 -53.516708724755674 0 0 0 0 5.2047173809987726 17.266327477823779 0 17.266327477823779 -8.8325805400802437 0 0 0 0 22.236601903714472 18.402021583630471 0 18.402021583630471 -19.92367848936783 0 0 0 0 25.471911737964547 18.638611028813671 0 18.638611028813671 13.399334232468163 0 0 0 0 15.469661034352612 9.0896701932729229 0 9.0896701932729229 -4.492549621746889 0 0 0 0 30.685253127143369 14.83032007248562 0 14.83032007248562 -19.159581013436991 0 0 0 0 4.0096173546251066 2.5038074641491903 0 2.5038074641491903 1.1251247937942757 0 0 0 0 17.734102347603766 8.9469555739076156 0 8.9469555739076156 -4.9315117476321575 0 0 0 0 21.31563250166073 -1.3528219397154544 0 -1.3528219397154544 -21.220530255282348 0 0 0 0 38.767539233325806 0.5876108933595674 0 0.5876108933595674 6.4523707350431323 0 0 0 0 65.309449641441461 0.73472932055506135 0 0.73472932055506135 -3.2809887174787491 0 0 0 0 2.0895650181868746 2.6515058214800149 0 2.6515058214800149 -0.093013935607999088 0 0 0 0 33.171741630765609 -14.230892222742796 0 -14.230892222742796 14.910398952344622 0 0 0 0 21.636189074160939 26.83502888819487 0 26.83502888819487 14.731005311467015 0 0 0 0 17.25161012294609 12.306284309079018 0 12.306284309079018 4.604053338818404 0 0 0 0 23.169969760841923 15.552721130541613 0 15.552721130541613 0.98753779384531981 0 0 0 0 177.69339202744595 64.072360776511232 0 64.072360776511232 -15.909770932395531 0 0 0 0 220.27360046350805 74.461545512595876 0 74.461545512595876 -15.210607066080684 0 0 0 0 172.80129222875621 58.752413978088427 0 58.752413978088427 2.8914673155131823 0 0 0 0 172.57413827087021 62.144205148707869 0 62.144205148707869 -5.0686288048827919 0 0 0 0 118.91864055173937 70.747668229633064 0 70.747668229633064 18.926227648375175 0 0 0 0 30.429888574857614 30.082216313021263 0 30.082216313021263 31.895934554750511 0 0 0 0 147.34227078873664 39.313750704541917 0 39.313750704541917 -7.4808436111270566 0 0 0 0 171.65260490012588 49.210389299877079 0 49.210389299877079 -12.581503574362159 0 0 0 0 129.94346000459336 0.54664076152243979 0 0.54664076152243979 5.1768790493947563 0 0 0 0 64.020652556660934 -0.37398924922570131 0 -0.37398924922570131 10.163737230937386 0 0 0 0 231.12253216266981 -37.250987348766557 0 -37.250987348766557 -9.3236090985205919 0 0 0 0 290.91166855981282 57.225462490931704 0 57.225462490931704 -30.661124331964118 0 0 0 0 185.15864817831607 39.504425805628216 0 39.504425805628216 -26.294263782550843 0 0 0 0 191.99459740496241 97.487727424345621 0 97.487727424345621 0.47905868556472342 0 0 0 0 252.50974528977531 143.74827015139476 0 143.74827015139476 32.901922679066956 0 0 0 0 199.86345451780653 115.69445668916092 0 115.69445668916092 13.933910103159178 0 0 0 0 200.90201925931615 99.314611942100782 0 99.314611942100782 -0.7222533524230812 0 0 0 0 151.46645753915072 121.18283208067578 0 121.18283208067578 52.300203676768433 0 0 0 0 163.56026309040317 101.82841287450515 0 101.82841287450515 8.7037415311408495 0 0 0 0 187.50688119083497 92.761258073176691 0 92.761258073176691 0.84770047633674039 0 0 0 0 173.15683622617507 88.382866175187246 0 88.382866175187246 1.3683753286076978 0 0 0 0 166.90913308376912 85.519217060141955 0 85.519217060141955 2.4490972413700547 0 0 0 0 188.11050172918476 77.853001817894892 0 77.853001817894892 -4.5931313310584301 0 0 0 0 155.40481015457772 76.474285252040318 0 76.474285252040318 14.151992848592869 0 0 0 0 159.12001743607107 72.479647100378543 0 72.479647100378543 18.198698144925402 0 0 0 0 163.94679115046165 84.584961854212679 0 84.584961854212679 8.5372080659508356 0 0 0 0 158.87966756286914 85.293449684373854 0 85.293449684373854 12.89590373269084 0 0 0 0 166.52467525258544 86.891273863697279 0 86.891273863697279 10.281032077185046 0 0 0 0 162.13506089444854 87.317062913048858 0 87.317062913048858 14.128595574066367 0 0 0 0 146.27749786357163 89.820191991538195 0 89.820191991538195 13.735499402731307 0 0 0 0 139.93377734944806 75.808413072774556 0 75.808413072774556 17.62793031919864 0 0 0 0 149.86914481614076 81.032539423382275 0 81.032539423382275 19.827601283126114 0 0 0 0 120.92882444232237 81.381647386090663 0 81.381647386090663 23.645062609972683 0 0 0 0 134.66030865875291 83.819362744330277 0 83.819362744330277 20.244970024688882 0 0 0 0 163.63599963092702 98.584162805107738 0 98.584162805107738 16.204126619971703 0 0 0 0 131.59464330947958 98.11196682938089 0 98.11196682938089 28.222133058124655 0 0 0 0 136.43519856984494 91.843649697098044 0 91.843649697098044 22.630879537872261 0 0 0 0 94.018255299655721 77.400602438028727 0 77.400602438028727 28.035251110106174 0 0 0 0 109.28186828075559 60.453338618182897 0 60.453338618182897 7.3358119055637871 0 0 0 0 90.878365322540049 63.116057769283998 0 63.116057769283998 20.863438608005254 0 0 0 0 93.65030675637172 21.555933421059692 0 21.555933421059692 15.927880170170283 0 0 0 0 126.8126321596792 57.818714863577043 0 57.818714863577043 19.001222857390758 0 0 0 0 68.534650072891964 -21.164083977692826 0 -21.164083977692826 17.625380056320864 0 0 0 0 89.393257027419168 30.833267946179149 0 30.833267946179149 2.5038262393040895 0 0 0 0 127.24795742527931 -8.5374718940413459 0 -8.5374718940413459 16.131032191039139 0 0 0 0 129.13887007348239 30.58212391576717 0 30.58212391576717 18.070868116534484 0 0 0 0 120.1548143933469 -61.093826004411312 0 -61.093826004411312 15.488235658343456 0 0 0 0 130.17392388021108 -9.2603458476319247 0 -9.2603458476319247 15.178044308041081 0 0 0 0 178.75297664236859 -27.469656670232325 0 -27.469656670232325 -3.1864734223388496 0 0 0 0 184.49375347298337 -4.94760029095346 0 -4.94760029095346 12.208565202618047 0 0 0 0 165.86791401971277 31.315874849908937 0 31.315874849908937 17.276805715699084 0 0 0 0 156.33248605412518 11.771781081531401 0 11.771781081531401 12.78225373033365 0 0 0 0 190.84348598722136 11.585663904701505 0 11.585663904701505 12.747496113438075 0 0 0 0 176.84528976524598 35.783584134564308 0 35.783584134564308 11.877531182558414 0 0 0 0 214.17783016082831 -4.6772830020092897 0 -4.6772830020092897 -7.2861388700823682 0 0 0 0 145.89624841406476 57.477673394945214 0 57.477673394945214 19.860290554529911 0 0 0 0 130.8729971087887 61.041523523676915 0 61.041523523676915 21.46931729327116 0 0 0 0 131.25702344113961 28.143618117833512 0 28.143618117833512 20.576407250041029 0 0 0 0 156.0102505608229 52.013437089160448 0 52.013437089160448 16.193103741593404 0 0 0 0 166.28884954395471 33.268304075674905 0 33.268304075674905 15.364329534595072 0 0 0 0 160.76070894446457 56.771951921533173 0 56.771951921533173 18.494072573365884 0 0 0 0 152.0073775415658 63.908559107653673 0 63.908559107653673 16.034215926472143 0 0 0 0 181.81236660087598 62.205432705080966 0 62.205432705080966 13.448746182765717 0 0 0 0 166.14066399552394 66.315617606252545 0 66.315617606252545 13.540649563898569 0 0 0 0 171.12587069207802 63.337796126849526 0 63.337796126849526 14.785173025019617 0 0 0 0 177.82315179242869 49.820751952069259 0 49.820751952069259 11.869597747752323 0 0 0 0 172.9991908838856 49.145170952111812 0 49.145170952111812 16.671948237784022 0 0 0 0 188.8197325491783 32.502581405897558 0 32.502581405897558 12.776147543293519 0 0 0 0 198.28404830655199 47.068105231230447 0 47.068105231230447 11.506402890395094 0 0 0 0 210.43820178732858 49.67152486724035 0 49.67152486724035 8.7296180041898879 0 0 0 0 187.6725605930551 51.856076729180359 0 51.856076729180359 11.883996499347631 0 0 0 0 191.32012607238721 57.082542358495402 0 57.082542358495402 13.030739663109216 0 0 0 0 186.48153340405042 62.615157651551399 0 62.615157651551399 9.0617995589846032 0 0 0 0 211.3701523768832 17.682162266151849 0 17.682162266151849 4.5854138789454737 0 0 0 0 252.59246118372539 1.3434087466557685 0 1.3434087466557685 -7.5882939920035142 0 0 0 0 205.28911584356683 35.631507371395401 0 35.631507371395401 7.6528464758393966 0 0 0 0 208.51664517752943 17.76128080657827 0 17.76128080657827 5.0641208159106554 0 0 0 0 226.90104255863116 40.190802256174265 0 40.190802256174265 5.3813905445010732 0 0 0 0 195.98199607112474 38.886426527575253 0 38.886426527575253 7.8652902776839255 0 0 0 0 227.58786409589811 22.929204703291816 0 22.929204703291816 3.6474804729842845 0 0 0 0 228.6158236383344 25.015862508319969 0 25.015862508319969 1.9425805263886105 0 0 0 0 265.84140521468362 27.867908129202306 0 27.867908129202306 -0.69138674092619112 0 0 0 0 241.925835669751 43.042955405467346 0 43.042955405467346 4.80682924518851 0 0 0 0 241.27291035166854 31.341712783462196 0 31.341712783462196 5.9192317379934138 0 0 0 0 285.74767241394147 35.02524657344668 0 35.02524657344668 0.75286804121788009 0 0 0 0 197.28551074548159 60.350830927939455 0 60.350830927939455 9.2479057926111636 0 0 0 0 186.06494354037568 67.853443106251689 0 67.853443106251689 9.1059222578692243 0 0 0 0 202.29771147077554 53.712992254459778 0 53.712992254459778 11.665805915446242 0 0 0 0 209.16938851753366 46.768424712392061 0 46.768424712392061 8.457588922194418 0 0 0 0 222.00748978854244 56.948375299784402 0 56.948375299784402 3.989009236734546 0 0 0 0 220.37289012470865 50.555847449468615 0 50.555847449468615 10.602028103238979 0 0 0 0 194.87529345072107 58.246502856211237 0 58.246502856211237 10.711511530569624 0 0 0 0 203.96135413247976 64.585435880438808 0 64.585435880438808 10.425878328553893 0 0 0 0 198.38959053407598 65.653895514238826 0 65.653895514238826 7.1100259015433949 0 0 0 0 191.53375937933015 67.061498798169225 0 67.061498798169225 4.6452211356699991 0 0 0 0 175.14303931719041 66.001097325774026 0 66.001097325774026 10.129037541379375 0 0 0 0 175.32213612168562 71.685193436329882 0 71.685193436329882 9.037708666753133 0 0 0 0 186.77231769656646 62.000613432523778 0 62.000613432523778 10.223526133752785 0 0 0 0 185.32375638837038 68.42494385454458 0 68.42494385454458 5.2443090381416368 0 0 0 0 173.96137448835361 69.001245844916298 0 69.001245844916298 3.9489485057833917 0 0 0 0 167.73810027871514 73.428282534244318 0 73.428282534244318 5.9375249913153993 0 0 0 0 175.12117980078619 66.459712869478309 0 66.459712869478309 1.081628414237457 0 0 0 0 162.5435834301752 67.835779162170638 0 67.835779162170638 5.9081925327811575 0 0 0 0 157.33358731711633 58.753442357280846 0 58.753442357280846 -2.2413447980852652 0 0 0 0 145.55539392959327 63.239939075498683 0 63.239939075498683 2.6448669465655712 0 0 0 0 142.45925999680185 47.872218929374981 0 47.872218929374981 -13.976700422824024 0 0 0 0 156.30478166343528 61.296671150192878 0 61.296671150192878 -16.586870739599817 0 0 0 0 155.42287125694565 69.012651315530093 0 69.012651315530093 0.023137804499128833 0 0 0 0 162.152492700523 71.11220665420251 0 71.11220665420251 -4.6904040518842862 0 0 0 0 164.42732317186892 67.849090117531546 0 67.849090117531546 -0.51375781335354986 0 0 0 0 164.2605521438195 76.076766845011051 0 76.076766845011051 3.4399901220563152 0 0 0 0 164.14393253964545 71.193062689435209 0 71.193062689435209 -6.9291190249869032 0 0 0 0 161.15667685636436 73.452875876820144 0 73.452875876820144 -7.0227182276144049 0 0 0 0 158.15479018643964 73.55218770380975 0 73.55218770380975 -1.0814746678743177 0 0 0 0 165.43521571313613 73.137332012301613 0 73.137332012301613 -4.7455210534713927 0 0 0 0 169.94610143524187 77.79438057833579 0 77.79438057833579 -3.0282614749780805 0 0 0 0 165.8987177352974 81.651178568131968 0 81.651178568131968 4.8891323950433616 0 0 0 0 165.14265681536926 81.099017835196491 0 81.099017835196491 5.4874486316157345 0 0 0 0 167.19706393711385 79.736182393072568 0 79.736182393072568 7.3681275127959225 0 0 0 0 164.96095909518772 77.057559740187457 0 77.057559740187457 10.634318016951966 0 0 0 0 170.23417821817566 72.886767163217883 0 72.886767163217883 13.649389386206622 0 0 0 0 173.89561911992496 71.871699087972502 0 71.871699087972502 9.2387587672280915 0 0 0 0 171.71344104966556 70.599898761694931 0 70.599898761694931 11.558729309864702 0 0 0 0 182.92031310513266 65.045509419771292 0 65.045509419771292 8.3695231289789263 0 0 0 0 168.24367760639871 74.933745585707811 0 74.933745585707811 2.4134195512493761 0 0 0 0 168.67756819876377 76.506991307211706 0 76.506991307211706 7.3769112297668471 0 0 0 0 3522.7147291945803 495.96611766006902 0 495.96611766006902 80.42410030462257 0 0 0 0 52.937880881290766 86.082158726824957 0 86.082158726824957 6.1658653444152378 0 0 0 0 128.92366555071203 132.92568470225444 0 132.92568470225444 -22.906434046128879 0 0 0 0 156.59767310559982 69.181764124479969 0 69.181764124479969 -35.984974051695929 0 0 0 0 180.32082937721862 127.91432885152949 0 127.91432885152949 -31.476426534167956 0 0 0 0 228.28278553867131 89.754906227077868 0 89.754906227077868 -51.326998804927143 0 0 0 0 4099.7603170994407 574.17758232415656 0 574.17758232415656 60.728679319261509 0 0 0 0 -160.85068657637021 33.327251215170257 0 33.327251215170257 98.864028973676824 0 0 0 0 2.0831066823384035 5.9352038553162743 0 5.9352038553162743 1.4078725272029258 0 0 0 0 3497.5136451960029 1239.6953899004877 0 1239.6953899004877 -41.847942410602187 0 0 0 0 1952.6506977637073 13.200165729003135 0 13.200165729003135 0.15586747619067864 0 0 0 0 353.30872546134924 404.21331934312883 0 404.21331934312883 201.24215001454806 0 0 0 0 62.953869254117308 238.57552843491922 0 238.57552843491922 146.77372446191654 0 0 0 0 194.21721533924574 21.06233315761807 0 21.06233315761807 -8.9077667089229067 0 0 0 0 482.95728520897683 137.79655621985611 0 137.79655621985611 -68.388480902204265 0 0 0 0 84.382693688356085 -77.887420595039629 0 -77.887420595039629 0.43098556363235152 0 0 0 0 1.9843063785457105 -0.73546751460568771 0 -0.73546751460568771 -0.82975623902588136 0 0 0 0 167.0135052949845 45.607350722846704 0 45.607350722846704 -13.531069760275955 0 0 0 0 115.92442900013702 33.045289149181542 0 33.045289149181542 -12.939717461011139 0 0 0 0 133.93067052439437 -16.827010829631263 0 -16.827010829631263 -62.48500849008974 0 0 0 0 258.97885508400213 101.93037950113919 0 101.93037950113919 39.333451233507617 0 0 0 0 278.29334118972838 228.79654330163746 0 228.79654330163746 4.6052112165039034 0 0 0 0 1.1624412697582329 -0.27002817200283857 0 -0.27002817200283857 -0.70677839872922199 0 0 0 0 45.808305640370236 -41.049181911426047 0 -41.049181911426047 -110.18378324529863 0 0 0 0 60.169257038767682 31.633466678087871 0 31.633466678087871 -137.04248177551676 0 0 0 0 48.441658296636888 -20.296143233876172 0 -20.296143233876172 -54.327432996992457 0 0 0 0 120.77112531634339 23.783786198096436 0 23.783786198096436 -86.754059114442441 0 0 0 0 126.91001454915386 -8.5722526049055432 0 -8.5722526049055432 -79.313351100449722 0 0 0 0 171.89981933009039 -11.627811289346106 0 -11.627811289346106 -74.945048844643566 0 0 0 0 174.89259724257863 -0.089546481182992466 0 -0.089546481182992466 -81.661293096164229 0 0 0 0 156.5969348262006 -0.31549836004808185 0 -0.31549836004808185 -83.263865363065975 0 0 0 0 146.40240478084888 -14.524422050443548 0 -14.524422050443548 -62.354179279519258 0 0 0 0 94.75689013205556 7.613844614610116 0 7.613844614610116 -54.949435003763938 0 0 0 0 138.13783591990068 -12.804062025160562 0 -12.804062025160562 -61.497580938203555 0 0 0 0 168.03398684170679 -34.446062203742613 0 -34.446062203742613 -56.139302580873391 0 0 0 0 135.20927954970102 -65.576118442451005 0 -65.576118442451005 -22.409775912846612 0 0 0 0 166.63995148296817 -23.803030869786994 0 -23.803030869786994 -46.364519508908273 0 0 0 0 199.08950682888099 -5.2596883127547187 0 -5.2596883127547187 -73.757975863182693 0 0 0 0 171.81171262604767 20.665668103514747 0 20.665668103514747 -25.67487202046982 0 0 0 0 158.41479601232095 11.375624179054256 0 11.375624179054256 -17.404291811821622 0 0 0 0 237.81079417778528 73.576687263327287 0 73.576687263327287 31.317204355196083 0 0 0 0 220.10592360758528 -39.470548654510822 0 -39.470548654510822 -17.010151751245076 0 0 0 0 526.8000747335609 82.794000554554273 0 82.794000554554273 -0.19024711876667766 0 0 0 0 372.06205531473097 129.88353541237728 0 129.88353541237728 26.931496013990536 0 0 0 0 1.2791444073700688 -0.38366212712034553 0 -0.38366212712034553 -0.24078850957319714 0 0 0 0 410.37638620922371 -20.971237782303682 0 -20.971237782303682 -30.799277944309466 0 0 0 0 304.50981295629026 -49.882279458714379 0 -49.882279458714379 0.024031658749187702 0 0 0 0 27.145095542626223 11.099555740165309 0 11.099555740165309 -13.118842150661468 0 0 0 0 143.56165383593179 -88.673041377445031 0 -88.673041377445031 47.521477031966228 0 0 0 0 0.61414964621366153 -0.11873078119867575 0 -0.11873078119867575 0.013233449654033828 0 0 0 0 311.67597464540449 -82.869824512606101 0 -82.869824512606101 17.205749225061126 0 0 0 0 146.17124673794024 -79.250820502305288 0 -79.250820502305288 24.59322180157308 0 0 0 0 146.12319222801739 -93.875339964434247 0 -93.875339964434247 22.312963876667169 0 0 0 0 263.66748390061548 5.1972095951349502 0 5.1972095951349502 8.9965608903927148 0 0 0 0 248.43905215282575 -72.472769678413442 0 -72.472769678413442 -13.45777650788358 0 0 0 0 167.9833523586567 -77.637598905158654 0 -77.637598905158654 -4.9215901309138985 0 0 0 0 222.52335873671109 -31.94543776570103 0 -31.94543776570103 -48.017618819253926 0 0 0 0 149.80626132577891 -53.108124483603589 0 -53.108124483603589 -25.631195932892581 0 0 0 0 78.779648174764588 -57.984102309668401 0 -57.984102309668401 3.2684072252842498 0 0 0 0 34.2492361512559 -41.235652593530972 0 -41.235652593530972 5.2136033620760145 0 0 0 0 35.385820380484802 -29.289599115655164 0 -29.289599115655164 -7.8513847098060978 0 0 0 0 -21.492741947775357 -1.4333330203262022 0 -1.4333330203262022 11.287426933294 0 0 0 0 -12.184647604939528 -56.801916689537094 0 -56.801916689537094 52.964239609284675 0 0 0 0 -12.233100080008455 0.10998412415900563 0 0.10998412415900563 -4.1410861254090605 0 0 0 0 86.194674387952546 -82.946839920518357 0 -82.946839920518357 17.618862120122515 0 0 0 0 56.980204206920462 -63.50836006313304 0 -63.50836006313304 25.15649028107358 0 0 0 0 48.131199889379786 -36.431646625284131 0 -36.431646625284131 6.0378225751096686 0 0 0 0 6.2957975194440223 -62.382307276701937 0 -62.382307276701937 47.159852484858419 0 0 0 0 -70.549146731966175 -11.917568060265467 0 -11.917568060265467 33.280390459990841 0 0 0 0 -77.599534924142063 18.845598234640253 0 18.845598234640253 36.980697183920597 0 0 0 0 -1.137330425925029 -3.1583290731109588 0 -3.1583290731109588 -4.4085225683944085 0 0 0 0 -1.1079997397609986 25.479808063084619 0 25.479808063084619 -58.699029997182564 0 0 0 0 -18.924298442958388 -10.216643231278381 0 -10.216643231278381 -0.0063922145330207432 0 0 0 0 0.7334821216568912 -0.01740012447155781 0 -0.01740012447155781 -0.052398876958083845 0 0 0 0 -36.19938866024313 43.341590802316318 0 43.341590802316318 -22.529398720640017 0 0 0 0 -4.6842331036459655 8.49123134804816 0 8.49123134804816 -40.525209631115516 0 0 0 0 6.5071119076455943 -8.5273466671438456 0 -8.5273466671438456 -16.806196214199417 0 0 0 0 -10.370593416286283 9.5685962542282113 0 9.5685962542282113 -18.826135269975225 0 0 0 0 -5.3160992338089272 6.742853291638454 0 6.742853291638454 -22.588338160968412 0 0 0 0 -0.26969517458928749 -12.560468448268466 0 -12.560468448268466 -15.606424160887457 0 0 0 0 4.9200854354712646 -8.6575023237947448 0 -8.6575023237947448 -32.96437528218928 0 0 0 0 15.085312717972556 -28.611370697806265 0 -28.611370697806265 -12.215990000054489 0 0 0 0 107.64201539277565 -39.308140521577158 0 -39.308140521577158 -32.739568034464355 0 0 0 0 64.064856122146011 -17.376411440129658 0 -17.376411440129658 -37.126528418903945 0 0 0 0 84.306927988378447 -40.858207721111853 0 -40.858207721111853 -29.637727360038753 0 0 0 0 31.633717011456611 -22.652781973177639 0 -22.652781973177639 -32.371837889313554 0 0 0 0 91.828108896850608 -16.746489444460053 0 -16.746489444460053 -41.425379861152066 0 0 0 0 14.063303622868261 -10.796489743112886 0 -10.796489743112886 -33.927929682482898 0 0 0 0 -24.101768817592529 -35.907193839797742 0 -35.907193839797742 -25.332143194181981 0 0 0 0 14.227888218854787 -26.741046640958643 0 -26.741046640958643 -37.817215218210862 0 0 0 0 30.228133406038978 5.4774262276764034 0 5.4774262276764034 -31.593418519868351 0 0 0 0 61.599442712686141 -4.005255409896904 0 -4.005255409896904 -37.773562626102262 0 0 0 0 18.264684286725242 -14.219064774552521 0 -14.219064774552521 -25.745057148738226 0 0 0 0 19.308493651711615 10.502099682185076 0 10.502099682185076 -28.835800111284584 0 0 0 0 35.650398547655641 21.027591431960346 0 21.027591431960346 -4.8076774130861395 0 0 0 0 3.0007245472069712 6.2907194438694631 0 6.2907194438694631 -5.2638944165044093 0 0 0 0 33.619875106378458 12.82505314171317 0 12.82505314171317 -7.002505496564936 0 0 0 0 23.659971454144397 14.826965830861468 0 14.826965830861468 -5.148289967236451 0 0 0 0 25.195845775160706 12.838143381882674 0 12.838143381882674 -5.5737627202751128 0 0 0 0 24.170983874995727 8.8938941137364509 0 8.8938941137364509 -7.5073968115249272 0 0 0 0 21.145478134388895 9.1970203869514791 0 9.1970203869514791 -0.29114905176080086 0 0 0 0 30.349460110533983 18.369804123309621 0 18.369804123309621 -3.8012266644191186 0 0 0 0 30.963723777473206 14.181567906024611 0 14.181567906024611 -5.2608837015102381 0 0 0 0 18.376081482904908 12.471526810012904 0 12.471526810012904 -0.69671320664017244 0 0 0 0 9.8888543013525236 4.1866175096700005 0 4.1866175096700005 -4.1248055129438121 0 0 0 0 23.534252437384566 16.948878748772358 0 16.948878748772358 1.2431019164450845 0 0 0 0 61.725141069997335 14.973680503212108 0 14.973680503212108 11.532906798153334 0 0 0 0 81.159460013166608 41.791183228355834 0 41.791183228355834 28.624966151543049 0 0 0 0 35.218811419452862 17.673813346271515 0 17.673813346271515 5.8078311086873438 0 0 0 0 26.174249677715125 9.0953794885315347 0 9.0953794885315347 -4.5867931981770198 0 0 0 0 79.120719200407621 26.187233364678832 0 26.187233364678832 10.87927075273663 0 0 0 0 36.89225045956664 1.0161818837942604 0 1.0161818837942604 -25.106292743646463 0 0 0 0 19.243255034612957 7.1804403707612892 0 7.1804403707612892 -5.0750467046441372 0 0 0 0 26.328874267985412 2.249877000244922 0 2.249877000244922 -7.7141238870723718 0 0 0 0 8.7028912212865066 -2.1817961947762115 0 -2.1817961947762115 -3.0396374301065632 0 0 0 0 168.09704884243547 -40.456677243888464 0 -40.456677243888464 -8.041268241603774 0 0 0 0 59.377622168962262 -105.27604727771893 0 -105.27604727771893 4.1374046203616501 0 0 0 0 52.682733969837273 -15.366983050657566 0 -15.366983050657566 -19.105599029868674 0 0 0 0 86.759166436895612 14.911643411397506 0 14.911643411397506 -31.011126358052252 0 0 0 0 70.184450256652781 20.743522762748171 0 20.743522762748171 25.247911406079226 0 0 0 0 200.74922992147822 53.226339815252551 0 53.226339815252551 -51.486739788919522 0 0 0 0 116.18962220585672 44.605457367179497 0 44.605457367179497 -37.028642631435275 0 0 0 0 125.95438342627313 -5.2367598448925037 0 -5.2367598448925037 -55.383705546012493 0 0 0 0 212.38815618904482 48.742493240672161 0 48.742493240672161 62.3588786321817 0 0 0 0 198.97066878108308 -42.63162063137429 0 -42.63162063137429 -18.499096097938491 0 0 0 0 215.64083864968416 58.657614532217565 0 58.657614532217565 -42.183478009527448 0 0 0 0 180.52523503997509 -40.650365199675349 0 -40.650365199675349 -34.02826235078669 0 0 0 0 40.590883136636876 31.924025773326949 0 31.924025773326949 -13.978823952426865 0 0 0 0 135.03526335052447 64.962594608266841 0 64.962594608266841 -16.702826498509793 0 0 0 0 58.61904209343902 25.182756714020663 0 25.182756714020663 -27.38537049059596 0 0 0 0 235.3654344768438 34.529928309635636 0 34.529928309635636 -78.381065114071816 0 0 0 0 150.67042389049311 20.223052514410938 0 20.223052514410938 -52.747150960619933 0 0 0 0 150.51162541234362 15.393940196818809 0 15.393940196818809 -82.527766903997872 0 0 0 0 180.50586361030582 5.4422051973059524 0 5.4422051973059524 -82.000830011697246 0 0 0 0 173.74288561494541 -15.892201888855112 0 -15.892201888855112 -84.4816789593159 0 0 0 0 107.93209096968349 6.9815584696365249 0 6.9815584696365249 -60.809638335420061 0 0 0 0 107.98186325462302 6.4830455587220968 0 6.4830455587220968 -85.209290059174236 0 0 0 0 54.565736216492951 42.059203133939718 0 42.059203133939718 -86.699634670077785 0 0 0 0 -20.914593863344635 18.930797763681653 0 18.930797763681653 -40.16277757401258 0 0 0 0 68.326830232108478 9.1651596301989002 0 9.1651596301989002 -75.512031008785584 0 0 0 0 -57.315483688304084 131.48315205555792 0 131.48315205555792 -106.22866113806276 0 0 0 0 31.01005907151557 -0.43114208932615838 0 -0.43114208932615838 -46.089073586871791 0 0 0 0 8.4135130728536751 59.43853698808357 0 59.43853698808357 -51.997588955903538 0 0 0 0 2.4317682413286548 7.5755780101389476 0 7.5755780101389476 1.6076216693374097 0 0 0 0 44.774607905506855 111.65986286912755 0 111.65986286912755 91.40291705157837 0 0 0 0 87.127529716868594 -10.555778086513442 0 -10.555778086513442 -49.120384153049031 0 0 0 0 -131.35941158283094 99.654692750531154 0 99.654692750531154 -56.948424920360203 0 0 0 0 57.126598256152135 34.288711947318035 0 34.288711947318035 3.9918348398360171 0 0 0 0 -16.857617662026314 296.10185768918268 0 296.10185768918268 -72.176523928730035 0 0 0 0 108.26264087680465 -25.387338487553279 0 -25.387338487553279 -39.107082579067537 0 0 0 0 12.97297346191732 -1.9277377958762827 0 -1.9277377958762827 -2.3281837814110573 0 0 0 0 87.16411952921203 2.8142451637530081 0 2.8142451637530081 -1.9991194706117217 0 0 0 0 157.98608304038862 130.77257821619122 0 130.77257821619122 -437.19034431917248 0 0 0 0 130.52580678867525 43.862171730221803 0 43.862171730221803 -25.988520270998833 0 0 0 0 260.74464016124784 -422.9167368684349 0 -422.9167368684349 128.44466662206707 0 0 0 0 155.84628828537097 328.47631291614624 0 328.47631291614624 -44.939386425281299 0 0 0 0 3496.5959162839063 -2779.0622647144642 0 -2779.0622647144642 887.92900355132815 0 0 0 0 3183.7109109307348 -1279.7589557199624 0 -1279.7589557199624 -214.19668528964738 0 0 0 0 -1040.4617442110321 -991.84381356715653 0 -991.84381356715653 1364.274504582005 0 0 0 0 80.095379072996764 -1.2472697825008048 0 -1.2472697825008048 0.022914007366311717 0 0 0 0 3406.4264662740243 668.04195990837331 0 668.04195990837331 127.48526061978072 0 0 0 0 829.62804524542298 -372.67940218224021 0 -372.67940218224021 -538.91245219636232 0 0 0 0 12.705364487920377 0.29603441010431197 0 0.29603441010431197 2.6471157028074588 0 0 0 0 128.57413958490361 33.532467904878899 0 33.532467904878899 -43.478204479809108 0 0 0 0 4339.5331083967758 -916.60088023018966 0 -916.60088023018966 217.52058644399375 0 0 0 0 6.5539628861899928 40.243743988528919 0 40.243743988528919 17.600779265403901 0 0 0 0 110.04123565879127 30.651660102357539 0 30.651660102357539 -11.66275906778526 0 0 0 0 3.4337641130857151 27.146760496613155 0 27.146760496613155 4.5999860728448638 0 0 0 0 3500.3276049756182 428.42599153095404 0 428.42599153095404 51.088047166073579 0 0 0 0 110.80214776177309 36.979861800675735 0 36.979861800675735 12.193455870987464 0 0 0 0 -0.98632687748059311 -0.03559599439498129 0 -0.03559599439498129 0.9544207095213082 0 0 0 0 88.221389276019181 -25.320672272041747 0 -25.320672272041747 6.966697356274608 0 0 0 0 252.13345523715543 -63.844460760760285 0 -63.844460760760285 5.4667637383879892 0 0 0 0 108.46847323471593 55.671588725539038 0 55.671588725539038 -9.4929423022641686 0 0 0 0 173.79772722678899 42.193676136400683 0 42.193676136400683 -7.6683459965211114 0 0 0 0 156.80526373974863 71.550604325290237 0 71.550604325290237 -37.017507508272843 0 0 0 0 150.33178003059584 92.568314070367592 0 92.568314070367592 -99.786145549807543 0 0 0 0 -0.98309512989087011 17.446154807832755 0 17.446154807832755 3.606641018460683 0 0 0 0 3489.5468421492624 -1542.8831851301143 0 -1542.8831851301143 270.82902650151266 0 0 0 0 0.78044098994723754 -232.15424012335799 0 -232.15424012335799 308.71417292598017 0 0 0 0 921.66952419765585 1065.2516743588735 0 1065.2516743588735 731.64559129365728 0 0 0 0 19.638456797089106 3.0896452517602953 0 3.0896452517602953 1.9182157316885424 0 0 0 0 1687.999174912431 436.69902600110686 0 436.69902600110686 -360.09372818684687 0 0 0 0 3489.6387317348181 831.5546253106055 0 831.5546253106055 -281.56810847275818 0 0 0 0 1663.9097941890868 -590.56272689599098 0 -590.56272689599098 -380.60258992288868 0 0 0 0 3501.4848627164465 -179.44816646911349 0 -179.44816646911349 -595.06601249637833 0 0 0 0 705.46567223571037 128.47428567262591 0 128.47428567262591 96.244771186477465 0 0 0 0 1724.9483576319908 -389.54012360642764 0 -389.54012360642764 -138.20253241713257 0 0 0 0 1326.8359310259184 10.159786114887758 0 10.159786114887758 54.532907313384726 0 0 0 0 117.89482350208345 -86.19463262800474 0 -86.19463262800474 110.93992040639488 0 0 0 0 298.81518668265198 293.08498018378327 0 293.08498018378327 467.71913128519117 0 0 0 0 346.57066903029045 -81.98383790586999 0 -81.98383790586999 117.80383444927593 0 0 0 0 -56.094766560243443 17.795881228377475 0 17.795881228377475 241.69367816172056 0 0 0 0 118.47170179659588 286.53572425713196 0 286.53572425713196 80.361953631296075 0 0 0 0 -200.02497893960754 225.74440835804126 0 225.74440835804126 21.005135220654722 0 0 0 0 -126.97851945017828 139.34554448591328 0 139.34554448591328 40.139495455238659 0 0 0 0 -115.58135779742588 156.66010488033845 0 156.66010488033845 -169.4626010879532 0 0 0 0 -31.045111254476069 -26.864677472786155 0 -26.864677472786155 179.63032353019787 0 0 0 0 -172.562872223265 -69.437038413804544 0 -69.437038413804544 134.35637529142781 0 0 0 0 -136.51854045175423 -110.50645194286631 0 -110.50645194286631 -110.3279492393327 0 0 0 0 -66.659790947378497 -77.540697087925707 0 -77.540697087925707 108.90798914997794 0 0 0 0 -141.6576955427081 -5.5636711770474392 0 -5.5636711770474392 246.99939548070358 0 0 0 0 -27.38511294984346 -52.996086911664634 0 -52.996086911664634 -46.417014765419026 0 0 0 0 31.013892319264286 -15.329039013868183 0 -15.329039013868183 -10.568658601364584 0 0 0 0 23.884247776295524 -200.55985526924155 0 -200.55985526924155 136.31903930382077 0 0 0 0 -29.732955095518264 -40.683920513167379 0 -40.683920513167379 -3.4154156176931565 0 0 0 0 138.14360058409511 -164.00235280747302 0 -164.00235280747302 -180.78260789313322 0 0 0 0 133.41009173833299 -46.799736977058956 0 -46.799736977058956 -270.28068332614339 0 0 0 0 45.476032855896335 5.5604431568896366 0 5.5604431568896366 -1.5135864040537055 0 0 0 0 442.84272597195013 -104.85534450101488 0 -104.85534450101488 -8.5945295509911972 0 0 0 0 104.52233900151623 59.010609726064786 0 59.010609726064786 39.040533708505336 0 0 0 0 3.8992048365317373 -8.1973449998792844 0 -8.1973449998792844 -3.6246412478823213 0 0 0 0 68.766409664807725 13.33102326253902 0 13.33102326253902 -3.2847364099052356 0 0 0 0 71.913343268359313 24.13472565211805 0 24.13472565211805 18.107391860567304 0 0 0 0 130.96146251611935 2.481843503390337 0 2.481843503390337 -12.609701588106645 0 0 0 0 67.06314617085809 14.035701545217449 0 14.035701545217449 1.6421478589306844 0 0 0 0 99.380385128795751 -14.215774483745236 0 -14.215774483745236 25.554543970830053 0 0 0 0 56.092075391905382 -7.0559726643575686 0 -7.0559726643575686 10.640896863933563 0 0 0 0 1.3098401812662175 7.616855882264133 0 7.616855882264133 5.742051450026656 0 0 0 0 39.143916017472293 7.7613717534143802 0 7.7613717534143802 -6.7959937331638685 0 0 0 0 11.826444829405148 8.7196781064868389 0 8.7196781064868389 -0.55537913128390848 0 0 0 0 65.264084447349887 18.956233318329396 0 18.956233318329396 1.7594841324037134 0 0 0 0 76.029189452947321 8.9300438504987483 0 8.9300438504987483 1.5415190280127717 0 0 0 0 76.264920173234714 10.108375243105002 0 10.108375243105002 -2.1659094195761099 0 0 0 0 -2.2441914117894726 -5.0023376916583402 0 -5.0023376916583402 0.3202401883647768 0 0 0 0 95.914271482703043 -13.393912871584774 0 -13.393912871584774 106.56453694551746 0 0 0 0 354.45464701003948 183.714610907777 0 183.714610907777 -59.373614811263451 0 0 0 0 159.24869108755956 354.26806222774121 0 354.26806222774121 31.174542900122447 0 0 0 0 131.79159186458855 -26.412923693301423 0 -26.412923693301423 22.192247656260861 0 0 0 0 8.4080776590677146 0.54508808205825687 0 0.54508808205825687 1.3316674257769685 0 0 0 0 45.807297160818166 1.844919616632783 0 1.844919616632783 -10.737786190480497 0 0 0 0 -157.58698473242112 -413.09400764649178 0 -413.09400764649178 -160.44693180273933 0 0 0 0 -65.746009993861662 199.47479502441936 0 199.47479502441936 218.41987950983591 0 0 0 0 573.15081093026674 -162.33875057408227 0 -162.33875057408227 -613.78615670119598 0 0 0 0 -415.69065030341153 93.46494462492285 0 93.46494462492285 90.122828129840457 0 0 0 0 -17.402654440127662 261.74384609106431 0 261.74384609106431 -263.81790319436277 0 0 0 0 59.739126526101415 -23.984257176122455 0 -23.984257176122455 -14.249494536932566 0 0 0 0 52.238721030793954 37.151706961856533 0 37.151706961856533 4.5597444600494761 0 0 0 0 183.45599511734326 -15.805725022087245 0 -15.805725022087245 -1.9109554498199941 0 0 0 0 -355.70657246733026 106.46944468228864 0 106.46944468228864 -29.474014152796201 0 0 0 0 19.931202446665537 6.2508370980069401 0 6.2508370980069401 -7.0152698443064727 0 0 0 0 67.48629996550153 -0.90599098541952117 0 -0.90599098541952117 -289.77578819631265 0 0 0 0 19.512623906251775 -2.5110519798192001 0 -2.5110519798192001 -7.4544065312287735 0 0 0 0 74.268868836050387 43.576575735438155 0 43.576575735438155 -137.49268071796604 0 0 0 0 78.753371462982614 98.975881037940326 0 98.975881037940326 29.278529789757158 0 0 0 0 109.40837797503627 72.311013920584742 0 72.311013920584742 5.1570568815395745 0 0 0 0 103.0351191756854 31.721424102428529 0 31.721424102428529 1.3674713844784492 0 0 0 0 41.849042491841828 66.495993429672012 0 66.495993429672012 14.006638899478048 0 0 0 0 66.393519260993344 37.392688720092394 0 37.392688720092394 -7.0249827290452913 0 0 0 0 54.532364294740546 25.286231553567404 0 25.286231553567404 3.4970985951831608 0 0 0 0 12.244153527298145 1.8908296530922257 0 1.8908296530922257 -0.065319190482621359 0 0 0 0 43.430094040173572 -3.3791213137430987 0 -3.3791213137430987 -22.378572655752009 0 0 0 0 36.169900161974397 12.019313038865267 0 12.019313038865267 -5.5063477657792106 0 0 0 0 10.343278623317019 48.747427176102747 0 48.747427176102747 6.607662197638092 0 0 0 0 48.27401227025257 18.72102867860707 0 18.72102867860707 -24.7597500822244 0 0 0 0 21.22811874524632 28.997404499412369 0 28.997404499412369 -8.1561800136420857 0 0 0 0 37.315864090312971 17.851458263339282 0 17.851458263339282 -12.447835512404026 0 0 0 0 57.793905054379138 30.2340197231415 0 30.2340197231415 -15.425527198140571 0 0 0 0 35.948352226718271 2.0444081782638364 0 2.0444081782638364 -7.977475260719757 0 0 0 0 59.734976596460911 22.540105840715569 0 22.540105840715569 1.8130109339958835 0 0 0 0 76.477026142994873 16.167548049292236 0 16.167548049292236 4.2181293616695257 0 0 0 0 24.284847979677579 9.4378534408544823 0 9.4378534408544823 -10.267443012493914 0 0 0 0 16.212912600950858 10.476078826000148 0 10.476078826000148 1.3809388819449513 0 0 0 0 22.2886964250647 16.548584959866503 0 16.548584959866503 1.1857562444685072 0 0 0 0 26.134840749349678 -1.5067493199180717 0 -1.5067493199180717 4.0649443989195788 0 0 0 0 59.899192865837676 -6.2495353464265593 0 -6.2495353464265593 -13.30852295749628 0 0 0 0 34.792444188540685 6.3213166739387532 0 6.3213166739387532 -19.349573877190409 0 0 0 0 28.079187148156052 1.2132641648652225 0 1.2132641648652225 -10.360488148062359 0 0 0 0 53.884563154017087 -2.4003615972456132 0 -2.4003615972456132 -32.998145466012915 0 0 0 0 65.862923758817487 25.205922163748255 0 25.205922163748255 -15.300455270830298 0 0 0 0 66.906826108650421 2.3971465920349146 0 2.3971465920349146 -23.313937357179611 0 0 0 0 39.148273137697629 8.3220419296398802 0 8.3220419296398802 -7.6306208420328598 0 0 0 0 11.267573132949423 4.6316675077602696 0 4.6316675077602696 0.027084864067067116 0 0 0 0 66.270771278283064 23.101126658583439 0 23.101126658583439 1.8662114217654562 0 0 0 0 71.376702422872768 20.38733202312801 0 20.38733202312801 -1.7206636185030675 0 0 0 0 57.576435141527327 7.4838237829891341 0 7.4838237829891341 -7.5895929622329277 0 0 0 0 45.659084672224708 0.22254199699551691 0 0.22254199699551691 1.1429690972444178 0 0 0 0 63.976289809725131 6.6700543888782704 0 6.6700543888782704 2.5461343746437706 0 0 0 0 76.684779726710985 16.932859604704078 0 16.932859604704078 -1.3896611430567987 0 0 0 0 90.139532216184307 29.939124934655524 0 29.939124934655524 -2.0283808990043894 0 0 0 0 72.498470221769821 15.735458070256243 0 15.735458070256243 27.884836211880952 0 0 0 0 93.269505289776134 28.356992227228446 0 28.356992227228446 6.3364038809254453 0 0 0 0 83.405597057975683 -6.5169600936992396 0 -6.5169600936992396 2.5690742009319365 0 0 0 0 62.368221326949424 0.15342048135903497 0 0.15342048135903497 29.148444887191999 0 0 0 0 62.282778482663844 3.034533564229573 0 3.034533564229573 0.79898346590562142 0 0 0 0 67.495096539481892 13.432254590778484 0 13.432254590778484 11.669682729042052 0 0 0 0 17.953536536609946 3.1492033810198592 0 3.1492033810198592 -0.34115702513202173 0 0 0 0 62.840580775096896 1.1809641105953688 0 1.1809641105953688 4.0483402583304269 0 0 0 0 80.541678556088641 5.6921555081695008 0 5.6921555081695008 -7.3298445666217571 0 0 0 0 109.13057522836607 18.089499886716339 0 18.089499886716339 -9.0918603809532215 0 0 0 0 27.413205504727774 7.9637145127293962 0 7.9637145127293962 -17.518866228600071 0 0 0 0 141.42956760557263 13.408736429410389 0 13.408736429410389 -14.742728385907412 0 0 0 0 115.92474334428698 22.776974468763456 0 22.776974468763456 -3.4273939540917127 0 0 0 0 137.41676675020426 37.050027349446033 0 37.050027349446033 -35.658908638545313 0 0 0 0 -0.97345857395987601 -1.6346343514613011 0 -1.6346343514613011 -9.2545099665803843 0 0 0 0 125.28515657501703 27.519751007036916 0 27.519751007036916 -10.622425844397412 0 0 0 0 75.909659153760003 8.1301065892084097 0 8.1301065892084097 -24.642630923443086 0 0 0 0 124.64759516026515 10.552455230443716 0 10.552455230443716 -33.503186213333834 0 0 0 0 45.66220792713284 10.637559546778675 0 10.637559546778675 -5.7543983753994326 0 0 0 0 93.492244555600337 -4.7873770181479358 0 -4.7873770181479358 -13.671898497951815 0 0 0 0 26.220660963356394 -8.9558443301391435 0 -8.9558443301391435 -9.9670456487179919 0 0 0 0 32.205604728223989 15.016294813953664 0 15.016294813953664 -1.4523142766554429 0 0 0 0 38.496764238656795 -4.0302830198688966 0 -4.0302830198688966 -2.9328034620478718 0 0 0 0 14.516517982897909 0.59663266690963113 0 0.59663266690963113 1.8975402993951067 0 0 0 0 32.761953148910834 -6.0156202815282995 0 -6.0156202815282995 -2.6354410988105883 0 0 0 0 32.004376458324259 23.053644849191414 0 23.053644849191414 28.864826113365268 0 0 0 0 29.035052955558058 -3.7213003549136374 0 -3.7213003549136374 -2.7375077401866292 0 0 0 0 46.137333013990428 -4.2437448495375065 0 -4.2437448495375065 -4.1870690829912292 0 0 0 0 34.776619284770277 -9.078068693258615 0 -9.078068693258615 -0.87862026446509844 0 0 0 0 45.64433728914446 -0.67193898313178124 0 -0.67193898313178124 -3.8722300333498083 0 0 0 0 12.359249691526202 -10.494793678445149 0 -10.494793678445149 22.714603313777843 0 0 0 0 23.940194811017136 -3.0765056091647693 0 -3.0765056091647693 -1.0485664757338782 0 0 0 0 33.633063831650361 6.3725604613899662 0 6.3725604613899662 5.6890558432029792 0 0 0 0 55.471635883581712 17.546808726591305 0 17.546808726591305 11.405586989051926 0 0 0 0 51.877881345375499 10.244078668595648 0 10.244078668595648 16.468368167651079 0 0 0 0 16.153101471019909 13.319086826239996 0 13.319086826239996 23.145835193740709 0 0 0 0 7.3640875074973593 8.7634463722570359 0 8.7634463722570359 10.376625977714621 0 0 0 0 40.673535188980168 2.0903915099411279 0 2.0903915099411279 15.103071872094461 0 0 0 0 30.779505195998354 12.622082387288515 0 12.622082387288515 11.903202110245957 0 0 0 0 72.489817006498924 4.3122442618965238 0 4.3122442618965238 0.52180266188361202 0 0 0 0 62.808593442518031 13.147756660219443 0 13.147756660219443 -1.3534827382308663 0 0 0 0 69.177747225694475 17.862458065061407 0 17.862458065061407 -1.0070881006822958 0 0 0 0 82.215652442639112 25.41335449645598 0 25.41335449645598 -16.852033834045642 0 0 0 0 7.4474936186884833 1.2210727478237118 0 1.2210727478237118 -2.2796733861407912 0 0 0 0 78.491663900043932 -150.85556198107747 0 -150.85556198107747 117.20204478874439 0 0 0 0 377.47150065510868 312.3309803337861 0 312.3309803337861 48.18816327011325 0 0 0 0 10.418694953725208 -104.06170751035083 0 -104.06170751035083 -61.067035743579481 0 0 0 0 1.5327800165870258 -3.6992171537098955 0 -3.6992171537098955 4.3084155908634818 0 0 0 0 682.38817690819633 -86.177764544398258 0 -86.177764544398258 74.01637275783412 0 0 0 0 54.842750818544346 27.694257780992729 0 27.694257780992729 34.492094192754166 0 0 0 0 74.033757953955501 52.519683084245457 0 52.519683084245457 -8.1792479655436239 0 0 0 0 4.504041719756458 -0.68374280786066421 0 -0.68374280786066421 -0.095987467121910308 0 0 0 0 99.607041442657646 170.67824956160075 0 170.67824956160075 164.03796447612081 0 0 0 0 -12.955901611290756 -11.842648418753129 0 -11.842648418753129 53.606649621355245 0 0 0 0 49.821708267205395 -48.050956867083414 0 -48.050956867083414 3.4558531353799253 0 0 0 0 66.363231559473206 37.735005619557796 0 37.735005619557796 -114.63114996043339 0 0 0 0 226.16822042177955 -81.286334918437774 0 -81.286334918437774 -43.347151972100505 0 0 0 0 -143.33365026154934 75.946716023761383 0 75.946716023761383 379.37913336228416 0 0 0 0 374.60289222990104 42.244476905177748 0 42.244476905177748 -242.92889158263642 0 0 0 0 1659.148443079117 863.05499273594432 0 863.05499273594432 -105.80906733893158 0 0 0 0 -120.85784635494201 4.9279893250895839 0 4.9279893250895839 4.7166792659586463 0 0 0 0 5.9304879004853035 0.10265663475726683 0 0.10265663475726683 3.7917613799416792 0 0 0 0 487.79079981194809 165.76119198560201 0 165.76119198560201 472.88297682379221 0 0 0 0 39.212933476629928 3.7929799241207363 0 3.7929799241207363 0.89469443298113716 0 0 0 0 1142.6189404077013 1598.0075047904652 0 1598.0075047904652 1550.5274687212916 0 0 0 0 15.130142670049366 4.2805875836696785 0 4.2805875836696785 2.9425016674650624 0 0 0 0 1930.9097652574128 477.82300386713956 0 477.82300386713956 -370.49924863800726 0 0 0 0 3493.4345544497037 1243.0006271339601 0 1243.0006271339601 -244.6613752848821 0 0 0 0 1548.2139536363029 403.15094691106822 0 403.15094691106822 -372.47092559752656 0 0 0 0 3502.7600626489439 -155.97842030326163 0 -155.97842030326163 -581.85074239241635 0 0 0 0 1331.9183912142398 725.98651279996568 0 725.98651279996568 -162.69227288075001 0 0 0 0 1100.7096078483592 -329.24259845582594 0 -329.24259845582594 -248.55099929821839 0 0 0 0 905.35959326335797 160.34245996669873 0 160.34245996669873 -134.23185395907495 0 0 0 0 39.566804380578105 -53.97940779809619 0 -53.97940779809619 -34.771988622182107 0 0 0 0 68.373690179825644 -40.051898917409062 0 -40.051898917409062 -99.135365069378111 0 0 0 0 63.203833999083145 -56.661928554524934 0 -56.661928554524934 18.563076011098019 0 0 0 0 106.18696080651716 -57.240483863055033 0 -57.240483863055033 -106.80283293385946 0 0 0 0 84.210676056813099 -30.62068348773596 0 -30.62068348773596 -39.319398440365148 0 0 0 0 84.971470825839788 -61.360194583197654 0 -61.360194583197654 -203.78195784828131 0 0 0 0 70.888275550692924 -2.6567947583996556 0 -2.6567947583996556 -129.24993155305992 0 0 0 0 50.381935141907888 -16.062238182800002 0 -16.062238182800002 -131.79183128319573 0 0 0 0 14.090935414860724 34.737256284826344 0 34.737256284826344 -99.784336677452643 0 0 0 0 34.483471245371959 -5.2700447522581868 0 -5.2700447522581868 -6.2587387117178856 0 0 0 0 12.903813294993597 3.5959269933196083 0 3.5959269933196083 19.06185416780113 0 0 0 0 52.482667363743531 -72.295837936919952 0 -72.295837936919952 -107.88941894912227 0 0 0 0 51.826335893332725 -60.632466319792684 0 -60.632466319792684 -135.62879027346708 0 0 0 0 22.615412561312837 -2.560550123788488 0 -2.560550123788488 1.5544143090943079 0 0 0 0 187.51618417089048 199.58265274586677 0 199.58265274586677 143.33568869869328 0 0 0 0 11.237530916404751 -5.4088677326578249 0 -5.4088677326578249 5.6381922331938483 0 0 0 0 130.20417368115159 -41.752558740811537 0 -41.752558740811537 -1.403768502820526 0 0 0 0 375.90743015217959 121.64901177070355 0 121.64901177070355 100.54650892880659 0 0 0 0 284.0071400301822 128.58391387611027 0 128.58391387611027 114.65028269531888 0 0 0 0 330.26341756733018 188.2773302646886 0 188.2773302646886 88.07302394122911 0 0 0 0 -0.45523492270547194 -2.5365983468578079 0 -2.5365983468578079 3.5200464083168317 0 0 0 0 370.50669230395579 117.18345238001473 0 117.18345238001473 106.96512376691487 0 0 0 0 356.30869312480354 180.35054924321838 0 180.35054924321838 179.04305610849667 0 0 0 0 228.19210207500146 254.44187786008297 0 254.44187786008297 136.1952006947306 0 0 0 0 18.198005876319797 -9.715263994450055 0 -9.715263994450055 5.0445895009839496 0 0 0 0 213.82680782204261 -55.87784173695195 0 -55.87784173695195 26.369456307629775 0 0 0 0 -5.0229300645005424 -52.735743924747567 0 -52.735743924747567 -120.19747249650254 0 0 0 0 46.852129395338125 -53.06649266151112 0 -53.06649266151112 -111.40503668524229 0 0 0 0 -20.438592054502806 -53.667734369322261 0 -53.667734369322261 -94.883548418826194 0 0 0 0 -20.142494086874649 -103.15580635081074 0 -103.15580635081074 -124.45809391536432 0 0 0 0 -6.1987830214638961 -65.451632599053028 0 -65.451632599053028 -65.334774733881204 0 0 0 0 25.254879994958173 6.4506997361736467 0 6.4506997361736467 -22.907082145116419 0 0 0 0 54.934550694044447 -13.188377671183616 0 -13.188377671183616 -89.120624306597279 0 0 0 0 -60.113937911868561 -191.7636512615054 0 -191.7636512615054 -216.98328239323655 0 0 0 0 12.030373661987312 -6.9052881083902093 0 -6.9052881083902093 2.4389142179200025 0 0 0 0 -89.943710226769326 -119.7697307601461 0 -119.7697307601461 -126.13693285200316 0 0 0 0 21.548062610876514 -44.525008755703539 0 -44.525008755703539 -85.856318417604143 0 0 0 0 6.6422089245461393 -19.851062471997921 0 -19.851062471997921 -117.21142358252388 0 0 0 0 11.155154019535985 -105.90767364679186 0 -105.90767364679186 -242.7381066582459 0 0 0 0 -0.68896741470962297 -55.143127966604197 0 -55.143127966604197 -30.562884564638807 0 0 0 0 54.042391573137138 18.746085963537098 0 18.746085963537098 -52.462560897501135 0 0 0 0 98.033631013560807 -25.32216668151591 0 -25.32216668151591 -21.559496904776097 0 0 0 0 77.435357120324625 32.030448223879148 0 32.030448223879148 -36.630724223639845 0 0 0 0 46.172320180601673 3.3596671429509115 0 3.3596671429509115 -8.0473702776837399 0 0 0 0 60.487564781193214 43.219835705034939 0 43.219835705034939 17.058722540680265 0 0 0 0 83.215554919064743 64.238836896536668 0 64.238836896536668 35.830075870871383 0 0 0 0 124.7865815932746 96.701146558417122 0 96.701146558417122 31.968169924696667 0 0 0 0 119.63633229017432 99.462605854663025 0 99.462605854663025 59.215076585659517 0 0 0 0 91.043118401867105 56.532116924199954 0 56.532116924199954 -3.4296837175988912 0 0 0 0 71.237337515456602 0.2673082670430631 0 0.2673082670430631 -48.221914239990838 0 0 0 0 41.847128786081157 -0.42731344402841387 0 -0.42731344402841387 13.235703677938545 0 0 0 0 60.870768137858249 -0.21282137427374437 0 -0.21282137427374437 67.029023034875536 0 0 0 0 123.8044742205384 -81.471992533329058 0 -81.471992533329058 0.54119790352046948 0 0 0 0 82.429430864998722 -1.7563005018414515 0 -1.7563005018414515 -5.3273798634821787 0 0 0 0 64.480496224467061 3.4071223363362151 0 3.4071223363362151 234.18404155183634 0 0 0 0 188.2081047239044 151.22787829192373 0 151.22787829192373 99.809852719512946 0 0 0 0 127.49630970645376 88.237342079199266 0 88.237342079199266 45.84399534150316 0 0 0 0 211.61024406018259 107.47825455498401 0 107.47825455498401 55.350174485357115 0 0 0 0 520.99328932086064 52.481275084072195 0 52.481275084072195 -25.362542963788545 0 0 0 0 356.42883977583551 -118.69916773155023 0 -118.69916773155023 31.543753463885992 0 0 0 0 223.19774333412352 14.061012720613235 0 14.061012720613235 -25.24994849721179 0 0 0 0 36.466716397175333 -82.30907101275352 0 -82.30907101275352 44.379458697645987 0 0 0 0 3.3915940483655049 2.3068324272362162 0 2.3068324272362162 2.0172757259692515 0 0 0 0 407.32565070773126 322.44909613408163 0 322.44909613408163 221.35644772412104 0 0 0 0 24.419391119328793 -18.312982623962398 0 -18.312982623962398 134.39946468856806 0 0 0 0 -56.796855374709594 -35.934677417742748 0 -35.934677417742748 -51.837686154302446 0 0 0 0 425.81682509944949 387.8694206718186 0 387.8694206718186 -57.347014093590587 0 0 0 0 390.9967092651932 332.80365768407478 0 332.80365768407478 271.69524558845205 0 0 0 0 168.90817710442934 -135.05869428990491 0 -135.05869428990491 399.46926071938026 0 0 0 0 139.97910712463636 19.210819793204564 0 19.210819793204564 -7.5159300785035157 0 0 0 0 26.774741520216935 11.081832556358037 0 11.081832556358037 -10.972050936004523 0 0 0 0 33.737712965230457 11.949183688838275 0 11.949183688838275 1.2327832051050791 0 0 0 0 36.116011869366048 21.950127487677491 0 21.950127487677491 -3.4669488960316812 0 0 0 0 26.277359069182381 10.195880838500528 0 10.195880838500528 -4.1015950453893524 0 0 0 0 6.756300980123342 29.840641328492211 0 29.840641328492211 -3.5271587768911559 0 0 0 0 5.1990308959415898 0.51592603773994483 0 0.51592603773994483 0.052601603195512325 0 0 0 0 82.635898660053499 17.392596206474991 0 17.392596206474991 13.189433316831128 0 0 0 0 29.503742235253867 19.106157023671059 0 19.106157023671059 -7.4589668821787729 0 0 0 0 21.893686952418648 15.242438202268886 0 15.242438202268886 1.0245745324521067 0 0 0 0 11.318742504605751 11.479753516751359 0 11.479753516751359 -4.4257608068992127 0 0 0 0 13.821450660558185 49.23348048559501 0 49.23348048559501 -1.5464641837206727 0 0 0 0 23.24887500423938 40.122227500651206 0 40.122227500651206 5.3143447106122039 0 0 0 0 17.10026641166769 33.361563527167164 0 33.361563527167164 -2.9635721995705353 0 0 0 0 21.376123540627304 34.392454494810409 0 34.392454494810409 -4.5928115738170163 0 0 0 0 19.331216692109592 31.952343975194708 0 31.952343975194708 -3.8843232189120727 0 0 0 0 13.532287843438098 19.863021791739811 0 19.863021791739811 -3.6299028249522962 0 0 0 0 14.701972900052567 17.200563109458173 0 17.200563109458173 2.6873370004798627 0 0 0 0 -8.3268478198733646 50.101457556473179 0 50.101457556473179 8.8684118368174722 0 0 0 0 7.1642776362132281 -3.1217923585950302 0 -3.1217923585950302 7.194820433048335 0 0 0 0 9.0707672099912315 7.3189874327736106 0 7.3189874327736106 4.4638022596459903 0 0 0 0 -67.253268286294769 -2.191657052847404 0 -2.191657052847404 8.5455693223584603 0 0 0 0 22.044110107701272 36.479287702053398 0 36.479287702053398 -31.818724537664821 0 0 0 0 4.1857419486784124 10.037669124597024 0 10.037669124597024 1.8522702638269557 0 0 0 0 8.6499322355666663 31.706806988934204 0 31.706806988934204 -22.857101783878534 0 0 0 0 -38.640567207039567 137.58431794886701 0 137.58431794886701 46.81727094904636 0 0 0 0 14.259449168300392 16.911954471822185 0 16.911954471822185 14.658227804624737 0 0 0 0 -84.394101691170363 -0.65613312168125049 0 -0.65613312168125049 -24.757266492870485 0 0 0 0 15.597053431789391 40.55241746527463 0 40.55241746527463 -64.873430099143661 0 0 0 0 81.84573394794279 25.376152231445303 0 25.376152231445303 -14.049092229437292 0 0 0 0 28.131576656334801 14.804556802425282 0 14.804556802425282 -55.074420566388653 0 0 0 0 3.6301713888679217 17.256078185087546 0 17.256078185087546 -8.9566014307298563 0 0 0 0 16.929080900452391 19.37168741442747 0 19.37168741442747 6.617293327817606 0 0 0 0 13.859952742603241 25.763172806124963 0 25.763172806124963 0.80736637938564648 0 0 0 0 39.06219855469368 9.5055766264713775 0 9.5055766264713775 -12.616122517189254 0 0 0 0 26.169757049654436 9.1785774952895167 0 9.1785774952895167 -36.849288876250853 0 0 0 0 36.684236337503535 7.207660959021382 0 7.207660959021382 -66.824185844201679 0 0 0 0 -20.271451075939694 119.89444926120683 0 119.89444926120683 106.01736121755448 0 0 0 0 89.850728243029153 139.99385118749069 0 139.99385118749069 36.955544522154469 0 0 0 0 191.24742598031298 101.35329892135906 0 101.35329892135906 8.6109830259764522 0 0 0 0 -106.60565092820616 -136.03921459822504 0 -136.03921459822504 7.8041831777632069 0 0 0 0 -5.4467578485800594 13.507521564217058 0 13.507521564217058 3.4012664558352594 0 0 0 0 1059.3434559400484 908.63326433252746 0 908.63326433252746 -857.73639043787171 0 0 0 0 -74.42984463844914 -173.2537255307343 0 -173.2537255307343 -289.81821114148318 0 0 0 0 49.626960240042536 63.778679721930075 0 63.778679721930075 -230.9686911738454 0 0 0 0 15.61190056061605 -10.088467716957211 0 -10.088467716957211 -8.6548742603608844 0 0 0 0 -240.22622622016206 356.66741119313622 0 356.66741119313622 -42.386635647661024 0 0 0 0 840.95702613110188 65.498797838586597 0 65.498797838586597 -44.984684163175643 0 0 0 0 54.805887373920996 235.68499301812631 0 235.68499301812631 186.14601371299045 0 0 0 0 3.6873695804636668 5.6749860674189563 0 5.6749860674189563 7.7351517567215247 0 0 0 0 120.93003529139969 169.19247452659101 0 169.19247452659101 11.579073033357417 0 0 0 0 253.39000479300739 331.100963137392 0 331.100963137392 97.997513077413487 0 0 0 0 412.00031987079274 180.75009305883577 0 180.75009305883577 -131.28974001804909 0 0 0 0 177.69531068217475 254.85392638057101 0 254.85392638057101 87.437716799720846 0 0 0 0 -10.480655456820386 66.732391583821482 0 66.732391583821482 -138.46114513304201 0 0 0 0 8.6503738526269593 -3.9487138674724065 0 -3.9487138674724065 -10.344081411639607 0 0 0 0 -239.00830134341959 -692.18841616309874 0 -692.18841616309874 455.53659125046636 0 0 0 0 49.207219128467841 26.379352350392764 0 26.379352350392764 -163.51463039274154 0 0 0 0 56.855541692417319 11.287797582882693 0 11.287797582882693 0.8985354339663445 0 0 0 0 38.360144351500487 -3.893635933056629 0 -3.893635933056629 -24.391026002063054 0 0 0 0 17.872569190714785 -3.0518985926093727 0 -3.0518985926093727 -5.7204573658854763 0 0 0 0 287.16355029928673 84.89450140848021 0 84.89450140848021 -201.3874055739675 0 0 0 0 60.057937644320191 -142.01727543313336 0 -142.01727543313336 -186.82663188805645 0 0 0 0 16.94178584907786 -14.883532453896805 0 -14.883532453896805 -46.362296447063272 0 0 0 0 116.61928489480931 21.792507619501688 0 21.792507619501688 -16.276012242038288 0 0 0 0 161.26878422400478 59.182770597488798 0 59.182770597488798 -62.599772797914738 0 0 0 0 204.42253106234421 98.208173945455201 0 98.208173945455201 -41.669497644010335 0 0 0 0 10.515890046257795 31.338192647805144 0 31.338192647805144 29.586895366544631 0 0 0 0 28.645221746216976 26.289429693099411 0 26.289429693099411 25.921127231120863 0 0 0 0 72.844532767012424 69.266307707601754 0 69.266307707601754 19.428381636183076 0 0 0 0 2.1002766687443568 12.087390234753613 0 12.087390234753613 9.425515503508235 0 0 0 0 -242.81218993128641 117.29184571097898 0 117.29184571097898 350.18855515348332 0 0 0 0 18.75279891250544 20.717007961851948 0 20.717007961851948 14.419363608575178 0 0 0 0 407.04046934911457 -107.42307445859797 0 -107.42307445859797 -116.86055752146422 0 0 0 0 7.548935340603748 2.1590938214489483 0 2.1590938214489483 -1.160664830765052 0 0 0 0 466.96383254700049 400.21633042082203 0 400.21633042082203 203.78999707807679 0 0 0 0 -175.21471389650833 -43.226584814036869 0 -43.226584814036869 236.68261667897559 0 0 0 0 110.74194430844727 76.816003333496269 0 76.816003333496269 34.17666769904281 0 0 0 0 120.13254921992231 22.210635294171507 0 22.210635294171507 -15.966738544420606 0 0 0 0 161.08768629658152 -10.023107268597414 0 -10.023107268597414 -85.793712121586395 0 0 0 0 634.15448586826096 83.135514252192024 0 83.135514252192024 -387.32299322010113 0 0 0 0 89.691579810558324 19.166546851093187 0 19.166546851093187 5.2333033696131679 0 0 0 0 97.620241390897718 -0.39318545338346667 0 -0.39318545338346667 47.155256372330768 0 0 0 0 166.0978281924472 53.879664947273341 0 53.879664947273341 14.122562118930091 0 0 0 0 167.36543884045614 105.68005399534501 0 105.68005399534501 157.25829696976871 0 0 0 0 182.00099442748615 114.96024831837758 0 114.96024831837758 75.93340344559806 0 0 0 0 202.18149939317755 99.145179330652354 0 99.145179330652354 88.162680905748857 0 0 0 0 206.13348032034992 17.247508666929889 0 17.247508666929889 -21.222333666253917 0 0 0 0 157.79217580950353 80.851202971969542 0 80.851202971969542 61.958923565374334 0 0 0 0 20.252100966135913 18.598572806650054 0 18.598572806650054 11.421983861817807 0 0 0 0 68.07955737167822 60.716097323949398 0 60.716097323949398 12.687397713866631 0 0 0 0 12.176020646378635 25.550461013409532 0 25.550461013409532 16.849925402486718 0 0 0 0 13.849306788915101 19.212967597891208 0 19.212967597891208 11.904317536207277 0 0 0 0 122.86653271301475 114.65287170885767 0 114.65287170885767 60.604998203602008 0 0 0 0 115.82359257739881 83.343804017612229 0 83.343804017612229 32.228492492613441 0 0 0 0 300.61831358300697 128.53366558511334 0 128.53366558511334 75.462555691100533 0 0 0 0 304.36996038735379 172.48395629509378 0 172.48395629509378 73.431466858926797 0 0 0 0 218.19743792482768 7.5055274706310229 0 7.5055274706310229 76.24447198209964 0 0 0 0 21.08399000854115 6.356761978276154 0 6.356761978276154 68.739498368464069 0 0 0 0 21.472814672495588 99.461282221071997 0 99.461282221071997 224.81826379538415 0 0 0 0 -0.47104288078605805 -2.2595992944898882 0 -2.2595992944898882 7.3228610308952486 0 0 0 0 43.412822041464096 11.711652906369466 0 11.711652906369466 45.84718625271671 0 0 0 0 204.71623284707493 112.46206132594341 0 112.46206132594341 77.18600278939175 0 0 0 0 21.016805391337613 -11.460856778268756 0 -11.460856778268756 8.9367439616989159 0 0 0 0 47.862136185285635 -0.1856428026718504 0 -0.1856428026718504 50.541262947196401 0 0 0 0 44.794417992088711 17.205270411324591 0 17.205270411324591 43.731198426931996 0 0 0 0 58.237585705966922 0.62785985911250464 0 0.62785985911250464 53.878818602671345 0 0 0 0 65.21174100296048 7.3863213022762011 0 7.3863213022762011 54.384811864047379 0 0 0 0 69.834490158857079 -3.1358338275733786 0 -3.1358338275733786 75.403014198679557 0 0 0 0 99.674022473249352 13.492297602294457 0 13.492297602294457 35.159143779484566 0 0 0 0 99.177999340172391 13.349862401509654 0 13.349862401509654 36.390730029150291 0 0 0 0 39.539842814016161 25.657757333135564 0 25.657757333135564 7.0500547035509431 0 0 0 0 99.537931661936454 12.729505244911024 0 12.729505244911024 34.520258527827536 0 0 0 0 99.263820748485159 12.995560858177782 0 12.995560858177782 35.374501710580262 0 0 0 0 81.244444364077935 22.258277590852231 0 22.258277590852231 30.022955615583442 0 0 0 0 20.925250000302981 24.619679816470338 0 24.619679816470338 14.258119303507492 0 0 0 0 55.693195901796571 28.037124685035508 0 28.037124685035508 31.897893553194081 0 0 0 0 86.112376961071277 59.374010327715041 0 59.374010327715041 10.418601968374333 0 0 0 0 14.514174998717863 16.962445587127505 0 16.962445587127505 -6.7376242445961907 0 0 0 0 53.256475629412307 27.660083319540277 0 27.660083319540277 6.5153674515148365 0 0 0 0 87.724949545779964 58.278777848358459 0 58.278777848358459 -39.308150876717264 0 0 0 0 84.60706011660659 87.277777116842117 0 87.277777116842117 -67.89827625583348 0 0 0 0 72.982737689788337 93.234017163514181 0 93.234017163514181 5.4014992359516327 0 0 0 0 43.257501719126594 7.9498521050290947 0 7.9498521050290947 -71.329292220062371 0 0 0 0 39.606331553150085 79.679081152580693 0 79.679081152580693 -31.154357785774437 0 0 0 0 85.288469162594993 73.829036242201255 0 73.829036242201255 -30.632079982912046 0 0 0 0 62.777569391124416 72.560699611918153 0 72.560699611918153 6.9033263915935095 0 0 0 0 78.92020392746781 80.833238071901405 0 80.833238071901405 52.950510285738801 0 0 0 0 120.97789378344896 91.413684911725795 0 91.413684911725795 11.464648449878041 0 0 0 0 65.465813199407421 80.856213277173993 0 80.856213277173993 53.108343955018427 0 0 0 0 57.493928348005284 77.404167953577144 0 77.404167953577144 53.409039328244859 0 0 0 0 78.902981215767795 101.31289294997055 0 101.31289294997055 51.333447203488504 0 0 0 0 72.461872291081818 74.11433924652647 0 74.11433924652647 18.184088178099046 0 0 0 0 49.677487294728053 65.198851702499724 0 65.198851702499724 86.930380318192533 0 0 0 0 23.413840034976602 24.522376277335752 0 24.522376277335752 25.489337759956697 0 0 0 0 -3.0508746231652708 -0.29678193681110088 0 -0.29678193681110088 9.8853954549626266 0 0 0 0 56.723073326720623 80.496998836156365 0 80.496998836156365 94.589540462279274 0 0 0 0 51.950748930845293 90.432658470139472 0 90.432658470139472 168.11896175685774 0 0 0 0 125.50984410318779 113.55368082643872 0 113.55368082643872 75.875387051980397 0 0 0 0 126.5784738039365 101.58989839035326 0 101.58989839035326 79.10375874711076 0 0 0 0 -4.3075313752633519 -2.8807470426248756 0 -2.8807470426248756 55.316186665005603 0 0 0 0 118.06731625908287 153.44319576800336 0 153.44319576800336 222.0700681209712 0 0 0 0 2.0767676164127806 1.3083002501397907 0 1.3083002501397907 3.1108882086206471 0 0 0 0 7.9017930920477966 -4.0295389152857979 0 -4.0295389152857979 6.413560855024933 0 0 0 0 22.657203187671257 -4.7288965947190036 0 -4.7288965947190036 13.506931999507685 0 0 0 0 24.894340822590266 9.8083768204727519 0 9.8083768204727519 0.95132209780945343 0 0 0 0 41.637970043957466 12.714328390409037 0 12.714328390409037 7.8224935390717292 0 0 0 0 42.990777513361536 7.5491827686853412 0 7.5491827686853412 -0.10322875311351254 0 0 0 0 29.199363932693814 9.6842267653502745 0 9.6842267653502745 7.1017837971992321 0 0 0 0 247.50703072184115 104.90422200686351 0 104.90422200686351 171.57358376659045 0 0 0 0 291.12020260261488 88.238821607114687 0 88.238821607114687 100.81112706456773 0 0 0 0 290.91490823068307 105.99846598031058 0 105.99846598031058 151.88062345578737 0 0 0 0 352.05105511959118 81.175967824311499 0 81.175967824311499 141.74238581682584 0 0 0 0 283.46125418591691 137.48779095079854 0 137.48779095079854 173.75751569702197 0 0 0 0 229.34031007753219 143.49539052383579 0 143.49539052383579 134.28314836663958 0 0 0 0 256.29339825561328 84.468342636133912 0 84.468342636133912 114.11585337376255 0 0 0 0 243.45621568293427 105.406463304314 0 105.406463304314 99.221928132902121 0 0 0 0 187.02725703419492 65.694513168697512 0 65.694513168697512 74.936758772403664 0 0 0 0 127.20146384721738 95.787216910768166 0 95.787216910768166 123.81439917127773 0 0 0 0 111.4725897633798 74.689181715287191 0 74.689181715287191 63.754907325874228 0 0 0 0 193.97699707504944 106.61385467913033 0 106.61385467913033 74.198358237596949 0 0 0 0 253.76650574989617 68.609318643937513 0 68.609318643937513 26.239533775630093 0 0 0 0 254.01777892949758 78.830451802048628 0 78.830451802048628 50.424111727031232 0 0 0 0 269.23456703113334 72.118844717192474 0 72.118844717192474 52.094373119852207 0 0 0 0 313.84683172328369 75.225388412960797 0 75.225388412960797 30.586869509194003 0 0 0 0 264.7556414376304 86.531148556688549 0 86.531148556688549 101.23894005370698 0 0 0 0 270.0353171544557 28.550699737836567 0 28.550699737836567 -12.754175189243369 0 0 0 0 242.95349748927401 24.160755016260282 0 24.160755016260282 -6.5252033275041867 0 0 0 0 253.66124209436384 37.116644853636558 0 37.116644853636558 -17.805884252934447 0 0 0 0 245.07279307848148 -13.864361842317606 0 -13.864361842317606 -51.020639142503569 0 0 0 0 160.35003289280576 11.79453634415313 0 11.79453634415313 -22.362096291449234 0 0 0 0 244.1111924519646 -30.406073145763912 0 -30.406073145763912 -84.749145456235055 0 0 0 0 187.39102472012746 42.584910964412757 0 42.584910964412757 -20.765968173688634 0 0 0 0 200.8095680794504 75.623776969387109 0 75.623776969387109 22.66764090863353 0 0 0 0 174.2495140521205 42.487086342431667 0 42.487086342431667 21.455642264420362 0 0 0 0 106.24694555500173 44.679831439279496 0 44.679831439279496 13.339701270040678 0 0 0 0 79.616264122028952 28.902423582675965 0 28.902423582675965 -22.4438225916183 0 0 0 0 114.21357384456496 27.746362264015715 0 27.746362264015715 -149.54238251361221 0 0 0 0 124.84730838777614 51.09899529426275 0 51.09899529426275 -56.805125647164459 0 0 0 0 167.92170127210557 5.9644629841386632 0 5.9644629841386632 -55.167043368694976 0 0 0 0 50.63234771421412 30.164231149627994 0 30.164231149627994 -54.82267729010961 0 0 0 0 233.44092893062043 -72.326373427699764 0 -72.326373427699764 -59.430611966708966 0 0 0 0 273.28408867903636 -37.165583278350823 0 -37.165583278350823 -83.189959152022766 0 0 0 0 144.19979647739092 -22.158902444636624 0 -22.158902444636624 -51.456747997906177 0 0 0 0 149.99253474084253 -24.843012553436438 0 -24.843012553436438 -44.38015129253472 0 0 0 0 285.82140543310379 -143.69748949126279 0 -143.69748949126279 -59.440124371107231 0 0 0 0 115.23164999193978 -61.156802243145648 0 -61.156802243145648 -59.391782563435292 0 0 0 0 55.089171755709685 31.33274499329309 0 31.33274499329309 -130.3442545910375 0 0 0 0 -115.38372239586897 751.90790151703368 0 751.90790151703368 307.92158060292513 0 0 0 0 98.154793763838825 -110.20782784788662 0 -110.20782784788662 -24.904489137752535 0 0 0 0 -37.545183550566435 44.46888662430456 0 44.46888662430456 -53.122952783052824 0 0 0 0 -65.676563554123277 53.750346836714925 0 53.750346836714925 39.265242196706822 0 0 0 0 -3.2179124348016899 6.1660844235356578 0 6.1660844235356578 1.583380124931888 0 0 0 0 38.999422088419408 11.939320667055895 0 11.939320667055895 4.021366661951248 0 0 0 0 55.645706049384387 13.863707716434451 0 13.863707716434451 2.8755083445021401 0 0 0 0 95.388215291306551 80.288012761684058 0 80.288012761684058 -170.17196255231102 0 0 0 0 152.30657835934835 106.96592662047055 0 106.96592662047055 -118.90580575857302 0 0 0 0 92.409314503485803 101.01892321412015 0 101.01892321412015 50.234970373654505 0 0 0 0 74.554476197838085 -29.427430291290875 0 -29.427430291290875 -55.556005217562415 0 0 0 0 142.64949244158925 97.902594481776759 0 97.902594481776759 -18.367831124820441 0 0 0 0 198.28649129965925 183.88171835434969 0 183.88171835434969 74.622360771247259 0 0 0 0 88.562654790206579 70.534022998726869 0 70.534022998726869 50.621587801982685 0 0 0 0 63.926797860389343 54.873506917004306 0 54.873506917004306 298.15803361232975 0 0 0 0 89.188232628948754 183.67996964779741 0 183.67996964779741 108.88605326934885 0 0 0 0 16.391499460049204 17.815251421911956 0 17.815251421911956 5.6128373033239143 0 0 0 0 28.041269785110018 33.638353949587561 0 33.638353949587561 -9.3615907537906349 0 0 0 0 157.19363793548837 154.65639305418927 0 154.65639305418927 -15.107474537614848 0 0 0 0 360.53489267267287 440.95467697984299 0 440.95467697984299 204.50472886290254 0 0 0 0 122.57223402586403 59.946513331109834 0 59.946513331109834 27.83657155745999 0 0 0 0 93.887206886873173 29.747238990128608 0 29.747238990128608 6.2649082377170089 0 0 0 0 245.68798250415784 13.598798796293295 0 13.598798796293295 -153.86019047728041 0 0 0 0 89.334169511635338 20.80225309021311 0 20.80225309021311 -10.374406678562124 0 0 0 0 70.972580448847765 31.652132135461443 0 31.652132135461443 11.297428408491438 0 0 0 0 99.122306749261043 87.987320771845887 0 87.987320771845887 11.252243003547164 0 0 0 0 107.66499315789406 23.499486396531097 0 23.499486396531097 -78.055896044488577 0 0 0 0 93.463063251903804 16.697893410514325 0 16.697893410514325 -37.776113363946024 0 0 0 0 474.4448226311506 -156.00956839328296 0 -156.00956839328296 -257.6301465384272 0 0 0 0 256.29677397000341 86.727314800282642 0 86.727314800282642 -11.417385128192109 0 0 0 0 176.94145075598863 152.84072322984821 0 152.84072322984821 141.75504162558082 0 0 0 0 127.44271236612985 75.876762997530477 0 75.876762997530477 24.104527994091995 0 0 0 0 14.354937076189017 8.1910028493952183 0 8.1910028493952183 -4.6102725858810256 0 0 0 0 70.639713463278895 -12.272046874623243 0 -12.272046874623243 -105.57752702374927 0 0 0 0 128.13395125065506 85.550345652939299 0 85.550345652939299 9.0032357496472741 0 0 0 0 250.27023705151441 123.40908041405328 0 123.40908041405328 -50.892528627386582 0 0 0 0 192.29093247411947 129.73283737681641 0 129.73283737681641 -34.786847403548109 0 0 0 0 220.54176754980199 45.525982354393193 0 45.525982354393193 -111.64617660760541 0 0 0 0 204.88465208962953 112.71101564914716 0 112.71101564914716 52.992819581103504 0 0 0 0 262.80949379891536 119.79149468147352 0 119.79149468147352 -38.446181862556841 0 0 0 0 217.64400756045143 154.66171408724654 0 154.66171408724654 83.368822352633288 0 0 0 0 235.91115602690843 128.78142563419783 0 128.78142563419783 -40.617967703289651 0 0 0 0 220.74737120462669 68.166904973612588 0 68.166904973612588 -106.39998192754274 0 0 0 0 198.41982147882663 116.73769222480104 0 116.73769222480104 -30.702314092238709 0 0 0 0 424.30363038013502 177.71800106816565 0 177.71800106816565 -73.708422908468719 0 0 0 0 247.37890840456384 122.35086337837905 0 122.35086337837905 -82.094664346115223 0 0 0 0 187.00067431464777 97.846889850341114 0 97.846889850341114 -130.72795956428189 0 0 0 0 60.504848416981986 41.500329526478481 0 41.500329526478481 -82.435774069093895 0 0 0 0 83.54815096575112 -20.1938405121914 0 -20.1938405121914 -10.187328310979979 0 0 0 0 165.29659721687676 -12.773558419515545 0 -12.773558419515545 -162.78927146873977 0 0 0 0 74.090925281576347 -27.880197040683015 0 -27.880197040683015 28.753107636602635 0 0 0 0 86.064502184903148 -2.6321485405322669 0 -2.6321485405322669 -0.78465077124794136 0 0 0 0 63.172274893600843 129.40443072638232 0 129.40443072638232 74.189580292996425 0 0 0 0 251.52480116629431 -181.09403494065185 0 -181.09403494065185 -56.258376853469599 0 0 0 0 36.11762941592599 -10.62599169842705 0 -10.62599169842705 -17.900383713857881 0 0 0 0 89.27938748311135 -55.829804447465449 0 -55.829804447465449 43.031519876434686 0 0 0 0 58.940522266251065 14.438372776610578 0 14.438372776610578 9.9634809764350827 0 0 0 0 134.38875539621222 44.083281349803656 0 44.083281349803656 171.11634206280451 0 0 0 0 22.521520672928716 -7.5815894164777689 0 -7.5815894164777689 -14.753559743595698 0 0 0 0 150.83358936979209 20.824549808093504 0 20.824549808093504 0.67069215055878928 0 0 0 0 291.9702629870153 53.607335097745818 0 53.607335097745818 -6.2704511536903738 0 0 0 0 -65.634519786515739 20.293817252717872 0 20.293817252717872 50.415776566566194 0 0 0 0 100.53127792515443 160.35917678082342 0 160.35917678082342 -37.052508975971591 0 0 0 0 215.35221800303771 -5.7774689221762969 0 -5.7774689221762969 52.805590735350052 0 0 0 0 26.2063752594986 -104.73610120710714 0 -104.73610120710714 29.739960602661995 0 0 0 0 113.61371069990128 -0.074230296254540917 0 -0.074230296254540917 -112.21380092502125 0 0 0 0 106.07428542329581 -5.4946399136936179 0 -5.4946399136936179 35.733300255019913 0 0 0 0 73.749764525845109 23.206326503750301 0 23.206326503750301 3.9612479141589505 0 0 0 0 92.331426638498669 -26.780860667928437 0 -26.780860667928437 26.715536004159276 0 0 0 0 45.056084464196829 9.1103048103795388 0 9.1103048103795388 2.6901342002444428 0 0 0 0 112.9229099269869 -12.246484477612967 0 -12.246484477612967 48.28133371095123 0 0 0 0 89.615186125447508 -3.9613241065485454 0 -3.9613241065485454 88.428470975498385 0 0 0 0 86.977122509968467 38.852071956343934 0 38.852071956343934 81.752180004098136 0 0 0 0 46.349851263113209 21.328241255212149 0 21.328241255212149 1.2260509257544763 0 0 0 0 105.75043905311031 4.5146028556553119 0 4.5146028556553119 33.674921136502689 0 0 0 0 91.601257735350373 32.020661651362616 0 32.020661651362616 88.041823618705166 0 0 0 0 197.83998497907305 -30.004170485171016 0 -30.004170485171016 29.859464350271764 0 0 0 0 6.803251453455939 3.5199163965380222 0 3.5199163965380222 -0.061793845944779768 0 0 0 0 90.705926413735142 -24.11551929226448 0 -24.11551929226448 94.879318786783188 0 0 0 0 31.908380502463842 22.223618708269328 0 22.223618708269328 64.793318570391648 0 0 0 0 49.687091891129967 4.0366980311443967 0 4.0366980311443967 79.112323934533833 0 0 0 0 45.715015955182025 24.290599065807328 0 24.290599065807328 61.252251530785429 0 0 0 0 60.659736228415568 -7.3573384366970913 0 -7.3573384366970913 49.128442575205554 0 0 0 0 40.834983605960588 18.097496374282912 0 18.097496374282912 60.304748810185174 0 0 0 0 23.162892074215051 -12.635266642009469 0 -12.635266642009469 56.039783328479075 0 0 0 0 54.856928011431592 -44.995671528476578 0 -44.995671528476578 -34.53747749738659 0 0 0 0 73.938948898605304 -5.2976080451669532 0 -5.2976080451669532 30.678686612199499 0 0 0 0 88.822415728936903 5.7590339226760534 0 5.7590339226760534 19.603188886975659 0 0 0 0 539.24684637106839 388.25236285320955 0 388.25236285320955 200.23820092704199 0 0 0 0 288.37550914880285 61.978976459509234 0 61.978976459509234 21.040581551171272 0 0 0 0 303.03831142813578 232.97312542982348 0 232.97312542982348 144.52522133355123 0 0 0 0 32.353645488612528 35.754730836343924 0 35.754730836343924 105.17502714151442 0 0 0 0 11.301219228426447 -7.4205681662240295 0 -7.4205681662240295 4.61578977769181 0 0 0 0 16.617371156251465 -6.6406161107054231 0 -6.6406161107054231 79.463351031335151 0 0 0 0 28.198380572273891 -3.104058668167454 0 -3.104058668167454 52.856985669119922 0 0 0 0 84.098705882352078 -47.163065685022104 0 -47.163065685022104 474.32543149304956 0 0 0 0 47.936947482161486 66.865364650027914 0 66.865364650027914 114.82997701721979 0 0 0 0 757.26607816334581 -85.498794480503875 0 -85.498794480503875 73.269468430956294 0 0 0 0 5.0964143708515621 -2.0779889629245076 0 -2.0779889629245076 0.5596419343197705 0 0 0 0 -24.251268174673896 -247.07988609547397 0 -247.07988609547397 228.03801869602296 0 0 0 0 13.308026594594594 58.614544785712866 0 58.614544785712866 12.501210688565152 0 0 0 0 338.89097459420736 -118.60700390609236 0 -118.60700390609236 71.189542221406271 0 0 0 0 104.195270817951 -15.795197690610971 0 -15.795197690610971 -1.773420720731254 0 0 0 0 54.726658170500741 -213.44999465635999 0 -213.44999465635999 -190.80481263077786 0 0 0 0 93.063445211068029 -179.93450036711147 0 -179.93450036711147 -279.00395090329152 0 0 0 0 110.39648675271746 -39.095885953407105 0 -39.095885953407105 -154.13314747221193 0 0 0 0 94.581896147882077 -13.294067265569126 0 -13.294067265569126 -3.223487328333408 0 0 0 0 138.5735859685301 -136.61521728622938 0 -136.61521728622938 -303.76194312378766 0 0 0 0 57.508945010389652 -42.127195111951721 0 -42.127195111951721 -86.189675156369958 0 0 0 0 192.40459423886387 23.311865389880836 0 23.311865389880836 -196.38429690189514 0 0 0 0 187.13476294141219 -36.079035317024591 0 -36.079035317024591 -36.949846202342087 0 0 0 0 382.2201836137865 37.471189071319714 0 37.471189071319714 31.607792469239939 0 0 0 0 208.4730489150279 88.983448475934892 0 88.983448475934892 34.315870984637968 0 0 0 0 251.46518365011798 -4.1726623742688389 0 -4.1726623742688389 -83.936704473574366 0 0 0 0 123.50828875865045 -13.141468033220008 0 -13.141468033220008 36.393373713134679 0 0 0 0 260.57931316204849 37.908838837326584 0 37.908838837326584 80.324312122318588 0 0 0 0 263.51562240397107 54.755210990928845 0 54.755210990928845 4.4403528290404211 0 0 0 0 180.45211155167999 22.982729346370434 0 22.982729346370434 52.219937716859931 0 0 0 0 282.97626596407645 74.754629784403733 0 74.754629784403733 14.707901009375746 0 0 0 0 332.22405070289096 152.72021718066662 0 152.72021718066662 101.80600468117655 0 0 0 0 539.77280079451884 63.146293226054695 0 63.146293226054695 83.944291021837671 0 0 0 0 386.803103856284 137.45324267386786 0 137.45324267386786 148.56945602162159 0 0 0 0 350.07062329885593 172.64320118623618 0 172.64320118623618 147.08838869638748 0 0 0 0 30.985985482213437 -100.52751366714665 0 -100.52751366714665 -79.30958788231419 0 0 0 0 134.34772854212906 -108.80949331747257 0 -108.80949331747257 -81.968532004909321 0 0 0 0 148.53308638780436 -96.296375500253816 0 -96.296375500253816 -101.86470002602346 0 0 0 0 115.55232213365161 -42.344201678996797 0 -42.344201678996797 -10.537009472998761 0 0 0 0 208.25973954261008 -24.029859029812087 0 -24.029859029812087 -41.221306738671046 0 0 0 0 193.82655704270655 -7.3203972517794682 0 -7.3203972517794682 -9.2956281645492709 0 0 0 0 118.97438205846083 -88.88326194346746 0 -88.88326194346746 -50.573736408717195 0 0 0 0 185.50843678232923 -90.894789786714682 0 -90.894789786714682 -99.353335968658939 0 0 0 0 315.69008227649874 -10.014530268788121 0 -10.014530268788121 -106.21659324187203 0 0 0 0 298.74654615329746 -149.01797542231873 0 -149.01797542231873 -288.3462941419275 0 0 0 0 278.84186754750408 -21.393780716794026 0 -21.393780716794026 -90.121647590014618 0 0 0 0 311.58706386662743 67.79308348163795 0 67.79308348163795 -166.45664979662797 0 0 0 0 292.93028200868866 71.211617503366142 0 71.211617503366142 -67.962889723502485 0 0 0 0 231.08868195626565 25.001349256633603 0 25.001349256633603 -36.387954064153746 0 0 0 0 258.68649192122393 29.366570211812359 0 29.366570211812359 -42.767932289171767 0 0 0 0 234.81465984295573 64.097580631022083 0 64.097580631022083 22.789500356739154 0 0 0 0 302.85841451670422 93.129668358247727 0 93.129668358247727 -3.2370053093864044 0 0 0 0 272.03162225047799 102.44143920574243 0 102.44143920574243 17.410807235632092 0 0 0 0 320.37683427867159 133.34686854707979 0 133.34686854707979 -12.233535147383009 0 0 0 0 320.87848532116664 162.01358439224919 0 162.01358439224919 24.484510050657263 0 0 0 0 324.23070220044247 188.65544887120996 0 188.65544887120996 5.9259312728745499 0 0 0 0 329.60885794416754 216.65464617647376 0 216.65464617647376 -51.283779027073251 0 0 0 0 318.75422299565832 121.80980555742045 0 121.80980555742045 -101.76757331107365 0 0 0 0 294.53654374799589 80.977983866676368 0 80.977983866676368 -56.082035115749022 0 0 0 0 296.4847485205155 212.69749607922904 0 212.69749607922904 17.795595206705912 0 0 0 0 319.16014141112828 198.07560762967842 0 198.07560762967842 -218.95027754931652 0 0 0 0 40.593892150845932 224.27137688652147 0 224.27137688652147 -166.30358419786353 0 0 0 0 420.03660039474926 136.54342002579051 0 136.54342002579051 -287.41739004230112 0 0 0 0 422.05370149081864 164.61625675083451 0 164.61625675083451 43.352453659001185 0 0 0 0 418.77753868570289 175.61670352964211 0 175.61670352964211 78.854378945074131 0 0 0 0 779.80761011010327 166.89697854981023 0 166.89697854981023 22.755265153988148 0 0 0 0 2.7778992458396061 -1.7280368540672058 0 -1.7280368540672058 -0.6527465153644485 0 0 0 0 386.01277401402513 123.47441089012727 0 123.47441089012727 73.003199803017196 0 0 0 0 384.84563842288117 177.85447064970685 0 177.85447064970685 68.675722676289297 0 0 0 0 271.75523838513618 80.336283384669514 0 80.336283384669514 49.337741448831366 0 0 0 0 287.07020642538555 128.62205876262669 0 128.62205876262669 70.613857270558583 0 0 0 0 356.25333347286505 143.46981600027357 0 143.46981600027357 31.234867552122523 0 0 0 0 353.23931130807614 147.39510665998205 0 147.39510665998205 67.698375167481572 0 0 0 0 314.47983864895286 155.3031301974388 0 155.3031301974388 66.209122116541039 0 0 0 0 349.03230472291762 184.01089414542912 0 184.01089414542912 30.162399313745482 0 0 0 0 323.59925649407887 180.98830462287606 0 180.98830462287606 68.693177084976924 0 0 0 0 350.31372960941007 172.84552601497853 0 172.84552601497853 98.750257480842265 0 0 0 0 -0.66092899000432581 1.7142625521417258 0 1.7142625521417258 2.5157517378860845 0 0 0 0 -142.68547811683402 20.828601457567629 0 20.828601457567629 54.500205643478694 0 0 0 0 615.99308601707889 276.60671637318683 0 276.60671637318683 8.207492557246951 0 0 0 0 402.18362883714508 140.06100971996511 0 140.06100971996511 49.777541064895559 0 0 0 0 -17.301308374906512 76.074087499489906 0 76.074087499489906 36.791432982415245 0 0 0 0 -17.291304129012133 58.684303675564479 0 58.684303675564479 -1.7550618680506886 0 0 0 0 -70.07194091729616 40.010732316662143 0 40.010732316662143 26.195631922291795 0 0 0 0 -128.13722145239444 70.738494919592085 0 70.738494919592085 33.441505134016552 0 0 0 0 -82.034869271745265 86.564665896901715 0 86.564665896901715 4.2776450192031916 0 0 0 0 -67.699291514625656 -68.004547154434476 0 -68.004547154434476 -81.539541792764794 0 0 0 0 132.91758949713403 22.525347454659823 0 22.525347454659823 64.340351799719429 0 0 0 0 -2.8142745224467944 -39.582699713941111 0 -39.582699713941111 102.78651443035051 0 0 0 0 -44.573734503486776 9.6536576306934876 0 9.6536576306934876 65.678247972598911 0 0 0 0 86.52224511217355 58.001804395911677 0 58.001804395911677 41.911724149404108 0 0 0 0 92.526106821770099 14.048130761051198 0 14.048130761051198 230.49994483565024 0 0 0 0 135.29202675445777 79.911901421030962 0 79.911901421030962 -5.2153672827498667 0 0 0 0 43.146462318887643 66.225523184266422 0 66.225523184266422 -7.1588801045913897 0 0 0 0 -13.184686175307434 83.307257324011516 0 83.307257324011516 96.089568311899711 0 0 0 0 44.046245530094893 6.4930085959676944 0 6.4930085959676944 -13.910200380063543 0 0 0 0 186.58542353184384 151.81962288021623 0 151.81962288021623 94.888780951805529 0 0 0 0 237.03867241130138 -41.933752059411745 0 -41.933752059411745 -1.9834008821876523 0 0 0 0 21.552138646429739 -37.946962462306146 0 -37.946962462306146 114.8323472822467 0 0 0 0 12.622351338724911 -5.1530868086415467 0 -5.1530868086415467 20.454620420539868 0 0 0 0 5.1492465963819996 -79.397687387670885 0 -79.397687387670885 -14.860452341765267 0 0 0 0 -0.63555144118436147 -2.6162967727477735 0 -2.6162967727477735 23.781567673595418 0 0 0 0 -6.2089422811113764 -32.591510839928105 0 -32.591510839928105 190.72769027933828 0 0 0 0 33.839795323776343 -29.153848848142843 0 -29.153848848142843 0.8562301518068125 0 0 0 0 -46.198121978486597 -0.17852053662500111 0 -0.17852053662500111 109.0445437228891 0 0 0 0 2.5273154649999725 -1.0258718605326322 0 -1.0258718605326322 -0.14038826343178101 0 0 0 0 467.46041232929201 186.53052529672095 0 186.53052529672095 92.222114590173078 0 0 0 0 297.21874914033833 -83.071118742180261 0 -83.071118742180261 109.58003799911239 0 0 0 0 182.60259483743721 92.555963790573514 0 92.555963790573514 66.105338422619752 0 0 0 0 226.1524375086301 -2.3336045873911644 0 -2.3336045873911644 -31.480793462507791 0 0 0 0 265.8961859789124 101.50336414143385 0 101.50336414143385 53.47697283310481 0 0 0 0 178.67666035193542 72.423345955767218 0 72.423345955767218 105.47421538298863 0 0 0 0 78.206721351540182 22.575246507014526 0 22.575246507014526 19.108581436224085 0 0 0 0 202.40321153036348 51.718684692983516 0 51.718684692983516 1.6030148312202073 0 0 0 0 133.21464947268396 105.44906888188416 0 105.44906888188416 67.702403493782185 0 0 0 0 141.35443406680133 90.176018634881984 0 90.176018634881984 -7.5249542383880907 0 0 0 0 143.68010096725629 8.8358006114112868 0 8.8358006114112868 -81.38923488794353 0 0 0 0 100.88459266314931 -50.979891162901822 0 -50.979891162901822 -18.705235184841513 0 0 0 0 -39.852851993284276 3.479382008300604 0 3.479382008300604 -57.272136451392726 0 0 0 0 116.90560741821537 -64.78389901544142 0 -64.78389901544142 -34.069440116576516 0 0 0 0 222.38819311796397 196.24500855011547 0 196.24500855011547 100.66778975716807 0 0 0 0 -31.288820421068522 -72.072435625164871 0 -72.072435625164871 -15.651777315283653 0 0 0 0 13.285779644992346 -2.2846621522544446 0 -2.2846621522544446 -3.2011333806547881 0 0 0 0 153.64844278740202 158.18097307657081 0 158.18097307657081 135.875932389019 0 0 0 0 192.9435353478184 102.27156956773251 0 102.27156956773251 40.236108592326673 0 0 0 0 165.44416561687831 125.40118065376009 0 125.40118065376009 68.950816423621291 0 0 0 0 132.42415743420133 68.767320669025139 0 68.767320669025139 44.916655915739284 0 0 0 0 169.26924540523032 90.48019519052832 0 90.48019519052832 28.986693037139048 0 0 0 0 127.78998461506853 98.666693489300087 0 98.666693489300087 127.34490295496653 0 0 0 0 135.97784025938017 69.256609997511987 0 69.256609997511987 92.951196925409022 0 0 0 0 106.16135737048899 71.170307346995287 0 71.170307346995287 -101.53043140949455 0 0 0 0 163.96933560244906 124.27677390064343 0 124.27677390064343 17.665783606595141 0 0 0 0 -19.503789619827756 23.398716956981907 0 23.398716956981907 -16.751189976611229 0 0 0 0 136.43794850637096 140.61175455511147 0 140.61175455511147 8.006914699229128 0 0 0 0 143.41549181086884 23.37181471322674 0 23.37181471322674 -47.014126736505204 0 0 0 0 74.637412907773978 63.913031393877645 0 63.913031393877645 35.480191587934996 0 0 0 0 57.565433043513622 53.608062633251848 0 53.608062633251848 9.2566908221706399 0 0 0 0 -42.07578796139569 45.659756883682803 0 45.659756883682803 -21.217826274672916 0 0 0 0 81.042345395762823 -173.79469520704015 0 -173.79469520704015 -215.60205480801596 0 0 0 0 -23.560934241068026 -120.64446761097133 0 -120.64446761097133 -77.414033390896293 0 0 0 0 2.1023400627714182 0.029372597934660405 0 0.029372597934660405 -2.5300992466996011 0 0 0 0 243.25473216496175 263.18397267326145 0 263.18397267326145 163.31725225704054 0 0 0 0 301.46356671667854 180.67159206759879 0 180.67159206759879 50.277618770629488 0 0 0 0 306.5303574416539 126.1789144445429 0 126.1789144445429 47.876579454956072 0 0 0 0 285.59606694797912 236.31442054400645 0 236.31442054400645 270.9884740450052 0 0 0 0 257.05140241725894 160.46786488492125 0 160.46786488492125 112.99760457300908 0 0 0 0 -42.714699732685403 165.25876452606281 0 165.25876452606281 114.73658963202081 0 0 0 0 801.27655519325981 240.74486350799009 0 240.74486350799009 100.56501356927947 0 0 0 0 715.63788922299136 336.0918733640849 0 336.0918733640849 103.01234259165449 0 0 0 0 -212.09543771607059 58.822985244391475 0 58.822985244391475 117.56358707261461 0 0 0 0 0.87038857305892137 -0.70137128476842037 0 -0.70137128476842037 0.60269963767787971 0 0 0 0 -272.773269398298 -84.41522511951689 0 -84.41522511951689 102.80689072098539 0 0 0 0 -13.841603869426763 -68.750338235238814 0 -68.750338235238814 7.9468119967705206 0 0 0 0 37.346541703194816 4.9579355467949426 0 4.9579355467949426 -10.998468961714025 0 0 0 0 86.936435055155016 -58.563048812598936 0 -58.563048812598936 58.96885396748246 0 0 0 0 130.62389155516576 -6.4176800457262289 0 -6.4176800457262289 -178.86573387167687 0 0 0 0 99.493709369453427 -0.38908104274378275 0 -0.38908104274378275 -12.244954794066871 0 0 0 0 515.08570339612925 939.2286885173902 0 939.2286885173902 733.24729315477498 0 0 0 0 13.101657754055097 4.9384087401054764 0 4.9384087401054764 2.3285670476063247 0 0 0 0 289.26917384475746 -314.38790472425853 0 -314.38790472425853 247.66312214306697 0 0 0 0 3493.296626104242 676.06658825439388 0 676.06658825439388 -251.43188365161086 0 0 0 0 1101.758826605168 -177.62164035378598 0 -177.62164035378598 -291.96739631268565 0 0 0 0 1020.6031326787706 -1536.5894550996402 0 -1536.5894550996402 971.423705320208 0 0 0 0 3496.0387020811659 -562.65443788912523 0 -562.65443788912523 -316.19822841004759 0 0 0 0 1092.550730947165 -397.20996037701644 0 -397.20996037701644 -612.95697440734477 0 0 0 0 192.63664933104519 187.48875417922676 0 187.48875417922676 324.77534257067867 0 0 0 0 1159.5254071642585 71.378136802000881 0 71.378136802000881 175.1068753038177 0 0 0 0 238.69592965314587 28.490231171657925 0 28.490231171657925 -236.60745309407446 0 0 0 0 40.248279433292453 8.0037589354117706 0 8.0037589354117706 1.4773114103416618 0 0 0 0 -71.225716331478907 128.98082938787536 0 128.98082938787536 350.03687152847863 0 0 0 0 -28.584619922788988 -41.439393186980794 0 -41.439393186980794 251.94141150450528 0 0 0 0 90.530185252151568 26.491085616865661 0 26.491085616865661 194.62279807199525 0 0 0 0 58.766987673414405 53.704064204877341 0 53.704064204877341 582.67166785791414 0 0 0 0 244.42124642472481 -137.04450462780187 0 -137.04450462780187 -100.51559493558091 0 0 0 0 -0.73839103111095028 -98.503141394981071 0 -98.503141394981071 264.12293603597107 0 0 0 0 -15.012615201882909 -34.332775016295003 0 -34.332775016295003 18.737976197486205 0 0 0 0 23.180407500010915 -16.209048719638588 0 -16.209048719638588 169.26587271056337 0 0 0 0 4.6470652027716994 -4.1011482455670532 0 -4.1011482455670532 2.4252750803159162 0 0 0 0 102.36214570295124 64.653945968310836 0 64.653945968310836 48.579314846198031 0 0 0 0 22.743649253196054 -10.887541058420027 0 -10.887541058420027 115.81647038800929 0 0 0 0 13.045823413905026 -6.7758518279739022 0 -6.7758518279739022 5.1808144145145274 0 0 0 0 161.28316310011178 57.065104406938644 0 57.065104406938644 -93.983286365698859 0 0 0 0 21.863013078444055 69.60686451995042 0 69.60686451995042 165.22100553022119 0 0 0 0 31.814192321588052 43.845653423241004 0 43.845653423241004 120.10710931741596 0 0 0 0 -25.450330314211897 -7.4643594391494617 0 -7.4643594391494617 169.31765258676202 0 0 0 0 4.4783094182930654 22.767559098297482 0 22.767559098297482 197.99182104857596 0 0 0 0 -42.694139324183197 118.79043271048035 0 118.79043271048035 135.43835203061565 0 0 0 0 -4.7946890448074555 50.95684337550216 0 50.95684337550216 206.47164669574255 0 0 0 0 45.464078525736113 -12.63021709076304 0 -12.63021709076304 -44.222922539650995 0 0 0 0 38.79966265729982 6.6084037947294263 0 6.6084037947294263 0.17027884086512254 0 0 0 0 22.085427374753635 28.958799427753618 0 28.958799427753618 -34.607010978615719 0 0 0 0 42.105404502173769 -46.56305657350574 0 -46.56305657350574 27.491453464602166 0 0 0 0 16.529540593127479 -14.134816890545252 0 -14.134816890545252 -7.2236385228409032 0 0 0 0 2.8131698075058011 -7.1058049232323484 0 -7.1058049232323484 -1.5330725090677857 0 0 0 0 4.8772931700368645 10.383842893163372 0 10.383842893163372 -18.229058606840461 0 0 0 0 75.42022611903667 -57.952685299113547 0 -57.952685299113547 47.368102249309729 0 0 0 0 83.462361208250513 -14.393054479776595 0 -14.393054479776595 31.98311011941172 0 0 0 0 0.090826494895736687 6.5144757256852586 0 6.5144757256852586 97.390535662032676 0 0 0 0 2.0315878029855412 55.923676300097988 0 55.923676300097988 141.04212768100456 0 0 0 0 26.529420368489809 70.55438447950462 0 70.55438447950462 245.140497401679 0 0 0 0 8.1529110995700194 0.70479021654740848 0 0.70479021654740848 -0.63091978922700853 0 0 0 0 -4.596688037734566 59.211661994481631 0 59.211661994481631 243.68906187140874 0 0 0 0 42.941802332461521 124.24061480528741 0 124.24061480528741 290.15634694844772 0 0 0 0 24.170960542061948 131.95723250069295 0 131.95723250069295 422.93313900578465 0 0 0 0 78.352553708366031 -94.465925747758433 0 -94.465925747758433 422.88297379608514 0 0 0 0 67.43777504330501 -21.084572082274008 0 -21.084572082274008 124.64272824536988 0 0 0 0 18.351471860238235 -23.49611635540009 0 -23.49611635540009 270.65314258892045 0 0 0 0 76.609925659082364 -48.551706213369016 0 -48.551706213369016 95.955819179130003 0 0 0 0 82.930868048188586 -7.0021178907439801 0 -7.0021178907439801 105.70501998633688 0 0 0 0 195.79971767489042 -56.049474063686738 0 -56.049474063686738 9.2735007687945981 0 0 0 0 273.11537110536301 -157.83405355546671 0 -157.83405355546671 49.185872904323901 0 0 0 0 170.12896957393423 21.266853777614472 0 21.266853777614472 -71.380966303904032 0 0 0 0 96.345550522426493 88.052682451610622 0 88.052682451610622 830.8545462793918 0 0 0 0 0.6286267628776141 -0.81362579705927374 0 -0.81362579705927374 -2.2711993421505903 0 0 0 0 407.37044843176773 -6.3466442531949383 0 -6.3466442531949383 699.84352070963268 0 0 0 0 305.72339698759606 -7.5850878163537345 0 -7.5850878163537345 265.01539955197313 0 0 0 0 537.23353015986504 399.90838423204468 0 399.90838423204468 580.36691375764576 0 0 0 0 438.543249228489 78.830190638559088 0 78.830190638559088 -157.28092997111526 0 0 0 0 336.16524518877486 52.664918912137068 0 52.664918912137068 83.988079347789608 0 0 0 0 337.75225621279969 146.12202205173685 0 146.12202205173685 -181.04008251158757 0 0 0 0 288.39428510468861 80.519204091957363 0 80.519204091957363 170.80168647629489 0 0 0 0 509.54808157413208 220.69347761449762 0 220.69347761449762 43.898240764930506 0 0 0 0 4.1480608192326258 -2.2576601550133688 0 -2.2576601550133688 1.4847132471595463 0 0 0 0 232.04594271922724 251.66406810951793 0 251.66406810951793 146.58147159979308 0 0 0 0 58.107345923803223 71.714830376049576 0 71.714830376049576 141.79859400769118 0 0 0 0 107.79978331915089 -17.142661242704712 0 -17.142661242704712 -1.3125326329461489 0 0 0 0 68.980258245375808 -139.58809031459896 0 -139.58809031459896 -182.6923176726184 0 0 0 0 231.10005371113948 -131.17123714158924 0 -131.17123714158924 -348.02642062797781 0 0 0 0 59.433047465206982 -55.959486077930251 0 -55.959486077930251 -42.674620513810623 0 0 0 0 -7.9716822821646929 -127.60021064220746 0 -127.60021064220746 -35.908352459987327 0 0 0 0 63.179096851934275 -104.70923207040248 0 -104.70923207040248 -42.889045273833744 0 0 0 0 135.23951121964092 -83.284345282244431 0 -83.284345282244431 -36.614158500287886 0 0 0 0 -42.750346293334587 -132.81013319358863 0 -132.81013319358863 86.323560287835107 0 0 0 0 36.12242552560383 -55.228694866135356 0 -55.228694866135356 76.696920864247659 0 0 0 0 85.902353906279586 -182.25625011944453 0 -182.25625011944453 -35.045925914278996 0 0 0 0 -62.213653043047088 -269.45798106000439 0 -269.45798106000439 -86.276367914533694 0 0 0 0 -469.28612791997148 -860.3506424608313 0 -860.3506424608313 -68.274284130005981 0 0 0 0 315.86831196958883 -233.56748565853559 0 -233.56748565853559 -92.046539561297777 0 0 0 0 1.2824369844503281 -1.5021870591105788 0 -1.5021870591105788 -2.0602755115639901 0 0 0 0 295.89159890879455 263.96994216271924 0 263.96994216271924 -1251.1112319385038 0 0 0 0 -169.70301416312986 -574.19864425913624 0 -574.19864425913624 -215.62226260816533 0 0 0 0 786.19379106824636 6.6018312532523851 0 6.6018312532523851 -260.01777823164412 0 0 0 0 787.76121144109493 -582.24306176973914 0 -582.24306176973914 -317.05717178062787 0 0 0 0 -42.02097720526217 -300.11156007173122 0 -300.11156007173122 -653.34193259775202 0 0 0 0 261.82107171538519 132.13264882685689 0 132.13264882685689 -271.63010419324019 0 0 0 0 -16.643797907499902 308.11500424547921 0 308.11500424547921 -674.68446162424289 0 0 0 0 -147.8578893982035 41.894047053401664 0 41.894047053401664 -239.39238567921711 0 0 0 0 246.7168492140554 -224.11459664567337 0 -224.11459664567337 -351.78789002925896 0 0 0 0 199.79018797966637 -250.7831985985249 0 -250.7831985985249 -450.3641271734441 0 0 0 0 -245.77724995007884 -204.17881879332344 0 -204.17881879332344 63.547255577466785 0 0 0 0 -5.8540869879543607 -2.1803509643000254 0 -2.1803509643000254 -1.3827762093360469 0 0 0 0 180.91281168098067 238.79153800369204 0 238.79153800369204 644.17479336172619 0 0 0 0 151.43906664561746 -156.37487374320381 0 -156.37487374320381 -356.54431287489388 0 0 0 0 3.2926824796741556 -3.0701497666015563 0 -3.0701497666015563 -5.3491306696711725 0 0 0 0 82.139262074051658 30.987316832667602 0 30.987316832667602 -434.88601084504808 0 0 0 0 257.90921683684792 -9.6506359443519614 0 -9.6506359443519614 -196.91860797461868 0 0 0 0 71.655466522584902 -228.93836068985638 0 -228.93836068985638 235.48769210365754 0 0 0 0 -1.2091418156607006 -2.0942272524371504 0 -2.0942272524371504 -1.9257199286504516 0 0 0 0 274.25442953225684 -247.86618079546497 0 -247.86618079546497 -220.24895915620937 0 0 0 0 -90.159699335570622 -260.36474446360444 0 -260.36474446360444 -208.0305171596392 0 0 0 0 86.508931891305679 -89.127185038272955 0 -89.127185038272955 -54.453114377471138 0 0 0 0 12.734797189292195 -11.569422920114164 0 -11.569422920114164 0.62702971720815448 0 0 0 0 64.351730750591742 47.968716446721373 0 47.968716446721373 38.371467188728957 0 0 0 0 -9.0436587244753355 -435.73417150851037 0 -435.73417150851037 147.4618715531833 0 0 0 0 107.15017404406892 -14.823381615956073 0 -14.823381615956073 -2.7075863751753957 0 0 0 0 4.4199430199528962 -16.396953375944676 0 -16.396953375944676 -8.5687096987198146 0 0 0 0 49.855069030241481 -15.956924229080585 0 -15.956924229080585 5.7413117524289534 0 0 0 0 66.609186270091257 -14.242218713103178 0 -14.242218713103178 9.6106857364036919 0 0 0 0 47.595265285273022 -19.951644079849835 0 -19.951644079849835 6.7019439243080861 0 0 0 0 119.66995268906658 -105.74901385321004 0 -105.74901385321004 5.0208223441404698 0 0 0 0 43.537388603519503 -16.0802508725385 0 -16.0802508725385 -7.9456873942699531 0 0 0 0 120.46304557283293 -79.664455412309962 0 -79.664455412309962 15.630171674660247 0 0 0 0 151.77533907489124 38.561192935456916 0 38.561192935456916 -21.975096283406856 0 0 0 0 13.894672636597534 -20.946168813023178 0 -20.946168813023178 -14.787757010532005 0 0 0 0 19.528556804085383 -18.126159539870059 0 -18.126159539870059 -4.5400084889242862 0 0 0 0 16.309448541814561 -8.6328425217175351 0 -8.6328425217175351 11.1043718295091 0 0 0 0 57.271731516089957 -25.577007969149648 0 -25.577007969149648 19.751146610602621 0 0 0 0 99.469570160203148 -24.665216359330771 0 -24.665216359330771 -31.178815922172362 0 0 0 0 44.579683526632053 -65.216007689193916 0 -65.216007689193916 23.065254872743388 0 0 0 0 58.130326311830203 -2.6347771618786169 0 -2.6347771618786169 -2.0640278177349565 0 0 0 0 56.433971400329128 -23.670106466727319 0 -23.670106466727319 2.0013709489156151 0 0 0 0 15.853011690021958 -27.372985378970043 0 -27.372985378970043 -55.01818043523599 0 0 0 0 16.351595260681094 -0.12454984730318586 0 -0.12454984730318586 -2.3037738519438253 0 0 0 0 144.27573339330411 31.671609484650688 0 31.671609484650688 21.062917450597496 0 0 0 0 30.211115676438368 8.1688995112638345 0 8.1688995112638345 6.9330628520752615 0 0 0 0 48.863307871921279 -15.084124364567714 0 -15.084124364567714 -130.62421184129198 0 0 0 0 -56.344670152222534 -6.1858276926525768 0 -6.1858276926525768 27.68123303576958 0 0 0 0 44.979365082852176 -3.765378929302571 0 -3.765378929302571 11.330455117983687 0 0 0 0 63.259048364197952 -26.701876016542428 0 -26.701876016542428 12.16783968735399 0 0 0 0 29.355067266935606 -14.739547063516746 0 -14.739547063516746 10.802973696111229 0 0 0 0 34.512204979638227 -18.147049801960293 0 -18.147049801960293 10.821678762261399 0 0 0 0 138.35623214705265 -34.447758836676954 0 -34.447758836676954 14.343921323240238 0 0 0 0 36.839935495971389 -6.465628111853313 0 -6.465628111853313 -5.3926968486202753 0 0 0 0 -5.9748485887592722 -0.50090916228724325 0 -0.50090916228724325 7.4364500905413315 0 0 0 0 51.773090058351954 -49.323626299990792 0 -49.323626299990792 77.931745786123429 0 0 0 0 70.091217425240757 -83.198573658715759 0 -83.198573658715759 -33.801949443790363 0 0 0 0 -2.8273161915021774 -126.13347370078918 0 -126.13347370078918 -36.445920101463344 0 0 0 0 77.455204536890051 14.738174023691954 0 14.738174023691954 73.250185745931958 0 0 0 0 7.5762850935425377 -66.003581613786082 0 -66.003581613786082 100.32744375419861 0 0 0 0 60.218507188041258 50.51603458223326 0 50.51603458223326 171.61201967602028 0 0 0 0 15.153830276234658 -25.086833457038665 0 -25.086833457038665 -13.529015325908404 0 0 0 0 34.248494347681842 -24.167867869786981 0 -24.167867869786981 7.7436684234984341 0 0 0 0 -114.00323022510565 -5.5974243111440956 0 -5.5974243111440956 -49.840371235242856 0 0 0 0 34.064367557366495 -27.813131196314316 0 -27.813131196314316 -273.38386237151281 0 0 0 0 -241.77174654879536 -294.11657231654272 0 -294.11657231654272 270.65259149625854 0 0 0 0 -229.51383103511307 -283.21419095820056 0 -283.21419095820056 -43.300657733881962 0 0 0 0 -92.523405885745888 -144.91725317959572 0 -144.91725317959572 58.440657675411785 0 0 0 0 -14.293294628052536 3.7474747978567393 0 3.7474747978567393 27.417642859385523 0 0 0 0 129.67689773306483 -166.65980558271258 0 -166.65980558271258 -26.820349519985029 0 0 0 0 -3.0605884117789994 -15.603889223410373 0 -15.603889223410373 11.296157868353724 0 0 0 0 -14.155674147652462 -2.5357611984691175 0 -2.5357611984691175 10.921608245946118 0 0 0 0 6.0594290442271515 -11.74136163773376 0 -11.74136163773376 19.922408509006218 0 0 0 0 -1.4142399009952769 2.3000989363797473 0 2.3000989363797473 20.002312826377711 0 0 0 0 -6.0628934046046794 0.88273513731806474 0 0.88273513731806474 11.644679430172562 0 0 0 0 26.138521651790143 3.7591831299760088 0 3.7591831299760088 5.6629277562751668 0 0 0 0 133.10795469230379 37.446638192450337 0 37.446638192450337 -88.717038043072534 0 0 0 0 17.783334750536596 -12.546114992843286 0 -12.546114992843286 11.009585301148036 0 0 0 0 27.861401549904258 -32.459039833571296 0 -32.459039833571296 35.170183640578216 0 0 0 0 15.081939976251412 -21.029296320562494 0 -21.029296320562494 18.531276092427852 0 0 0 0 7.3554630801460874 -4.1278891938548767 0 -4.1278891938548767 1.4646591063665788 0 0 0 0 10.603893480079023 6.66845039047098 0 6.66845039047098 40.276487272047234 0 0 0 0 35.676478584042343 -9.6512564849958835 0 -9.6512564849958835 13.322328771284447 0 0 0 0 291.12477605891763 65.742593625532322 0 65.742593625532322 42.340556498141609 0 0 0 0 19.468677278995983 -3.3415432913052427 0 -3.3415432913052427 21.516523752863577 0 0 0 0 5.8383353700444545 -1.8091930086560666 0 -1.8091930086560666 14.753329012812612 0 0 0 0 7.864713276193207 2.3933537046220437 0 2.3933537046220437 9.4416823617244514 0 0 0 0 907.21558968740828 -937.06837430957694 0 -937.06837430957694 496.10046698910548 0 0 0 0 20.210397435119376 -11.08413167556364 0 -11.08413167556364 27.542810100902898 0 0 0 0 54.588490055210059 229.6564751779749 0 229.6564751779749 291.25440212307268 0 0 0 0 2.8289698341628942 3.0747492893130612 0 3.0747492893130612 15.496927544712113 0 0 0 0 2386.9567684223221 -553.4254101244768 0 -553.4254101244768 -306.091194374412 0 0 0 0 1428.1911349028524 -454.90717540288728 0 -454.90717540288728 92.957564462214037 0 0 0 0 1506.8186307487704 -148.16483389066397 0 -148.16483389066397 -375.3210863803256 0 0 0 0 2381.3621052352428 -583.53111892231004 0 -583.53111892231004 -99.017022438204009 0 0 0 0 3494.42474173339 -1129.8214238079115 0 -1129.8214238079115 -537.10311055033014 0 0 0 0 1215.8626111821632 -1410.475560986421 0 -1410.475560986421 1317.9062691467097 0 0 0 0 13.585900303964408 -4.1216888093946356 0 -4.1216888093946356 5.4782009664345104 0 0 0 0 1142.0415604804439 977.31994901733435 0 977.31994901733435 889.22838180818314 0 0 0 0 3497.007074572387 183.56545163472825 0 183.56545163472825 -295.75672747834193 0 0 0 0 20.87370500203906 5.4334749767776884 0 5.4334749767776884 37.539153597925178 0 0 0 0 10.040728997756183 -5.7061739559693194 0 -5.7061739559693194 1.8352364394291449 0 0 0 0 -62.102154072214034 -0.66306757056915444 0 -0.66306757056915444 161.96826447174408 0 0 0 0 276.84981658401739 186.75671091976324 0 186.75671091976324 147.08360493752397 0 0 0 0 647.77985839122266 2.7529029088676964 0 2.7529029088676964 -220.26097231816991 0 0 0 0 3491.6216414690498 -725.98411973646421 0 -725.98411973646421 -95.699005251959989 0 0 0 0 3456.1525818701139 144.76942237103441 0 144.76942237103441 13.718054428868442 0 0 0 0 -435.31939118248738 66.152379467274386 0 66.152379467274386 334.86602828495779 0 0 0 0 8.3871751562859895 8.6427621686317053 0 8.6427621686317053 26.467747616267665 0 0 0 0 -248.1127530525473 -23.251581430311944 0 -23.251581430311944 -98.478055032885095 0 0 0 0 99.17503804381704 205.26878795237644 0 205.26878795237644 -199.19369786633979 0 0 0 0 -146.9019045446621 -24.22560303460159 0 -24.22560303460159 240.25879610661286 0 0 0 0 -40.933648924637964 26.779020996022155 0 26.779020996022155 544.76496865719309 0 0 0 0 -224.25889461104089 387.06198435238912 0 387.06198435238912 203.51560915580103 0 0 0 0 409.14880557700235 -186.52438393634566 0 -186.52438393634566 436.53662686186726 0 0 0 0 42.42213656144304 -115.69210054200448 0 -115.69210054200448 595.38288641159124 0 0 0 0 475.95014919810637 -315.65389581277668 0 -315.65389581277668 512.78086021434683 0 0 0 0 -221.59912940279537 104.53070426843533 0 104.53070426843533 352.58955308622535 0 0 0 0 162.49486310151406 61.483526980506213 0 61.483526980506213 253.21499760401457 0 0 0 0 233.05997461668449 -63.526474178104763 0 -63.526474178104763 361.67136198364665 0 0 0 0 -100.59539617835981 144.18294607215284 0 144.18294607215284 330.82449130892201 0 0 0 0 -241.30895054629582 236.81293836064151 0 236.81293836064151 254.12824681963593 0 0 0 0 462.48213732287877 -37.149873115111859 0 -37.149873115111859 -129.20584235844035 0 0 0 0 847.00922608916881 -799.15467652519692 0 -799.15467652519692 737.37686401231258 0 0 0 0 365.29516163829976 -384.98514746860565 0 -384.98514746860565 678.90442618069574 0 0 0 0 163.43767868172108 -222.79599884807749 0 -222.79599884807749 551.39870147625697 0 0 0 0 597.24265335472592 -396.46181291632092 0 -396.46181291632092 354.06264090205332 0 0 0 0 654.57950396999513 -611.38511390325675 0 -611.38511390325675 528.16983093902854 0 0 0 0 1005.9900292703751 -967.8643932934765 0 -967.8643932934765 537.86363647645157 0 0 0 0 1011.0261595380662 -969.00396230596789 0 -969.00396230596789 678.10529597560162 0 0 0 0 1020.3937154121577 -727.27982226850793 0 -727.27982226850793 252.69988369035491 0 0 0 0 846.89159934760391 -544.10310267310615 0 -544.10310267310615 18.883825435065091 0 0 0 0 3499.586994307334 136.4788731796217 0 136.4788731796217 -97.724271141390631 0 0 0 0 3290.6917170717097 238.63321505480309 0 238.63321505480309 329.51971648781966 0 0 0 0 997.90889267412877 -853.87720766235282 0 -853.87720766235282 591.12858659646372 0 0 0 0 2.2034770990138011 1.3284612625512082 0 1.3284612625512082 11.286796849620499 0 0 0 0 3500.3186965621358 -113.26288330168408 0 -113.26288330168408 897.53104011615756 0 0 0 0 2889.2048383264737 -870.19195822575762 0 -870.19195822575762 -29.312611647137601 0 0 0 0 1.1056116683535784 2.6738224720004524 0 2.6738224720004524 1.2000459431363717 0 0 0 0 1030.8944830143082 -585.05632898439421 0 -585.05632898439421 396.6473731683767 0 0 0 0 216.55223430613478 -587.65991554246341 0 -587.65991554246341 669.18324247402143 0 0 0 0 2703.8796686681299 -81.212789937350109 0 -81.212789937350109 106.7822452891094 0 0 0 0 826.24202269307716 -703.56687955239568 0 -703.56687955239568 1136.4419111935033 0 0 0 0 1358.0263714143584 62.828903856092666 0 62.828903856092666 1131.5432941242241 0 0 0 0 838.50032440703217 -656.61868922808389 0 -656.61868922808389 549.98333140796058 0 0 0 0 891.22827724898889 -588.36470158262864 0 -588.36470158262864 605.21414972260663 0 0 0 0 1040.0617735595915 -825.95226691331982 0 -825.95226691331982 335.25900560647915 0 0 0 0 856.31642380411358 -790.23344686012206 0 -790.23344686012206 656.81319689662723 0 0 0 0 900.27193142350006 -804.55633324870269 0 -804.55633324870269 519.6334691994125 0 0 0 0 1167.6298793187016 -860.35590800494629 0 -860.35590800494629 530.93568208890974 0 0 0 0 1303.8129011425262 -1019.904939274099 0 -1019.904939274099 497.85261090023414 0 0 0 0 1659.6695340504812 -680.86928689550405 0 -680.86928689550405 333.9131391687406 0 0 0 0 1856.4731993551832 -1013.9885324495663 0 -1013.9885324495663 292.19472474145368 0 0 0 0 2483.4423247044833 -581.03579814815248 0 -581.03579814815248 -54.62562711919054 0 0 0 0 2076.3034755555273 -288.48708231191313 0 -288.48708231191313 -33.121110097621568 0 0 0 0 1708.3865196691549 -709.90207370399594 0 -709.90207370399594 297.05137495929011 0 0 0 0 2597.5251476831181 -926.26166358779847 0 -926.26166358779847 -44.487625076406403 0 0 0 0 949.41163013358891 -62.805541373125379 0 -62.805541373125379 133.42762947610845 0 0 0 0 1105.9235934296594 -567.55079483357076 0 -567.55079483357076 267.1342614598716 0 0 0 0 1162.3206335398863 -661.17639877071542 0 -661.17639877071542 335.60582011138831 0 0 0 0 1668.5989112871466 -218.92420904286882 0 -218.92420904286882 -40.408906655957253 0 0 0 0 677.19284515889012 -506.13459042987097 0 -506.13459042987097 491.99827851675082 0 0 0 0 -6.4541402054099883 -16.420109224956413 0 -16.420109224956413 -10.405419559635369 0 0 0 0 -10.482853411715041 0.24395352422834549 0 0.24395352422834549 29.249287109698344 0 0 0 0 -131.65165312277895 -5.0760705897782827 0 -5.0760705897782827 203.8763974644753 0 0 0 0 -12.892277710223425 -10.831435878179946 0 -10.831435878179946 23.488291682777344 0 0 0 0 -294.96296096785409 -86.927515280174703 0 -86.927515280174703 102.48639268910711 0 0 0 0 -1.8800238814962711 2.7299788080478748 0 2.7299788080478748 27.912071011686422 0 0 0 0 -0.90165220831829274 -0.98990349355082685 0 -0.98990349355082685 24.825847728737131 0 0 0 0 260.21841957436118 -246.93800432357716 0 -246.93800432357716 594.55647515801411 0 0 0 0 -175.8715579057789 -41.851171191759931 0 -41.851171191759931 0.7676838189127011 0 0 0 0 -264.23227673829388 -128.98935398509821 0 -128.98935398509821 106.3251608262035 0 0 0 0 -275.5296599251069 -97.375843023498874 0 -97.375843023498874 328.42414087715952 0 0 0 0 162.05785414925413 -152.26210363437167 0 -152.26210363437167 -328.29971164981907 0 0 0 0 -667.18657172164603 208.57461023178075 0 208.57461023178075 111.40975064053055 0 0 0 0 -6.8079970803657517 -7.0238515368485608 0 -7.0238515368485608 -5.894336808390463 0 0 0 0 -301.99184529243576 36.639192886250839 0 36.639192886250839 361.48188535616828 0 0 0 0 343.75962507084353 -834.98563898728446 0 -834.98563898728446 1314.9699842294795 0 0 0 0 2355.9909215480184 -1712.9070976594676 0 -1712.9070976594676 599.8495541738157 0 0 0 0 9.1570815730392496 11.822317217342061 0 11.822317217342061 12.652330381428328 0 0 0 0 -0.73843125365154449 0.40035900485224829 0 0.40035900485224829 10.226055305384335 0 0 0 0 1.273062435913765 -0.65232116237763194 0 -0.65232116237763194 9.1317337681633894 0 0 0 0 2573.2390907105646 -1296.051870537457 0 -1296.051870537457 98.399085488148557 0 0 0 0 2161.3637559253257 -1260.0687526559395 0 -1260.0687526559395 337.01328609971824 0 0 0 0 2105.5482054980603 -1423.2251357774908 0 -1423.2251357774908 464.81277983520704 0 0 0 0 2073.6405431467374 -1585.5567743628899 0 -1585.5567743628899 556.99157361163816 0 0 0 0 1801.3065822117278 -1309.0973502496599 0 -1309.0973502496599 528.04227614463889 0 0 0 0 1873.0219907105493 -1527.4301386183297 0 -1527.4301386183297 723.66706886839529 0 0 0 0 1430.9298312584724 -904.72758176821299 0 -904.72758176821299 464.76451835383068 0 0 0 0 1650.8050651824087 -1190.7306328230861 0 -1190.7306328230861 572.16831704099968 0 0 0 0 1903.5049161832721 -1059.6831959648498 0 -1059.6831959648498 342.67071955793472 0 0 0 0 2103.0627655481512 -1087.1853629655961 0 -1087.1853629655961 294.77388456835615 0 0 0 0 1891.6401991630264 -1210.3657362434569 0 -1210.3657362434569 356.01943841682532 0 0 0 0 1447.2947978689917 -1048.8969796014626 0 -1048.8969796014626 554.85567455714727 0 0 0 0 1631.1351636978798 -1364.6393920277296 0 -1364.6393920277296 717.42721048828389 0 0 0 0 1338.371713541077 -1092.983612688 0 -1092.983612688 638.02561551146027 0 0 0 0 872.59132396819768 -799.1971671925312 0 -799.1971671925312 690.21029313614054 0 0 0 0 1253.3138673540525 -1199.9945421552711 0 -1199.9945421552711 827.29060913159628 0 0 0 0 1269.1929661946197 -1153.0793972873198 0 -1153.0793972873198 957.31190140135368 0 0 0 0 808.27913447248284 -711.37330036743515 0 -711.37330036743515 924.42638788535442 0 0 0 0 1745.8038009354677 -2023.5678895028532 0 -2023.5678895028532 1767.2307012392121 0 0 0 0 1851.1061560518174 -1721.0792568095167 0 -1721.0792568095167 993.7319795407966 0 0 0 0 1798.3264742493484 -1515.3931862087138 0 -1515.3931862087138 736.53379395736556 0 0 0 0 1706.102722486743 -1459.7230237868134 0 -1459.7230237868134 716.799637252092 0 0 0 0 1719.9799323421612 -1411.1282804091243 0 -1411.1282804091243 740.82202522983425 0 0 0 0 1508.1501453640085 -1558.8177923044059 0 -1558.8177923044059 1222.5486801478764 0 0 0 0 1129.4625091740745 -1247.7229305783439 0 -1247.7229305783439 1130.0530149400311 0 0 0 0 1389.7976142386033 -1692.6120545146314 0 -1692.6120545146314 1799.8818796730775 0 0 0 0 1149.2517859785803 -1528.8364707452338 0 -1528.8364707452338 2398.1059432139155 0 0 0 0 976.29134862719366 -1100.7849230957399 0 -1100.7849230957399 1509.9687630678382 0 0 0 0 981.07273031130899 -1152.6688051044457 0 -1152.6688051044457 1632.3175059055357 0 0 0 0 803.55609058601431 -562.76619665270402 0 -562.76619665270402 1031.3863976915309 0 0 0 0 820.20215535671741 -847.92990061034106 0 -847.92990061034106 2117.0882990070568 0 0 0 0 1115.5531331958337 -599.54432073563476 0 -599.54432073563476 1101.3255911068154 0 0 0 0 1052.5691464141855 -259.84573343069133 0 -259.84573343069133 2318.9028985373589 0 0 0 0 742.15854051369388 -744.75042644007226 0 -744.75042644007226 929.09492457178931 0 0 0 0 683.01667157110569 -642.64231891927284 0 -642.64231891927284 1012.9117807262319 0 0 0 0 228.2769108276043 -242.21938647745264 0 -242.21938647745264 875.44022541154209 0 0 0 0 566.67365121609328 -275.85488633162367 0 -275.85488633162367 1283.8617893954324 0 0 0 0 769.57118764952611 44.835799835937905 0 44.835799835937905 459.50611606902567 0 0 0 0 343.54252998806737 -776.46570709350442 0 -776.46570709350442 1198.3911907849706 0 0 0 0 1220.9278535351077 -695.59533632756393 0 -695.59533632756393 417.2153185593088 0 0 0 0 699.77939285335015 -474.16329087022677 0 -474.16329087022677 948.295180621692 0 0 0 0 292.40179446343791 -1045.9584326281019 0 -1045.9584326281019 1022.1711389115098 0 0 0 0 236.32496275547965 -807.22130016515985 0 -807.22130016515985 1305.655453088948 0 0 0 0 795.3634778079504 -1034.0945339526352 0 -1034.0945339526352 1232.9037649056809 0 0 0 0 1045.7240733195504 -1394.3884817423095 0 -1394.3884817423095 3062.9684140395984 0 0 0 0 1056.5398832679493 -351.92404332213482 0 -351.92404332213482 3199.252462683573 0 0 0 0 1869.4952083882381 -374.70022560875805 0 -374.70022560875805 956.16708309499199 0 0 0 0 -458.15662179643004 -454.14770989735825 0 -454.14770989735825 564.01388482821676 0 0 0 0 122.23291939614319 -462.16701599138651 0 -462.16701599138651 499.4938783951302 0 0 0 0 -325.53524543562162 -731.53742973697081 0 -731.53742973697081 862.77036518199293 0 0 0 0 183.4670504198657 -147.74914381904 0 -147.74914381904 476.75690218021282 0 0 0 0 494.01738923160519 -410.7658523416153 0 -410.7658523416153 628.62577653970038 0 0 0 0 531.62936099583749 -275.64317264803231 0 -275.64317264803231 332.60043201294229 0 0 0 0 398.70490325472929 -298.50409685079558 0 -298.50409685079558 8.9267464578460931 0 0 0 0 -62.61861717672582 14.79514986320919 0 14.79514986320919 259.6173854976787 0 0 0 0 -1144.0589755518913 434.53011366868577 0 434.53011366868577 88.795283491774171 0 0 0 0 -1.3650705247790569 -1.6855007445955721 0 -1.6855007445955721 -1.7402695465015086 0 0 0 0 -216.02758456183255 -241.9978678881007 0 -241.9978678881007 7.671804723949208 0 0 0 0 -196.03012754601696 34.589878878537093 0 34.589878878537093 188.40903593673829 0 0 0 0 281.89596138548768 -394.70970400427905 0 -394.70970400427905 167.44562280767423 0 0 0 0 152.06764694316917 -409.4539837865068 0 -409.4539837865068 188.34615510483309 0 0 0 0 -1.5722793188218347 -3.2913868108439317 0 -3.2913868108439317 -2.6924438164237259 0 0 0 0 -141.79775972364769 -121.55989311477288 0 -121.55989311477288 202.90172268233437 0 0 0 0 747.30197243310977 -48.880771623109467 0 -48.880771623109467 334.71347625161729 0 0 0 0 0.47950322564106784 -1.3204982224263873 0 -1.3204982224263873 -1.3500768025652263 0 0 0 0 127.38669676299651 -388.05943540227054 0 -388.05943540227054 437.23985553604598 0 0 0 0 50.375266082008238 -135.07707453437069 0 -135.07707453437069 -46.407900880089073 0 0 0 0 575.29470531069273 -305.57301490259306 0 -305.57301490259306 -40.050905552398035 0 0 0 0 174.78727790400808 30.204761747789235 0 30.204761747789235 -97.874227881722618 0 0 0 0 352.29096008935085 -54.815090670374957 0 -54.815090670374957 78.636823948192614 0 0 0 0 250.33561113979522 309.51207553153381 0 309.51207553153381 285.83775708527173 0 0 0 0 623.41059333154408 229.44368354540529 0 229.44368354540529 -9.9851561078612576 0 0 0 0 840.85626328744911 341.12507436181295 0 341.12507436181295 1670.8445841534012 0 0 0 0 760.07360362913732 589.2989457519393 0 589.2989457519393 437.9544305296622 0 0 0 0 1248.8625182431897 -45.679401650375439 0 -45.679401650375439 60.346045509025316 0 0 0 0 152.42265289067836 293.09220202948472 0 293.09220202948472 766.75988701128517 0 0 0 0 1486.872827548154 -209.29040979824094 0 -209.29040979824094 -240.7249536096042 0 0 0 0 6.6888630026936582 1.3530079187349422 0 1.3530079187349422 10.575527357364187 0 0 0 0 986.00580401100524 91.740948766769179 0 91.740948766769179 200.41195406738962 0 0 0 0 402.29970862059622 -157.95868051677877 0 -157.95868051677877 325.30298654460057 0 0 0 0 523.00915660802571 -109.9412496159095 0 -109.9412496159095 269.38747227157364 0 0 0 0 1048.9042026961069 -142.32510912990074 0 -142.32510912990074 266.97343135797473 0 0 0 0 1002.0562502698085 -100.69263245733237 0 -100.69263245733237 396.16816420821488 0 0 0 0 696.4830994208196 -164.14948419867142 0 -164.14948419867142 241.55073855782166 0 0 0 0 1115.2413503971038 -39.480639649473687 0 -39.480639649473687 118.19727557257647 0 0 0 0 1075.2677604980227 -108.02404292720303 0 -108.02404292720303 66.866362725333602 0 0 0 0 1079.0271389008922 -145.02252433608373 0 -145.02252433608373 82.125328344466197 0 0 0 0 891.07068622293991 35.555009253042954 0 35.555009253042954 311.06268423025904 0 0 0 0 1051.2827263258023 -226.83546881525535 0 -226.83546881525535 566.51060660879375 0 0 0 0 1493.0560279374185 -734.23840963292423 0 -734.23840963292423 653.81535751502861 0 0 0 0 1214.1706573981064 -10.478550056797303 0 -10.478550056797303 131.65317612910985 0 0 0 0 1369.3304163167045 -381.45990822819203 0 -381.45990822819203 134.85688348657277 0 0 0 0 1158.2229970145454 -286.81181126061711 0 -286.81181126061711 389.70376970661317 0 0 0 0 883.045146017972 -1007.7796541715743 0 -1007.7796541715743 1735.9428485742374 0 0 0 0 980.33617118412212 -118.41964327989194 0 -118.41964327989194 1129.0743165330678 0 0 0 0 1014.2727925042109 -1031.9841326289124 0 -1031.9841326289124 818.64809478151801 0 0 0 0 983.01341428962496 -1010.5070615079171 0 -1010.5070615079171 816.2863715905587 0 0 0 0 1494.7706448705576 -64.779559499228526 0 -64.779559499228526 28.303458406793652 0 0 0 0 1321.1337626810819 -1558.2598280256389 0 -1558.2598280256389 711.72946743850662 0 0 0 0 9.8165108249535429 5.3810651236013882 0 5.3810651236013882 7.0923174969066345 0 0 0 0 -3.7163266550707448 4.9829328322719739 0 4.9829328322719739 5.3167746817981794 0 0 0 0 1404.4769723255013 -1111.3969402868415 0 -1111.3969402868415 -174.44243192280555 0 0 0 0 878.93247755421362 -139.45573918225637 0 -139.45573918225637 -119.73989330642712 0 0 0 0 1309.0199952947514 -1214.0647427797539 0 -1214.0647427797539 673.09354395211267 0 0 0 0 841.06950659400354 -634.30784053004936 0 -634.30784053004936 751.04562630560258 0 0 0 0 2555.1966655807355 -1086.2986746147321 0 -1086.2986746147321 260.05596709479141 0 0 0 0 2096.8262096086155 -701.42691302110097 0 -701.42691302110097 252.45969681867246 0 0 0 0 1452.4921179607009 -1269.6774637060239 0 -1269.6774637060239 1384.6393769927126 0 0 0 0 530.35220373924767 -142.94959092500312 0 -142.94959092500312 1342.2082642997248 0 0 0 0 709.26120906609594 -459.02740464885505 0 -459.02740464885505 -36.917058793706019 0 0 0 0 1434.2730285758375 -13.206988667762516 0 -13.206988667762516 232.52104036412356 0 0 0 0 -52.662618252405082 170.86787177387919 0 170.86787177387919 -52.681460021771272 0 0 0 0 325.01031662565765 259.38064214517124 0 259.38064214517124 -77.880260934382932 0 0 0 0 -162.39336050480961 -11.707240321255767 0 -11.707240321255767 24.91616039738642 0 0 0 0 -3.8353251989632744 24.155212726001221 0 24.155212726001221 23.674896256642995 0 0 0 0 559.64089218245999 -251.38563267698703 0 -251.38563267698703 124.72562676872985 0 0 0 0 -107.86230408389474 -216.39457296738328 0 -216.39457296738328 721.30131915213087 0 0 0 0 -30.849981756935222 61.630808463701449 0 61.630808463701449 23.642007401836132 0 0 0 0 -25.491256612065399 86.784293554157387 0 86.784293554157387 72.740368899989846 0 0 0 0 -62.56208593970814 -15.788358694325698 0 -15.788358694325698 80.603800100146444 0 0 0 0 22.324177743367613 73.241166394928939 0 73.241166394928939 25.437465505719842 0 0 0 0 68.146206662956715 14.287282366377175 0 14.287282366377175 2.895728675280941 0 0 0 0 -13.214036709207903 85.166339000163205 0 85.166339000163205 29.902970513115861 0 0 0 0 -3.1675415540080394 99.087293814052373 0 99.087293814052373 -39.589719438412317 0 0 0 0 55.218596713266365 14.787714089989944 0 14.787714089989944 5.5912860274805913 0 0 0 0 83.917814306909122 186.65169945037167 0 186.65169945037167 931.90050179342325 0 0 0 0 132.76386921408994 -477.25341150035183 0 -477.25341150035183 1176.9726788570861 0 0 0 0 1094.3971631734616 -460.92651785222938 0 -460.92651785222938 632.29706729655663 0 0 0 0 -372.40705932991841 -409.98298568590781 0 -409.98298568590781 839.2014040943377 0 0 0 0 14.552446686360781 -419.68282892847037 0 -419.68282892847037 335.80321014630863 0 0 0 0 26.551412086548225 -278.49616807273333 0 -278.49616807273333 806.80785218001438 0 0 0 0 314.00180830836325 -734.99683532628478 0 -734.99683532628478 592.24584034534382 0 0 0 0 44.24214628514892 -182.76445618160005 0 -182.76445618160005 358.19703283543924 0 0 0 0 826.37938000973918 37.998158114839953 0 37.998158114839953 -648.64309868881355 0 0 0 0 73.763257462843526 16.256448565179813 0 16.256448565179813 2.3807271079941001 0 0 0 0 62.539240034089744 -368.6631658993083 0 -368.6631658993083 217.68295626909003 0 0 0 0 223.96164375284064 93.581447970267959 0 93.581447970267959 -398.06660134384128 0 0 0 0 118.21572921390941 102.61661196502746 0 102.61661196502746 -39.071398027767742 0 0 0 0 1.8462643456399519 80.54727661360522 0 80.54727661360522 -18.067478272469202 0 0 0 0 71.27640216276086 185.26479305702208 0 185.26479305702208 -214.69011080632839 0 0 0 0 13.751924529599165 104.60822637370507 0 104.60822637370507 238.15091939020991 0 0 0 0 206.27039004846199 -39.866556616085873 0 -39.866556616085873 139.51227383504309 0 0 0 0 502.54285840058964 226.7772353685219 0 226.7772353685219 168.08029226139132 0 0 0 0 350.68498723019138 -124.1605757807698 0 -124.1605757807698 -21.397913757146398 0 0 0 0 298.53297053330698 172.80468117743476 0 172.80468117743476 7.3512372824953616 0 0 0 0 344.65974588816698 -31.097844073013334 0 -31.097844073013334 255.9982544489352 0 0 0 0 669.77717117850807 -268.80163672785329 0 -268.80163672785329 4.6386915232574211 0 0 0 0 1332.9643538559326 -335.99261068663941 0 -335.99261068663941 95.034773790717139 0 0 0 0 1385.4962545312037 -303.58288211827067 0 -303.58288211827067 -240.40732761974473 0 0 0 0 3500.310945455451 -1611.8495784296611 0 -1611.8495784296611 721.87235240872099 0 0 0 0 3052.1298459865802 -875.55144071204836 0 -875.55144071204836 -95.706032104561473 0 0 0 0 225.72071043020787 -971.29660480371945 0 -971.29660480371945 868.77625801564409 0 0 0 0 5016.8995604505071 -476.83083553704586 0 -476.83083553704586 247.81475174023538 0 0 0 0 -627.56256015937618 -302.36798212380688 0 -302.36798212380688 359.32281310904636 0 0 0 0 3.355561132580223 -4.4384287681486496 0 -4.4384287681486496 4.4648697630347076 0 0 0 0 76.420898693399067 -99.990168252928243 0 -99.990168252928243 -175.08471509459514 0 0 0 0 208.55887204864109 -122.39162214714747 0 -122.39162214714747 -199.54087159548362 0 0 0 0 82.08693922524526 -135.05996350516261 0 -135.05996350516261 21.68249570082088 0 0 0 0 101.23644386978322 -59.125755617867071 0 -59.125755617867071 -236.7264821460958 0 0 0 0 88.21188045445524 301.58600679758729 0 301.58600679758729 -567.32365813980505 0 0 0 0 67.488810613664 15.769324806427907 0 15.769324806427907 5.1929401687269339 0 0 0 0 -20.536364316496474 524.70828292038186 0 524.70828292038186 -137.94952207131223 0 0 0 0 14.732593940009851 -7.4261902561355431 0 -7.4261902561355431 12.548070583698978 0 0 0 0 3569.9121953208014 109.4784583943769 0 109.4784583943769 77.405866100519845 0 0 0 0 3501.1541338460147 194.74547223603267 0 194.74547223603267 67.38418807237575 0 0 0 0 -27.266762686326729 -118.8528409972223 0 -118.8528409972223 -150.41811601453628 0 0 0 0 32.522317521186778 9.3096065919926332 0 9.3096065919926332 -11.091696723675341 0 0 0 0 31.349342812656687 22.972922466178716 0 22.972922466178716 6.4030355255786162 0 0 0 0 27.999416420907878 7.384796584545434 0 7.384796584545434 3.72538941238696 0 0 0 0 181.53072851155594 -108.16108808086756 0 -108.16108808086756 41.613158090349316 0 0 0 0 22.413586156075326 19.266812545362882 0 19.266812545362882 44.33659106812047 0 0 0 0 353.84616938745239 -9.4940472118887556 0 -9.4940472118887556 13.535651821278407 0 0 0 0 20.756898032017489 36.413064181382651 0 36.413064181382651 31.863393022997116 0 0 0 0 39.314803330384166 -21.958702420743066 0 -21.958702420743066 -19.17981056224744 0 0 0 0 10.733982706438802 -0.57447570404803727 0 -0.57447570404803727 4.9910684613193865 0 0 0 0 62.606747098794585 7.9730159613318392 0 7.9730159613318392 -15.791368494344624 0 0 0 0 34.489621140532336 4.5032376471438056 0 4.5032376471438056 32.085745352029335 0 0 0 0 44.851402097894606 5.2327708362718113 0 5.2327708362718113 40.83760018558678 0 0 0 0 42.826236632783093 13.659926985430502 0 13.659926985430502 14.65248015151883 0 0 0 0 43.979544310001074 17.275535290426888 0 17.275535290426888 12.538048457401146 0 0 0 0 34.115463839933597 8.5500793190196234 0 8.5500793190196234 4.0237377041683899 0 0 0 0 14.826697240990185 -2.7994649736151533 0 -2.7994649736151533 2.2190474975876455 0 0 0 0 48.607004531716484 -15.860196865640091 0 -15.860196865640091 -64.22355450590112 0 0 0 0 7.7804377251423631 -4.3681736174269545 0 -4.3681736174269545 -0.19115682410186707 0 0 0 0 64.673809033991347 -43.757316925513578 0 -43.757316925513578 -120.59574653413438 0 0 0 0 -16.058246777018212 -113.22098379085446 0 -113.22098379085446 -101.51237991339076 0 0 0 0 7.6732099399305298 -0.597541543909756 0 -0.597541543909756 -48.969810535558281 0 0 0 0 109.89547561465389 -23.790468464964903 0 -23.790468464964903 -68.816050746958354 0 0 0 0 112.46065518253511 65.510233075774806 0 65.510233075774806 -38.139418040533201 0 0 0 0 55.979646412566581 40.185839169136671 0 40.185839169136671 -39.956125928722031 0 0 0 0 53.237651694522356 32.888579607775682 0 32.888579607775682 -54.495065791368688 0 0 0 0 40.634386052243826 8.3767572274509803 0 8.3767572274509803 -30.634264076285035 0 0 0 0 45.561634582591068 16.452780304447515 0 16.452780304447515 -50.930165285651128 0 0 0 0 43.936266400470231 21.484181908891742 0 21.484181908891742 -32.169136789383629 0 0 0 0 25.385135121916392 22.628891831919191 0 22.628891831919191 -11.866220184718259 0 0 0 0 28.614130484165798 18.236107701788569 0 18.236107701788569 -20.374282015025528 0 0 0 0 10.666323509147333 32.313423382032852 0 32.313423382032852 -12.818637412736962 0 0 0 0 9.2314542919266387 30.460442959026295 0 30.460442959026295 -0.35131176486720506 0 0 0 0 31.805490584021754 56.479017678593664 0 56.479017678593664 -14.08132887042666 0 0 0 0 30.973664000006465 48.865591142383437 0 48.865591142383437 -13.511372439752449 0 0 0 0 -65.634631649529183 -4.6407395281994468 0 -4.6407395281994468 -11.748588859212759 0 0 0 0 402.26917181662611 4.1864521511852217 0 4.1864521511852217 131.30376022370183 0 0 0 0 386.0823009651067 278.54896359644044 0 278.54896359644044 -255.89600937570867 0 0 0 0 364.70136235775499 199.04344174136895 0 199.04344174136895 62.079389510434339 0 0 0 0 3.2532767284198627 -2.6490622549369469 0 -2.6490622549369469 0.87244163621163295 0 0 0 0 313.74814284661261 181.07905531734286 0 181.07905531734286 95.896405291294286 0 0 0 0 357.7837976495457 182.30581028847519 0 182.30581028847519 62.829249051483202 0 0 0 0 178.01263614911295 352.83507159779219 0 352.83507159779219 128.2094753133224 0 0 0 0 505.64420284326843 70.297891468868329 0 70.297891468868329 128.33466045396381 0 0 0 0 401.14632064516627 -174.03947055574827 0 -174.03947055574827 629.2323420777393 0 0 0 0 2.1011395888962134 -1.6618805668140411 0 -1.6618805668140411 0.56208927915570683 0 0 0 0 393.18034910817369 135.29380302784193 0 135.29380302784193 92.790997156674507 0 0 0 0 238.26634550998278 145.48461391759338 0 145.48461391759338 515.17445191794832 0 0 0 0 0.87583255529814608 2.9442022908356122 0 2.9442022908356122 2.8212959735589678 0 0 0 0 0.064926327041966658 3.8090171627743956 0 3.8090171627743956 4.0353347341302666 0 0 0 0 332.99640484492193 256.39849922879694 0 256.39849922879694 -55.284602034607815 0 0 0 0 13.885249094999381 13.411227569064522 0 13.411227569064522 3.1504844692644838 0 0 0 0 0.75392398952135409 21.105795033071445 0 21.105795033071445 -0.84052844459256448 0 0 0 0 241.38167356626946 270.33466610409141 0 270.33466610409141 154.6672306653727 0 0 0 0 268.07013567186368 324.61435003499537 0 324.61435003499537 192.83311627979128 0 0 0 0 282.61079390029681 342.67091105527243 0 342.67091105527243 -26.542835562893742 0 0 0 0 274.37062711963335 275.18282142769658 0 275.18282142769658 27.185690383754263 0 0 0 0 260.63941726626399 221.10520587580686 0 221.10520587580686 268.26738826978544 0 0 0 0 303.27261033719333 197.55552016742604 0 197.55552016742604 77.109490425937111 0 0 0 0 306.93839301203479 194.17644459775329 0 194.17644459775329 76.744350383050687 0 0 0 0 97.618707706296846 122.53153599953475 0 122.53153599953475 243.98164861831356 0 0 0 0 239.94248476599387 -15.680806842862694 0 -15.680806842862694 229.94904420383318 0 0 0 0 443.02937337811454 -98.145844140331974 0 -98.145844140331974 263.4079427976003 0 0 0 0 128.95381892613113 222.69193907357203 0 222.69193907357203 554.46643536460397 0 0 0 0 6.6983001944998666 -2.2869827353669798 0 -2.2869827353669798 0.13889826665151617 0 0 0 0 -303.40133240988507 -40.017355626978315 0 -40.017355626978315 395.10819996942791 0 0 0 0 34.044746081547146 -125.62337634893765 0 -125.62337634893765 43.679572702842052 0 0 0 0 24.538007677171663 -121.8993134455859 0 -121.8993134455859 450.49455880213281 0 0 0 0 376.00288740125325 171.198532870907 0 171.198532870907 165.66631618427346 0 0 0 0 55.34757659344632 20.224288756128317 0 20.224288756128317 94.58487577647611 0 0 0 0 261.79704195903832 56.098366553571395 0 56.098366553571395 -58.612774824265216 0 0 0 0 55.09895576170311 60.990957975167476 0 60.990957975167476 -38.298822291859324 0 0 0 0 6.6598481867060322 -7.4471303274583622 0 -7.4471303274583622 46.913149233614519 0 0 0 0 -202.09073528324006 235.45149079577641 0 235.45149079577641 -27.619559551065322 0 0 0 0 118.0530419689253 161.32893411944747 0 161.32893411944747 -125.55973791481847 0 0 0 0 27.23581124203556 11.485221476836287 0 11.485221476836287 -22.398291650285465 0 0 0 0 126.961553811052 -27.043622880113617 0 -27.043622880113617 1.4168072308848423 0 0 0 0 20.142472091071156 7.6854994590639407 0 7.6854994590639407 2.4290665766813362 0 0 0 0 226.38273749019572 -187.58144904710571 0 -187.58144904710571 99.988326237740694 0 0 0 0 -147.01478990443866 -92.164263140872208 0 -92.164263140872208 308.64472607935022 0 0 0 0 2.6915382833790034 1.1030910195278878 0 1.1030910195278878 0.56573728717111749 0 0 0 0 443.24932175920549 -431.41540924603032 0 -431.41540924603032 439.20032178637848 0 0 0 0 240.42287941323775 -231.39471125162072 0 -231.39471125162072 296.79595776528004 0 0 0 0 484.42687674776971 -361.45209610128222 0 -361.45209610128222 253.47640601398416 0 0 0 0 744.16831517881292 -216.91646587704236 0 -216.91646587704236 130.01068268500239 0 0 0 0 428.18706963831937 -77.899568887572968 0 -77.899568887572968 75.907588115553153 0 0 0 0 363.80374570042113 -113.49148316647916 0 -113.49148316647916 56.637447214447093 0 0 0 0 231.46105520823039 -172.46530515099403 0 -172.46530515099403 114.52922759345893 0 0 0 0 331.55865046792223 -210.8816164533273 0 -210.8816164533273 53.417697775872512 0 0 0 0 349.38351755582198 -79.19883725539205 0 -79.19883725539205 20.661233277005522 0 0 0 0 247.64497560402015 -94.219343266851865 0 -94.219343266851865 26.412671820062315 0 0 0 0 183.03942704139263 -13.204562174636521 0 -13.204562174636521 -43.016539382184419 0 0 0 0 219.98867204658745 -133.15683329489002 0 -133.15683329489002 74.688723133238454 0 0 0 0 303.02164628526407 -215.40351575475688 0 -215.40351575475688 80.68663211463172 0 0 0 0 238.34954426456534 -157.94747861463657 0 -157.94747861463657 23.36499838445161 0 0 0 0 148.38168442855385 -130.63996522675006 0 -130.63996522675006 70.293986961150949 0 0 0 0 237.32846640516073 -162.81411956077113 0 -162.81411956077113 38.790748561274086 0 0 0 0 390.95794848358128 58.269164041288604 0 58.269164041288604 -3.020355488442874 0 0 0 0 149.86004174529944 -114.74868845389915 0 -114.74868845389915 278.36303989822409 0 0 0 0 164.91637985907346 -35.517882967825471 0 -35.517882967825471 -14.090680783956486 0 0 0 0 54.391683161185938 62.895207552275679 0 62.895207552275679 -49.74628043219127 0 0 0 0 202.76998073654249 -12.314230627678626 0 -12.314230627678626 -80.433636110778025 0 0 0 0 129.81461249728864 62.827995616195494 0 62.827995616195494 -99.66715181267864 0 0 0 0 108.77207196984455 -11.069250503389412 0 -11.069250503389412 35.098123303800094 0 0 0 0 93.420410349177786 8.72227419319616 0 8.72227419319616 0.69220954914234589 0 0 0 0 134.10081986288424 76.768360292261605 0 76.768360292261605 -185.58930736183538 0 0 0 0 2.3717737190017942 60.367242413794884 0 60.367242413794884 -72.669373730994266 0 0 0 0 99.804683009295786 -94.255056526423459 0 -94.255056526423459 -80.503516361182847 0 0 0 0 129.16337091075911 136.20304583808684 0 136.20304583808684 -73.468884307642838 0 0 0 0 17.231384071186564 -177.49199241121028 0 -177.49199241121028 -3.8397103220122517 0 0 0 0 232.03419597808562 4.1935671225955957 0 4.1935671225955957 -113.62696937964574 0 0 0 0 98.100306322823599 95.246652289191843 0 95.246652289191843 -176.85473454534258 0 0 0 0 31.438678561142297 14.471489722331171 0 14.471489722331171 -108.76583262848726 0 0 0 0 223.5358160985171 41.982043832086674 0 41.982043832086674 237.87383597747976 0 0 0 0 -17.421780004635366 155.85137124922403 0 155.85137124922403 -105.27048558940805 0 0 0 0 39.15844846117357 30.357802060771881 0 30.357802060771881 -2.1072011093724328 0 0 0 0 167.56406078888176 -599.53593848509627 0 -599.53593848509627 479.26940481639031 0 0 0 0 315.17089728588144 -184.45536096816795 0 -184.45536096816795 117.30097554019994 0 0 0 0 150.65166176286948 -2.7524519775888621 0 -2.7524519775888621 452.72543884333572 0 0 0 0 -216.12894256539175 68.214606860044114 0 68.214606860044114 653.49570976983341 0 0 0 0 0.93360647984923739 -0.019465234952493304 0 -0.019465234952493304 17.817332313793941 0 0 0 0 -11.982400249025886 -114.55696624791017 0 -114.55696624791017 786.15519013036828 0 0 0 0 1346.2301442633252 -1178.3409342218429 0 -1178.3409342218429 784.62896579035441 0 0 0 0 99.190001390751604 -376.73002134595117 0 -376.73002134595117 1168.4790856097352 0 0 0 0 171.03862366459907 -670.04079225774149 0 -670.04079225774149 1284.7137728226553 0 0 0 0 339.75066928881733 -559.73489066628645 0 -559.73489066628645 923.49225818454579 0 0 0 0 223.37604399053998 -372.90017789600643 0 -372.90017789600643 837.55437909320335 0 0 0 0 101.57743885660784 -385.03557797149915 0 -385.03557797149915 710.93413643164422 0 0 0 0 195.64855575966658 -292.79186030675419 0 -292.79186030675419 780.09214333949421 0 0 0 0 210.37914706461379 -78.885684389288144 0 -78.885684389288144 792.75960787383883 0 0 0 0 185.91794159018173 -343.37829413876352 0 -343.37829413876352 559.86267374613089 0 0 0 0 105.39558454744383 -500.99121545659364 0 -500.99121545659364 736.74157470610953 0 0 0 0 24.770882142619271 3.1799226342870313 0 3.1799226342870313 -11.508108809656569 0 0 0 0 89.183616454609364 -305.14875507271063 0 -305.14875507271063 990.10445257859101 0 0 0 0 371.27383935708713 -211.11094903692447 0 -211.11094903692447 624.71507653813387 0 0 0 0 455.84825134201867 -291.25131337622122 0 -291.25131337622122 391.85027679882023 0 0 0 0 796.2524428421807 -317.55660081576661 0 -317.55660081576661 386.10280369410339 0 0 0 0 744.57524674110709 -562.35493945969483 0 -562.35493945969483 645.66576369858058 0 0 0 0 1067.7753609014676 -476.92964637797991 0 -476.92964637797991 205.34411047955655 0 0 0 0 751.78792069434678 -592.94763513336375 0 -592.94763513336375 218.12396589394848 0 0 0 0 71.896591086338958 -53.285434925498066 0 -53.285434925498066 560.99303028214854 0 0 0 0 76.003923624078425 -19.877468044655245 0 -19.877468044655245 442.4296140749193 0 0 0 0 199.25686571628103 -97.499276825650668 0 -97.499276825650668 539.9902458861643 0 0 0 0 116.28893943953881 95.627706478629989 0 95.627706478629989 480.17909066347647 0 0 0 0 302.65280960967357 -125.08353622084906 0 -125.08353622084906 527.13195933913448 0 0 0 0 257.06001601462958 -57.661094393920393 0 -57.661094393920393 564.80400907297371 0 0 0 0 284.85762018842433 -102.34633320801595 0 -102.34633320801595 453.03296887113356 0 0 0 0 453.20850312606581 -269.72768062716136 0 -269.72768062716136 586.91503885173006 0 0 0 0 435.60546234345657 -212.51544996468192 0 -212.51544996468192 466.57463868177456 0 0 0 0 211.36086390219498 -163.97166920539416 0 -163.97166920539416 390.27959472441944 0 0 0 0 100.44937912764726 -101.79277632018284 0 -101.79277632018284 496.4071685767567 0 0 0 0 236.14602500128058 -147.04131877515238 0 -147.04131877515238 476.03844973989726 0 0 0 0 98.862229421418306 -117.81545458990053 0 -117.81545458990053 370.06804072038176 0 0 0 0 -9.7810915549252968 -156.31132687313948 0 -156.31132687313948 443.83826769368534 0 0 0 0 1.0750537785343113 -164.46500221025212 0 -164.46500221025212 336.55035359700287 0 0 0 0 -29.847708794288337 -149.47302198472607 0 -149.47302198472607 372.92229968068204 0 0 0 0 14.586277413054631 -40.585135939380052 0 -40.585135939380052 233.5059935815716 0 0 0 0 14.606791572536167 -49.468537022158671 0 -49.468537022158671 478.00147175647908 0 0 0 0 -101.60883984018801 -429.44122294279896 0 -429.44122294279896 253.43894777461082 0 0 0 0 -28.460185483671012 -164.01924440857834 0 -164.01924440857834 -42.09287648890313 0 0 0 0 672.93456348417567 -339.37742777979474 0 -339.37742777979474 159.936050358785 0 0 0 0 5.0613615612443823 3.4041729267260123 0 3.4041729267260123 1.991184130709776 0 0 0 0 297.76616593811195 -148.48659898906408 0 -148.48659898906408 303.2779016359259 0 0 0 0 103.64005250194168 -43.78593985311818 0 -43.78593985311818 31.72923972170247 0 0 0 0 -133.81632272373099 132.34994357506457 0 132.34994357506457 164.78605249859356 0 0 0 0 531.32725855528315 -706.38731617806025 0 -706.38731617806025 495.77750370815556 0 0 0 0 147.15114398178702 11.369583665199087 0 11.369583665199087 7.7096820321778159 0 0 0 0 341.40825156698702 -278.19372182302322 0 -278.19372182302322 315.93764476127944 0 0 0 0 -972.30315496044932 -420.88749884398203 0 -420.88749884398203 1324.358205116725 0 0 0 0 403.70591604738729 -195.36456774661383 0 -195.36456774661383 247.42068043355903 0 0 0 0 -51.019959882967669 -19.615259545284061 0 -19.615259545284061 561.50667806150886 0 0 0 0 632.76254838865134 -29.103180760983378 0 -29.103180760983378 538.12836939222507 0 0 0 0 124.94665606142883 7.075274561701562 0 7.075274561701562 -0.024733873090404757 0 0 0 0 -125.54832388497016 66.5976969260837 0 66.5976969260837 469.66667231872816 0 0 0 0 279.87573629556937 -203.66694592681233 0 -203.66694592681233 62.308542716569718 0 0 0 0 286.17018788964924 -23.432433850393863 0 -23.432433850393863 -211.07447207511677 0 0 0 0 126.92898313658952 -63.708335761413764 0 -63.708335761413764 -55.433036698206251 0 0 0 0 79.902351645090675 2.9808618272545573 0 2.9808618272545573 -41.997126637306792 0 0 0 0 88.358183990567341 -48.118360653013951 0 -48.118360653013951 37.112202587115462 0 0 0 0 74.45410417246967 -72.110814057421521 0 -72.110814057421521 94.158853784232633 0 0 0 0 82.343390272850229 -42.839907877274527 0 -42.839907877274527 32.493492696943576 0 0 0 0 94.205587921147526 -48.5057392667768 0 -48.5057392667768 19.116197755851317 0 0 0 0 100.86250155338348 -59.341411110282934 0 -59.341411110282934 35.984300074755083 0 0 0 0 90.688836642882961 -56.8074637987811 0 -56.8074637987811 53.224762901445501 0 0 0 0 71.710976946818846 -54.473965175748162 0 -54.473965175748162 53.353562549536036 0 0 0 0 107.99677137565595 -98.191559306043928 0 -98.191559306043928 33.565438879704743 0 0 0 0 26.040370184101448 -52.843484473989975 0 -52.843484473989975 90.075082234478032 0 0 0 0 40.859814577906945 -29.480503079603295 0 -29.480503079603295 113.92205320395442 0 0 0 0 68.055963269177482 -140.63165000625986 0 -140.63165000625986 232.5626626151934 0 0 0 0 1.175248723716166 -1.7375053462157322 0 -1.7375053462157322 1.8495988164866688 0 0 0 0 -10.076442092974048 -17.8899482054901 0 -17.8899482054901 214.87914295130395 0 0 0 0 61.718214495507709 29.352337868256654 0 29.352337868256654 67.780549710301784 0 0 0 0 53.952686832060863 4.5206857143184607 0 4.5206857143184607 31.801464470193423 0 0 0 0 72.728436571200291 -19.273175536520284 0 -19.273175536520284 60.296276339879114 0 0 0 0 135.63889116960127 -21.520707311710794 0 -21.520707311710794 34.459748730678257 0 0 0 0 69.20307738360043 -42.535705958791823 0 -42.535705958791823 54.620419161117752 0 0 0 0 96.273662256589887 -11.865997197479373 0 -11.865997197479373 62.592885406438654 0 0 0 0 119.79924494123043 -32.336727114656242 0 -32.336727114656242 38.955584319322952 0 0 0 0 81.714337056877412 -43.259311355381215 0 -43.259311355381215 53.199472762877122 0 0 0 0 131.36308556227959 36.368735450112581 0 36.368735450112581 58.607056977190041 0 0 0 0 -46.602954716812064 80.138380629759467 0 80.138380629759467 43.169605222436076 0 0 0 0 26.120302836093643 -9.6471080912849914 0 -9.6471080912849914 39.453493080037347 0 0 0 0 615.54558100060967 -36.039814626683437 0 -36.039814626683437 -376.86036331687092 0 0 0 0 147.07757467505508 62.77414106852666 0 62.77414106852666 -160.78415881616638 0 0 0 0 154.27107194127618 35.456844395710718 0 35.456844395710718 8.3245495012805542 0 0 0 0 91.185673426072754 224.41517585402835 0 224.41517585402835 -103.80169236120855 0 0 0 0 24.272538944671396 -72.543899819404032 0 -72.543899819404032 83.758943163149524 0 0 0 0 312.4502899945328 8.4574215262418875 0 8.4574215262418875 -178.49092107231991 0 0 0 0 147.82348503360117 107.24501556146424 0 107.24501556146424 143.38327519614904 0 0 0 0 43.913191589884455 14.259645000789952 0 14.259645000789952 -7.1222457650260225 0 0 0 0 -226.37474405158719 -223.0525956210422 0 -223.0525956210422 -105.58071747618669 0 0 0 0 7.5961201969184913 -173.17265938584296 0 -173.17265938584296 276.50767863593501 0 0 0 0 131.79829073735164 -65.123820600307226 0 -65.123820600307226 -35.985091481477866 0 0 0 0 339.21398342280008 -313.63005275633623 0 -313.63005275633623 113.58466429716918 0 0 0 0 272.60298019469337 -321.82920135763652 0 -321.82920135763652 311.40233479089875 0 0 0 0 230.80760532194108 -319.77396218147624 0 -319.77396218147624 213.9748078816242 0 0 0 0 312.4388174020969 -198.08225481761292 0 -198.08225481761292 362.29956047768064 0 0 0 0 149.27053312865064 -236.13498999126068 0 -236.13498999126068 300.55040877591819 0 0 0 0 170.54827566252789 -181.01757031840862 0 -181.01757031840862 212.51315239154792 0 0 0 0 233.37079927298328 -235.61715790344806 0 -235.61715790344806 290.53183417810214 0 0 0 0 217.87763859149163 -297.86285427430857 0 -297.86285427430857 318.99932708367123 0 0 0 0 443.84127009764052 -288.66772000321907 0 -288.66772000321907 174.47028566732115 0 0 0 0 365.60608623071676 -133.16286917954585 0 -133.16286917954585 -122.26396304014997 0 0 0 0 215.00619012676907 -226.58138384191534 0 -226.58138384191534 225.19545796444072 0 0 0 0 230.45978938654298 -214.43998728663428 0 -214.43998728663428 105.15065555852061 0 0 0 0 287.95193946810105 -220.20633155947689 0 -220.20633155947689 274.13588621882809 0 0 0 0 219.93165528988357 -189.82663699909585 0 -189.82663699909585 260.88984002849247 0 0 0 0 205.84265500973561 -245.54464566840034 0 -245.54464566840034 289.21393953012011 0 0 0 0 719.78496860236919 410.69717191809013 0 410.69717191809013 282.36529831035023 0 0 0 0 -0.79472098818354198 -5.6020635706429474 0 -5.6020635706429474 3.9026001292462205 0 0 0 0 393.62916049290652 212.30754830310525 0 212.30754830310525 -185.61095781786844 0 0 0 0 533.97404393248871 -190.35012865777026 0 -190.35012865777026 -192.14697119387574 0 0 0 0 174.29276099478096 51.252627332766146 0 51.252627332766146 12.42707839863836 0 0 0 0 -171.4094485520618 10.512940573265951 0 10.512940573265951 103.95379562827839 0 0 0 0 114.49664269039479 39.421098057278854 0 39.421098057278854 1.8270586191350837 0 0 0 0 166.02399802743571 123.77134991029669 0 123.77134991029669 -249.7305192727863 0 0 0 0 31.503115064871963 14.67944293260004 0 14.67944293260004 6.1946916612154332 0 0 0 0 171.73852440267365 6.5742865855463606 0 6.5742865855463606 -272.71722397333724 0 0 0 0 49.558999007691455 232.51533350346472 0 232.51533350346472 203.35177957889027 0 0 0 0 -3.0252333516370413 19.594734381835323 0 19.594734381835323 5.8116383826194049 0 0 0 0 -35.454201311755696 93.209654990402214 0 93.209654990402214 -64.237836096064711 0 0 0 0 15.08340841143945 -132.94774371015956 0 -132.94774371015956 -393.39808391954284 0 0 0 0 271.82179137488129 -165.01139881022391 0 -165.01139881022391 -1017.6733798664645 0 0 0 0 307.76505447895033 70.611304702164489 0 70.611304702164489 -465.82326193300833 0 0 0 0 229.1597325601324 92.746132460706576 0 92.746132460706576 -262.47654624766437 0 0 0 0 175.30909601038093 38.727729058317891 0 38.727729058317891 -282.86745629610959 0 0 0 0 191.98131191398716 18.906403881992446 0 18.906403881992446 -324.38119703167467 0 0 0 0 207.78401381458389 55.297582307772245 0 55.297582307772245 -319.16271297368803 0 0 0 0 33.404252165128128 -73.767740144448908 0 -73.767740144448908 -303.36114322749199 0 0 0 0 129.94187564334425 46.122566923833801 0 46.122566923833801 -154.46962243945745 0 0 0 0 192.35331569323716 24.698452617200019 0 24.698452617200019 -273.24217468031566 0 0 0 0 177.82844602825935 57.519349102141859 0 57.519349102141859 -258.26733955272357 0 0 0 0 183.24631286915974 64.382038688097964 0 64.382038688097964 -254.57663875781145 0 0 0 0 205.06157847920582 76.090592347201977 0 76.090592347201977 4.948627888996441 0 0 0 0 198.47563935244398 166.89044063726033 0 166.89044063726033 -78.570026357501774 0 0 0 0 113.04887701837769 33.191202057346203 0 33.191202057346203 -25.436954734871598 0 0 0 0 251.1169867535973 -34.175173801382698 0 -34.175173801382698 -359.4583369402244 0 0 0 0 101.34766956385238 72.264327895176393 0 72.264327895176393 -24.71311611078545 0 0 0 0 319.44415564350857 41.185815258214461 0 41.185815258214461 -362.30914317707357 0 0 0 0 320.67255981569906 232.75466479544411 0 232.75466479544411 -120.70415621235225 0 0 0 0 295.65736540617218 138.46333970658816 0 138.46333970658816 -198.46973885095213 0 0 0 0 230.73764633246901 71.035576244128606 0 71.035576244128606 230.08833386627521 0 0 0 0 239.90383523590572 240.85800440035746 0 240.85800440035746 96.88111854867384 0 0 0 0 155.25765883361601 129.35438197362237 0 129.35438197362237 -9.8136216011480428 0 0 0 0 143.88348810913885 126.84663746278238 0 126.84663746278238 -8.4318212035577744 0 0 0 0 118.53985974889656 64.172619027303881 0 64.172619027303881 -163.05284484357253 0 0 0 0 168.61055618665614 233.77705625650924 0 233.77705625650924 91.70336069604673 0 0 0 0 86.757441492958606 230.57162000102471 0 230.57162000102471 87.357085195675609 0 0 0 0 44.832088835879404 124.85855676924984 0 124.85855676924984 3.2078467995161191 0 0 0 0 174.18856230799065 248.27227325398781 0 248.27227325398781 83.214623497828143 0 0 0 0 201.44730942058959 238.80723676304478 0 238.80723676304478 141.77701449758752 0 0 0 0 137.45135990276685 227.65705166006956 0 227.65705166006956 142.96029699928476 0 0 0 0 172.51048739341786 239.11896882620749 0 239.11896882620749 194.3132372530963 0 0 0 0 259.47607023065211 161.32826454073074 0 161.32826454073074 153.15350312237388 0 0 0 0 224.72175902337403 124.402083446299 0 124.402083446299 260.78587137701288 0 0 0 0 166.58295408936465 167.25503622745691 0 167.25503622745691 223.69643329096289 0 0 0 0 303.41689181109541 157.85295353808033 0 157.85295353808033 186.79726292765554 0 0 0 0 711.34755334202418 137.91541487295581 0 137.91541487295581 162.79959782220249 0 0 0 0 496.93329747270036 1.5312198726387578 0 1.5312198726387578 200.96342675046253 0 0 0 0 288.95734125178569 159.73475110304935 0 159.73475110304935 300.12520567407773 0 0 0 0 359.53656419146864 67.463374935385218 0 67.463374935385218 252.1757777662624 0 0 0 0 423.30995955398976 172.69793697734349 0 172.69793697734349 344.21935417393252 0 0 0 0 -55.384480638393143 86.708894636466539 0 86.708894636466539 426.27675493201241 0 0 0 0 154.21595666565008 421.54479945592175 0 421.54479945592175 152.43085573827557 0 0 0 0 253.95187920518219 310.03863653541339 0 310.03863653541339 71.852446714174221 0 0 0 0 19.961253651931145 -4.5782058441887159 0 -4.5782058441887159 -4.1588495731247974 0 0 0 0 121.11409959034063 268.53833320871854 0 268.53833320871854 60.971327560691861 0 0 0 0 155.01874046001467 264.03648439344761 0 264.03648439344761 143.43722287186392 0 0 0 0 376.9629900524742 266.35147740081811 0 266.35147740081811 75.510889525623497 0 0 0 0 238.76692039214322 235.11057379021804 0 235.11057379021804 119.42164858690012 0 0 0 0 84.956289662128256 163.65374480003265 0 163.65374480003265 154.05262780435623 0 0 0 0 204.76197004511778 260.01684206302161 0 260.01684206302161 141.42552664354207 0 0 0 0 122.82621257671417 -82.652629674339551 0 -82.652629674339551 54.217090549744171 0 0 0 0 490.42503497659709 -58.522132524281915 0 -58.522132524281915 30.184367285648477 0 0 0 0 2.8153082187302729 -8.0413956232624137 0 -8.0413956232624137 22.616970628048051 0 0 0 0 60.259544752466809 37.95546226795409 0 37.95546226795409 22.458617554098964 0 0 0 0 48.524553685947481 11.224583387430528 0 11.224583387430528 5.7921368778759756 0 0 0 0 71.2781466583765 5.924181670069629 0 5.924181670069629 -0.061628857560663164 0 0 0 0 35.288930698598506 -16.365443435785107 0 -16.365443435785107 2.0828473255303948 0 0 0 0 67.987632551841671 -4.1792114036807106 0 -4.1792114036807106 -15.438578028741176 0 0 0 0 213.08540154711955 -26.052512823578581 0 -26.052512823578581 18.877172080739456 0 0 0 0 187.17583896565702 245.48805754508612 0 245.48805754508612 163.96804413752761 0 0 0 0 0.99422380096592633 -1.1180827529971467 0 -1.1180827529971467 6.3315515309611001 0 0 0 0 322.9666064480698 57.41072528434961 0 57.41072528434961 207.5938651619208 0 0 0 0 290.04798172260053 136.85424095721464 0 136.85424095721464 233.10136305382912 0 0 0 0 519.38599134571996 24.712341248341545 0 24.712341248341545 243.30321782621832 0 0 0 0 374.809640395315 150.24127565075287 0 150.24127565075287 134.49442842497228 0 0 0 0 418.18421244906494 178.50874335094795 0 178.50874335094795 48.117925362457754 0 0 0 0 325.42113489529584 133.86962747248981 0 133.86962747248981 130.40463272964644 0 0 0 0 200.1940420892206 125.57080141987626 0 125.57080141987626 169.75379657318808 0 0 0 0 321.4462132534959 154.33846112371862 0 154.33846112371862 42.390011985189631 0 0 0 0 26.552777152668938 -15.432547267488516 0 -15.432547267488516 -3.3471805530745442 0 0 0 0 62.593008369520248 -60.466960957628544 0 -60.466960957628544 -30.675781375137376 0 0 0 0 286.19509647129598 111.36475283675827 0 111.36475283675827 25.346766180360191 0 0 0 0 321.40131599703818 221.1854550954904 0 221.1854550954904 67.83143103923976 0 0 0 0 274.43977770485435 170.69732919144121 0 170.69732919144121 48.038232412760408 0 0 0 0 24.73915738689297 -9.4498086249808431 0 -9.4498086249808431 -8.3726913693732001 0 0 0 0 14.847149026994884 1.5503547040898411 0 1.5503547040898411 6.5585269817102017 0 0 0 0 76.832885264298966 19.01369673429781 0 19.01369673429781 20.003904141083467 0 0 0 0 81.39072407954518 39.485680422285441 0 39.485680422285441 23.508232717729697 0 0 0 0 85.507778459240399 24.021562294529758 0 24.021562294529758 -3.380717440169974 0 0 0 0 208.62278764246366 -15.744782933432361 0 -15.744782933432361 -57.960215721848726 0 0 0 0 58.008216608897783 158.93152487056796 0 158.93152487056796 -8.067515590585117 0 0 0 0 32.992515752412146 74.849986906625418 0 74.849986906625418 72.083555119110315 0 0 0 0 1.2958028505984025 -2.7897966949547879 0 -2.7897966949547879 -1.0366383995828414 0 0 0 0 295.46633692743126 82.457793189688346 0 82.457793189688346 -37.797923819749485 0 0 0 0 11.881842203577477 -6.3825856043746754 0 -6.3825856043746754 -1.4533209824349953 0 0 0 0 154.15753676462919 49.718951790446226 0 49.718951790446226 88.776480274940695 0 0 0 0 -100.11187397923641 -23.203083017965582 0 -23.203083017965582 127.28029826020065 0 0 0 0 -16.938867370372463 -147.02891625473694 0 -147.02891625473694 -8.5395741405154695 0 0 0 0 134.91458480434085 -32.949578128405847 0 -32.949578128405847 25.937405710119492 0 0 0 0 116.97914223390399 124.73715271502078 0 124.73715271502078 131.4130622127268 0 0 0 0 256.60470028870623 59.01186625326045 0 59.01186625326045 10.664860783053882 0 0 0 0 329.55718938501377 186.88195600155996 0 186.88195600155996 112.65848018614406 0 0 0 0 266.58556515599048 68.032799189560592 0 68.032799189560592 110.33740284654777 0 0 0 0 745.80410399934772 317.10701472186156 0 317.10701472186156 77.686498405354257 0 0 0 0 444.3875622008818 2.026767650475449 0 2.026767650475449 405.57463087614815 0 0 0 0 388.41733637163998 258.01954957397356 0 258.01954957397356 80.744684785038089 0 0 0 0 248.34680066793771 59.624401448616936 0 59.624401448616936 163.92958843578162 0 0 0 0 355.54412655203487 276.78436914894155 0 276.78436914894155 120.14055042202108 0 0 0 0 158.29834922293958 128.1140090745339 0 128.1140090745339 169.64640852740331 0 0 0 0 348.03704602360267 210.15227147789994 0 210.15227147789994 24.315569060876442 0 0 0 0 306.18384741905174 176.65748982894002 0 176.65748982894002 28.466592375626988 0 0 0 0 164.94943817390958 67.090014447836438 0 67.090014447836438 26.517259368701161 0 0 0 0 474.45323068583093 102.31071015870657 0 102.31071015870657 -24.503226194461604 0 0 0 0 260.32019261318055 215.93346390728766 0 215.93346390728766 49.10460344213061 0 0 0 0 308.83142379976198 213.91497593761051 0 213.91497593761051 33.230065246592858 0 0 0 0 336.12494788850381 218.94134713596759 0 218.94134713596759 36.226397401413124 0 0 0 0 323.16309708116751 196.71885725575885 0 196.71885725575885 35.210950838023791 0 0 0 0 367.79932851905323 254.67125138364827 0 254.67125138364827 78.115972360661544 0 0 0 0 195.27533494952877 355.94595150366331 0 355.94595150366331 364.37794217385817 0 0 0 0 185.88588247317239 107.76132555064396 0 107.76132555064396 115.42693453914035 0 0 0 0 570.10408143231689 216.85931341436208 0 216.85931341436208 84.034128001789213 0 0 0 0 8.782522408097293 -1.0426445702147653 0 -1.0426445702147653 -7.569379006572774 0 0 0 0 2.0737669413520052 1.1485188640363049 0 1.1485188640363049 5.4278211079472385 0 0 0 0 3.928600769071636 -3.6648073345950252 0 -3.6648073345950252 -9.9385981673221977 0 0 0 0 97.122787548360066 28.238991763395461 0 28.238991763395461 -23.097819895046996 0 0 0 0 50.811918072817207 53.065743234143156 0 53.065743234143156 12.883509021332429 0 0 0 0 62.289293997360801 13.790517616529542 0 13.790517616529542 19.6370821065575 0 0 0 0 157.98215889644052 -2.4044658939674264 0 -2.4044658939674264 2.8944817087394767 0 0 0 0 83.778628304949962 43.997173825839127 0 43.997173825839127 -16.078355597306654 0 0 0 0 11.132834829182613 -5.1896548428146971 0 -5.1896548428146971 -3.3497334876167599 0 0 0 0 51.148664823973377 -35.921841435882016 0 -35.921841435882016 15.36219981548129 0 0 0 0 125.66525183386693 0.64734436184880906 0 0.64734436184880906 -26.459212589402341 0 0 0 0 56.938648095963799 29.499811169885106 0 29.499811169885106 16.651438634027727 0 0 0 0 7.4960531775222776 -0.22044046486445268 0 -0.22044046486445268 0.9560175981538066 0 0 0 0 195.07303490550839 72.236029840196352 0 72.236029840196352 8.7786035914341483 0 0 0 0 31.926072989724616 -16.403946426275098 0 -16.403946426275098 -26.681342821966467 0 0 0 0 119.81624885836209 21.776018750664662 0 21.776018750664662 14.479347403022985 0 0 0 0 23.715145592851513 -15.65206957213195 0 -15.65206957213195 -13.855627053038916 0 0 0 0 29.166065003052065 -17.604257513758462 0 -17.604257513758462 -26.869614730245203 0 0 0 0 120.70285737615632 -35.132085946010193 0 -35.132085946010193 -29.992137217195705 0 0 0 0 223.90228776876756 78.563882395515975 0 78.563882395515975 34.034831383862183 0 0 0 0 -3.6146721173572729 -3.3737721514517958 0 -3.3737721514517958 -2.7891139326268188 0 0 0 0 29.708570058296004 -7.4259426574268188 0 -7.4259426574268188 -9.8769971455483727 0 0 0 0 50.205945904434373 10.71075793441155 0 10.71075793441155 -16.611995675641708 0 0 0 0 76.285831856510413 10.028344032321002 0 10.028344032321002 -31.54085021730134 0 0 0 0 74.329127068245725 4.7549248886662099 0 4.7549248886662099 -30.244194083279581 0 0 0 0 119.30087841506452 9.1413597467857244 0 9.1413597467857244 -36.276132263476029 0 0 0 0 38.022192874515895 -7.1963143708380812 0 -7.1963143708380812 -34.357652230417443 0 0 0 0 54.409109256227701 -5.897924228177537 0 -5.897924228177537 -22.892810456551565 0 0 0 0 80.415660199112608 4.2977347134619777 0 4.2977347134619777 -35.734528806708113 0 0 0 0 128.45862758469866 17.526000840296547 0 17.526000840296547 3.7012230181990162 0 0 0 0 69.508805309360753 7.2061700518312115 0 7.2061700518312115 -22.834786959364553 0 0 0 0 128.26512060572986 12.513555357902078 0 12.513555357902078 11.291996967265732 0 0 0 0 14.280020950783463 4.2913677660957212 0 4.2913677660957212 1.2374374612016794 0 0 0 0 132.41704382515309 26.165779528972507 0 26.165779528972507 11.667277681466658 0 0 0 0 106.75093713998876 13.53494461408809 0 13.53494461408809 11.727574750508211 0 0 0 0 113.58700065563517 21.809411005608126 0 21.809411005608126 18.824014852818436 0 0 0 0 44.218759920887578 -17.789137160904829 0 -17.789137160904829 10.632810403170879 0 0 0 0 97.879030903663079 15.656270394743842 0 15.656270394743842 5.1950755808211397 0 0 0 0 112.18862513782369 5.628322955179101 0 5.628322955179101 8.5733565896916843 0 0 0 0 38.556299943363683 0.98202565214876358 0 0.98202565214876358 -5.5868626813826268 0 0 0 0 60.256500182300215 18.583774255725075 0 18.583774255725075 -4.508002878370462 0 0 0 0 53.403725738645335 11.62553809093788 0 11.62553809093788 -11.43057287478041 0 0 0 0 34.872001957269667 6.4580404705136054 0 6.4580404705136054 -1.0326061120501659 0 0 0 0 717.00624140855098 11.959387265390546 0 11.959387265390546 -3.9101131220013485 0 0 0 0 5.0456785121243399 -2.4203685522050513 0 -2.4203685522050513 -2.761148481379962 0 0 0 0 16.852935383023578 62.698044727669185 0 62.698044727669185 96.621019967999018 0 0 0 0 0.68202320641148617 1.788718051088658 0 1.788718051088658 0.35202495607407513 0 0 0 0 -11.119397493552242 -28.813075465950533 0 -28.813075465950533 64.293731544808907 0 0 0 0 3.0949640318417551 -0.31552207907584773 0 -0.31552207907584773 -0.30225053928736401 0 0 0 0 17.15084559617874 -12.773728078531846 0 -12.773728078531846 -16.051810464923378 0 0 0 0 100.53766028021292 11.166060068562837 0 11.166060068562837 -30.782399374915062 0 0 0 0 116.0241703712238 37.592964787765595 0 37.592964787765595 28.699380544267115 0 0 0 0 -1.6481603414104029 -137.43749593347093 0 -137.43749593347093 -107.5530919990324 0 0 0 0 105.17152434534592 26.521638247964802 0 26.521638247964802 27.64989253414376 0 0 0 0 -64.709706436693523 -34.83831967768765 0 -34.83831967768765 85.882614744456077 0 0 0 0 123.98332128576294 -194.055103450366 0 -194.055103450366 -351.14850939882672 0 0 0 0 135.06234663633586 -324.23393866238621 0 -324.23393866238621 106.2663867445612 0 0 0 0 91.338487332015859 4.1245233778637811 0 4.1245233778637811 -33.281584050524906 0 0 0 0 99.257003322427749 54.773267898672202 0 54.773267898672202 28.814796622887116 0 0 0 0 93.609746697473156 41.805535909792525 0 41.805535909792525 16.975909772560954 0 0 0 0 74.252512308781888 37.322412862204146 0 37.322412862204146 22.663439844061941 0 0 0 0 109.492695343626 27.479116711160941 0 27.479116711160941 25.300490246452682 0 0 0 0 97.17107329457474 46.515147755858379 0 46.515147755858379 -3.6812433825525659 0 0 0 0 90.560503146247129 -17.75466498287733 0 -17.75466498287733 10.084027266246267 0 0 0 0 80.030632296024123 3.608564540709267 0 3.608564540709267 -3.6573112124588079 0 0 0 0 87.676556356556944 -13.910445870821377 0 -13.910445870821377 -38.183640060338803 0 0 0 0 93.855145028892366 -49.979564712655701 0 -49.979564712655701 44.211909605093751 0 0 0 0 55.503275256513319 36.661641386330174 0 36.661641386330174 -27.373797869524424 0 0 0 0 54.8632608774153 -2.3187191314214317 0 -2.3187191314214317 7.847923683024419 0 0 0 0 84.176312648708972 5.7019231844878959 0 5.7019231844878959 5.4370682245753414 0 0 0 0 77.933572911679221 -4.8618865748067037 0 -4.8618865748067037 -12.357686830804596 0 0 0 0 94.583178930679424 -2.3219583810805489 0 -2.3219583810805489 2.3432842614352012 0 0 0 0 101.70054971555601 10.009914020304677 0 10.009914020304677 22.155830131228868 0 0 0 0 81.096129933333032 5.1356763384028454 0 5.1356763384028454 21.528110291794519 0 0 0 0 82.81944094260507 -2.7500132787081384 0 -2.7500132787081384 55.115536894274555 0 0 0 0 86.778098590889499 17.098433469053361 0 17.098433469053361 43.415597578507004 0 0 0 0 62.968683663724732 42.644927618357542 0 42.644927618357542 26.384275012265789 0 0 0 0 66.186492967766071 25.969837658854885 0 25.969837658854885 111.42230372869381 0 0 0 0 58.348227828642848 79.801956555289507 0 79.801956555289507 61.48428674994102 0 0 0 0 51.149370816880037 3.6468901173648192 0 3.6468901173648192 122.19473968842794 0 0 0 0 59.354321214130778 92.21874020283758 0 92.21874020283758 212.2292596731204 0 0 0 0 62.063244395146967 -7.908677627086945 0 -7.908677627086945 131.83294121969811 0 0 0 0 63.658725280616636 -6.4370485352137621 0 -6.4370485352137621 59.956589822253591 0 0 0 0 44.419225794532622 36.495493181503207 0 36.495493181503207 350.33322412953567 0 0 0 0 126.16542213591856 113.61721056809438 0 113.61721056809438 198.13493654615013 0 0 0 0 153.85951605851665 329.79355854043524 0 329.79355854043524 715.90961800309015 0 0 0 0 -26.333456301758815 -37.167729721742035 0 -37.167729721742035 242.23243269581872 0 0 0 0 0.44695233352534358 -0.61860919044044316 0 -0.61860919044044316 1.7509555961251664 0 0 0 0 628.27127511937761 307.96766051138547 0 307.96766051138547 719.85154130180672 0 0 0 0 834.24604708744846 305.77252956128905 0 305.77252956128905 257.71192133716977 0 0 0 0 391.06135658096355 105.22864000505251 0 105.22864000505251 346.43298344338837 0 0 0 0 469.99937054273687 221.2127712707952 0 221.2127712707952 218.24526079250791 0 0 0 0 547.93111433542799 92.374880479501371 0 92.374880479501371 424.20618670504336 0 0 0 0 561.35822499541609 278.01267195913715 0 278.01267195913715 450.81237622581125 0 0 0 0 61.144642970659788 -81.632387476726763 0 -81.632387476726763 71.675202736760184 0 0 0 0 547.45906984230805 304.11261288434525 0 304.11261288434525 413.95665868103242 0 0 0 0 599.6236489811962 113.32961433941352 0 113.32961433941352 -125.23726506027015 0 0 0 0 224.46579103223394 153.90337938381163 0 153.90337938381163 198.42707970809352 0 0 0 0 4.2128472198700537 -1.1488552913271022 0 -1.1488552913271022 4.0695993894351972 0 0 0 0 1.7806978933638016 -1.0009404081465476 0 -1.0009404081465476 2.0737247384174182 0 0 0 0 271.92929885222793 43.693625760861323 0 43.693625760861323 16.565432032803074 0 0 0 0 -15.3998864523046 11.962698578745403 0 11.962698578745403 5.4240462318557547 0 0 0 0 576.27278402321099 533.24120373061851 0 533.24120373061851 337.07655789800265 0 0 0 0 701.84052275791237 348.45680935652308 0 348.45680935652308 252.61078921641456 0 0 0 0 606.25417369376191 597.44554262590464 0 597.44554262590464 114.9575666527362 0 0 0 0 701.79066447201694 453.17583722117524 0 453.17583722117524 -132.09901182683097 0 0 0 0 1147.3592010170637 544.55607492893341 0 544.55607492893341 260.60797261280277 0 0 0 0 2.8618904078798959 -1.910345957160545 0 -1.910345957160545 -1.4900211252241746 0 0 0 0 645.60600982686992 215.37141072853592 0 215.37141072853592 331.9242494720238 0 0 0 0 658.17275715155722 86.447953749872454 0 86.447953749872454 253.37098996144778 0 0 0 0 498.34869306988139 -36.826999911684652 0 -36.826999911684652 184.47897580506833 0 0 0 0 -484.22768616059875 -519.96807598036412 0 -519.96807598036412 -130.96141382134965 0 0 0 0 -311.41386934907086 -13.296512100088876 0 -13.296512100088876 296.44637231097659 0 0 0 0 -18.730135461825284 -435.89311851260118 0 -435.89311851260118 -303.93004068541813 0 0 0 0 -52.402231349911517 -184.32722177197536 0 -184.32722177197536 291.42426006761525 0 0 0 0 -168.64978256914492 -359.7684746071609 0 -359.7684746071609 -323.03566089356605 0 0 0 0 1000.8880411686878 391.7678498218138 0 391.7678498218138 60.860280408476683 0 0 0 0 12.709204762368245 -3.3803128870108914 0 -3.3803128870108914 -4.3030237260502346 0 0 0 0 1001.2256448690209 396.97892630303687 0 396.97892630303687 124.14154502296878 0 0 0 0 806.86811092625976 797.05764776846627 0 797.05764776846627 742.83725113823948 0 0 0 0 1631.739460502311 396.24627991676971 0 396.24627991676971 14.486910566913139 0 0 0 0 1.5666369531376105 1.6309261967258486 0 1.6309261967258486 -0.10962481942980062 0 0 0 0 521.74337800572539 395.40652359584783 0 395.40652359584783 759.45304598312941 0 0 0 0 712.72613280306541 461.97888438889413 0 461.97888438889413 288.97850382015167 0 0 0 0 493.43640979571614 209.86501158477813 0 209.86501158477813 441.44450828953268 0 0 0 0 781.42071125796429 665.40239313948041 0 665.40239313948041 613.71082284643489 0 0 0 0 111.60689487200261 -141.04815664967532 0 -141.04815664967532 -840.87411520755086 0 0 0 0 -92.857782028429938 115.18185833166717 0 115.18185833166717 -65.629532741369985 0 0 0 0 40.107232313546788 10.141007042244972 0 10.141007042244972 0.11434110953339527 0 0 0 0 698.3452144148082 516.80362626468764 0 516.80362626468764 186.66261617498094 0 0 0 0 -127.18839403772654 88.625989135269265 0 88.625989135269265 -38.375657743901684 0 0 0 0 0.52945478649565558 7.2288272906229745 0 7.2288272906229745 -5.2782388343265367 0 0 0 0 775.65421405525558 435.44109929395836 0 435.44109929395836 -19.776669189172026 0 0 0 0 1140.3325256028638 141.07982100605841 0 141.07982100605841 216.96639467315254 0 0 0 0 140.84024109787788 426.80883886010997 0 426.80883886010997 480.15188101288368 0 0 0 0 14.030540206524037 -10.241326223266407 0 -10.241326223266407 -5.7594044801534423 0 0 0 0 44.530398562373193 0.77981119633386697 0 0.77981119633386697 -9.3028419514002962 0 0 0 0 126.74472676943697 37.027425555926129 0 37.027425555926129 29.93199705040206 0 0 0 0 209.09519486383942 26.405341175828653 0 26.405341175828653 -28.696268715328188 0 0 0 0 0.71900195129932598 -1.210013846489737 0 -1.210013846489737 0.48079668437539169 0 0 0 0 -2.0140616394573954 25.882750532852697 0 25.882750532852697 374.84075652067258 0 0 0 0 0.48037496308323568 -3.3942540193800235 0 -3.3942540193800235 3.678638527565802 0 0 0 0 264.52010437700301 5.0349608889873707 0 5.0349608889873707 -51.786245569284802 0 0 0 0 583.88633394618773 115.06742912516893 0 115.06742912516893 -126.48780393959231 0 0 0 0 532.11003840624289 415.75900948262097 0 415.75900948262097 285.50037480350147 0 0 0 0 -698.33263098869065 488.87490744448314 0 488.87490744448314 459.52162585333008 0 0 0 0 948.91695900013292 -0.35613171647855779 0 -0.35613171647855779 -573.46613089142193 0 0 0 0 15.701375946508975 8.7590062319146078 0 8.7590062319146078 2.7058517510426796 0 0 0 0 527.85149279092093 218.25133184394508 0 218.25133184394508 -775.46620614566564 0 0 0 0 -3.1052649481189292 445.48792098514969 0 445.48792098514969 -312.83440649736622 0 0 0 0 -64.364358522194379 147.87036242069007 0 147.87036242069007 334.69640533036454 0 0 0 0 -265.6571819896235 413.89928605717705 0 413.89928605717705 71.663834278775539 0 0 0 0 -460.62303393611865 -19.818332474453655 0 -19.818332474453655 94.297520855150651 0 0 0 0 565.00235452002562 -350.87014700713553 0 -350.87014700713553 -895.27015437770206 0 0 0 0 20.278915014768362 5.1827998003097413 0 5.1827998003097413 -1.2299087609969677 0 0 0 0 -636.5358935789618 1033.4741406777712 0 1033.4741406777712 1546.7709891152736 0 0 0 0 1558.0059603287364 664.54870072301037 0 664.54870072301037 -1355.8235821545486 0 0 0 0 1349.7662443057625 260.51240527598566 0 260.51240527598566 -442.36255078073191 0 0 0 0 295.71746224340859 392.19536302028609 0 392.19536302028609 659.21201828581979 0 0 0 0 220.21659465395533 6.9098424527273892 0 6.9098424527273892 275.50587528993128 0 0 0 0 110.70226996726342 -526.3070539364353 0 -526.3070539364353 -417.27548707677397 0 0 0 0 1.4913394218838221 -341.7186006186148 0 -341.7186006186148 565.39120724845816 0 0 0 0 -75.560841844409879 138.72006838976358 0 138.72006838976358 -34.4705710384751 0 0 0 0 -117.41928946950429 109.92496768891488 0 109.92496768891488 -2.2590950440298911 0 0 0 0 -75.665996006460773 161.02432877297497 0 161.02432877297497 -26.981461122796645 0 0 0 0 -9.3651473985955818 353.619922189303 0 353.619922189303 -335.80633823833614 0 0 0 0 38.271029427236428 13.087655877597275 0 13.087655877597275 2.3801891716822823 0 0 0 0 -70.468831050346125 130.09106206461661 0 130.09106206461661 -41.050680361729974 0 0 0 0 -97.64164111863056 -111.41557828097916 0 -111.41557828097916 -252.38646746729864 0 0 0 0 349.66406806770101 120.00578546238512 0 120.00578546238512 -105.18795250719035 0 0 0 0 1805.4356256463179 497.19996207151598 0 497.19996207151598 -611.13491992368108 0 0 0 0 684.13662697590917 301.14754437916781 0 301.14754437916781 -91.781639294365505 0 0 0 0 735.36358891355849 320.22646321415232 0 320.22646321415232 -630.02138536393977 0 0 0 0 871.1220948109908 118.72648112258003 0 118.72648112258003 284.4882876688589 0 0 0 0 309.99441514240061 185.7545368005176 0 185.7545368005176 338.14294898395019 0 0 0 0 375.44147528509711 46.208751847657368 0 46.208751847657368 459.72006521606363 0 0 0 0 678.36444883253603 230.67844101598706 0 230.67844101598706 258.47037162346533 0 0 0 0 464.24466249311808 369.82383934840345 0 369.82383934840345 414.66020841494446 0 0 0 0 28.794750606637535 342.50204853123569 0 342.50204853123569 233.35138988439394 0 0 0 0 67.362069313629036 49.039527261235889 0 49.039527261235889 354.26913021797827 0 0 0 0 252.28501867742943 91.638727024773971 0 91.638727024773971 215.92752532559643 0 0 0 0 201.1763779615867 107.76824188411683 0 107.76824188411683 480.84083189662397 0 0 0 0 200.10112485483114 96.466678052786847 0 96.466678052786847 366.10183657402195 0 0 0 0 75.778174330045658 264.01067744408101 0 264.01067744408101 65.727511392040469 0 0 0 0 -12.709243777517258 153.90260117312846 0 153.90260117312846 366.38056724188516 0 0 0 0 -714.50252181869837 74.759412564328159 0 74.759412564328159 236.51052622421867 0 0 0 0 -97.163404129532864 167.80949262916261 0 167.80949262916261 50.612667228017017 0 0 0 0 -0.31857474406089992 1.4215149113636762 0 1.4215149113636762 -3.5631420232863391 0 0 0 0 8.9058797677548682 574.10148749014479 0 574.10148749014479 412.41656767371205 0 0 0 0 672.48216623734879 621.92874513185507 0 621.92874513185507 393.18419718174573 0 0 0 0 138.17441700523705 35.956663446062976 0 35.956663446062976 354.4872721681686 0 0 0 0 65.373589762792108 2.7619400444664279 0 2.7619400444664279 -33.312178330873621 0 0 0 0 52.704847531435256 -1.0154613678957158 0 -1.0154613678957158 -12.921737391907545 0 0 0 0 67.54487306062947 -9.9110224878022564 0 -9.9110224878022564 -36.71678136349874 0 0 0 0 44.027876264185579 -1.4204447500484321 0 -1.4204447500484321 -16.826302983448841 0 0 0 0 46.269949542729591 -4.7254787512584926 0 -4.7254787512584926 -41.647155112554174 0 0 0 0 49.274264942907905 -5.2035131796818774 0 -5.2035131796818774 -21.371528405270411 0 0 0 0 94.410729268944124 68.767851651287259 0 68.767851651287259 -119.68126762214712 0 0 0 0 70.667798998125363 174.0076397257717 0 174.0076397257717 598.71304081331209 0 0 0 0 51.787416748992911 4.7731539112140862 0 4.7731539112140862 -16.085967345698311 0 0 0 0 20.723963437209022 48.350394985926869 0 48.350394985926869 582.96617572607192 0 0 0 0 105.58200956320798 68.264348267838614 0 68.264348267838614 372.05707917258502 0 0 0 0 99.297321752666903 103.73919287009403 0 103.73919287009403 497.98214227454991 0 0 0 0 115.91500732553686 78.302114747395535 0 78.302114747395535 435.70790989072702 0 0 0 0 198.63711963557944 156.71536622698954 0 156.71536622698954 338.91136545803056 0 0 0 0 151.2141440828309 64.303428839358958 0 64.303428839358958 360.75274800991247 0 0 0 0 166.16791842089879 139.27921169391902 0 139.27921169391902 456.32390460230408 0 0 0 0 129.42013397770643 108.97081974152206 0 108.97081974152206 474.11279899166311 0 0 0 0 202.70295874789008 147.32644408794084 0 147.32644408794084 231.13283580997324 0 0 0 0 75.633668160601147 -25.511435640715028 0 -25.511435640715028 -1.0069684841681097 0 0 0 0 115.79642383186729 -22.698820125494137 0 -22.698820125494137 -374.79649638743734 0 0 0 0 18.571479362176831 -7.257565381299095 0 -7.257565381299095 -13.028834570748739 0 0 0 0 322.19846568861976 72.996728159027953 0 72.996728159027953 277.02926853303688 0 0 0 0 285.89059407742025 128.7787765103385 0 128.7787765103385 376.85498505658325 0 0 0 0 418.65462666361782 219.96139004497991 0 219.96139004497991 391.62411671084465 0 0 0 0 369.92718805152981 62.673852432365493 0 62.673852432365493 384.29013114461532 0 0 0 0 65.014040713940631 -5.2031585639379045 0 -5.2031585639379045 -6.8132519795244662 0 0 0 0 72.069878313428489 -17.165501960491383 0 -17.165501960491383 -40.701323333601977 0 0 0 0 42.620615146850469 -19.448270931317893 0 -19.448270931317893 -33.411646214783104 0 0 0 0 25.47621030366281 -30.244181070973355 0 -30.244181070973355 -35.700960956377457 0 0 0 0 86.687297563941684 4.8880687198270607 0 4.8880687198270607 -17.931079019307617 0 0 0 0 14.901339533946107 0.1951395401432876 0 0.1951395401432876 -0.16660745271734356 0 0 0 0 23.562596859879704 -31.09771554960389 0 -31.09771554960389 -34.053368182889244 0 0 0 0 62.629284036093168 -7.3488410165307378 0 -7.3488410165307378 -12.570678954883217 0 0 0 0 131.9344877963922 10.315395167953739 0 10.315395167953739 -7.5456853729629074 0 0 0 0 16.037718469427389 2.1886713603721928 0 2.1886713603721928 1.1605498090947179 0 0 0 0 71.25316531615681 10.513628142995003 0 10.513628142995003 0.35852330301167967 0 0 0 0 515.41514579985324 397.57910517742312 0 397.57910517742312 333.43021453677193 0 0 0 0 219.84140360485708 -43.947720574153209 0 -43.947720574153209 26.4844604046923 0 0 0 0 506.3270197355389 185.29091985150262 0 185.29091985150262 76.988922183926661 0 0 0 0 16.972234877071781 3.2082723018361463 0 3.2082723018361463 0.10623609764677155 0 0 0 0 124.56014791260168 32.991231922495899 0 32.991231922495899 -12.364025277059227 0 0 0 0 61.387199057803407 -2.8582881150204056 0 -2.8582881150204056 -13.539142868635453 0 0 0 0 60.26786799403817 -16.208574142046018 0 -16.208574142046018 -27.142170600949612 0 0 0 0 64.750884359571501 2.7956022906537328 0 2.7956022906537328 -16.853223469177237 0 0 0 0 66.537249591703585 -10.817358917876845 0 -10.817358917876845 -20.780128395652355 0 0 0 0 80.615893567326566 2.8669809839934715 0 2.8669809839934715 -23.24976754024101 0 0 0 0 80.657791802928841 1.1005190674752612 0 1.1005190674752612 -10.908366028190358 0 0 0 0 79.662846876621188 -2.7254936333065416 0 -2.7254936333065416 -23.554969667515024 0 0 0 0 40.574733332631368 -17.889608341487317 0 -17.889608341487317 -18.304680782478421 0 0 0 0 113.93503518803482 78.382281824957317 0 78.382281824957317 46.467498943213286 0 0 0 0 126.18875742814816 -3.6114311950319689 0 -3.6114311950319689 -20.088285368128709 0 0 0 0 61.20364998119112 -14.492515725715748 0 -14.492515725715748 -29.099969792858701 0 0 0 0 59.1334968048468 -20.684187959499695 0 -20.684187959499695 -33.588744301270708 0 0 0 0 89.708541348685685 20.782223249239905 0 20.782223249239905 0.72861006969833397 0 0 0 0 40.16917936279718 -15.199529831348613 0 -15.199529831348613 -21.776785049357496 0 0 0 0 47.127341226707358 0.35604190374488098 0 0.35604190374488098 7.9750846023234772 0 0 0 0 73.168448395139421 54.494522979207886 0 54.494522979207886 45.717514767362445 0 0 0 0 138.40934384554566 82.011135728753288 0 82.011135728753288 38.421079839261438 0 0 0 0 106.57612825425167 70.337896531894785 0 70.337896531894785 79.045273390185685 0 0 0 0 -161.7422388777195 3.7681695402643527 0 3.7681695402643527 77.465609751287047 0 0 0 0 -49.834353173693671 -126.30637531077764 0 -126.30637531077764 -5.0821402647488867 0 0 0 0 9.287394044766387 -4.7434298381020454 0 -4.7434298381020454 -1.4019508226543493 0 0 0 0 -69.609876975504449 -19.877101917205437 0 -19.877101917205437 57.64090440127984 0 0 0 0 82.547402763622813 -7.1732372925853269 0 -7.1732372925853269 -171.65704694348824 0 0 0 0 145.87771436687035 54.979698014638416 0 54.979698014638416 30.188985390142534 0 0 0 0 60.238697117419179 74.138209479202601 0 74.138209479202601 105.93032639040575 0 0 0 0 227.88713219998408 10.383904958871426 0 10.383904958871426 80.969679269328481 0 0 0 0 336.56752698886703 306.27961579381099 0 306.27961579381099 256.61536916484874 0 0 0 0 198.9002590205273 159.83454071939923 0 159.83454071939923 34.194595526369085 0 0 0 0 107.53435752713267 118.52599902071142 0 118.52599902071142 -9.7446354838855314 0 0 0 0 87.843163374047435 11.900487145841453 0 11.900487145841453 -6.8331926004981369 0 0 0 0 48.23322325974214 -18.386361935252353 0 -18.386361935252353 -17.751026356560374 0 0 0 0 62.627750379564532 2.8918115527162627 0 2.8918115527162627 -5.629330612112426 0 0 0 0 84.239595128446126 -4.51725984401304 0 -4.51725984401304 -5.0683978518427466 0 0 0 0 21.978991390671581 34.975067060210677 0 34.975067060210677 -31.758705932383577 0 0 0 0 -9.7150179908348946 60.048727523265086 0 60.048727523265086 -37.359548712644482 0 0 0 0 6.6041945501636263 13.916412996632147 0 13.916412996632147 -22.822518618532769 0 0 0 0 59.470634822174674 14.265488089263584 0 14.265488089263584 -16.811268608032332 0 0 0 0 124.6384889628971 -144.38682922475073 0 -144.38682922475073 2.5184401943752164 0 0 0 0 5.8434399294857826 -1.6737221689393067 0 -1.6737221689393067 -4.5734904506075544 0 0 0 0 287.12020118320652 66.295537948097262 0 66.295537948097262 -56.281261984641333 0 0 0 0 429.892369284702 356.58718140669043 0 356.58718140669043 71.046405360015342 0 0 0 0 4.8272882079929218 -1.7536769210569219 0 -1.7536769210569219 -1.7353461534299761 0 0 0 0 78.242992038096418 208.01746054700016 0 208.01746054700016 -32.080347975712357 0 0 0 0 615.06667604876566 278.01312206438797 0 278.01312206438797 -79.707553714062897 0 0 0 0 -1.1488952683866955 -170.87911633275598 0 -170.87911633275598 -14.663892429729458 0 0 0 0 47.945988175422826 75.465560795580132 0 75.465560795580132 -62.628280341845766 0 0 0 0 195.67538685119507 -127.47495972334673 0 -127.47495972334673 185.18262161284292 0 0 0 0 242.87504185999569 114.88547667340254 0 114.88547667340254 18.169631852938892 0 0 0 0 16.605739923208603 -18.638328194267615 0 -18.638328194267615 -5.6938829407072262 0 0 0 0 255.03693212599319 1.2391978330083475 0 1.2391978330083475 -63.29378085513622 0 0 0 0 273.44565391236938 51.743027806666191 0 51.743027806666191 23.657939672303655 0 0 0 0 152.83324307436123 171.57830168288478 0 171.57830168288478 181.60762096005146 0 0 0 0 231.18126797928562 158.09940492473515 0 158.09940492473515 143.4993049139066 0 0 0 0 438.90623419311669 288.81938235130519 0 288.81938235130519 159.36646379804188 0 0 0 0 132.71952728101314 194.65409500119222 0 194.65409500119222 156.77833547575847 0 0 0 0 226.56558506637521 128.07159515306739 0 128.07159515306739 13.345912377895729 0 0 0 0 -35.971006980842503 108.84804852705247 0 108.84804852705247 71.05413924291588 0 0 0 0 -24.514750221205759 -139.45066092300658 0 -139.45066092300658 3.7597857959599423 0 0 0 0 142.88818437435202 50.518400157727854 0 50.518400157727854 35.523119842619053 0 0 0 0 260.6713821984813 196.76455105348964 0 196.76455105348964 -71.920988686497537 0 0 0 0 211.02597060222615 221.39376367032793 0 221.39376367032793 -208.99782304934365 0 0 0 0 125.47626293866779 -44.437222064677599 0 -44.437222064677599 -27.841978427224149 0 0 0 0 26.463918546745845 183.31305411154707 0 183.31305411154707 115.09481675949974 0 0 0 0 -10.461885015829466 -12.007030215290229 0 -12.007030215290229 154.79271840521466 0 0 0 0 2.0497907911368429 1.1981783338087837 0 1.1981783338087837 0.51741152316677397 0 0 0 0 18.124142144086363 73.587364448198031 0 73.587364448198031 -114.02285196459047 0 0 0 0 6.3382556930555438 97.730002119273735 0 97.730002119273735 -69.722376081736485 0 0 0 0 46.313390491543458 8.4272609029107457 0 8.4272609029107457 -14.85268990951108 0 0 0 0 63.48057879040789 0.31574200531940733 0 0.31574200531940733 -21.785757064591053 0 0 0 0 -2.6964045944041573 35.262124856998753 0 35.262124856998753 -16.315004903257318 0 0 0 0 3.4953727111860644 36.254085760516659 0 36.254085760516659 -16.47664131231943 0 0 0 0 -0.73636102326447883 5.1131738207663489 0 5.1131738207663489 -11.205268328691535 0 0 0 0 4.7759586449974449 21.156418502410361 0 21.156418502410361 5.1439956437382648 0 0 0 0 -2.1294290643418208 26.509438588041462 0 26.509438588041462 7.0225397725050698 0 0 0 0 -104.63097129767993 -57.656992849072367 0 -57.656992849072367 39.558924232323989 0 0 0 0 -53.207018667904777 84.79872561375214 0 84.79872561375214 -0.26607104789741243 0 0 0 0 -0.58267964505526493 0.82770764530440033 0 0.82770764530440033 0.15416261230002348 0 0 0 0 -179.65715015877504 179.51399907872974 0 179.51399907872974 -3.8431133425920052 0 0 0 0 -16.815096579186502 27.946809366311584 0 27.946809366311584 17.495614141819033 0 0 0 0 -0.38453145200764993 6.1557008222108038 0 6.1557008222108038 22.8609661812186 0 0 0 0 3.0914430217798099 3.4701034433138034 0 3.4701034433138034 1.0905844104869802 0 0 0 0 -145.96531324443367 39.848133984475453 0 39.848133984475453 -63.208970912049608 0 0 0 0 235.10491297326371 368.92292929883229 0 368.92292929883229 -164.35980080336412 0 0 0 0 291.41412855563976 342.94686177463745 0 342.94686177463745 144.39398026315121 0 0 0 0 -127.8373832901234 -342.85765596397391 0 -342.85765596397391 -39.811075509738203 0 0 0 0 82.021490789062227 173.94817317670652 0 173.94817317670652 478.65240416746838 0 0 0 0 -275.64700684225681 16.895300685434449 0 16.895300685434449 381.51084565277506 0 0 0 0 9.2476075523494359 -9.1033276602124715 0 -9.1033276602124715 6.8480099195022177 0 0 0 0 -312.36013519281551 -115.19120996545553 0 -115.19120996545553 44.660667023477288 0 0 0 0 4.0807299607594274 -2.6237793699177274 0 -2.6237793699177274 1.1129954637494723 0 0 0 0 -2.9267095148388762 -32.82471592103343 0 -32.82471592103343 -32.309574839069683 0 0 0 0 88.080971493007382 0.032082175353252751 0 0.032082175353252751 -55.892591061709027 0 0 0 0 35.174426414218033 -37.983124817684484 0 -37.983124817684484 -32.78298415415577 0 0 0 0 7.8584691300629856 19.661437997986525 0 19.661437997986525 -59.391214458661125 0 0 0 0 163.75128771678283 96.889184032981802 0 96.889184032981802 37.256918910550894 0 0 0 0 266.57504786939353 132.77738871328782 0 132.77738871328782 76.786295328545975 0 0 0 0 119.62955672616954 97.486562757104934 0 97.486562757104934 162.89884175140992 0 0 0 0 43.776535729179159 47.75422738364864 0 47.75422738364864 93.752386182736473 0 0 0 0 26.902835600054004 -95.422267583313527 0 -95.422267583313527 -74.633079923153218 0 0 0 0 143.70971368678511 90.726497689468715 0 90.726497689468715 45.835792706104939 0 0 0 0 -26.914285358412599 -101.56770138229012 0 -101.56770138229012 37.028492675153245 0 0 0 0 11.664696520277346 -10.201175471160106 0 -10.201175471160106 7.0173788977226428 0 0 0 0 332.01510717205383 207.13872781557393 0 207.13872781557393 217.57903889574618 0 0 0 0 -143.57562009702815 -170.94559116904367 0 -170.94559116904367 -82.845829114046722 0 0 0 0 23.192700946633522 -15.724737974733948 0 -15.724737974733948 5.0627350745710284 0 0 0 0 467.70584684601818 339.68358387014848 0 339.68358387014848 231.80932433820453 0 0 0 0 281.4612286251504 136.693100616376 0 136.693100616376 163.30979199211538 0 0 0 0 292.04074759480227 262.67989275669555 0 262.67989275669555 276.8178561285074 0 0 0 0 301.00885233619192 176.50660538824832 0 176.50660538824832 37.450261617704797 0 0 0 0 276.31501478824066 123.85038498889739 0 123.85038498889739 148.60257651936854 0 0 0 0 12.655786288196396 166.16421072591265 0 166.16421072591265 150.92962453870996 0 0 0 0 294.47004365311022 70.638558458780281 0 70.638558458780281 -87.818982759538812 0 0 0 0 -1.1459848690785464 0.69058262145324534 0 0.69058262145324534 1.7809221113970626 0 0 0 0 275.43627984694467 147.10321508343497 0 147.10321508343497 117.05007448690731 0 0 0 0 291.4110536785156 231.30399592708659 0 231.30399592708659 204.72330239240205 0 0 0 0 411.39448574542712 360.34098776327983 0 360.34098776327983 261.51634062967059 0 0 0 0 339.54197907208072 191.66764480464229 0 191.66764480464229 158.70899458061231 0 0 0 0 251.68995336184685 253.504192656328 0 253.504192656328 252.46980552062203 0 0 0 0 99.071337628294714 185.96676863999227 0 185.96676863999227 195.91785610023339 0 0 0 0 16.845154733813587 -11.602175295027322 0 -11.602175295027322 4.1827787998852299 0 0 0 0 -167.45306439588239 -216.14504425128445 0 -216.14504425128445 -111.24881369754041 0 0 0 0 -64.533091870262069 -57.684794698415601 0 -57.684794698415601 -50.932701892643877 0 0 0 0 99.294306642739684 -35.67339993187943 0 -35.67339993187943 -73.89759576633196 0 0 0 0 175.96822343348322 12.506135744552608 0 12.506135744552608 -13.584431834508905 0 0 0 0 14.217179671040867 -14.163685879938196 0 -14.163685879938196 1.6161098656277204 0 0 0 0 110.75497068982804 -21.488798771587142 0 -21.488798771587142 -54.635003118536872 0 0 0 0 27.702596992821782 -87.725500573610901 0 -87.725500573610901 -114.51546959317326 0 0 0 0 9.2113219823731924 -61.057893236212522 0 -61.057893236212522 -94.22442707218363 0 0 0 0 26.801052118105872 -95.168530882109351 0 -95.168530882109351 -36.601212773773881 0 0 0 0 -95.197116474024369 -152.52809309953966 0 -152.52809309953966 -58.037622119715309 0 0 0 0 29.1951945545851 -20.152705511368346 0 -20.152705511368346 6.7765098414035618 0 0 0 0 96.138328438471945 -11.702146779809709 0 -11.702146779809709 22.893244010687795 0 0 0 0 164.75987070708652 -66.087665749528696 0 -66.087665749528696 65.821731940429913 0 0 0 0 88.832216941904335 -88.374159547531349 0 -88.374159547531349 -34.000690825069341 0 0 0 0 50.249714338620834 3.6629442912716286 0 3.6629442912716286 11.653268788270816 0 0 0 0 154.74139634800304 68.598156077483935 0 68.598156077483935 112.07622445154459 0 0 0 0 122.6087090526562 -29.603609597794687 0 -29.603609597794687 7.820728304716539 0 0 0 0 185.77655575598328 19.417484976551521 0 19.417484976551521 3.8357597404759076 0 0 0 0 129.61214983640093 48.565880179023964 0 48.565880179023964 8.7767580352933763 0 0 0 0 178.05831751579535 30.889617877963673 0 30.889617877963673 -0.17376021813964826 0 0 0 0 230.79761055068229 -27.806972296983986 0 -27.806972296983986 -48.879723550081508 0 0 0 0 103.62479129410715 -22.636648035329586 0 -22.636648035329586 -10.248950714099839 0 0 0 0 87.336676464270568 70.907039030950273 0 70.907039030950273 52.574759061977602 0 0 0 0 183.47702900323929 20.302177268455239 0 20.302177268455239 14.359151676351075 0 0 0 0 16.101632343904782 0.86504985862806194 0 0.86504985862806194 -0.033239305076068426 0 0 0 0 78.785289113977342 20.85681179667192 0 20.85681179667192 32.134623988361227 0 0 0 0 59.509911611029423 16.928906226666385 0 16.928906226666385 20.074506634895858 0 0 0 0 62.053734739062463 -11.548795359894328 0 -11.548795359894328 -8.0442588136597664 0 0 0 0 100.06655723619406 3.7408417202961743 0 3.7408417202961743 -7.0968656856330199 0 0 0 0 97.945155548441107 3.9153349392529435 0 3.9153349392529435 1.9766222402230369 0 0 0 0 187.27415441622361 19.705969036894672 0 19.705969036894672 0.66914249853719809 0 0 0 0 200.15537438706087 8.5816501683564717 0 8.5816501683564717 9.4754513384591483 0 0 0 0 28.681859572120501 -1.1402072453245609 0 -1.1402072453245609 1.6005235785994487 0 0 0 0 2355.3372288075916 -532.38590553709037 0 -532.38590553709037 -298.99657477053233 0 0 0 0 7.7446432471330127 8.6723998669991893 0 8.6723998669991893 3.6435680760775475 0 0 0 0 -446.89531232000445 -581.78575369522878 0 -581.78575369522878 670.16589289183048 0 0 0 0 408.05373806349235 -475.1702338638197 0 -475.1702338638197 488.74075497361082 0 0 0 0 539.15089691014146 -172.13157663482434 0 -172.13157663482434 -130.92496350643341 0 0 0 0 1389.5452193589881 -511.49468782537951 0 -511.49468782537951 -228.82047489708293 0 0 0 0 2024.079274648655 1599.7950030416148 0 1599.7950030416148 -624.44217989868775 0 0 0 0 82.808348320926683 1.5716634956713875 0 1.5716634956713875 -12.402806250812732 0 0 0 0 -277.83880742129986 -200.92283446368583 0 -200.92283446368583 -111.61127651769129 0 0 0 0 -362.23461649412639 815.16111180189682 0 815.16111180189682 -23.172510677753053 0 0 0 0 -676.25136577775993 -1.9910460309515656 0 -1.9910460309515656 40.761264258433584 0 0 0 0 80.810021465724276 2.8382578012542581 0 2.8382578012542581 26.421660430072052 0 0 0 0 88.392060120443176 -0.81651480364030959 0 -0.81651480364030959 -15.856506296106197 0 0 0 0 89.25602951741439 34.444533455657947 0 34.444533455657947 26.208438538787277 0 0 0 0 38.085651980509283 19.627211812721782 0 19.627211812721782 -9.714505562886302 0 0 0 0 93.622048204691964 26.194094560601116 0 26.194094560601116 17.667435574152023 0 0 0 0 54.648139717806117 3.260683384877467 0 3.260683384877467 -14.121516024127807 0 0 0 0 51.737605798545701 8.2783790308422454 0 8.2783790308422454 -19.159718800581004 0 0 0 0 71.359464232729806 -17.249617470066539 0 -17.249617470066539 2.0997737972937784 0 0 0 0 51.518481913677533 -8.0659559146392894 0 -8.0659559146392894 12.614247973963188 0 0 0 0 73.03601317385619 0.017578971441764679 0 0.017578971441764679 1.4418612663521344 0 0 0 0 167.88885530874541 9.6504582613586081 0 9.6504582613586081 -0.081976542101529049 0 0 0 0 25.345602309214883 -0.33243174366668882 0 -0.33243174366668882 3.1830736472620629 0 0 0 0 7.283360069429051 1.5694078609538593 0 1.5694078609538593 -2.8602912200508102 0 0 0 0 22.691845588080469 -7.3834659685486486 0 -7.3834659685486486 -26.673152337503893 0 0 0 0 49.77412021217242 35.940277785876162 0 35.940277785876162 -18.265934331886001 0 0 0 0 22.01442773429153 11.500823865525945 0 11.500823865525945 -9.4982815605730053 0 0 0 0 32.752421771575627 14.065315735107923 0 14.065315735107923 -4.3304565487807185 0 0 0 0 388.66971459150227 19.886959423689916 0 19.886959423689916 -1.1185472626937951 0 0 0 0 51.852843218719499 5.7438325928027467 0 5.7438325928027467 59.901360905006982 0 0 0 0 -0.52087614376755198 -1.4547954741524336 0 -1.4547954741524336 2.5254338627915427 0 0 0 0 113.08800479081401 1.1430410998568448 0 1.1430410998568448 -6.7986917816365988 0 0 0 0 108.33133725886 -13.66606745145873 0 -13.66606745145873 -3.8517248593250315 0 0 0 0 146.45296785538085 30.750071770685736 0 30.750071770685736 -30.374330805403815 0 0 0 0 108.48513121280121 48.480295504544415 0 48.480295504544415 19.644501133138419 0 0 0 0 158.8065883917152 103.0896721968154 0 103.0896721968154 35.799099455546298 0 0 0 0 152.21354561572662 112.96524956631538 0 112.96524956631538 96.694726052662702 0 0 0 0 302.92755062713695 61.516576484009079 0 61.516576484009079 14.10784803870115 0 0 0 0 93.327043421028065 28.259293856079694 0 28.259293856079694 11.828623551309718 0 0 0 0 71.208856084005674 -35.892612928332255 0 -35.892612928332255 32.409713905200022 0 0 0 0 156.59777748248598 92.190986920091916 0 92.190986920091916 56.043775955253295 0 0 0 0 216.07581198791013 1.4689221813357562 0 1.4689221813357562 -110.99032767874542 0 0 0 0 16.645699114254967 6.6942757664883175 0 6.6942757664883175 -110.86491498922953 0 0 0 0 73.061720096666249 33.636968023728059 0 33.636968023728059 -107.64205757095124 0 0 0 0 38.098332301975461 -85.266934483087994 0 -85.266934483087994 -88.204763517265292 0 0 0 0 -15.005290060100378 26.123755893154112 0 26.123755893154112 20.095856744181674 0 0 0 0 89.992075133202889 62.754602556518876 0 62.754602556518876 -30.174857231141232 0 0 0 0 -0.056974896397150587 59.390153867634808 0 59.390153867634808 -51.334861341493706 0 0 0 0 -18.345225736002845 21.164955592100434 0 21.164955592100434 -12.409839673478169 0 0 0 0 -13.097969114067382 47.848299899119411 0 47.848299899119411 35.256154409218652 0 0 0 0 -14.594956547720358 35.480746291625337 0 35.480746291625337 130.3986645333448 0 0 0 0 -3.7007766871198271 3.53966994025388 0 3.53966994025388 1.5648684582101819 0 0 0 0 112.68328326535993 157.71286301468763 0 157.71286301468763 38.083720643463721 0 0 0 0 87.933467516617384 112.7255089937712 0 112.7255089937712 -180.00102620079315 0 0 0 0 24.51010412445612 44.238923188505169 0 44.238923188505169 -104.36842062768847 0 0 0 0 107.77638694649795 48.838246710845851 0 48.838246710845851 -143.36872110162949 0 0 0 0 5.3809506404504646 106.45543768233301 0 106.45543768233301 -73.277968451259312 0 0 0 0 44.620338014110445 5.56721698072176 0 5.56721698072176 -8.779531059148777 0 0 0 0 -15.834057406464126 98.629473419403325 0 98.629473419403325 -12.724620078490261 0 0 0 0 149.8341893023462 30.09132016460353 0 30.09132016460353 -148.01761496824292 0 0 0 0 39.215389326309378 82.076131721745696 0 82.076131721745696 138.52964149739273 0 0 0 0 99.560838448654977 -125.26793623324193 0 -125.26793623324193 92.149228354606748 0 0 0 0 256.9770548205197 -63.422950981303075 0 -63.422950981303075 -109.58098725859963 0 0 0 0 148.00671496265568 -77.057288370870083 0 -77.057288370870083 2.4520036259182234 0 0 0 0 152.34321944172552 -203.38204271725772 0 -203.38204271725772 -23.590463897050086 0 0 0 0 -4.1133074798235612 100.17773941836458 0 100.17773941836458 26.63032635896343 0 0 0 0 4.2478856347948977 6.7121862762510744 0 6.7121862762510744 -4.4200131715461017 0 0 0 0 29.237371496448759 -151.04878088468286 0 -151.04878088468286 -37.414644891378884 0 0 0 0 47.723487645484752 -1.3613655642175004 0 -1.3613655642175004 -6.7491964300153473 0 0 0 0 4.479851741431105 -1.4268994944213169 0 -1.4268994944213169 -1.1156862363933584 0 0 0 0 -55.542898948260699 -198.81692464333901 0 -198.81692464333901 -22.358375907144364 0 0 0 0 216.70407856251768 116.81038793575772 0 116.81038793575772 44.1814503232481 0 0 0 0 -134.82602809488708 -95.664084865040877 0 -95.664084865040877 21.721860485184152 0 0 0 0 -3.9098046512226574 40.867446888321865 0 40.867446888321865 -9.4714431267948385 0 0 0 0 21.477564247543341 -0.43099569615696964 0 -0.43099569615696964 -14.236798729552902 0 0 0 0 32.88575618916002 -11.552541149800618 0 -11.552541149800618 -4.0534437596516 0 0 0 0 2.9760473074711626 236.04647562311766 0 236.04647562311766 26.648533252165862 0 0 0 0 33.302710711179316 -2.9035224449759665 0 -2.9035224449759665 -3.0776730710006897 0 0 0 0 21.056259188294405 -1.6711903920737825 0 -1.6711903920737825 -1.9794303963782465 0 0 0 0 124.60005610260123 -23.239663120711157 0 -23.239663120711157 -227.33867548750504 0 0 0 0 16.534795814317476 -77.078479454254193 0 -77.078479454254193 59.501952421480837 0 0 0 0 209.77406387141389 -56.906446717319795 0 -56.906446717319795 -9.143565861371826 0 0 0 0 -38.862616975677156 20.904189173992563 0 20.904189173992563 -11.574699521375805 0 0 0 0 -18.472393001822638 -50.580505138179433 0 -50.580505138179433 13.760513814779188 0 0 0 0 17.840533332434887 -4.9618176600122226 0 -4.9618176600122226 -3.5279193806718467 0 0 0 0 209.37401805012723 354.10661707981671 0 354.10661707981671 526.42304811129907 0 0 0 0 5.6550198214380458 -1.8154466168657777 0 -1.8154466168657777 0.14751964509166626 0 0 0 0 26.587956150947207 -12.439573271597958 0 -12.439573271597958 -1.4730620623020414 0 0 0 0 33.329277898243163 -12.666937149433579 0 -12.666937149433579 -10.267062136575078 0 0 0 0 33.323757058630633 -12.708150703884209 0 -12.708150703884209 2.7148419229819587 0 0 0 0 431.20939181625727 347.56880506481502 0 347.56880506481502 207.27214951021961 0 0 0 0 297.85093529934602 108.69186514681587 0 108.69186514681587 90.220809891154204 0 0 0 0 -0.24309556277705724 -10.009213533138976 0 -10.009213533138976 3.4914084996588701 0 0 0 0 798.57153995406406 224.70502693786148 0 224.70502693786148 3.2217258910523014 0 0 0 0 408.74321076049091 385.6172515820972 0 385.6172515820972 308.12837520004177 0 0 0 0 331.83630307212297 257.35791033134819 0 257.35791033134819 102.51552092527709 0 0 0 0 236.43597376369871 200.00745840492709 0 200.00745840492709 217.1020581956127 0 0 0 0 117.86708687983628 -16.049043086859456 0 -16.049043086859456 -148.30088259998411 0 0 0 0 -45.14028566145862 121.20494394752041 0 121.20494394752041 -35.485266431631317 0 0 0 0 253.15864131825037 55.621509780970882 0 55.621509780970882 13.342877130216948 0 0 0 0 71.294502997210657 18.664641073450184 0 18.664641073450184 98.943503576221701 0 0 0 0 111.96002471495012 118.52332721912171 0 118.52332721912171 102.28780384362472 0 0 0 0 158.82749355699343 58.436966224544449 0 58.436966224544449 -29.324532954502502 0 0 0 0 102.5710423369128 141.04665536486982 0 141.04665536486982 181.88908683237241 0 0 0 0 320.78555793590931 136.71393399737644 0 136.71393399737644 65.342978917085929 0 0 0 0 325.79814761167654 226.1100533511144 0 226.1100533511144 126.57936233940882 0 0 0 0 553.82228342852613 321.22824365068846 0 321.22824365068846 119.07144377693612 0 0 0 0 301.00158413871395 175.43238688334441 0 175.43238688334441 158.58846793116027 0 0 0 0 313.66257936010516 231.59923058806316 0 231.59923058806316 341.0904502270887 0 0 0 0 630.87960257870145 181.63263389899839 0 181.63263389899839 149.6825477434827 0 0 0 0 671.99380674409622 520.55844477380742 0 520.55844477380742 331.0652164129533 0 0 0 0 37.264693475466814 -24.74029920696244 0 -24.74029920696244 8.1782541271772047 0 0 0 0 456.94582250265375 330.4941392470605 0 330.4941392470605 192.69202724891375 0 0 0 0 602.09425378586457 141.75862739268632 0 141.75862739268632 70.991380482437023 0 0 0 0 194.2450223306605 174.5716667888837 0 174.5716667888837 193.46453443873361 0 0 0 0 352.99095335952734 293.11629120497219 0 293.11629120497219 152.23466285692689 0 0 0 0 407.10250637339777 401.53654387468458 0 401.53654387468458 263.35979488791418 0 0 0 0 363.49879011679877 254.68104395683918 0 254.68104395683918 245.58813568771075 0 0 0 0 27.022167687147885 -78.279673372972979 0 -78.279673372972979 -99.329547188134484 0 0 0 0 18.433088642708753 -78.384986234967357 0 -78.384986234967357 -20.231409623442232 0 0 0 0 62.418482406195835 -32.58305415243467 0 -32.58305415243467 -41.526648818383819 0 0 0 0 171.49797412606495 -48.545360733666769 0 -48.545360733666769 -44.338798073149519 0 0 0 0 81.44290532280138 -103.46088787160897 0 -103.46088787160897 -84.901350440369924 0 0 0 0 62.859043062846467 -75.240225226804114 0 -75.240225226804114 -151.50459719525321 0 0 0 0 -1.049196078401792 -77.685804134424359 0 -77.685804134424359 -90.667141017125232 0 0 0 0 0.77735503621806856 -130.6036044260286 0 -130.6036044260286 -86.080935341839449 0 0 0 0 
</DataArray>
<DataArray type="Float64" Name="cross_section_updated" format="ascii">
1 1 1 1 1 0.011798759660121717 1 1 1 1 1 1 1 1 1 1 0.01179457653644404 1 1 1 1 1 1 1 1 0.0090803702844541329 0.00850994736923796 1 0.012381118107509241 1 1 0.016006709779188721 1 1 0.0097496188012966504 1 0.010050726775614619 1 0.016643798608024864 1 1 1 0.016623273633095938 1 0.010035634603228594 1 0.010022876794642956 1 1 1 1 1 1 1 1 1 1 1 1 1 0.016906148864568704 1 1 0.016607084847346319 1 1 1 1 1 1 0.010488122990146873 1 1 1 1 1 1 0.0097264469167538982 1 1 1 1 1 1 1 1 0.0099059666584571295 1 1 1 1 1 1 1 1 1 1 0.010626292134644144 1 1 1 1 1 1 1 1 1 0.011256478062233982 1 0.010066837338094742 1 1 1 1 1 1 1 1 1 1 1 1 1 1 1 0.011769139865874276 1 0.010170140887568901 0.011319711111759565 1 0.012227904044549551 1 1 1 0.011451846066880761 0.011220157646640923 1 1 1 1 1 1 1 1 1 1 1 1 1 1 1 1 1 1 1 1 1 1 1 0.010224446932173224 1 1 1 1 1 1 1 1 1 1 1 1 1 1 1 1 1 1 1 1 1 1 1 1 1 1 1 1 1 1 1 1 1 1 1 1 1 1 1 1 1 1 1 1 1 1 1 1 0.010207485400529936 1 0.010554379406388432 1 1 1 1 1 1 1 1 1 1 1 1 1 1 1 1 1 1 1 0.0098593999253283864 1 1 1 1 1 0.0093778257903108769 1 1 0.013927026170975264 0.010362234726389762 1 1 1 0.010853854621505937 1 1 1 1 1 0.012168697103001509 0.011490477960421484 1 0.013526676064054333 1 1 1 1 1 1 1 1 1 1 1 1 0.01532184142781564 1 1 1 1 1 1 1 1 1 1 0.010491619895116166 1 1 1 1 1 1 1 1 1 1 1 1 1 0.010541091398273245 1 1 1 1 1 1 1 1 1 1 1 1 1 1 1 1 1 1 1 1 1 1 1 1 1 1 1 1 1 1 1 1 1 1 1 1 1 1 1 1 0.011573113232283317 1 0.010975713374220897 1 1 0.011121877881321608 1 1 0.012516238853707997 1 1 1 1 0.01292356262389272 1 1 0.0094236446603838449 1 1 1 1 1 1 0.012712928546476411 1 1 0.013280297126203239 1 1 1 1 0.010000993611088719 1 1 1 0.0097086246520363927 1 0.0099989453839221792 0.014929802341483661 1 1 0.012363798374274506 0.011329920221966416 1 1 1 1 1 1 1 1 1 1 1 1 1 1 1 1 1 1 1 0.011194808311608396 1 1 1 1 1 1 1 1 1 0.010905200041969279 1 1 1 1 1 1 1 1 1 1 1 1 1 1 1 1 1 1 1 1 1 1 1 1 1 1 1 1 1 1 1 1 1 1 1 1 1 1 1 1 1 1 1 1 1 1 1 1 1 1 1 1 1 1 1 1 0.010411843825033852 1 1 1 1 1 1 1 1 1 1 1 1 1 1 1 1 1 1 1 1 1 1 1 1 1 1 1 1 1 1 1 1 1 1 1 1 1 1 1 1 1 1 1 1 1 1 1 1 1 1 1 1 1 1 1 1 1 1 1 1 1 1 1 1 1 1 1 1 1 1 1 0.012111461854517091 1 0.011081387029490873 1 1 1 1 1 1 1 1 1 1 1 1 1 1 1 1 1 0.012203006721990657 1 1 1 1 1 0.010745374445899994 1 1 1 1 1 1 1 1 1 1 1 1 1 1 1 1 1 1 1 1 1 1 1 1 1 1 1 1 1 1 1 1 1 1 1 1 1 0.012001640256009987 1 1 1 0.010273205997857323 1 1 1 1 1 1 1 1 1 1 1 0.010166118448021549 1 0.011625712421513003 1 1 1 0.011297931089140409 1 0.010387512532418276 1 1 1 1 1 1 1 1 1 1 1 1 1 1 1 1 1 1 1 1 1 1 1 1 1 1 1 1 1 1 1 1 1 1 1 1 1 1 1 1 1 1 1 0.011940655102058434 1 1 1 1 1 0.010116542782169245 1 1 1 1 1 1 0.014429421870675585 1 1 1 1 1 1 0.011273022307646477 1 1 1 1 1 1 1 1 0.014807651578801817 1 1 1 1 1 1 1 1 1 1 0.014145654582354075 1 1 1 1 0.010036485222891517 1 1 1 1 1 0.011575556194552264 0.010439045914797088 1 0.010936359571147365 1 1 1 1 0.015541384353654623 1 0.014796291768739214 0.010003408550575505 0.016525192489253805 1 1 1 1 1 0.010341358034195818 1 1 1 1 1 0.013243320441021732 1 1 0.0099906361867035665 1 1 1 1 1 1 1 1 1 1 1 1 1 1 1 1 1 1 1 1 1 1 1 0.010021360318899537 1 1 1 1 1 1 0.010030724132195959 1 1 1 1 1 1 1 1 1 1 1 1 1 0.010380243367388402 1 1 1 1 1 1 1 1 0.010454847566547378 1 1 1 1 1 1 1 1 1 1 1 1 1 1 1 1 1 1 1 1 1 1 1 1 1 1 1 1 1 1 1 1 1 1 1 1 1 1 1 1 1 1 1 1 1 1 1 1 1 1 1 1 1 1 1 1 1 1 1 1 1 1 1 1 1 1 1 1 1 1 1 1 1 1 1 1 1 1 1 1 1 1 1 1 1 1 1 1 1 1 1 1 1 1 1 1 1 1 1 0.02892249989400577 1 1 1 1 1 1 0.010793891294893649 1 1 1 1 1 1 1 1 1 1 1 1 1 1 1 1 1 1 1 1 1 1 1 1 1 1 1 0.030719451519442782 1 0.021439585938492101 1 1 1 1 1 1 0.022278773374042431 0.0090985224930034726 1 1 1 1 1 1 1 1 1 0.012463739121198761 1 1 0.025469475707933571 1 1 1 1 1 1 1 1 0.01579074778451682 1 1 0.016429209740075772 0.011231111602548671 1 1 1 1 1 1 1 0.010417781483380011 1 1 0.011045565006957947 1 1 1 1 1 1 0.013997000859811842 1 1 1 1 1 1 1 1 1 1 1 1 1 1 1 1 1 0.011485261964313119 1 0.011775897709972203 1 1 1 1 1 1 1 1 1 1 1 0.011886291585153929 1 1 1 1 1 1 1 1 1 1 1 1 1 1 1 1 1 1 1 1 1 1 1 1 1 1 1 1 1 1 1 1 1 1 1 1 1 1 1 1 1 1 1 1 1 1 1 1 1 1 1 1 1 1 1 0.010652701245782244 1 1 1 1 1 1 1 1 1 0.0098041975170264084 1 1 1 0.012477348606282525 0.0088984370627511761 1 0.0097122714927029216 1 0.011140737440583848 1 0.0098932108566158489 1 1 1 1 1 0.0073230093510323301 1 1 0.014543503368570843 1 1 0.0081715586094684278 1 1 1 1 1 1 0.0088746357016905985 1 0.0099817645028593676 0.010252477301479079 1 1 1 1 1 1 1 1 1 0.0096415777484576085 1 1 1 1 1 0.011711789782356919 1 1 1 1 0.013802729455541458 1 1 1 1 1 0.012555146935035788 1 1 0.01330420186333546 1 1 0.011109671175520724 1 1 1 1 1 1 1 1 0.010177587681272995 1 1 1 1 1 1 1 0.010450176889945827 1 1 0.016070911943409309 0.0157291609555846 1 1 1 1 1 1 1 1 1 0.015772228402986244 1 0.016103782455630617 1 1 1 1 1 1 1 1 1 1 1 1 1 1 1 1 1 1 1 1 0.030219629531143523 1 1 1 0.011758182120182276 1 1 1 1 0.015404047541150375 0.0057879874237058808 0.010145943169183887 1 1 1 0.015058515765037386 1 1 1 0.014504561443057829 1 0.013135649458660468 1 0.018515916642850835 0.02756149731580701 1 1 1 0.0098787450976802541 1 1 1 0.0085500371956462127 1 1 0.023552378895301769 1 0.019180684982908015 1 1 0.010151904704942417 1 1 1 1 1 1 1 1 1 1 1 1 1 1 0.010198402074242194 1 1 1 1 1 1 0.010480932436075893 1 0.012655157776179961 1 1 1 0.016861296057109218 1 1 0.010404228273832493 1 1 0.012580820769547548 1 1 1 1 1 1 1 1 0.011640433939486706 1 1 1 1 0.011691648646245906 1 1 1 1 0.017734980086351361 1 1 1 1 1 1 1 1 0.010839930023728577 1 1 1 0.010975065894777572 1 1 1 1 1 1 1 1 1 1 1 1 1 1 1 1 1 1 1 0.011474502670966788 1 1 0.014353061012024392 1 1 1 1 1 1 1 1 1 0.010244320541228299 1 1 1 1 1 0.010636007310153 1 1 1 0.009490462297523608 1 1 0.012173297877045405 1 0.010837228055793709 0.012353528948637373 1 1 1 1 1 1 0.026568512421689387 1 0.0062849606103793209 1 1 1 0.0091444209219260133 1 1 1 0.0097252571962074368 1 1 1 1 1 1 1 1 1 1 1 1 1 1 1 1 1 1 1 1 0.025507501897706914 1 1 1 1 0.023583821030741324 1 1 1 1 1 1 1 1 1 1 0.027070562282055385 1 1 1 1 1 1 1 1 1 1 1 1 1 1 1 1 1 1 0.010313666093689187 1 1 1 1 1 1 1 1 1 1 1 1 1 1 0.013326975805703491 1 1 1 1 0.018723625316361472 1 1 1 1 1 1 1 0.0087552376334576187 1 1 1 1 1 1 1 1 1 1 1 1 1 1 1 1 1 0.018937500207898951 1 1 1 1 0.01706109009736035 1 1 1 1 1 1 1 1 0.019167418715083144 1 1 0.010521800541661032 1 1 0.012805360039886127 1 1 1 1 1 1 1 1 1 1 0.010734492810102195 1 1 1 0.010212692268441169 1 1 1 1 1 1 1 1 1 1 1 1 1 1 1 1 1 1 1 1 1 1 1 1 1 1 0.010918032656983549 1 1 1 1 1 1 1 1 1 1 0.012207485890169173 1 0.010022459605237358 1 1 1 1 1 1 1 0.012729909276904679 1 0.010089901469203938 1 1 0.010004629901180815 1 0.0142221058246464 1 0.013224107692740407 1 1 1 1 1 0.012819242016760551 1 1 1 1 1 1 1 0.011359814288375783 1 1 1 1 1 1 1 1 1 1 1 1 1 1 1 1 1 1 1 1 1 1 1 1 1 1 1 1 1 1 1 1 0.0097589989813830595 1 1 1 1 1 1 1 0.011026976445636466 1 1 1 1 1 1 1 0.018108157972720182 1 1 1 1 1 0.01581085313246252 1 1 1 1 1 1 1 1 1 1 1 1 0.017195569678053017 1 1 1 1 1 0.017155927611309865 1 0.010938359726307589 1 1 1 1 1 1 1 1 0.012188343724400755 1 1 1 1 1 1 0.0090370453463286711 1 1 0.016922198570004991 1 1 1 1 1 1 1 1 1 1 1 1 1 1 1 1 1 1 1 1 1 0.010494721092970848 1 1 1 0.011157970205256737 1 1 1 1 0.013992589293674503 0.015011628182060682 1 0.009511227800901868 0.0094934527748617402 0.02034463558602238 1 1 1 0.010005469206391761 0.0078954638462977889 1 1 1 1 1 1 1 1 1 0.010662739812527596 1 0.018511415706054149 1 1 1 1 0.0099376820971411213 1 1 1 1 0.015070401655052064 1 0.011442270609741324 1 1 1 0.010930689134765314 1 1 1 1 1 0.016856621844227017 1 1 0.015952659570673419 1 1 1 1 1 0.014788660918377283 1 1 1 1 1 1 1 1 1 1 1 1 1 1 1 1 1 1 1 1 1 1 1 1 1 1 1 1 1 1 1 1 1 1 1 1 1 1 1 1 1 1 0.010146143864084294 1 1 1 1 1 1 0.0080791611993930416 1 0.011206566464223917 1 1 1 1 1 1 1 1 1 0.0099958939422141371 1 0.0096263151272670561 1 1 1 1 1 1 1 0.0076619067539619428 1 1 1 1 0.01829768250578237 1 1 0.010188616865176971 1 1 1 1 1 1 1 1 1 1 1 0.010451571047997989 0.0098000576168652768 1 1 1 0.015666470284309085 0.01321923517509852 1 1 1 1 1 1 1 1 1 1 1 1 1 1 1 1 1 1 1 1 1 1 1 1 1 1 1 0.010168653265192845 1 1 1 1 0.00865728173956418 1 1 1 1 1 1 1 0.0098504384589829363 0.0099525135518185783 1 0.0088956153071889053 1 1 1 1 1 1 1 1 1 1 1 1 0.0093464393954379599 1 1 1 1 1 1 1 1 0.010424962139619907 1 1 1 1 1 0.0098766537980153387 1 1 1 0.0099292358867596846 1 1 1 1 1 1 0.010082862966469793 1 1 1 1 1 1 1 1 1 1 1 1 1 1 1 1 1 1 1 1 1 1 1 1 1 1 1 1 1 0.010806264195520273 1 1 1 1 1 1 1 1 1 1 1 1 1 1 1 1 1 1 1 1 1 1 1 1 1 1 1 1 1 1 1 1 1 1 1 1 1 1 1 1 1 1 1 1 1 1 1 1 1 1 1 1 0.010861453833881853 1 1 1 1 1 1 1 1 1 1 1 1 1 1 1 1 1 1 1 0.01211802136115642 1 1 0.012740479641557832 1 1 1 1 1 1 1 1 1 1 1 1 1 1 1 1 1 1 1 1 1 1 1 1 1 1 1 1 1 1 1 1 1 1 1 1 1 1 1 1 1 1 1 1 1 1 1 1 1 1 1 0.0087299466993985431 1 1 1 1 1 1 1 0.011102169738620443 1 1 1 1 1 0.0099209624244622537 1 1 1 1 1 1 1 1 1 1 1 1 1 1 1 1 1 1 1 0.011442927593716762 1 1 1 1 1 1 1 1 0.013791659188795831 1 0.0098466979381404696 1 1 1 1 1 0.012154277279647553 0.010362465112355982 1 1 0.0099531983007200061 1 1 1 1 1 1 1 0.0081211022319035431 1 1 1 1 1 1 1 1 1 1 1 1 1 1 1 1 1 1 0.011209746480792017 1 1 1 1 1 1 1 1 0.013357141900777345 1 1 1 1 1 1 1 1 1 1 1 1 1 1 1 1 1 1 1 1 1 1 1 1 0.012385703168508552 1 1 1 1 1 1 1 1 1 1 1 1 1 1 1 1 1 1 1 1 1 1 1 1 1 1 0.014121946828608581 1 0.010786019841841347 1 1 1 1 1 1 1 1 1 1 1 1 1 1 1 1 1 1 1 1 1 1 1 1 1 1 1 0.010151829202291117 1 1 0.010042704017756985 1 1 1 1 1 1 0.013489267429740173 1 1 1 1 0.0075455773658567905 1 0.01397180946054306 0.0099190881502193434 1 1 1 1 1 1 1 1 1 1 1 1 1 1 1 1 1 1 1 1 0.0083047039041044702 0.017779438642262876 1 1 1 1 0.015074838321016503 1 1 1 1 1 1 1 1 1 1 1 1 1 1 1 0.012378214417172739 0.011836982622407077 1 1 0.012349749866706831 1 1 1 1 1 1 1 1 1 1 1 1 1 1 1 1 1 1 0.010960312195705976 1 1 1 1 1 1 0.00981634290459742 0.010777799645054344 1 0.00991242025026654 1 1 1 1 1 1 1 1 1 1 1 1 1 0.01403644012414495 1 1 1 1 1 1 1 1 1 1 1 1 1 1 1 1 1 1 1 1 1 1 1 1 1 1 1 0.013119190903981311 1 0.0094270564798338355 1 1 1 1 1 1 1 1 1 1 1 1 1 0.011268517242275651 1 1 1 0.010872863298310463 1 1 1 0.011768222086783492 1 1 1 1 1 1 0.010006605804393789 1 1 0.0098437745954639295 1 1 1 1 1 1 1 1 1 1 1 1 1 1 1 1 1 1 0.0097626299193457229 1 1 1 1 0.010018816662594694 1 0.0093820347794263802 1 1 0.013909106879329738 1 1 1 1 1 1 1 1 1 1 1 1 1 0.010074546461693555 0.011603422930791314 1 1 0.010840935624378233 1 0.011074416746177346 0.01079302379277336 1 1 1 1 1 1 1 1 1 1 1 0.010006260093791882 1 1 0.010005149865558935 1 1 1 1 0.010149177307932498 0.010889119838254972 1 0.010126162560764415 1 0.012311443730545633 0.01033965933580494 1 1 1 0.010552209515127996 0.011738043544993818 0.0097750914135677058 1 1 0.010654655665258144 0.011623064998437033 1 0.010526636675829291 1 1 0.011384152726339171 1 1 1 0.010142598533516196 1 1 1 0.010417023364366357 1 1 0.012556534351974291 1 1 0.010245004858549324 1 0.014311374088843178 1 1 1 0.012278023341456043 1 0.012924961049657673 1 1 0.010424252428985422 0.0099047054194766442 0.012157715969583462 0.015441019714259598 1 0.0088603711377496508 1 1 1 0.0099933359424037738 1 1 1 0.0099991448083628295 0.01232518702837182 1 1 0.011928551846815166 1 0.010352228153539235 1 1 0.010282120045648994 0.010718829056230419 1 0.011836921888431908 1 1 1 0.01001372461643232 1 1 1 1 1 1 0.015747834022373904 1 1 1 0.0095218604768982831 1 1 1 1 1 1 1 1 1 1 1 1 0.010067947803767921 1 1 1 1 1 1 1 1 1 1 1 1 1 1 1 0.010689155151294785 1 1 1 0.010933011652218036 1 1 0.012483174877362724 1 1 1 1 1 1 1 1 1 1 1 1 1 1 1 1 1 0.0098198910030182964 1 1 0.012736385730570817 1 1 1 0.010005732864445862 1 0.0088286349285551704 1 1 0.0095524852169569883 1 1 1 0.0096705676166825728 1 1 1 0.010932743812204535 1 1 1 1 1 1 1 1 1 1 1 0.0085477594217369182 1 0.015510879098536783 1 0.016807151389854828 1 1 1 1 1 1 1 0.0090204110721179981 1 1 1 1 0.010187062664920418 1 0.014462176894216137 1 0.014609412786566207 1 1 1 0.0098469600581257734 1 0.015122873585520079 1 1 0.013759959197461327 1 0.008711564264965178 0.0099918212260877819 1 1 1 1 1 1 1 0.011619702458754976 1 1 0.010072184782654259 1 1 1 1 1 1 0.010105026714084191 1 1 1 1 1 1 1 1 0.010219070748632708 1 1 1 1 0.010275732463021124 1 0.0099996090201736054 1 1 0.011282656239110893 1 0.012417566041742129 1 1 1 1 1 1 1 1 0.011152291986018754 1 1 1 1 1 1 1 1 1 1 1 1 1 1 1 1 1 0.010006370070161211 1 0.0097065927932814145 0.014768262823799198 1 1 1 1 1 0.0098029417501511538 1 1 1 1 1 1 1 1 0.012535502125065288 1 1 0.011092359584624602 1 1 1 1 1 0.010180881487782331 1 1 1 1 1 1 1 1 0.010537865938500673 1 1 0.0099972922394770646 1 1 1 1 1 1 0.011022302289526588 1 1 0.0097580469858330014 0.0099932011974112091 1 0.010756498434372104 1 0.010594978122066993 0.010624996363128915 0.010628389425028913 1 1 1 0.011618544817053707 0.011151400966438681 1 1 0.0097562168098698759 0.0124672754415441 1 0.010803189213150478 1 1 0.011702481619866749 0.011777929799711005 1 1 0.01180607429023018 1 1 1 0.01181688288451185 1 0.013370190854196745 0.0099887538958418967 1 1 1 1 1 1 1 1 0.010160402674481983 1 1 1 1 1 1 1 1 1 1 0.010469306302740303 1 1 0.010198429202939147 1 0.011044052613901935 1 1 1 1 1 1 1 1 0.0095931682306731863 1 1 1 0.0089401566381444343 1 1 1 1 1 1 1 0.011563503126506917 1 1 1 1 1 1 0.010947773589966086 1 1 1 1 1 1 0.010031231017994951 1 1 1 0.014079646102808908 1 1 1 0.010884112456150889 1 0.010086593407502814 1 0.010670791862594533 1 1 1 1 0.010335576572760699 0.0099507653842420933 1 1 1 1 1 1 1 1 1 1 1 1 1 1 1 1 1 1 1 1 0.011062082982598653 1 1 0.010007751778313256 1 1 1 0.0097919904812085439 0.011038994488254943 1 0.012732346001683022 1 1 1 1 1 1 1 1 1 0.010823432969225206 1 1 1 1 1 1 0.013630365818351219 1 1 1 1 1 1 1 1 0.011574519783558517 1 1 1 0.0079984244408203217 0.010918746215271363 1 1 1 1 1 1 1 1 1 1 1 1 1 1 0.010901463385169809 1 1 1 1 1 1 1 1 1 0.010002791576486647 1 0.010284889398192653 1 1 1 1 1 1 1 1 1 1 1 1 1 1 1 1 1 1 1 1 1 1 1 1 1 1 1 1 1 1 1 1 1 1 1 1 1 1 1 1 1 1 1 1 1 1 1 1 1 1 1 1 1 0.0083072811948228659 1 0.0098891168310762702 1 0.011002636307338411 1 1 1 1 1 1 1 0.011142167021850205 1 1 1 1 0.011539213856534988 1 1 1 1 1 1 1 1 0.0098528410304547977 1 1 1 1 1 0.0091269430544223228 0.0098408704028801648 1 1 1 1 0.011807557715440089 1 1 0.010012299540820176 1 1 1 0.011722993316419753 1 1 0.01050371403553556 1 1 1 1 1 0.010734506700391971 1 0.013833076876208035 0.011450253014497692 1 1 0.0073009236060896706 0.010394233414253384 1 1 1 0.0085591934321933467 1 0.010006505196954469 1 0.010852081344736919 1 1 1 0.011030588982068875 0.0089723607688353257 1 1 1 0.010003307565791682 0.011194062575256264 1 0.0092664765709687558 1 1 1 0.011463332448696274 0.013608092279810163 1 1 1 0.0089338893165348248 0.011102857448857568 1 0.011305970651071631 0.010580622222489689 1 0.0098561421046692646 0.014073206769776768 1 1 1 1 0.008191552750274363 1 0.013048872916063735 1 0.0095945916388953979 1 0.013013827169249906 1 1 1 1 1 1 1 1 1 1 0.010086993754853994 1 1 0.0099847053901172406 1 0.010537829970914209 1 1 1 0.0089799425433221385 0.0089942018977393311 1 1 1 0.011767710599594021 1 0.010005626100268242 1 0.011508089175163695 0.010059607224725656 1 1 1 1 1 1 1 1 1 1 1 1 0.010571835950726366 1 1 1 1 1 1 0.010608453173487794 1 1 0.012563291131990685 1 1 1 1 1 1 1 1 1 0.011853086717199687 1 1 0.013135995052334985 1 1 1 1 1 1 1 1 1 1 1 1 1 1 1 1 1 1 1 1 1 1 1 1 1 1 1 1 1 1 1 1 1 1 1 1 1 1 1 0.011115095121282685 1 1 1 1 1 1 0.010543259170556315 1 1 1 1 1 1 1 1 1 1 1 1 0.010084178138716655 1 0.010022741164794277 1 1 1 1 1 1 1 1 1 1 1 1 1 1 1 1 1 1 1 1 0.010641801914651198 1 1 0.0099840629303022572 1 1 1 0.011758005114596168 0.0099796680240877879 1 1 1 1 1 1 1 1 0.010219046164455171 1 1 1 1 1 1 1 1 1 1 1 1 1 1 1 1 0.011340653341407256 1 1 1 1 1 1 0.010791083489401148 0.013343691348650386 1 1 1 1 1 1 1 1 0.0101156913646199 1 1 1 0.012728192272761688 1 1 1 1 1 1 0.01194917620752883 1 1 1 1 1 1 1 0.01051002542319927 1 1 1 1 1 1 1 1 1 1 1 1 0.0088527818046115689 1 1 1 0.0096492136649006556 1 1 1 1 0.010999169138967084 1 1 1 1 1 1 1 1 1 1 1 1 1 1 1 1 0.011609779775751058 1 1 1 1 1 1 1 1 1 1 1 0.011743430842162974 1 0.010913412857377243 1 1 1 1 1 1 1 1 0.010324162665084333 1 1 0.010510312025215525 1 1 1 1 1 1 0.011333875768326892 1 1 0.0095562925644114196 0.013007365736138348 1 1 1 1 1 1 1 1 1 0.013686490822570544 1 1 1 0.012360826980039263 1 1 1 1 1 1 1 1 1 1 0.010818613861556171 1 1 1 1 1 1 1 1 1 1 1 1 1 1 1 1 1 1 1 1 1 1 1 1 1 1 1 1 1 1 0.01066535086637432 1 1 1 1 1 0.011693143032619233 1 1 1 1 1 1 1 1 1 0.012621541152508024 1 0.0096815972718882828 1 1 1 1 1 1 0.012243310182296175 1 1 0.01247952151462766 1 1 1 1 1 1 1 1 1 1 1 1 1 1 1 1 1 1 1 1 1 1 0.010166798081722711 1 0.010180686638798758 1 1 1 1 1 1 1 1 1 1 1 1 1 1 1 1 1 1 1 1 1 1 1 0.0099203994707897074 1 1 1 1 0.0097869101768975567 1 1 1 1 1 0.013784840332841455 1 1 0.012546575276192825 1 0.010388773698670695 1 1 1 1 0.011234217466968193 0.0091506022387037207 0.012655723025991949 1 1 0.01294847088983949 1 1 0.0096568323643298117 0.0088865789209851519 1 0.013381102546620727 1 1 1 1 1 0.012783808160547746 1 1 1 0.010438327576151782 0.012225501639120742 0.0099958114238335189 0.010739564239199756 1 1 1 0.010001078928930452 0.0099231941123989909 1 1 1 0.012508416570716285 0.011418471635143208 1 0.0089824453799231211 1 1 1 1 1 1 1 1 1 1 1 1 1 1 1 1 1 1 0.01000108135131993 1 1 1 1 1 1 1 1 1 1 1 1 0.0099110405677858733 1 1 1 1 1 1 1 1 1 1 1 1 1 0.018262889402350782 0.010087956508983581 1 1 1 1 1 1 1 1 0.015242952360091065 1 0.012744106666812685 1 1 1 1 0.013631593163757621 1 0.014610678788311248 1 1 1 1 1 1 0.010395897811340832 1 1 1 1 1 1 1 1 1 1 1 1 1 1 1 1 0.010316820851807469 1 1 0.010168234594572128 1 1 1 1 1 1 1 1 1 1 1 1 1 1 1 1 1 1 1 1 0.016682596643924141 1 1 1 1 1 1 1 1 0.0083939935145268436 1 1 1 1 1 1 1 1 1 1 1 0.0099476533050576778 1 0.015382607967429109 1 1 1 1 1 0.0070928230490596798 1 1 1 0.015816739297239604 1 0.010196887696110239 1 1 1 1 1 1 1 1 1 0.0095466671460228223 1 1 1 1 1 1 1 1 1 1 1 0.012263581638787194 1 1 0.017555460695362103 1 1 1 1 1 0.010480883159390358 0.01123908775308482 1 1 1 1 1 0.0087772539856236301 1 1 0.01206251956225318 1 1 0.012470011019444699 1 1 1 1 1 1 1 1 1 1 1 1 1 1 1 1 0.012132362016626045 1 1 0.010409291880256955 1 1 1 1 1 1 1 1 1 1 1 1 1 1 1 1 1 1 1 0.01282807729339102 1 1 1 1 0.016894549575975686 1 1 1 1 1 0.010937708731728507 1 1 1 1 1 0.018691993619573591 1 1 1 1 0.019394940050131801 1 1 1 1 1 0.011011570172745998 1 1 1 1 1 1 1 1 1 1 1 1 1 1 1 1 1 1 1 1 1 1 1 0.010779761790965325 1 1 1 1 1 1 1 0.010209839066965806 1 1 1 1 1 1 1 0.010450235106262695 1 1 1 0.010240396039296881 1 1 1 1 1 1 1 1 1 1 1 0.0097214187023099367 1 1 1 1 1 1 0.0098662837089744607 1 1 1 1 1 1 1 1 1 1 1 1 1 1 1 1 1 1 1 1 0.0097115103448642808 1 1 1 1 1 1 0.010032541234832033 1 1 1 1 1 1 1 1 0.010068337041256602 1 1 1 0.0098563753515287997 1 1 1 1 1 1 1 1 1 1 1 1 1 1 1 1 1 1 1 1 1 1 1 1 1 1 1 1 1 1 1 1 1 1 1 1 1 1 1 1 1 1 0.0095243350982284931 1 1 1 1 1 1 1 1 1 1 1 1 1 1 1 1 1 1 1 1 1 1 1 1 1 1 0.010908018798944326 1 1 1 1 1 1 1 1 1 1 1 1 0.010163566767334337 1 1 1 1 1 1 1 1 1 1 1 0.0097600981760822929 1 1 0.0094797755707610801 1 1 1 1 1 1 1 0.010327237893917006 1 1 1 1 1 1 1 1 1 1 1 1 0.010648252954013671 1 0.0099875485230672429 1 0.0096353124720187835 1 0.010713471333278891 1 1 1 1 1 0.010269822041550341 1 1 1 1 1 1 1 1 1 1 1 1 1 1 1 1 0.01100512348579389 1 1 1 1 1 1 1 1 1 1 1 0.012778967597783502 1 0.0089081958454246719 1 1 1 1 0.0094601588614890847 1 0.010246185019642012 1 1 1 1 1 1 1 1 1 1 0.010743354933524692 0.010194106587479948 1 1 1 1 1 1 1 0.010205079101907035 1 1 1 1 0.011250436176767863 0.010352533936256531 1 1 1 1 0.0099745663818124816 1 1 1 1 1 1 1 1 1 1 1 1 1 1 1 1 1 1 1 1 1 1 1 1 1 1 1 1 1 1 1 1 1 1 1 1 1 1 1 1 1 1 1 1 1 1 1 1 1 1 1 1 1 1 1 1 1 1 1 1 1 1 1 1 1 1 1 1 1 1 1 0.010035795806424566 1 1 1 1 1 1 1 1 1 1 1 1 1 1 1 1 1 1 1 1 1 0.011923050224506734 1 1 1 1 1 0.01498300523118584 1 1 1 1 0.010460250735691156 1 1 1 1 1 1 1 0.016782449520789632 1 1 1 0.0099642479151397633 1 1 1 1 1 1 1 1 1 1 1 1 1 1 0.010942665357416757 1 1 1 1 0.020210607193433778 1 0.016823765746420867 1 1 1 1 1 1 0.0086413034112384074 1 1 1 1 1 1 1 1 1 1 0.012367080963334111 1 1 0.010947382437993983 1 1 1 1 1 1 1 1 1 1 1 0.01052626735182734 1 1 1 1 1 1 1 0.010523011842637781 1 1 1 1 1 1 1 1 1 1 1 1 1 1 0.010989036300024659 1 0.010031065406816832 1 1 0.015696780895198402 1 1 0.016311494698277609 0.017057276781633914 1 1 1 1 0.015678081773231201 1 0.010048550719145791 1 1 0.009430160533879909 1 0.01710586062646572 1 1 1 1 1 1 1 1 1 1 1 1 0.0083265658025802394 1 1 1 0.0093485418230043194 1 1 1 0.010344452486316401 1 1 1 1 1 1 1 1 1 1 1 0.010914967716754601 1 1 1 0.010435555122508801 1 0.010878992528279898 1 1 1 1 0.010443437405771097 1 1 1 1 1 1 1 1 1 1 1 0.0160447571511123 1 1 1 1 1 1 1 0.0099796246129803395 1 1 1 1 0.013648721907960997 1 0.01120463210532827 1 0.014683515712215671 1 1 1 1 1 1 1 0.012638844760741839 1 1 1 1 1 1 0.010216446660563649 1 1 1 1 1 1 1 0.010329772940119815 1 1 1 1 1 0.010642846337527346 1 1 1 1 0.010796631143689544 0.01852830061315925 1 1 1 1 1 0.012758816653926242 1 1 1 1 1 0.010256899397919156 1 0.017331635401656793 1 1 1 1 0.014499837635121287 1 1 1 0.011362964921335183 1 1 1 1 1 1 1 1 1 1 1 1 1 1 1 1 1 1 1 1 1 1 1 1 1 1 1 0.01806766725832119 1 1 1 0.01173839840323722 0.010287773933247531 1 1 1 1 1 1 1 1 0.010915849673613066 1 1 1 1 0.012092693994291571 1 1 1 1 1 1 1 1 1 0.011934727558099439 1 1 0.010757883237420949 1 1 1 1 0.009860848947251994 1 1 0.010830606277418907 1 1 1 1 0.0098666888758135382 1 1 0.010021917974146095 1 1 0.011003129797559888 1 1 0.010328409334707944 1 1 1 1 1 1 1 1 1 1 1 1 1 1 1 1 0.011400437058803054 1 1 1 0.0099177476934196006 1 1 1 1 1 1 1 0.0081428007119610669 1 1 1 0.011334516356200593 1 1 0.011094768653296389 0.011533995124290682 1 1 1 0.0080573876321376504 1 0.01181927260823174 1 1 1 0.010456444029270016 0.0092073011770511404 1 1 1 1 1 1 1 1 1 0.0097424089688361026 1 0.0097194941585324133 1 1 1 1 0.010228865699818315 0.0097983804094534874 1 1 1 0.010177903023242297 1 1 1 1 1 0.0099681148815697895 1 1 1 1 1 1 1 1 1 1 1 1 1 1 1 1 1 1 1 1 1 1 1 1 1 1 1 1 0.010075580367769107 1 1 1 1 1 1 1 1 1 1 0.01677735664371479 1 1 0.010232295202355794 1 1 1 1 0.0098309604901938904 1 1 1 1 1 1 1 1 1 1 1 1 1 1 1 1 0.01013885063091156 1 1 1 1 1 1 1 0.0096744619289246148 0.014273640995178445 1 1 1 1 1 1 1 0.0091676778708394274 0.010117205972406864 1 1 1 1 1 1 1 0.010581519352418895 1 1 1 1 1 0.014948864998893221 1 1 1 1 1 0.014973372853074103 1 0.011761956195885642 0.014941572226659535 1 0.0092635513183835297 1 1 1 1 1 1 1 1 1 1 1 1 1 1 1 1 1 1 1 1 1 1 1 1 1 1 1 1 1 1 1 1 1 0.010228136910619084 1 1 1 1 1 1 1 1 1 1 1 0.010597803455814946 1 1 1 1 1 1 1 1 0.0098908401584789276 1 1 0.011060962734029536 0.010176955702637113 1 0.010138774381128667 1 0.0090602512094759991 1 0.0095058069776229014 1 1 1 0.015546673754472967 0.010572811646694939 1 1 0.010430092235427022 1 1 1 0.016928286536348668 1 1 1 1 1 1 0.010037596950349236 1 1 0.016014063201348551 1 1 1 1 1 1 0.010096625461257232 1 1 1 0.0096666424568485256 1 1 1 1 1 1 1 1 1 1 1 0.0098769102367443438 1 1 1 1 1 1 1 0.009539537565162428 1 1 1 0.0097306209939315332 1 1 1 1 1 1 1 0.009904713802443562 1 1 1 1 0.0096751607518889247 1 1 1 1 1 1 1 1 0.0099687435223277249 1 1 1 0.0099660542229997196 1 1 1 0.0095836417572660888 1 1 1 1 0.013549337152609957 1 1 1 1 1 0.0099973322103604524 1 0.014411386451016962 1 1 1 0.010013122966467829 1 0.016651726242558045 1 1 1 1 0.01350691654642013 1 1 0.017527930874980297 1 1 0.0097982761330944121 1 1 1 1 1 1 1 1 1 1 1 1 1 1 1 1 1 1 1 1 1 1 1 1 1 1 1 1 1 1 1 1 1 1 1 1 1 1 1 1 1 1 1 1 1 1 1 1 1 0.010254618766712877 0.010134598730108175 1 1 1 1 1 1 0.010630327750927648 1 1 1 1 1 1 1 1 1 1 1 1 1 1 1 1 1 1 1 1 1 1 1 1 1 1 1 1 1 0.010377012021982355 1 1 1 1 1 1 0.011093594773450687 1 1 0.0086372702508727035 1 1 1 1 1 1 1 1 0.0094805708624409925 1 1 1 1 1 0.0181251220093884 1 1 1 0.011337229114586313 1 1 1 0.014146402465937482 1 1 1 1 1 0.017972760086689715 1 1 1 0.0080728570690994372 1 0.0088526900705373033 1 0.012624222913846295 0.013303937571627698 1 0.010074225234274037 1 1 1 1 0.010048407456925822 1 1 1 1 1 1 1 1 1 0.0093297587962017092 1 1 1 1 1 1 0.013796408242369482 1 1 0.014300602544346458 1 1 1 1 1 1 1 0.011363188683637403 1 1 1 1 1 1 1 1 1 1 1 1 1 1 1 1 1 1 1 1 1 1 1 1 1 1 1 1 0.010059825003084381 1 0.01000561338533161 1 0.012501444985281088 1 1 1 1 0.011580591316593015 0.0099801230805834414 1 1 1 1 1 1 0.010167776607130974 1 0.0098612189677620699 1 1 1 1 1 1 1 1 1 1 1 1 1 1 1 1 1 1 1 1 1 1 0.010047575476412732 1 0.012186941965647761 1 0.0095248115572788492 0.01102733787397463 0.011647363052049707 1 1 1 1 1 1 1 0.01389732813959545 1 0.0099927593695086636 1 1 1 1 1 1 1 1 0.0092495219922954005 0.012543060208412593 1 0.010804442143503012 1 1 0.011802707413366222 1 1 1 0.010031644162115487 1 0.010722881309566482 1 1 1 1 0.010503404924273688 1 1 1 1 1 1 1 1 1 1 1 1 1 0.010700749042222516 1 1 1 1 1 1 1 1 1 0.010698169053073988 1 1 1 1 1 1 1 1 0.010344839422781941 1 1 1 1 1 0.014067810423422474 1 1 1 1 1 0.013723387467162557 1 1 1 1 1 1 1 0.013561978669966664 1 1 0.0090652146726329687 1 1 0.012426073317913403 1 1 1 1 1 1 0.010140445466167746 1 1 1 1 0.011745340196231621 1 0.010130574757013372 1 1 1 1 1 1 1 0.014572471309034277 1 1 0.013690257325123403 0.010088867150542264 1 0.0097982448517953836 1 0.0080156359283799026 1 1 1 0.014121781955738145 1 0.0076072943996844927 1 0.0098658060596916852 1 1 1 1 0.010821920934245503 1 1 1 1 1 0.010074455933278921 1 1 1 1 1 1 1 1 0.0098946053160447016 1 1 1 1 1 1 1 1 1 1 1 1 1 0.0093213571456129702 1 1 1 1 1 1 1 1 1 1 0.0081451982008690881 1 1 1 0.017262521593498354 1 1 1 1 1 1 1 1 1 1 1 0.0099875377130713774 1 1 1 0.015549011004762889 1 0.0087819213081247877 1 1 0.00883552210316867 1 1 1 0.013810749748099432 1 1 1 0.010582428763196261 1 1 0.018766566744573276 1 1 1 1 1 1 1 1 0.01916766567143054 1 0.010009599660374856 1 1 1 1 1 1 1 1 1 1 1 1 1 1 1 1 1 1 1 1 1 1 1 1 1 1 0.0096806051261062731 1 1 0.010016059199679628 1 1 0.010006960324308745 1 1 1 1 1 1 1 1 1 1 1 1 1 1 1 1 1 1 1 1 1 1 1 1 1 1 1 1 1 1 1 1 1 1 0.010000069739735702 1 1 1 1 1 1 1 1 1 1 1 1 1 1 1 1 1 0.015507031383535579 1 1 0.015124541724872301 1 1 1 1 1 1 1 0.015963105351336625 1 1 1 1 1 1 1 1 1 1 1 0.014554028031002298 1 0.014484828529152685 1 1 1 0.010109797960072638 1 1 0.024269551346608707 1 1 1 0.023424906894826618 1 0.020772013829351132 1 1 1 1 1 1 1 0.017693485617434175 1 0.015368167529269953 1 1 1 1 1 1 1 1 1 1 1 1 1 1 1 1 1 0.010594266791529437 1 1 0.012636015242657464 1 1 1 1 0.010863345314713757 1 0.015763779608186777 1 1 1 0.020922606809186998 1 1 1 0.010303326475087783 1 0.022373758312806902 1 1 1 1 1 1 0.01021043931509797 1 1 1 1 1 1 1 1 1 1 0.0102807225322418 1 1 1 1 0.013072207810072312 1 1 1 1 1 1 1 1 1 1 1 1 1 1 1 1 1 1 1 1 1 1 1 1 1 1 1 1 1 1 1 1 1 1 1 1 1 1 1 1 1 0.017290806932978908 1 1 1 1 1 0.0099795588386992276 0.01420719179970473 1 1 1 1 0.011548453908582643 1 0.012353657485289197 1 1 1 1 1 1 1 0.011495640862892386 0.01356230783296458 1 1 1 1 1 1 1 1 1 0.01562740709121788 1 1 1 1 1 1 1 1 1 1 1 1 1 1 1 1 1 1 1 1 1 1 1 1 1 1 1 1 1 1 1 1 1 1 1 1 1 1 1 1 1 1 1 1 1 1 1 1 1 1 1 1 1 0.01211637263787072 1 1 1 0.014381218546653749 1 1 1 1 1 1 1 1 1 1 1 1 1 1 1 1 1 1 1 1 1 1 1 1 1 1 1 1 1 1 1 1 1 1 1 1 1 0.011986749432954689 1 0.015446143748582339 1 1 1 1 1 1 1 1 1 1 1 1 1 1 1 1 1 1 0.014610032287674796 1 1 1 1 1 1 1 1 1 1 1 0.01008895453638058 1 1 1 1 1 0.010207697132522054 1 1 1 1 1 1 0.010555299784362055 1 1 1 1 1 1 1 1 1 1 1 1 1 1 1 1 1 1 1 1 1 1 1 1 1 1 1 1 1 0.013441286562338658 1 1 1 1 1 1 1 1 1 1 1 1 1 1 1 1 1 1 1 1 1 1 1 1 1 1 1 1 1 0.012816564241092674 1 1 0.0097761919131094856 1 1 0.015293788332760714 1 1 0.013610445286670613 1 0.0096174129047923891 1 1 1 1 1 1 1 1 1 1 1 1 1 1 1 1 1 1 1 1 1 1 1 1 1 1 1 1 0.0099784031161651403 1 1 1 1 1 1 1 1 0.014676144672463028 1 0.010791054014788906 1 1 1 0.013566131440532772 1 1 0.016785459778758002 1 0.011073361498993885 1 0.017289966182925665 1 0.013665390624023265 1 0.010001589665134586 1 0.018327793370795667 1 1 1 1 1 1 1 1 1 1 1 1 1 1 1 1 1 1 1 1 1 1 1 1 1 1 1 1 1 0.010375664738337766 1 1 0.012450218996706036 1 0.0096783062673941895 1 1 1 1 1 0.014714853467445825 1 1 0.0099689048734116718 1 1 1 1 0.0099990972321495446 1 0.009350165637958192 1 0.019535121934372707 1 0.0085631336451937358 0.014391009054782565 1 0.015578758761133137 0.016397001009906761 0.011189002213828451 1 0.012506373286319764 1 1 1 1 1 1 1 1 1 0.012210671113756368 1 1 1 1 1 0.0084834578174918535 1 1 0.0099298776013417994 1 1 1 1 1 1 1 0.0083738851599389243 1 1 0.011920724260313244 1 1 0.0098954098313259013 1 1 1 1 1 1 1 1 1 1 1 1 1 1 1 1 0.019440780480510022 1 1 0.014960299050892568 1 1 0.0097222832248355737 1 1 1 1 1 0.010577005198851925 1 1 1 1 1 0.0092198252134467196 1 1 1 1 1 0.010772048087697248 1 1 1 1 0.007943993976838027 1 1 0.010634698065986273 1 1 0.010770623906832234 0.010021811388531417 1 1 1 1 0.0080227667371826246 1 1 1 0.009090057103003743 1 1 1 0.010970930093752274 1 1 1 1 1 1 1 1 0.012258737445538655 1 1 1 1 1 1 1 1 1 1 0.013376460790292515 1 1 1 1 0.0073363923107598993 1 0.014303553859863229 1 1 1 1 0.0096980217791431626 1 1 0.010750590615478346 1 1 1 1 1 1 1 1 1 1 0.0097392557643423486 1 1 1 0.010128590483222748 1 1 1 1 1 1 1 1 1 1 1 0.016300136826142758 0.0099263144212238738 1 1 1 1 1 0.0098440500052384833 1 1 1 1 0.010997156333248485 1 1 1 0.013012692541570694 1 1 0.012294842735076427 1 1 1 1 1 1 1 0.010540013451744636 0.010821587682642124 1 1 1 1 1 1 0.014674231788709968 1 0.0103083390598568 1 0.01067894346492357 1 1 1 0.012555630709915552 1 1 0.023007386799060021 1 1 1 1 0.025539208183746637 0.010732958311743243 0.0098602798176423978 1 1 1 1 1 1 1 1 1 1 1 1 1 1 1 1 1 1 1 1 0.010428256666611208 1 1 1 1 1 1 1 1 1 1 1 1 1 1 0.010503670118834782 1 1 1 0.010634881568946025 0.008985019523096641 1 0.0090250845949403947 1 1 0.01075215219325968 0.012212807104326168 0.012385049759759532 1 0.01037788036734808 1 0.0089800447900180262 1 1 1 0.010618160093885508 1 0.0094434576148982614 1 1 0.01320061344331277 1 1 0.011932248628425322 0.013118305737185254 0.01111977107601593 1 0.010423701274768096 1 0.010324788610972193 0.015026001869038842 1 1 0.009420103528780803 1 1 1 1 0.0094520176693887806 0.012022207801523712 1 1 1 1 1 1 0.017940571319608849 0.015517148131708344 1 0.0087854525009434283 0.024097975404071888 1 0.0095990373521762772 1 1 0.016206803690561666 1 1 1 0.01047875568348533 0.01119673372564675 1 1 1 0.010299938020426143 1 1 1 1 1 1 1 1 1 1 0.0098120378020605057 1 1 1 1 1 1 1 1 1 1 1 1 1 1 1 1 1 0.010167417107194945 1 1 1 1 0.010161946745659466 1 1 1 1 1 1 1 1 1 1 1 1 1 1 0.0093770865853314671 1 1 1 1 1 1 0.0075741684862516284 1 0.014813543487334501 1 1 1 1 1 0.0097763680261304907 0.015913660399696345 1 1 1 1 1 1 1 1 1 1 1 1 1 1 1 1 1 1 1 1 1 1 1 1 1 1 1 1 1 1 1 1 1 1 1 1 1 1 1 1 1 1 1 1 1 1 1 1 1 1 1 1 1 1 1 1 1 1 0.016581371304648096 1 1 1 0.012574542122027315 1 1 1 1 1 1 1 1 1 1 1 1 0.019226795196324961 1 1 1 1 1 1 1 1 0.0086325725603948709 1 1 0.007728743125494009 1 1 0.0092050834111808699 1 1 1 1 0.0096369751846839113 1 0.01109801642280646 1 1 1 0.014377620378610326 1 0.0066117088929736906 1 1 1 1 0.013105077841584699 1 1 0.0087723258093041455 0.007639041615430742 1 1 0.011801819554745819 1 1 0.014361176661515464 1 1 1 1 1 1 1 1 1 1 1 1 1 1 1 0.0089669063987816502 1 1 1 1 1 1 1 1 1 1 1 1 1 1 1 1 1 1 1 1 1 1 1 1 1 1 1 1 1 1 1 1 1 1 1 1 1 1 1 1 1 1 1 1 1 1 1 0.010921227561375407 1 0.012241552607776556 1 1 1 1 1 1 1 1 0.0054672526489625032 1 1 1 1 1 1 1 0.0076912455437337553 1 1 0.010663977483953008 1 1 0.011692090156873652 1 1 1 1 1 1 1 1 1 1 1 1 1 1 1 1 1 1 1 0.0093713574805188073 1 1 1 1 1 1 1 0.018387858621188649 1 1 1 0.021847880896986749 1 1 0.0073591723016182284 0.0099982233923215404 0.015885510595808918 1 1 1 1 0.009904670411928173 0.016030870106494913 1 1 1 1 1 0.017315797691287368 1 1 1 1 0.016207200788437778 1 1 1 1 1 1 0.010179424348884724 1 1 1 0.011551001581973211 0.01804995265805558 1 1 1 1 1 1 1 1 1 1 1 1 1 0.010984892078193106 1 1 0.010355536307465638 1 1 1 1 1 1 1 1 1 1 1 1 1 1 1 1 1 1 1 0.0098201723630545208 1 1 1 1 1 1 1 1 1 1 1 1 1 1 0.0098160930385280988 1 1 1 1 1 0.010778117931713023 1 1 0.011705607682092067 1 1 1 1 1 1 0.010009211109246685 1 0.009895607606888188 1 0.013103078028094356 1 0.0094461076391079545 1 1 0.012791179770233068 1 1 0.0078530962750111202 1 1 1 0.01018344953421379 1 0.015600939380974803 1 1 1 1 1 1 1 1 0.011147204247901273 1 1 1 1 1 1 1 1 1 1 1 1 1 1 1 1 1 1 1 1 1 1 1 0.016144352088079413 1 1 0.016840448023442874 1 1 1 0.014041075109167234 1 0.011540639443772855 0.0099886173177709189 1 1 1 1 1 1 1 1 1 1 0.011305573046809465 1 0.01056191522042246 1 0.01131584421177444 1 1 1 1 1 1 1 1 1 1 1 1 0.010515738131185941 1 1 1 1 1 1 1 1 1 1 1 1 1 1 1 1 1 1 1 1 1 0.010918896202643226 1 0.0097618331340067789 1 1 1 0.011183503414563804 0.012001491339686688 0.011756357955061634 1 1 1 1 0.0099394304635842708 1 1 1 1 0.0099490199068788584 1 1 1 1 1 1 0.0098224786993726682 1 1 1 1 1 1 0.011461679672234612 0.012739576010839311 1 0.014242220787962778 0.010029858284837512 1 1 1 1 1 0.010103884065789296 1 1 1 1 1 1 1 1 0.0099663957439329199 1 1 1 1 1 1 1 0.01012295374473331 1 1 1 0.010028614468417517 1 1 1 0.01006456887978493 1 1 1 1 1 1 0.0096442991082080314 1 1 0.0099716878195365427 1 1 0.0099997298522361416 1 1 0.01023003930421462 1 1 0.0093431498122248536 1 0.009229759282553757 1 1 1 1 1 0.010454198502354409 1 1 1 1 1 1 1 1 1 1 1 1 1 0.0099146814164101128 1 0.0099920251491927795 1 1 1 1 1 1 1 1 1 1 1 1 1 1 1 1 1 1 1 1 1 1 1 1 1 1 1 1 1 1 1 1 1 1 1 0.016586262860914809 1 1 0.0164538993923493 1 1 1 1 1 1 0.0084946952938754761 1 1 1 1 1 1 1 1 1 1 1 1 0.010018954038471401 1 1 1 1 0.01011424674609513 1 1 1 1 1 0.0095452617619944842 1 1 1 1 1 0.01009529270762375 1 1 1 1 1 1 1 1 1 1 1 1 1 1 1 1 1 1 1 1 1 1 1 1 1 1 1 1 1 1 1 1 1 1 1 1 1 1 1 0.011658416294067785 1 1 1 1 1 0.014512634794238883 1 1 0.0098027529329878394 1 1 1 1 1 1 0.0099557040053483477 1 1 0.009506051654320823 1 1 0.011034153373946767 1 1 0.0090997647102047836 0.010930117981907794 0.013236589103342607 1 1 0.0094861050846842838 1 1 0.0110945097146467 1 1 1 1 1 1 0.011826234584625742 1 1 1 1 1 1 1 1 1 0.013288157117181286 1 0.011445247954085613 1 1 1 1 1 0.012768359326998956 1 1 0.012293299191362468 1 1 0.010174299462842595 1 1 1 1 1 1 1 0.0095350888146218723 1 1 1 1 0.00784385298420405 1 1 0.019597104773177713 1 1 1 1 1 0.013562702140249046 1 1 1 1 1 1 1 0.01532730735333164 1 1 0.015852022430144039 1 0.016590970701224596 1 1 1 1 1 1 1 1 1 1 1 1 1 1 1 1 1 1 1 1 1 1 1 1 1 1 1 1 1 1 0.010823118952847087 1 1 1 1 1 0.010718928558027422 1 1 1 0.011290645361779051 1 1 1 1 1 1 1 1 1 1 1 1 1 1 1 1 1 1 1 1 0.010571716803751623 1 1 1 1 1 1 0.009683551273808046 1 1 1 1 1 1 1 1 1 1 0.013118901982956822 1 1 1 1 1 0.0099089065637632777 1 1 0.013314180781704973 0.0085781883997273108 1 1 1 1 1 0.0091267736602174583 1 1 1 1 1 1 0.0090313024701325576 1 1 1 1 0.011044227182135588 1 1 1 1 1 1 1 1 1 1 1 1 1 1 0.012190102544375568 1 0.010777327839614732 1 1 1 1 1 1 1 1 1 1 1 1 1 1 1 1 1 1 1 1 1 0.012907583752743207 1 0.0099599816140852008 1 1 0.011927960544699167 0.012024388687716856 1 1 1 1 1 1 1 0.012424097997841083 1 1 1 0.01338988295667805 1 1 0.010226979100006065 1 1 1 0.01084745362454663 1 1 1 0.012185145850601735 1 1 0.012645946448541825 1 1 1 1 1 0.011327889755844844 1 1 1 1 1 1 1 1 1 1 0.0083656704807675859 1 1 0.0097045319282188999 1 1 1 1 1 1 1 1 0.011886726938180029 1 1 0.010029252094354435 1 1 0.010372682966167007 1 1 1 1 1 1 0.0087759926517698948 1 1 1 0.014005873510884285 1 1 1 1 1 0.010458619666895548 1 1 1 1 0.0078136520357849244 1 1 1 0.013875542652440785 1 1 0.011719464376951101 0.0071427081371521267 1 1 1 1 0.0069168222258657007 1 1 1 0.0089999348598530475 1 1 1 1 1 1 0.010131373849707023 1 1 1 1 0.015591863704691506 1 0.0099895800426476715 1 0.014087584777237955 1 1 0.015095083162398397 1 1 0.010843058982907539 0.013953754241869436 1 1 1 1 0.0080077211920293184 1 1 1 1 1 0.009347477996576134 1 1 1 1 1 1 1 1 1 1 1 0.011405719150786378 1 1 1 1 1 1 1 1 1 0.010006986576630036 1 1 1 1 1 1 1 1 1 1 1 1 1 1 1 1 1 1 1 1 1 1 1 1 1 1 1 1 1 1 0.010501202290934885 1 1 1 1 1 1 1 1 1 0.013355222893346438 1 0.0099614293300725985 1 1 1 1 0.010035250032810871 1 1 1 1 1 1 1 1 1 1 1 0.011792736350920742 1 1 1 1 1 1 1 1 1 1 1 1 1 1 1 0.01045767556395707 1 1 1 1 0.01120743432088143 1 1 1 1 1 1 0.010000812232196139 1 1 1 1 1 1 1 1 1 1 1 1 1 1 1 1 1 1 1 1 1 1 1 1 1 1 1 1 1 1 1 1 1 1 1 1 1 1 1 1 1 1 1 1 1 1 1 1 1 0.0096497965145262259 1 1 1 0.011793860723792956 1 1 1 1 1 1 1 1 1 1 1 1 0.014583152576700426 1 1 1 0.0090597174312093617 1 1 1 1 0.0091734210020066684 1 1 1 0.013160745529371406 1 0.011857514169479562 0.012818098936369621 1 1 0.013013631418244324 0.014012108739989974 1 0.0098321946708494149 0.0093401995072878059 1 1 1 1 1 1 1 1 1 1 1 1 1 1 1 1 1 1 1 1 1 1 1 1 1 1 1 1 1 0.014474089815373851 1 1 1 1 1 0.012337299513399333 1 1 0.013919510372979841 0.01013537623290519 1 1 1 1 0.010173499348990931 1 1 1 0.0088986416070075281 1 0.014151520803037904 1 1 0.012677288486152169 1 0.013131132735217774 1 0.013511180308922833 0.011682410105126493 1 1 1 1 1 1 1 1 1 1 1 0.01009681020686364 1 1 1 0.010289208152109019 1 1 1 1 0.010387011708962911 0.010035464724108904 1 1 0.010111028910177523 0.010186526797484267 1 0.010088645016610637 0.01011890244229696 1 0.00999073367855869 1 1 0.010206361687423504 1 1 1 1 1 0.010079238959067621 1 1 1 1 1 1 1 1 0.0095791665858007656 1 0.0098896233268028107 1 1 1 1 1 1 1 1 1 0.010031446001017658 1 1 1 1 0.0099699414845784082 1 1 1 1 1 1 1 0.010479931500329567 1 1 1 0.01019074419760066 1 1 1 1 1 1 1 1 0.010640296437754063 0.010221270233994509 1 1 0.010324292955001341 0.0098184034817938651 0.0099141699730685567 1 1 1 1 1 1 1 1 1 1 1 1 1 1 1 1 1 1 1 0.010152480027068114 1 1 1 1 0.010459508599530952 1 1 0.010202608943990242 1 1 1 1 1 1 1 1 1 1 1 1 1 1 1 1 0.0099851271336041936 1 1 1 1 1 1 1 0.0090568537807268496 1 0.0097760803383184457 1 1 1 1 1 1 1 1 1 0.013116527124605346 1 1 0.0099563845083063783 1 1 0.012301952789778345 1 0.010122719050428783 1 1 1 0.0099951257288191514 1 1 1 1 0.010083978679648609 1 1 1 1 1 1 1 1 1 1 1 0.010201383849273068 1 1 1 1 1 1 1 1 1 0.01007116801220412 1 1 1 1 1 1 1 1 1 0.01021998554690126 1 1 0.0088206152982744038 1 1 1 0.013512613276587478 1 1 0.010816378299580228 1 1 1 1 0.021046240280932021 1 1 0.0072000989302436341 1 1 0.0098296344909098859 1 1 1 1 1 1 1 1 1 1 1 1 1 1 1 0.0099925228538093828 1 0.018753449178862167 1 1 0.012856631184216746 1 0.021994623715008869 1 1 1 1 1 1 1 1 1 1 1 1 1 0.012563244392352717 1 1 1 0.0082180231345072557 1 0.010365384587467453 0.01150283396593773 1 1 1 1 0.010148827844145046 1 1 1 1 1 1 1 1 0.019577972367080691 1 1 1 1 1 1 1 1 0.020043060640081517 1 1 1 1 1 1 1 0.011329865506789548 1 1 1 1 1 1 1 1 1 1 1 1 1 1 1 0.010474706741999625 1 1 1 1 1 1 1 1 0.012145134327428309 1 1 0.0089329074561370105 1 1 1 1 0.010161042443315525 1 1 1 1 1 1 1 1 1 1 1 1 1 1 1 1 1 0.0086190567840293449 1 1 1 1 1 1 1 1 1 1 1 1 1 1 1 1 1 0.0082333564873166253 1 1 1 1 1 1 1 1 1 1 1 0.010419072160871096 1 1 1 0.01978162740365404 1 1 1 1 1 1 1 1 0.020004839421376031 1 1 1 0.020132503024909425 1 1 1 1 1 1 1 1 1 1 1 1 1 1 1 0.011516328623048168 1 1 1 1 1 1 1 1 1 0.01057902580844744 1 1 1 1 1 1 1 1 1 1 1 0.010566848913798256 1 1 1 1 1 1 1 1 1 1 1 1 0.010367898699887985 0.010929821849568099 1 1 1 1 1 1 1 0.010138965683814458 1 1 1 0.010420657333002315 1 1 1 1 1 1 0.012086088441145809 1 1 1 1 1 1 1 1 1 1 1 1 1 1 1 1 1 1 1 1 1 1 1 1 1 1 1 1 1 1 1 1 1 1 1 1 1 1 1 1 0.010503120131681783 1 1 1 1 1 1 1 1 1 1 1 1 1 1 1 1 1 1 1 1 1 1 1 1 1 1 0.011027825000058243 1 0.010531564265424356 1 1 1 1 0.010273494985463396 1 1 1 1 0.010872579311296156 1 1 1 1 1 1 1 1 1 1 1 1 0.010671279858314496 1 1 1 1 1 0.0099764204948022336 1 1 0.010561855377247938 1 0.0099313841506195044 1 1 0.010555417695085056 1 1 1 1 1 1 1 1 1 1 1 1 1 1 1 1 1 1 1 1 1 0.011176020343392275 1 1 1 1 1 1 1 0.010534207823780312 1 1 1 1 1 1 1 1 1 1 1 1 1 1 1 0.011101321119142915 1 1 1 1 1 1 1 1 1 1 0.010340130244010055 1 1 1 1 0.0099836373151771067 1 1 0.010115018529696736 1 1 1 1 1 1 1 1 0.010183330060805245 1 1 1 1 1 1 1 0.010353580334423032 1 1 0.0099470232023867681 1 1 1 1 1 1 1 1 1 0.010053319467286432 1 1 1 1 1 1 1 1 1 1 1 1 1 1 1 1 1 1 1 1 1 1 1 1 1 1 1 1 1 1 1 1 1 1 1 1 1 1 1 1 1 1 1 1 1 1 1 1 1 1 1 1 1 1 1 1 1 0.0099831712341586915 1 1 1 1 1 0.0098891770274906962 1 1 1 1 1 1 1 1 1 0.0099957806014945166 1 1 1 1 1 1 1 1 1 1 0.0096573360383769308 1 1 1 1 1 1 1 1 1 1 1 1 1 1 1 1 1 1 1 1 1 0.0099645606722277083 1 0.010009414893272738 1 1 1 1 1 1 0.0094161785145248002 1 1 1 1 1 1 1 1 1 0.010037442045747687 1 1 1 1 0.0098178817518675549 1 1 0.012460892345974556 1 1 1 1 1 1 1 1 1 1 1 1 1 1 1 1 1 1 1 1 1 1 1 1 1 1 1 1 1 1 1 1 1 1 1 1 1 1 1 1 1 1 1 1 1 1 1 1 1 1 1 1 1 1 1 1 1 1 1 1 1 1 1 1 1 1 1 1 1 1 1 1 1 1 1 1 1 1 1 1 1 1 1 1 1 1 1 1 1 1 1 1 1 1 1 1 1 1 1 1 1 1 1 1 1 1 1 1 1 1 1 1 1 1 1 1 1 1 1 1 1 1 1 1 1 1 1 1 1 1 1 1 1 1 1 0.0100091514696282 1 1 1 1 1 1 1 0.010083376439746064 1 1 1 1 1 0.010019075189879441 1 1 1 1 1 1 1 1 1 1 1 1 1 1 1 1 1 1 1 1 1 0.010064482084528731 1 1 1 1 0.010060525611604927 1 1 1 1 1 1 1 1 1 1 1 1 1 1 1 1 1 1 1 1 1 1 1 0.010073134978940745 1 1 1 1 1 1 1 1 1 1 1 1 1 1 1 1 1 1 1 1 1 0.0092119003608949548 1 1 1 1 0.012255581305709234 1 1 0.0098352771656233136 0.010006728489512597 1 1 1 0.013955978153249789 1 1 1 1 0.010498999514283337 0.010124351017055312 1 1 0.012764432644517454 1 1 1 1 1 1 1 1 1 1 1 1 1 1 1 1 1 1 1 1 1 1 1 1 1 0.010131257750283416 1 1 1 0.015253541456520803 1 1 0.010069234413805177 0.01862647473468124 1 1 1 1 1 1 1 0.017984311340903794 1 1 0.010270793228223607 1 1 0.010069243602525094 1 0.0098525478423042677 1 1 0.010031121827291458 1 1 1 1 1 1 0.0099654344008675896 1 1 1 0.012011969572457185 1 1 1 1 1 1 1 1 1 1 1 1 1 1 1 1 1 1 1 1 1 0.011200755840980408 1 1 1 1 0.014565427946559205 1 1 0.010013778141402122 1 1 1 1 1 1 0.010812938728445373 1 0.010266561173212915 1 1 1 0.0099986129136321808 1 1 1 1 0.010251196832621299 0.014238912075696422 1 1 1 1 1 0.014201826916674827 0.015404650160039526 1 1 0.0098604256019402745 1 0.0098692112283415671 1 1 1 1 1 1 1 0.010090220727220614 1 0.012915305129476589 1 1 1 1 1 1 1 1 1 0.011995750838196444 1 1 1 1 1 1 1 1 0.013345317560526808 0.009995709104888565 1 1 1 1 1 1 1 1 1 1 1 1 1 0.010034229119814218 1 0.017434536437854038 1 0.0081416543093343931 1 1 1 0.0091106156115915628 1 1 1 1 1 0.01026634759519318 1 0.013832806314449542 0.011371721114912704 1 1 1 1 1 1 1 1 1 1 1 1 0.011318167661713473 1 1 1 1 1 1 0.0098944572930025412 1 1 1 0.010678703608887107 1 1 1 0.010458217250283636 1 1 1 1 1 1 1 1 1 0.010419789219340827 1 0.013917847435729939 1 0.011631569064312466 1 1 1 1 1 1 1 1 1 1 1 1 1 1 1 1 0.013446186544438684 1 1 1 0.012252427094404494 1 0.011394188868469327 1 1 1 1 0.010103719554003281 1 1 1 0.012156195263189501 1 1 1 1 1 1 1 1 1 0.011430439781099531 1 1 1 1 1 1 1 1 1 1 1 1 1 1 1 1 1 1 1 1 1 1 1 1 1 1 1 0.010510993076321973 1 1 1 1 1 1 1 0.009316877714979209 1 1 0.0094314956313443516 1 0.010000178712593944 1 0.013186898375285161 1 0.0090591106693278696 1 1 1 1 1 1 0.012640664672562602 1 1 0.011443866599466609 1 1 0.0099841680651376191 1 1 0.013126744430506144 1 1 1 1 0.0088048158731027573 1 0.010238052399030296 0.013263901448361287 1 1 1 1 1 1 0.010090481927260942 1 1 1 1 1 1 1 0.011115727723099576 1 1 1 1 1 0.008951015073184283 1 1 1 0.0075481744245768853 0.011786011509042814 1 1 1 0.020184276648110441 1 1 0.013079312171494537 1 1 0.0093554118304676262 1 0.011073586372530499 1 0.010593925296640438 1 1 1 0.020504376252287321 1 1 1 1 1 1 1 1 1 1 1 1 0.011783745570042588 0.0093709959470319442 1 1 1 1 1 1 1 0.010068594901566415 1 1 0.012664305808371214 1 1 1 1 1 1 1 0.010805567303896327 1 1 1 0.014243554943592411 1 1 1 0.016031066646995339 1 1 1 1 1 1 1 1 1 1 1 1 1 1 1 0.010348627205761162 1 1 1 1 1 1 0.010158582409934169 0.01112109030727069 1 0.011982047262442636 1 1 1 1 1 1 1 1 1 1 1 1 1 1 1 1 1 1 1 1 1 1 1 1 1 1 1 1 1 1 1 1 1 1 1 1 1 1 1 1 1 1 1 1 1 1 0.009335318858173236 0.01417375139655971 0.015855630403673208 1 1 1 1 1 1 1 1 1 0.010449826497564835 0.0099342408626448536 1 1 0.024361715651966299 1 1 0.016078088547602724 0.017825093432923107 1 1 1 1 1 1 1 0.010072911437985154 1 1 1 1 1 1 1 1 1 1 1 1 1 1 1 1 1 1 0.017878482835451372 1 1 0.010202827794057711 1 0.015190700341746872 1 0.010030095795154299 0.022287530991194605 1 1 1 1 1 1 1 0.017903190712441067 1 0.01356206609282066 1 1 1 0.015162510907513305 1 1 1 0.010007706690896286 1 1 1 1 1 1 1 1 1 1 1 1 1 1 0.011549209386512551 1 1 1 1 1 0.010498454538986934 1 1 1 0.020293572084065556 1 1 1 0.019264136190896109 1 1 1 1 1 1 1 1 1 1 1 1 1 1 1 1 1 1 1 1 1 1 1 1 1 1 1 1 1 1 1 1 1 1 1 1 1 1 1 1 1 1 1 1 1 1 1 0.010117267535011486 1 1 1 1 1 1 1 1 1 1 0.010149522614321796 1 1 1 1 1 1 1 1 1 1 1 1 1 1 1 1 1 1 1 1 1 1 1 1 1 1 1 0.010196657591295465 1 1 1 1 1 1 1 1 1 1 1 1 1 1 1 1 0.010582914114926737 1 1 1 1 1 1 1 1 1 0.0059088574190990367 1 1 1 1 1 1 1 0.010060813745408731 1 1 1 1 1 1 1 1 1 0.010095660613209009 1 1 1 1 1 1 1 0.011493170718895575 1 1 1 1 1 1 1 1 1 0.014183485821649654 1 1 1 1 1 1 1 1 0.0099346687639616689 1 1 0.01164371959487966 1 1 1 1 1 1 1 1 0.013984873408597762 1 1 0.010719919941211459 0.0099876147977519536 1 1 1 1 1 1 0.010029679359604162 1 1 1 1 1 1 1 1 1 1 1 1 0.0097898395422859313 1 1 1 1 1 1 1 1 0.010526011426064345 1 1 0.020703526997997053 1 1 1 1 1 1 1 1 1 1 1 1 0.0099473067140444602 1 1 1 1 1 1 1 1 1 1 1 0.0094428071723952831 1 1 0.0099252193070181217 1 1 1 0.0096335253006935798 1 1 1 0.010138014140512977 1 1 0.020490455001700505 0.0080976607525224762 0.014712074404667111 0.012117361824001383 0.015550287423492754 1 1 1 1 1 1 0.012100708753523821 0.013013456777437253 1 0.0089418529767812151 0.013551374052935168 0.016521067340432662 1 0.0099914262736082917 1 0.013220550746968793 1 1 0.011758722436694168 1 0.013638816170509943 1 1 0.010356865890974473 0.01001376626085152 1 1 1 1 1 1 1 0.014699312640145318 1 1 1 1 1 1 1 0.010384397249773461 1 0.010755965475033822 0.011608152022939692 0.01090522010921258 1 1 1 1 0.013153522756708932 0.0099969446016215519 1 1 1 1 0.011117899074683571 0.011072206361207221 1 1 1 0.011607305106962293 1 1 1 1 1 1 0.011525424669828569 1 1 1 0.009898781187383611 1 1 1 1 1 1 0.012539677958660784 1 1 1 1 1 1 1 1 1 1 1 1 1 1 1 1 1 1 1 1 1 1 1 1 1 1 0.011110062052341099 1 1 0.0099485521182521297 1 1 1 1 1 1 1 1 1 1 1 1 1 1 1 1 1 1 1 1 1 1 1 0.0077120618177406869 1 1 1 1 0.012762812497121289 0.012164693723466635 1 1 1 1 1 1 0.0088232588054409245 1 1 1 1 0.010986024871711516 0.010787557226946697 1 1 1 1 1 1 1 1 1 1 1 1 1 1 1 1 1 1 1 1 1 1 1 1 1 1 1 1 1 1 1 1 1 1 1 1 1 1 1 1 1 1 1 1 1 1 1 1 1 1 1 1 1 1 1 1 0.0096973025174544869 1 1 1 1 0.0094571423752714007 1 1 0.0098236170745778211 1 1 1 1 1 1 1 1 1 1 1 1 0.011075622480480133 1 1 1 1 1 1 1 1 1 1 1 1 1 1 1 1 1 1 1 1 1 0.0105753146592426 0.0099314270149096408 1 1 1 1 1 1 1 1 1 1 1 1 1 0.011699397240748968 1 1 1 1 1 1 0.017095668740215293 1 1 0.015928258072218291 1 1 1 1 1 1 1 1 1 0.017714563654867531 1 1 1 1 1 1 1 1 1 1 1 1 1 1 1 1 1 1 1 0.010497930921319015 1 1 1 1 1 0.01712179447575906 1 0.01134226273478068 1 1 1 1 1 0.012999476976585066 1 1 1 1 1 0.01085945476230004 1 1 1 1 1 0.013632933378903582 0.011166586217404888 1 0.010837606160662781 1 1 1 1 1 1 1 1 1 1 1 1 1 1 1 1 1 1 1 1 0.010320613586699881 1 1 1 1 1 0.010203346051688397 1 1 0.010223478854367973 0.010195816783105223 1 1 1 1 1 1 1 1 1 1 1 1 1 1 0.010033063125193016 1 1 1 1 1 1 1 0.01474404311398532 1 1 0.01004711374254098 1 0.012258501979281288 1 1 0.010016615295326291 1 1 1 1 1 1 1 1 1 1 1 1 1 1 1 1 1 1 1 1 1 1 1 0.019421449989222357 1 1 1 1 1 1 1 1 1 1 0.013512066092337339 1 1 1 1 0.011779227877964822 1 1 1 1 1 1 1 1 1 1 1 0.010064312595578058 1 1 1 1 1 1 1 1 1 1 1 1 1 1 1 1 1 1 1 1 1 1 1 1 1 1 1 1 0.010621505038087037 1 1 1 1 0.02480714629488354 1 1 1 1 1 0.022528325266423913 1 1 1 1 1 1 1 1 1 1 1 1 1 1 1 1 0.01032286804507258 1 1 1 1 1 1 1 1 1 1 1 0.014353668167434422 1 1 0.025892706203061236 1 1 1 1 0.0099491383120788712 1 1 1 1 1 1 1 1 1 1 1 1 1 1 1 1 1 1 1 0.010485275078664867 1 1 0.02813264693846183 1 0.021319675245410084 1 0.011387346633570444 1 1 0.010010103259122109 1 1 1 1 1 1 1 1 1 1 1 1 1 0.03085239728662276 1 0.015548900872034636 1 1 1 1 1 1 1 1 1 1 1 1 1 1 1 1 1 1 1 1 1 1 1 1 1 1 1 1 1 0.010731588205751139 1 1 1 1 1 1 1 1 0.012251267385238327 1 0.015127445943281886 1 0.013155005091399519 1 1 1 0.01007726950534271 1 1 1 1 1 1 1 1 0.01238696443845997 1 1 1 1 0.01142701106248639 1 1 1 1 1 1 1 0.01003029641692843 1 0.011038894921906231 1 1 1 1 1 1 1 1 1 1 1 1 1 1 1 1 1 1 1 1 1 1 1 1 1 1 0.010026403964229672 1 1 1 1 1 1 1 0.010779402369809496 1 1 1 0.010138284538794244 1 0.011262825019146171 1 1 0.0083670195576143556 1 1 0.010018446300779948 0.012721723703411963 0.0082071592810034517 1 1 1 1 0.014244214801087717 1 1 0.016367018218546501 1 0.010001668045971102 1 1 1 1 1 1 1 1 1 0.013491289271375145 1 0.01028741136599853 1 0.010177551556754351 1 0.010251315685149831 0.010533959870276719 0.016271993270428668 1 1 1 1 1 1 0.016079266219324064 1 1 1 1 1 1 1 1 1 1 1 1 1 1 1 1 1 1 1 1 1 1 1 1 1 1 1 1 1 0.010182843507825079 1 1 1 1 1 1 1 1 1 1 0.01042252104102822 0.010269712502300424 1 1 1 1 1 1 1 0.010134407159760616 1 1 1 1 1 1 1 1 1 0.01031716050153424 1 1 1 0.010219580662286988 1 1 1 1 1 1 0.014252868547625943 1 1 0.0089881758000808099 1 1 1 0.0095712355598159167 1 1 1 0.0099927350775100045 1 0.010551931267379487 1 1 1 1 1 0.011887907888749601 1 1 1 1 1 1 0.011867382985614381 1 1 1 1 1 1 1 1 1 1 1 0.014218869415764744 1 1 1 1 1 1 1 1 1 1 1 1 1 1 1 1 1 1 1 1 0.0096040495677789176 1 1 1 1 0.01392502469790393 1 1 1 0.011824227209501735 1 1 0.013306504872584304 1 1 1 1 1 1 1 1 1 0.018000145768518695 1 0.0099935007208079765 1 1 1 1 1 1 1 1 1 0.0099875917245133734 1 0.015231782440325539 1 0.01015623921481466 1 1 1 1 0.010008261808480736 1 0.014742843141080059 1 1 1 1 1 1 0.01225665605122447 1 1 1 1 1 0.011767920985562027 1 1 1 1 1 1 0.010772318643739617 1 1 1 1 1 1 1 1 1 0.012642585485480518 1 1 1 1 0.0075238476784526102 0.014514389944819442 1 0.010039328658489183 1 1 0.010272483393535505 1 1 1 1 1 1 1 1 1 1 1 1 1 1 1 1 1 1 1 1 1 1 0.010261742667190354 1 1 0.013192067938680883 1 1 1 0.0087946154876350074 1 1 1 1 0.010051604183384757 1 1 1 0.010569455045628772 1 1 1 1 1 1 0.011670780975613021 1 0.010485808969294828 1 1 1 1 1 1 1 1 1 1 1 0.011884342490447409 1 1 0.012781389067692286 1 1 1 1 1 1 1 0.010068066614385272 1 1 1 1 1 1 0.012068077803961073 1 1 1 1 1 1 1 1 1 1 0.013560452174797764 1 1 1 1 1 1 1 1 1 1 0.018862613959397694 1 1 0.011322260490654983 1 0.013450921551954804 0.015060131632198567 1 1 1 1 0.010372027524166411 1 0.011020475062309826 1 1 1 1 1 0.016827919877222132 1 1 1 1 0.01742504748726733 1 1 1 0.012983846859787778 1 1 1 1 1 1 0.0099767710280467391 1 1 1 0.013179156159415891 1 1 0.010132060020665388 1 1 1 1 1 1 1 1 1 1 1 1 1 1 1 1 1 0.0064319068263762654 1 1 0.010185399915335732 1 1 1 1 1 0.01397055565332528 1 1 1 1 1 1 1 1 0.0103007539161408 1 0.013741527994631473 0.010326116481856195 1 1 1 1 1 1 1 0.013353017511122812 0.0115873219084562 1 1 1 1 1 0.011046697491236357 1 0.010335102404055427 0.012206422726276889 1 0.013530995532252866 1 1 0.010153572026343725 1 1 1 1 1 1 1 1 1 1 1 1 1 1 1 1 1 1 0.014420035338046373 1 1 1 1 1 1 1 1 1 1 1 1 1 1 
</DataArray>
</CellData>
</Piece>
</UnstructuredGrid>
</VTKFile>
