<?xml version="1.0"?>
<VTKFile type="UnstructuredGrid" version="0.1" byte_order="LittleEndian">
<UnstructuredGrid>
<Piece NumberOfPoints="31153" NumberOfCells="10907">
<Points>
<DataArray type="Float64" NumberOfComponents="3" format="ascii">
-0.5 -0.5 0 -0.47728164777231558 -0.4785996071165966 0 -0.45689259444512947 -0.50000000000000044 0 -0.5 -0.5 0 -0.49007891724228247 -0.4770838628027354 0 -0.47728164777231558 -0.4785996071165966 0 -0.5 -0.5 0 -0.49007891724228247 -0.4770838628027354 0 -0.49999999999999661 -0.47097704960403852 0 -0.49007891724228247 -0.4770838628027354 0 -0.49999999999999661 -0.47097704960403852 0 -0.4830340211968191 -0.45875879449030471 0 -0.49007891724228247 -0.4770838628027354 0 -0.47728164777231558 -0.4785996071165966 0 -0.4830340211968191 -0.45875879449030471 0 -0.45689259444512947 -0.50000000000000044 0 -0.45405298412962591 -0.47307354473530089 0 -0.47728164777231558 -0.4785996071165966 0 -0.45689259444512947 -0.50000000000000044 0 -0.45405298412962591 -0.47307354473530089 0 -0.47728164777231558 -0.4785996071165966 0 -0.45405298412962591 -0.47307354473530089 0 -0.46532854884028368 -0.45940731026721487 0 -0.45405298412962591 -0.47307354473530089 0 -0.43973595487078082 -0.48510994274581759 0 -0.43453424116129707 -0.4704641309973987 0 -0.45689259444512947 -0.50000000000000044 0 -0.45405298412962591 -0.47307354473530089 0 -0.43973595487078082 -0.48510994274581759 0 -0.45689259444512947 -0.50000000000000044 0 -0.43973595487078082 -0.48510994274581759 0 -0.42841613160213537 -0.5 0 -0.45121337381412219 -0.44614708947060128 0 -0.4422490937655868 -0.44024575072862521 0 -0.46033145833812372 -0.44240926889198129 0 -0.45121337381412219 -0.44614708947060128 0 -0.4422490937655868 -0.44024575072862521 0 -0.44242700309606597 -0.44724898024374571 0 -0.4422490937655868 -0.44024575072862521 0 -0.44242700309606597 -0.44724898024374571 0 -0.43042321930296429 -0.44532955656991507 0 -0.44242700309606597 -0.44724898024374571 0 -0.44019192448441657 -0.456155469519267 0 -0.43042321930296429 -0.44532955656991507 0 -0.45121337381412219 -0.44614708947060128 0 -0.44242700309606597 -0.44724898024374571 0 -0.44019192448441657 -0.456155469519267 0 -0.45405298412962591 -0.47307354473530089 0 -0.45121337381412219 -0.44614708947060128 0 -0.45405298412962591 -0.47307354473530089 0 -0.45121337381412219 -0.44614708947060128 0 -0.44019192448441657 -0.456155469519267 0 -0.45405298412962591 -0.47307354473530089 0 -0.44019192448441657 -0.456155469519267 0 -0.43453424116129707 -0.4704641309973987 0 -0.45405298412962591 -0.47307354473530089 0 -0.45121337381412219 -0.44614708947060128 0 -0.45895706770390232 -0.45204685670628492 0 -0.45405298412962591 -0.47307354473530089 0 -0.46532854884028368 -0.45940731026721487 0 -0.45895706770390232 -0.45204685670628492 0 -0.46532854884028368 -0.45940731026721487 0 -0.45895706770390232 -0.45204685670628492 0 -0.46033145833812372 -0.44240926889198129 0 -0.45121337381412219 -0.44614708947060128 0 -0.45895706770390232 -0.45204685670628492 0 -0.46033145833812372 -0.44240926889198129 0 -0.46729429876894762 -0.43935829750722738 0 -0.4830340211968191 -0.45875879449030471 0 -0.4845964013740845 -0.4533699071458081 0 -0.46033145833812372 -0.44240926889198129 0 -0.46729429876894762 -0.43935829750722738 0 -0.4830340211968191 -0.45875879449030471 0 -0.46729429876894762 -0.43935829750722738 0 -0.4845964013740845 -0.4533699071458081 0 -0.46033145833812372 -0.44240926889198129 0 -0.4830340211968191 -0.45875879449030471 0 -0.46729429876894762 -0.43935829750722738 0 -0.479559194399101 -0.43911436132366771 0 -0.4845964013740845 -0.4533699071458081 0 -0.47728164777231558 -0.4785996071165966 0 -0.4830340211968191 -0.45875879449030471 0 -0.47728164777231558 -0.4785996071165966 0 -0.46532854884028368 -0.45940731026721487 0 -0.4830340211968191 -0.45875879449030471 0 -0.46532854884028368 -0.45940731026721487 0 -0.46033145833812372 -0.44240926889198129 0 -0.4830340211968191 -0.45875879449030471 0 -0.4830340211968191 -0.45875879449030471 0 -0.4845964013740845 -0.4533699071458081 0 -0.49999999999999661 -0.47097704960403852 0 -0.4830340211968191 -0.45875879449030471 0 -0.49999999999999961 -0.4658440679978858 0 -0.4830340211968191 -0.45875879449030471 0 -0.4845964013740845 -0.4533699071458081 0 -0.49999999999999961 -0.4658440679978858 0 -0.49999999999999661 -0.47097704960403852 0 -0.4830340211968191 -0.45875879449030471 0 -0.4845964013740845 -0.4533699071458081 0 -0.49999999999999961 -0.4658440679978858 0 -0.5 -0.44767083444357098 0 -0.4845964013740845 -0.4533699071458081 0 -0.49999999999999961 -0.4658440679978858 0 -0.4845964013740845 -0.4533699071458081 0 -0.5 -0.44767083444357098 0 -0.49007571233826341 -0.43447092856100877 0 -0.4845964013740845 -0.4533699071458081 0 -0.49007571233826341 -0.43447092856100877 0 -0.479559194399101 -0.43911436132366771 0 -0.4845964013740845 -0.4533699071458081 0 -0.49007571233826341 -0.43447092856100877 0 -0.49007571233826341 -0.43447092856100877 0 -0.49555502330244228 -0.41557194997620939 0 -0.48308720126212001 -0.42011479327980711 0 -0.5 -0.44767083444357098 0 -0.49007571233826341 -0.43447092856100877 0 -0.49999999999999872 -0.42949760088925609 0 -0.49007571233826341 -0.43447092856100877 0 -0.49555502330244228 -0.41557194997620939 0 -0.49007571233826341 -0.43447092856100877 0 -0.49999999999999872 -0.42949760088925609 0 -0.49555502330244228 -0.41557194997620939 0 -0.49999999999999872 -0.42949760088925609 0 -0.49555502330244228 -0.41557194997620939 0 -0.49999999999999872 -0.42949760088925609 0 -0.49555502330244228 -0.41557194997620939 0 -0.49999999999999939 -0.40024054791375741 0 -0.49555502330244228 -0.41557194997620939 0 -0.49999999999999939 -0.40024054791375741 0 -0.49555502330244228 -0.41557194997620939 0 -0.48308720126212001 -0.42011479327980711 0 -0.48017075690217048 -0.40704831406391989 0 -0.48308720126212001 -0.42011479327980711 0 -0.48017075690217048 -0.40704831406391989 0 -0.47201744484553931 -0.41636257052853781 0 -0.48017075690217048 -0.40704831406391989 0 -0.47201744484553931 -0.41636257052853781 0 -0.46594870531705618 -0.40470601036541087 0 -0.47201744484553931 -0.41636257052853781 0 -0.47627036511510928 -0.4292583120806267 0 -0.46476377415712161 -0.42459747985895602 0 -0.46729429876894762 -0.43935829750722738 0 -0.47627036511510928 -0.4292583120806267 0 -0.46476377415712161 -0.42459747985895602 0 -0.46729429876894762 -0.43935829750722738 0 -0.479559194399101 -0.43911436132366771 0 -0.47627036511510928 -0.4292583120806267 0 -0.479559194399101 -0.43911436132366771 0 -0.49007571233826341 -0.43447092856100877 0 -0.47627036511510928 -0.4292583120806267 0 -0.48308720126212001 -0.42011479327980711 0 -0.47201744484553931 -0.41636257052853781 0 -0.47627036511510928 -0.4292583120806267 0 -0.49007571233826341 -0.43447092856100877 0 -0.48308720126212001 -0.42011479327980711 0 -0.47627036511510928 -0.4292583120806267 0 -0.5 -0.37615469370796661 0 -0.48773470393351459 -0.39107170060030172 0 -0.47991438456458763 -0.36657145122439377 0 -0.5 -0.37615469370796661 0 -0.48773470393351459 -0.39107170060030172 0 -0.49999999999999939 -0.40024054791375741 0 -0.49555502330244228 -0.41557194997620939 0 -0.48773470393351459 -0.39107170060030172 0 -0.49999999999999939 -0.40024054791375741 0 -0.49555502330244228 -0.41557194997620939 0 -0.48017075690217048 -0.40704831406391989 0 -0.48773470393351459 -0.39107170060030172 0 -0.49555502330244228 -0.41557194997620939 0 -0.48773470393351459 -0.39107170060030172 0 -0.48017075690217048 -0.40704831406391989 0 -0.48773470393351459 -0.39107170060030172 0 -0.47401840227218323 -0.39565188186331768 0 -0.48017075690217048 -0.40704831406391989 0 -0.47401840227218323 -0.39565188186331768 0 -0.46594870531705618 -0.40470601036541087 0 -0.48773470393351459 -0.39107170060030172 0 -0.47991438456458763 -0.36657145122439377 0 -0.48773470393351459 -0.39107170060030172 0 -0.47373804209450332 -0.38204112143425978 0 -0.47991438456458763 -0.36657145122439377 0 -0.48773470393351459 -0.39107170060030172 0 -0.47401840227218323 -0.39565188186331768 0 -0.47373804209450332 -0.38204112143425978 0 -0.47401840227218323 -0.39565188186331768 0 -0.47373804209450332 -0.38204112143425978 0 -0.46148244580707071 -0.39332200182318527 0 -0.47373804209450332 -0.38204112143425978 0 -0.46148244580707071 -0.39332200182318527 0 -0.4476392293563643 -0.37371378910624697 0 -0.47401840227218323 -0.39565188186331768 0 -0.46148244580707071 -0.39332200182318527 0 -0.46594870531705618 -0.40470601036541087 0 -0.46148244580707071 -0.39332200182318527 0 -0.46594870531705618 -0.40470601036541087 0 -0.45305813841390569 -0.40313529865555842 0 -0.46148244580707071 -0.39332200182318527 0 -0.43895431240796029 -0.39330517679348681 0 -0.46148244580707071 -0.39332200182318527 0 -0.45305813841390569 -0.40313529865555842 0 -0.43895431240796029 -0.39330517679348681 0 -0.45305813841390569 -0.40313529865555842 0 -0.43895431240796029 -0.39330517679348681 0 -0.44289729498636332 -0.40986882980900641 0 -0.43895431240796029 -0.39330517679348681 0 -0.42963926502663552 -0.37909202820398707 0 -0.4476392293563643 -0.37371378910624697 0 -0.46148244580707071 -0.39332200182318527 0 -0.43895431240796029 -0.39330517679348681 0 -0.4476392293563643 -0.37371378910624697 0 -0.46729429876894762 -0.43935829750722738 0 -0.46476377415712161 -0.42459747985895602 0 -0.44999219616380981 -0.42534668786864788 0 -0.46033145833812372 -0.44240926889198129 0 -0.46729429876894762 -0.43935829750722738 0 -0.44999219616380981 -0.42534668786864788 0 -0.46729429876894762 -0.43935829750722738 0 -0.44999219616380981 -0.42534668786864788 0 -0.47201744484553931 -0.41636257052853781 0 -0.46476377415712161 -0.42459747985895602 0 -0.45600793355107772 -0.4144744744867026 0 -0.47201744484553931 -0.41636257052853781 0 -0.46594870531705618 -0.40470601036541087 0 -0.45600793355107772 -0.4144744744867026 0 -0.46594870531705618 -0.40470601036541087 0 -0.45305813841390569 -0.40313529865555842 0 -0.45600793355107772 -0.4144744744867026 0 -0.46476377415712161 -0.42459747985895602 0 -0.45600793355107772 -0.4144744744867026 0 -0.44999219616380981 -0.42534668786864788 0 -0.45600793355107772 -0.4144744744867026 0 -0.44663158004516978 -0.41893743386450372 0 -0.44289729498636332 -0.40986882980900641 0 -0.45600793355107772 -0.4144744744867026 0 -0.44663158004516978 -0.41893743386450372 0 -0.44999219616380981 -0.42534668786864788 0 -0.44663158004516978 -0.41893743386450372 0 -0.44289729498636332 -0.40986882980900641 0 -0.43762889547942851 -0.4260597432936577 0 -0.45305813841390569 -0.40313529865555842 0 -0.45600793355107772 -0.4144744744867026 0 -0.44289729498636332 -0.40986882980900641 0 -0.46033145833812372 -0.44240926889198129 0 -0.43762889547942851 -0.4260597432936577 0 -0.4422490937655868 -0.44024575072862521 0 -0.46033145833812372 -0.44240926889198129 0 -0.43762889547942851 -0.4260597432936577 0 -0.44663158004516978 -0.41893743386450372 0 -0.43762889547942851 -0.4260597432936577 0 -0.44999219616380981 -0.42534668786864788 0 -0.46033145833812372 -0.44240926889198129 0 -0.43762889547942851 -0.4260597432936577 0 -0.44999219616380981 -0.42534668786864788 0 -0.43762889547942851 -0.4260597432936577 0 -0.43255489668995761 -0.43531138841603312 0 -0.42165323281527789 -0.43126093909462732 0 -0.43762889547942851 -0.4260597432936577 0 -0.42165323281527789 -0.43126093909462732 0 -0.41755915680585909 -0.42321581966935978 0 -0.4422490937655868 -0.44024575072862521 0 -0.43762889547942851 -0.4260597432936577 0 -0.43255489668995761 -0.43531138841603312 0 -0.43255489668995761 -0.43531138841603312 0 -0.42165323281527789 -0.43126093909462732 0 -0.43042321930296429 -0.44532955656991507 0 -0.43762889547942851 -0.4260597432936577 0 -0.41492633262073308 -0.40971021769533411 0 -0.41755915680585909 -0.42321581966935978 0 -0.43762889547942851 -0.4260597432936577 0 -0.43016660290066711 -0.40644646387105471 0 -0.41492633262073308 -0.40971021769533411 0 -0.44289729498636332 -0.40986882980900641 0 -0.43762889547942851 -0.4260597432936577 0 -0.43016660290066711 -0.40644646387105471 0 -0.43762889547942851 -0.4260597432936577 0 -0.41492633262073308 -0.40971021769533411 0 -0.41492633262073308 -0.40971021769533411 0 -0.40566063269014441 -0.42081510056366411 0 -0.39833109068756928 -0.41279140533223457 0 -0.41492633262073308 -0.40971021769533411 0 -0.41755915680585909 -0.42321581966935978 0 -0.40566063269014441 -0.42081510056366411 0 -0.40750842700327972 -0.43336801904004968 0 -0.41755915680585909 -0.42321581966935978 0 -0.40566063269014441 -0.42081510056366411 0 -0.40750842700327972 -0.43336801904004968 0 -0.42165323281527789 -0.43126093909462732 0 -0.41673969783947451 -0.44548673596837279 0 -0.40750842700327972 -0.43336801904004968 0 -0.42165323281527789 -0.43126093909462732 0 -0.41755915680585909 -0.42321581966935978 0 -0.43895431240796029 -0.39330517679348681 0 -0.42963926502663552 -0.37909202820398707 0 -0.42593621166197448 -0.39156529970632509 0 -0.42963926502663552 -0.37909202820398707 0 -0.42593621166197448 -0.39156529970632509 0 -0.41668796980706818 -0.38353621729379739 0 -0.43895431240796029 -0.39330517679348681 0 -0.42593621166197448 -0.39156529970632509 0 -0.41642617900885009 -0.39328835176378829 0 -0.43895431240796029 -0.39330517679348681 0 -0.43016660290066711 -0.40644646387105471 0 -0.41642617900885009 -0.39328835176378829 0 -0.43895431240796029 -0.39330517679348681 0 -0.41642617900885009 -0.39328835176378829 0 -0.43895431240796029 -0.39330517679348681 0 -0.44289729498636332 -0.40986882980900641 0 -0.43016660290066711 -0.40644646387105471 0 -0.42593621166197448 -0.39156529970632509 0 -0.40991712863585722 -0.39241841322020732 0 -0.42593621166197448 -0.39156529970632509 0 -0.41642617900885009 -0.39328835176378829 0 -0.40991712863585722 -0.39241841322020732 0 -0.41492633262073308 -0.40971021769533411 0 -0.41642617900885009 -0.39328835176378829 0 -0.39389804560973979 -0.39327152673408972 0 -0.43016660290066711 -0.40644646387105471 0 -0.41492633262073308 -0.40971021769533411 0 -0.41642617900885009 -0.39328835176378829 0 -0.41642617900885009 -0.39328835176378829 0 -0.40991712863585722 -0.39241841322020732 0 -0.39389804560973979 -0.39327152673408972 0 -0.42593621166197448 -0.39156529970632509 0 -0.40991712863585722 -0.39241841322020732 0 -0.41668796980706818 -0.38353621729379739 0 -0.40991712863585722 -0.39241841322020732 0 -0.41668796980706818 -0.38353621729379739 0 -0.40214340983564378 -0.38306889807475958 0 -0.41668796980706818 -0.38353621729379739 0 -0.40214340983564378 -0.38306889807475958 0 -0.41580383387523012 -0.37153644726370788 0 -0.42963926502663552 -0.37909202820398707 0 -0.41668796980706818 -0.38353621729379739 0 -0.41580383387523012 -0.37153644726370788 0 -0.40214340983564378 -0.38306889807475958 0 -0.38962408325339021 -0.37789756803553648 0 -0.39610336275487612 -0.36505042246660419 0 -0.40214340983564378 -0.38306889807475958 0 -0.39219126724786979 -0.38661390185594541 0 -0.38962408325339021 -0.37789756803553648 0 -0.40991712863585722 -0.39241841322020732 0 -0.40214340983564378 -0.38306889807475958 0 -0.39953746283227759 -0.38884318497125048 0 -0.39953746283227759 -0.38884318497125048 0 -0.39219126724786979 -0.38661390185594541 0 -0.39389804560973979 -0.39327152673408972 0 -0.40214340983564378 -0.38306889807475958 0 -0.39953746283227759 -0.38884318497125048 0 -0.39219126724786979 -0.38661390185594541 0 -0.41492633262073308 -0.40971021769533411 0 -0.39389804560973979 -0.39327152673408972 0 -0.39215823202996603 -0.39331349430551549 0 -0.40991712863585722 -0.39241841322020732 0 -0.39953746283227759 -0.38884318497125048 0 -0.39389804560973979 -0.39327152673408972 0 -0.41642617900885009 -0.39328835176378829 0 -0.39389804560973979 -0.39327152673408972 0 -0.41492633262073308 -0.40971021769533411 0 -0.39215823202996603 -0.39331349430551549 0 -0.39460033451147719 -0.4032614509625454 0 -0.40991712863585722 -0.39241841322020732 0 -0.39389804560973979 -0.39327152673408972 0 -0.41492633262073308 -0.40971021769533411 0 -0.39215823202996603 -0.39331349430551549 0 -0.39219126724786979 -0.38661390185594541 0 -0.39389804560973979 -0.39327152673408972 0 -0.39215823202996603 -0.39331349430551549 0 -0.39389804560973979 -0.39327152673408972 0 -0.39215823202996603 -0.39331349430551549 0 -0.39215823202996603 -0.39331349430551549 0 -0.39460033451147719 -0.4032614509625454 0 -0.39087051052199651 -0.39889096825066223 0 -0.39460033451147719 -0.4032614509625454 0 -0.38873357964977839 -0.40165954201811199 0 -0.38913729325411872 -0.40968002881917048 0 -0.39460033451147719 -0.4032614509625454 0 -0.39087051052199651 -0.39889096825066223 0 -0.38873357964977839 -0.40165954201811199 0 -0.39215823202996603 -0.39331349430551549 0 -0.3674434599388498 -0.39325176925211441 0 -0.39215823202996603 -0.39331349430551549 0 -0.36410131104928528 -0.39485838391446892 0 -0.39215823202996603 -0.39331349430551549 0 -0.38267683344633591 -0.39841878815682852 0 -0.37501551017570722 -0.39800740959626019 0 -0.39215823202996603 -0.39331349430551549 0 -0.37501551017570722 -0.39800740959626019 0 -0.36410131104928528 -0.39485838391446892 0 -0.38873357964977839 -0.40165954201811199 0 -0.38366965431691807 -0.40604975057919529 0 -0.38913729325411872 -0.40968002881917048 0 -0.39087051052199651 -0.39889096825066223 0 -0.38873357964977839 -0.40165954201811199 0 -0.3879898958967643 -0.39732938571647602 0 -0.38873357964977839 -0.40165954201811199 0 -0.38593973989268632 -0.39971877960775082 0 -0.3879898958967643 -0.39732938571647602 0 -0.38593973989268632 -0.39971877960775082 0 -0.38267683344633591 -0.39841878815682852 0 -0.3879898958967643 -0.39732938571647602 0 -0.38873357964977839 -0.40165954201811199 0 -0.38593973989268632 -0.39971877960775082 0 -0.38435865057786661 -0.40146740253958701 0 -0.38593973989268632 -0.39971877960775082 0 -0.38435865057786661 -0.40146740253958701 0 -0.38267683344633591 -0.39841878815682852 0 -0.38435865057786661 -0.40146740253958701 0 -0.38366965431691807 -0.40604975057919529 0 -0.38066068999336078 -0.40183414340429968 0 -0.38873357964977839 -0.40165954201811199 0 -0.38435865057786661 -0.40146740253958701 0 -0.38366965431691807 -0.40604975057919529 0 -0.38366965431691807 -0.40604975057919529 0 -0.37808561525725931 -0.4056729897961725 0 -0.38066068999336078 -0.40183414340429968 0 -0.37808561525725931 -0.4056729897961725 0 -0.37693616593796891 -0.40172747005310089 0 -0.38066068999336078 -0.40183414340429968 0 -0.37808561525725931 -0.4056729897961725 0 -0.37693616593796891 -0.40172747005310089 0 -0.37372851132735591 -0.40301717595400871 0 -0.37693616593796891 -0.40172747005310089 0 -0.37501551017570722 -0.39800740959626019 0 -0.37372851132735591 -0.40301717595400871 0 -0.37856165673500308 -0.39976154855060958 0 -0.38267683344633591 -0.39841878815682852 0 -0.37501551017570722 -0.39800740959626019 0 -0.37693616593796891 -0.40172747005310089 0 -0.37856165673500308 -0.39976154855060958 0 -0.37501551017570722 -0.39800740959626019 0 -0.37693616593796891 -0.40172747005310089 0 -0.37856165673500308 -0.39976154855060958 0 -0.38066068999336078 -0.40183414340429968 0 -0.37856165673500308 -0.39976154855060958 0 -0.38066068999336078 -0.40183414340429968 0 -0.38267683344633591 -0.39841878815682852 0 -0.38435865057786661 -0.40146740253958701 0 -0.38066068999336078 -0.40183414340429968 0 -0.38267683344633591 -0.39841878815682852 0 -0.39215823202996603 -0.39331349430551549 0 -0.38267683344633591 -0.39841878815682852 0 -0.3879898958967643 -0.39732938571647602 0 -0.39215823202996603 -0.39331349430551549 0 -0.39087051052199651 -0.39889096825066223 0 -0.3879898958967643 -0.39732938571647602 0 -0.39215823202996603 -0.39331349430551549 0 -0.37785695543098807 -0.38301425675691869 0 -0.3674434599388498 -0.39325176925211441 0 -0.37785695543098807 -0.38301425675691869 0 -0.38962408325339021 -0.37789756803553648 0 -0.37367381685810741 -0.36766937258605342 0 -0.39215823202996603 -0.39331349430551549 0 -0.37785695543098807 -0.38301425675691869 0 -0.39219126724786979 -0.38661390185594541 0 -0.39215823202996603 -0.39331349430551549 0 -0.37785695543098807 -0.38301425675691869 0 -0.39219126724786979 -0.38661390185594541 0 -0.37785695543098807 -0.38301425675691869 0 -0.38962408325339021 -0.37789756803553648 0 -0.39492174508079619 -0.43403301477277623 0 -0.40566063269014441 -0.42081510056366411 0 -0.38894663047372069 -0.42128140889722732 0 -0.40750842700327972 -0.43336801904004968 0 -0.39492174508079619 -0.43403301477277623 0 -0.40566063269014441 -0.42081510056366411 0 -0.40566063269014441 -0.42081510056366411 0 -0.39833109068756928 -0.41279140533223457 0 -0.38894663047372069 -0.42128140889722732 0 -0.41492633262073308 -0.40971021769533411 0 -0.39460033451147719 -0.4032614509625454 0 -0.39833109068756928 -0.41279140533223457 0 -0.39460033451147719 -0.4032614509625454 0 -0.39833109068756928 -0.41279140533223457 0 -0.38913729325411872 -0.40968002881917048 0 -0.39833109068756928 -0.41279140533223457 0 -0.38894663047372069 -0.42128140889722732 0 -0.38913729325411872 -0.40968002881917048 0 -0.38894663047372069 -0.42128140889722732 0 -0.38913729325411872 -0.40968002881917048 0 -0.38022452951193009 -0.41254470748584893 0 -0.38366965431691807 -0.40604975057919529 0 -0.38913729325411872 -0.40968002881917048 0 -0.38022452951193009 -0.41254470748584893 0 -0.38366965431691807 -0.40604975057919529 0 -0.37808561525725931 -0.4056729897961725 0 -0.38022452951193009 -0.41254470748584893 0 -0.37808561525725931 -0.4056729897961725 0 -0.38022452951193009 -0.41254470748584893 0 -0.37266055146815918 -0.40851580327183801 0 -0.38022452951193009 -0.41254470748584893 0 -0.3788463541689675 -0.42100415070222019 0 -0.37121927084163903 -0.41626129660232791 0 -0.38894663047372069 -0.42128140889722732 0 -0.38022452951193009 -0.41254470748584893 0 -0.3788463541689675 -0.42100415070222019 0 -0.3788463541689675 -0.42100415070222019 0 -0.37989548677862839 -0.43349641975054048 0 -0.37006662564312492 -0.42414264653414069 0 -0.38894663047372069 -0.42128140889722732 0 -0.3788463541689675 -0.42100415070222019 0 -0.37989548677862839 -0.43349641975054048 0 -0.39492174508079619 -0.43403301477277623 0 -0.38894663047372069 -0.42128140889722732 0 -0.37989548677862839 -0.43349641975054048 0 -0.37989548677862839 -0.43349641975054048 0 -0.38870846509697787 -0.44948233083362688 0 -0.37442419446080583 -0.44966624010971662 0 -0.39492174508079619 -0.43403301477277623 0 -0.37989548677862839 -0.43349641975054048 0 -0.38870846509697787 -0.44948233083362688 0 -0.39492174508079619 -0.43403301477277623 0 -0.38870846509697787 -0.44948233083362688 0 -0.40382720794859472 -0.44676221259238269 0 -0.40750842700327972 -0.43336801904004968 0 -0.39492174508079619 -0.43403301477277623 0 -0.40382720794859472 -0.44676221259238269 0 -0.40382720794859472 -0.44676221259238269 0 -0.39818000820651578 -0.46638207734212589 0 -0.41137843945381392 -0.45919494474554728 0 -0.38870846509697787 -0.44948233083362688 0 -0.40382720794859472 -0.44676221259238269 0 -0.39818000820651578 -0.46638207734212589 0 -0.38870846509697787 -0.44948233083362688 0 -0.38199555400001028 -0.4658636303410324 0 -0.37442419446080583 -0.44966624010971662 0 -0.38870846509697787 -0.44948233083362688 0 -0.39818000820651578 -0.46638207734212589 0 -0.38199555400001028 -0.4658636303410324 0 -0.39818000820651578 -0.46638207734212589 0 -0.38199555400001028 -0.4658636303410324 0 -0.38965394594286218 -0.48269505730851803 0 -0.38199555400001028 -0.4658636303410324 0 -0.38965394594286218 -0.48269505730851803 0 -0.36725232308377331 -0.48014495464580342 0 -0.38965394594286218 -0.48269505730851803 0 -0.37146320591614712 -0.5 0 -0.36725232308377331 -0.48014495464580342 0 -0.38965394594286218 -0.48269505730851803 0 -0.39993966875914122 -0.5 0 -0.37146320591614712 -0.5 0 -0.38965394594286218 -0.48269505730851803 0 -0.39993966875914122 -0.5 0 -0.41585195990767387 -0.47795968510034159 0 -0.39818000820651578 -0.46638207734212589 0 -0.38965394594286218 -0.48269505730851803 0 -0.41585195990767387 -0.47795968510034159 0 -0.39993966875914122 -0.5 0 -0.41585195990767387 -0.47795968510034159 0 -0.42841613160213537 -0.5 0 -0.43973595487078082 -0.48510994274581759 0 -0.41585195990767387 -0.47795968510034159 0 -0.42841613160213537 -0.5 0 -0.43973595487078082 -0.48510994274581759 0 -0.41585195990767387 -0.47795968510034159 0 -0.43453424116129707 -0.4704641309973987 0 -0.41585195990767387 -0.47795968510034159 0 -0.43453424116129707 -0.4704641309973987 0 -0.42485324702493998 -0.45909842048347371 0 -0.44019192448441657 -0.456155469519267 0 -0.43453424116129707 -0.4704641309973987 0 -0.42485324702493998 -0.45909842048347371 0 -0.44019192448441657 -0.456155469519267 0 -0.42485324702493998 -0.45909842048347371 0 -0.43042321930296429 -0.44532955656991507 0 -0.4422490937655868 -0.44024575072862521 0 -0.43255489668995761 -0.43531138841603312 0 -0.43042321930296429 -0.44532955656991507 0 -0.42165323281527789 -0.43126093909462732 0 -0.43042321930296429 -0.44532955656991507 0 -0.41673969783947451 -0.44548673596837279 0 -0.42485324702493998 -0.45909842048347371 0 -0.43042321930296429 -0.44532955656991507 0 -0.41673969783947451 -0.44548673596837279 0 -0.40750842700327972 -0.43336801904004968 0 -0.40382720794859472 -0.44676221259238269 0 -0.41673969783947451 -0.44548673596837279 0 -0.40382720794859472 -0.44676221259238269 0 -0.41673969783947451 -0.44548673596837279 0 -0.41137843945381392 -0.45919494474554728 0 -0.39818000820651578 -0.46638207734212589 0 -0.41585195990767387 -0.47795968510034159 0 -0.41137843945381392 -0.45919494474554728 0 -0.41585195990767387 -0.47795968510034159 0 -0.42485324702493998 -0.45909842048347371 0 -0.41137843945381392 -0.45919494474554728 0 -0.42485324702493998 -0.45909842048347371 0 -0.41673969783947451 -0.44548673596837279 0 -0.41137843945381392 -0.45919494474554728 0 -0.4509344030745589 -0.25461266143952521 0 -0.43951847222151991 -0.26176896773253988 0 -0.45439903977159851 -0.26510240888397141 0 -0.4509344030745589 -0.25461266143952521 0 -0.43951847222151991 -0.26176896773253988 0 -0.44175431771453882 -0.2496538524987241 0 -0.43951847222151991 -0.26176896773253988 0 -0.44373932296168289 -0.27146494238489399 0 -0.42964769786268919 -0.27439009465370251 0 -0.44715540218484018 -0.28173314461320298 0 -0.42964769786268919 -0.27439009465370251 0 -0.44373932296168289 -0.27146494238489399 0 -0.44715540218484018 -0.28173314461320298 0 -0.42964769786268919 -0.27439009465370251 0 -0.44373932296168289 -0.27146494238489399 0 -0.44715540218484018 -0.28173314461320298 0 -0.44373932296168289 -0.27146494238489399 0 -0.45598718365061441 -0.27393704946126002 0 -0.44715540218484018 -0.28173314461320298 0 -0.44373932296168289 -0.27146494238489399 0 -0.45598718365061441 -0.27393704946126002 0 -0.45439903977159851 -0.26510240888397141 0 -0.43951847222151991 -0.26176896773253988 0 -0.44373932296168289 -0.27146494238489399 0 -0.45439903977159851 -0.26510240888397141 0 -0.45598718365061441 -0.27393704946126002 0 -0.46645062529806319 -0.26961156820226312 0 -0.45439903977159851 -0.26510240888397141 0 -0.45598718365061441 -0.27393704946126002 0 -0.4658961042451053 -0.27883046380021298 0 -0.44715540218484018 -0.28173314461320298 0 -0.45598718365061441 -0.27393704946126002 0 -0.4658961042451053 -0.27883046380021298 0 -0.46645062529806319 -0.26961156820226312 0 -0.46645062529806319 -0.26961156820226312 0 -0.45439903977159851 -0.26510240888397141 0 -0.46375679365384959 -0.25548994440738781 0 -0.4509344030745589 -0.25461266143952521 0 -0.45439903977159851 -0.26510240888397141 0 -0.46375679365384959 -0.25548994440738781 0 -0.4509344030745589 -0.25461266143952521 0 -0.46375679365384959 -0.25548994440738781 0 -0.45276775536329861 -0.243963550497031 0 -0.46375679365384959 -0.25548994440738781 0 -0.48209271406877591 -0.25304161622392368 0 -0.46414993516591568 -0.24214985441294731 0 -0.46645062529806319 -0.26961156820226312 0 -0.46375679365384959 -0.25548994440738781 0 -0.48209271406877591 -0.25304161622392368 0 -0.46645062529806319 -0.26961156820226312 0 -0.48209271406877591 -0.25304161622392368 0 -0.48171876141602438 -0.27016998002892972 0 -0.48209271406877591 -0.25304161622392368 0 -0.48171876141602438 -0.27016998002892972 0 -0.5 -0.24788653941881841 0 -0.5 -0.2758918352547064 0 -0.48171876141602438 -0.27016998002892972 0 -0.5 -0.24788653941881841 0 -0.5 -0.2758918352547064 0 -0.48171876141602438 -0.27016998002892972 0 -0.47357770109242059 -0.29281513785189789 0 -0.4658961042451053 -0.27883046380021298 0 -0.48171876141602438 -0.27016998002892972 0 -0.47357770109242059 -0.29281513785189789 0 -0.4658961042451053 -0.27883046380021298 0 -0.46645062529806319 -0.26961156820226312 0 -0.48171876141602438 -0.27016998002892972 0 -0.5 -0.2758918352547064 0 -0.47357770109242059 -0.29281513785189789 0 -0.50000000000000044 -0.30389713109059452 0 -0.50000000000000044 -0.30389713109059452 0 -0.47784564276401131 -0.30917954354575611 0 -0.48415552349529739 -0.32402103800098531 0 -0.47357770109242059 -0.29281513785189789 0 -0.50000000000000044 -0.30389713109059452 0 -0.47357770109242059 -0.29281513785189789 0 -0.50000000000000044 -0.30389713109059452 0 -0.47784564276401131 -0.30917954354575611 0 -0.47357770109242059 -0.29281513785189789 0 -0.47784564276401131 -0.30917954354575611 0 -0.4543504531884669 -0.30336034759123731 0 -0.47784564276401131 -0.30917954354575611 0 -0.4543504531884669 -0.30336034759123731 0 -0.46427374582673347 -0.31757095247257799 0 -0.4658961042451053 -0.27883046380021298 0 -0.47357770109242059 -0.29281513785189789 0 -0.44715540218484018 -0.28173314461320298 0 -0.47357770109242059 -0.29281513785189789 0 -0.4543504531884669 -0.30336034759123731 0 -0.44715540218484018 -0.28173314461320298 0 -0.47357770109242059 -0.29281513785189789 0 -0.44715540218484018 -0.28173314461320298 0 -0.44715540218484018 -0.28173314461320298 0 -0.43676763121354151 -0.29276886976329569 0 -0.42964769786268919 -0.27439009465370251 0 -0.4543504531884669 -0.30336034759123731 0 -0.44715540218484018 -0.28173314461320298 0 -0.43676763121354151 -0.29276886976329569 0 -0.4543504531884669 -0.30336034759123731 0 -0.44715540218484018 -0.28173314461320298 0 -0.44039149726114912 -0.31975050954427953 0 -0.43676763121354151 -0.29276886976329569 0 -0.4543504531884669 -0.30336034759123731 0 -0.44039149726114912 -0.31975050954427953 0 -0.43676763121354151 -0.29276886976329569 0 -0.4543504531884669 -0.30336034759123731 0 -0.44039149726114912 -0.31975050954427953 0 -0.46154550419209461 -0.3249875505692712 0 -0.44039149726114912 -0.31975050954427953 0 -0.45634024218315478 -0.33872970944864023 0 -0.46154550419209461 -0.3249875505692712 0 -0.44039149726114912 -0.31975050954427953 0 -0.44401536330875668 -0.34673214932526319 0 -0.44039149726114912 -0.31975050954427953 0 -0.45634024218315478 -0.33872970944864023 0 -0.44401536330875668 -0.34673214932526319 0 -0.44039149726114912 -0.31975050954427953 0 -0.44401536330875668 -0.34673214932526319 0 -0.43075399304126932 -0.33588143922052999 0 -0.46154550419209461 -0.3249875505692712 0 -0.47209406519566061 -0.34207120184848588 0 -0.46874055519572222 -0.3466147535473052 0 -0.45634024218315478 -0.33872970944864023 0 -0.46154550419209461 -0.3249875505692712 0 -0.46874055519572222 -0.3466147535473052 0 -0.46154550419209461 -0.3249875505692712 0 -0.46427374582673347 -0.31757095247257799 0 -0.47209406519566061 -0.34207120184848588 0 -0.46427374582673347 -0.31757095247257799 0 -0.47209406519566061 -0.34207120184848588 0 -0.46154550419209461 -0.3249875505692712 0 -0.46874055519572222 -0.3466147535473052 0 -0.4543504531884669 -0.30336034759123731 0 -0.46154550419209461 -0.3249875505692712 0 -0.46427374582673347 -0.31757095247257799 0 -0.4543504531884669 -0.30336034759123731 0 -0.46154550419209461 -0.3249875505692712 0 -0.47784564276401131 -0.30917954354575611 0 -0.46427374582673347 -0.31757095247257799 0 -0.47478019925165582 -0.31854937976917092 0 -0.46427374582673347 -0.31757095247257799 0 -0.47478019925165582 -0.31854937976917092 0 -0.47667888018753718 -0.32843908351458462 0 -0.47478019925165582 -0.31854937976917092 0 -0.48415552349529739 -0.32402103800098531 0 -0.47667888018753718 -0.32843908351458462 0 -0.47784564276401131 -0.30917954354575611 0 -0.47478019925165582 -0.31854937976917092 0 -0.48415552349529739 -0.32402103800098531 0 -0.50000000000000044 -0.30389713109059452 0 -0.48415552349529739 -0.32402103800098531 0 -0.5 -0.32798298529638509 0 -0.5 -0.32798298529638509 0 -0.48842808873954491 -0.34042389088369668 0 -0.5 -0.35206883950217588 0 -0.48415552349529739 -0.32402103800098531 0 -0.5 -0.32798298529638509 0 -0.48842808873954491 -0.34042389088369668 0 -0.48415552349529739 -0.32402103800098531 0 -0.48842808873954491 -0.34042389088369668 0 -0.47667888018753718 -0.32843908351458462 0 -0.48842808873954491 -0.34042389088369668 0 -0.47209406519566061 -0.34207120184848588 0 -0.47667888018753718 -0.32843908351458462 0 -0.46427374582673347 -0.31757095247257799 0 -0.47209406519566061 -0.34207120184848588 0 -0.47667888018753718 -0.32843908351458462 0 -0.48842808873954491 -0.34042389088369668 0 -0.47209406519566061 -0.34207120184848588 0 -0.47991438456458763 -0.36657145122439377 0 -0.47991438456458763 -0.36657145122439377 0 -0.46537537429827253 -0.36411413528736641 0 -0.46874055519572222 -0.3466147535473052 0 -0.47209406519566061 -0.34207120184848588 0 -0.47991438456458763 -0.36657145122439377 0 -0.47209406519566061 -0.34207120184848588 0 -0.47991438456458763 -0.36657145122439377 0 -0.46874055519572222 -0.3466147535473052 0 -0.48842808873954491 -0.34042389088369668 0 -0.5 -0.35206883950217588 0 -0.47991438456458763 -0.36657145122439377 0 -0.5 -0.37615469370796661 0 -0.5 -0.35206883950217588 0 -0.47991438456458763 -0.36657145122439377 0 -0.47373804209450332 -0.38204112143425978 0 -0.47991438456458763 -0.36657145122439377 0 -0.46537537429827253 -0.36411413528736641 0 -0.46537537429827253 -0.36411413528736641 0 -0.45642215286845422 -0.35398090734296439 0 -0.4476392293563643 -0.37371378910624697 0 -0.47373804209450332 -0.38204112143425978 0 -0.46537537429827253 -0.36411413528736641 0 -0.4476392293563643 -0.37371378910624697 0 -0.46537537429827253 -0.36411413528736641 0 -0.46874055519572222 -0.3466147535473052 0 -0.45642215286845422 -0.35398090734296439 0 -0.45634024218315478 -0.33872970944864023 0 -0.46874055519572222 -0.3466147535473052 0 -0.45642215286845422 -0.35398090734296439 0 -0.45642215286845422 -0.35398090734296439 0 -0.44401536330875668 -0.34673214932526319 0 -0.4476392293563643 -0.37371378910624697 0 -0.45634024218315478 -0.33872970944864023 0 -0.45642215286845422 -0.35398090734296439 0 -0.44401536330875668 -0.34673214932526319 0 -0.44401536330875668 -0.34673214932526319 0 -0.4476392293563643 -0.37371378910624697 0 -0.44401536330875668 -0.34673214932526319 0 -0.4476392293563643 -0.37371378910624697 0 -0.42928392974223711 -0.35816651022709528 0 -0.42963926502663552 -0.37909202820398707 0 -0.4476392293563643 -0.37371378910624697 0 -0.42928392974223711 -0.35816651022709528 0 -0.42963926502663552 -0.37909202820398707 0 -0.42928392974223711 -0.35816651022709528 0 -0.41580383387523012 -0.37153644726370788 0 -0.42928392974223711 -0.35816651022709528 0 -0.4164442544198862 -0.33938028561326461 0 -0.43075399304126932 -0.33588143922052999 0 -0.44401536330875668 -0.34673214932526319 0 -0.42928392974223711 -0.35816651022709528 0 -0.43075399304126932 -0.33588143922052999 0 -0.41072031788316909 -0.35452137428166758 0 -0.39453187670830392 -0.33938540276078011 0 -0.4164442544198862 -0.33938028561326461 0 -0.42928392974223711 -0.35816651022709528 0 -0.41072031788316909 -0.35452137428166758 0 -0.4164442544198862 -0.33938028561326461 0 -0.42928392974223711 -0.35816651022709528 0 -0.41072031788316909 -0.35452137428166758 0 -0.41580383387523012 -0.37153644726370788 0 -0.41072031788316909 -0.35452137428166758 0 -0.41580383387523012 -0.37153644726370788 0 -0.39610336275487612 -0.36505042246660419 0 -0.40214340983564378 -0.38306889807475958 0 -0.41580383387523012 -0.37153644726370788 0 -0.39610336275487612 -0.36505042246660419 0 -0.39610336275487612 -0.36505042246660419 0 -0.37375925650236208 -0.35176475631893173 0 -0.37367381685810741 -0.36766937258605342 0 -0.38962408325339021 -0.37789756803553648 0 -0.39610336275487612 -0.36505042246660419 0 -0.37367381685810741 -0.36766937258605342 0 -0.39610336275487612 -0.36505042246660419 0 -0.39453187670830392 -0.33938540276078011 0 -0.37375925650236208 -0.35176475631893173 0 -0.39610336275487612 -0.36505042246660419 0 -0.37375925650236208 -0.35176475631893173 0 -0.41072031788316909 -0.35452137428166758 0 -0.39610336275487612 -0.36505042246660419 0 -0.39453187670830392 -0.33938540276078011 0 -0.39453187670830392 -0.33938540276078011 0 -0.37680492703374102 -0.32622567850056539 0 -0.37375925650236208 -0.35176475631893173 0 -0.39453187670830392 -0.33938540276078011 0 -0.37680492703374102 -0.32622567850056539 0 -0.39386684934375848 -0.32058903429060492 0 -0.37680492703374102 -0.32622567850056539 0 -0.39386684934375848 -0.32058903429060492 0 -0.38207090706375169 -0.30755372683824073 0 -0.39453187670830392 -0.33938540276078011 0 -0.39386684934375848 -0.32058903429060492 0 -0.41411380428024003 -0.32194779865887152 0 -0.39386684934375848 -0.32058903429060492 0 -0.41411380428024003 -0.32194779865887152 0 -0.40181273163275572 -0.30783256469456682 0 -0.39453187670830392 -0.33938540276078011 0 -0.41411380428024003 -0.32194779865887152 0 -0.4164442544198862 -0.33938028561326461 0 -0.41411380428024003 -0.32194779865887152 0 -0.4164442544198862 -0.33938028561326461 0 -0.43075399304126932 -0.33588143922052999 0 -0.44039149726114912 -0.31975050954427953 0 -0.41411380428024003 -0.32194779865887152 0 -0.42162247364625433 -0.30318779666364892 0 -0.44039149726114912 -0.31975050954427953 0 -0.41411380428024003 -0.32194779865887152 0 -0.43075399304126932 -0.33588143922052999 0 -0.44039149726114912 -0.31975050954427953 0 -0.43676763121354151 -0.29276886976329569 0 -0.42162247364625433 -0.30318779666364892 0 -0.43676763121354151 -0.29276886976329569 0 -0.42352714814830761 -0.28781286130422679 0 -0.42964769786268919 -0.27439009465370251 0 -0.43676763121354151 -0.29276886976329569 0 -0.42352714814830761 -0.28781286130422679 0 -0.42162247364625433 -0.30318779666364892 0 -0.42352714814830761 -0.28781286130422679 0 -0.4111175063778858 -0.29134973433148892 0 -0.42162247364625433 -0.30318779666364892 0 -0.42352714814830761 -0.28781286130422679 0 -0.4111175063778858 -0.29134973433148892 0 -0.41773940841069052 -0.27836569312533749 0 -0.4111175063778858 -0.29134973433148892 0 -0.40611242967624411 -0.27769582325232889 0 -0.41773940841069052 -0.27836569312533749 0 -0.4111175063778858 -0.29134973433148892 0 -0.42162247364625433 -0.30318779666364892 0 -0.40181273163275572 -0.30783256469456682 0 -0.41411380428024003 -0.32194779865887152 0 -0.42162247364625433 -0.30318779666364892 0 -0.40181273163275572 -0.30783256469456682 0 -0.39386684934375848 -0.32058903429060492 0 -0.40181273163275572 -0.30783256469456682 0 -0.38207090706375169 -0.30755372683824073 0 -0.40181273163275572 -0.30783256469456682 0 -0.38207090706375169 -0.30755372683824073 0 -0.39127764674483723 -0.28751740949134408 0 -0.38207090706375169 -0.30755372683824073 0 -0.39127764674483723 -0.28751740949134408 0 -0.36775702437687668 -0.28964541075215688 0 -0.39127764674483723 -0.28751740949134408 0 -0.37871790271623101 -0.27315260160781629 0 -0.36775702437687668 -0.28964541075215688 0 -0.4111175063778858 -0.29134973433148892 0 -0.39127764674483723 -0.28751740949134408 0 -0.40611242967624411 -0.27769582325232889 0 -0.4111175063778858 -0.29134973433148892 0 -0.40181273163275572 -0.30783256469456682 0 -0.39127764674483723 -0.28751740949134408 0 -0.39495121513529241 -0.26687437556644389 0 -0.40611242967624411 -0.27769582325232889 0 -0.41473534848203769 -0.2653697857633695 0 -0.39127764674483723 -0.28751740949134408 0 -0.39495121513529241 -0.26687437556644389 0 -0.40611242967624411 -0.27769582325232889 0 -0.39495121513529241 -0.26687437556644389 0 -0.37871790271623101 -0.27315260160781629 0 -0.3796922693485355 -0.25853387244871051 0 -0.39127764674483723 -0.28751740949134408 0 -0.39495121513529241 -0.26687437556644389 0 -0.37871790271623101 -0.27315260160781629 0 -0.3796922693485355 -0.25853387244871051 0 -0.37105134606721413 -0.24673755009235079 0 -0.39061584230541252 -0.2487733851209307 0 -0.39495121513529241 -0.26687437556644389 0 -0.3796922693485355 -0.25853387244871051 0 -0.39061584230541252 -0.2487733851209307 0 -0.39495121513529241 -0.26687437556644389 0 -0.40567112408393652 -0.25303076231511862 0 -0.41473534848203769 -0.2653697857633695 0 -0.39495121513529241 -0.26687437556644389 0 -0.40567112408393652 -0.25303076231511862 0 -0.39061584230541252 -0.2487733851209307 0 -0.41473534848203769 -0.2653697857633695 0 -0.42875470656841969 -0.25725464290850703 0 -0.42127657638668742 -0.2452010714524766 0 -0.40567112408393652 -0.25303076231511862 0 -0.41473534848203769 -0.2653697857633695 0 -0.42127657638668742 -0.2452010714524766 0 -0.40611242967624411 -0.27769582325232889 0 -0.41473534848203769 -0.2653697857633695 0 -0.41773940841069052 -0.27836569312533749 0 -0.41473534848203769 -0.2653697857633695 0 -0.41773940841069052 -0.27836569312533749 0 -0.42964769786268919 -0.27439009465370251 0 -0.41473534848203769 -0.2653697857633695 0 -0.42964769786268919 -0.27439009465370251 0 -0.42875470656841969 -0.25725464290850703 0 -0.42352714814830761 -0.28781286130422679 0 -0.41773940841069052 -0.27836569312533749 0 -0.42964769786268919 -0.27439009465370251 0 -0.43951847222151991 -0.26176896773253988 0 -0.42964769786268919 -0.27439009465370251 0 -0.42875470656841969 -0.25725464290850703 0 -0.43951847222151991 -0.26176896773253988 0 -0.42875470656841969 -0.25725464290850703 0 -0.44175431771453882 -0.2496538524987241 0 -0.42875470656841969 -0.25725464290850703 0 -0.43527656859499569 -0.2429182587076664 0 -0.32616174140801057 -0.2702464185870691 0 -0.30403873960416522 -0.25992880783821931 0 -0.3235438603471687 -0.24989833146168711 0 -0.32616174140801057 -0.2702464185870691 0 -0.30403873960416522 -0.25992880783821931 0 -0.32616174140801057 -0.2702464185870691 0 -0.31543750222054101 -0.29309912821794681 0 -0.30664529687623188 -0.27921039347313181 0 -0.32616174140801057 -0.2702464185870691 0 -0.34212265676594322 -0.25855395123388702 0 -0.34828474321185671 -0.28056402933591768 0 -0.32616174140801057 -0.2702464185870691 0 -0.34828474321185671 -0.28056402933591768 0 -0.32616174140801057 -0.2702464185870691 0 -0.34212265676594322 -0.25855395123388702 0 -0.3235438603471687 -0.24989833146168711 0 -0.34212265676594322 -0.25855395123388702 0 -0.35966804463953528 -0.26365078971413419 0 -0.35537346118664881 -0.2470184445464203 0 -0.35966804463953528 -0.26365078971413419 0 -0.37105134606721413 -0.24673755009235079 0 -0.35966804463953528 -0.26365078971413419 0 -0.37105134606721413 -0.24673755009235079 0 -0.35537346118664881 -0.2470184445464203 0 -0.3796922693485355 -0.25853387244871051 0 -0.35966804463953528 -0.26365078971413419 0 -0.37105134606721413 -0.24673755009235079 0 -0.37871790271623101 -0.27315260160781629 0 -0.3796922693485355 -0.25853387244871051 0 -0.35966804463953528 -0.26365078971413419 0 -0.37871790271623101 -0.27315260160781629 0 -0.35966804463953528 -0.26365078971413419 0 -0.36775702437687668 -0.28964541075215688 0 -0.35966804463953528 -0.26365078971413419 0 -0.34828474321185671 -0.28056402933591768 0 -0.34212265676594322 -0.25855395123388702 0 -0.35966804463953528 -0.26365078971413419 0 -0.34828474321185671 -0.28056402933591768 0 -0.35966804463953528 -0.26365078971413419 0 -0.34828474321185671 -0.28056402933591768 0 -0.36775702437687668 -0.28964541075215688 0 -0.34828474321185671 -0.28056402933591768 0 -0.36775702437687668 -0.28964541075215688 0 -0.34828474321185671 -0.28056402933591768 0 -0.36775702437687668 -0.28964541075215688 0 -0.35309746978426021 -0.29891894062043528 0 -0.34828474321185671 -0.28056402933591768 0 -0.35309746978426021 -0.29891894062043528 0 -0.33658383463392733 -0.29794916771852248 0 -0.36775702437687668 -0.28964541075215688 0 -0.36442984490046337 -0.31102819277914928 0 -0.35309746978426021 -0.29891894062043528 0 -0.38207090706375169 -0.30755372683824073 0 -0.36775702437687668 -0.28964541075215688 0 -0.36442984490046337 -0.31102819277914928 0 -0.35309746978426021 -0.29891894062043528 0 -0.33658383463392733 -0.29794916771852248 0 -0.34843190179817718 -0.31540790251643019 0 -0.36442984490046337 -0.31102819277914928 0 -0.35309746978426021 -0.29891894062043528 0 -0.34843190179817718 -0.31540790251643019 0 -0.33658383463392733 -0.29794916771852248 0 -0.32488292605599811 -0.31533430610112728 0 -0.33658383463392733 -0.29794916771852248 0 -0.32488292605599811 -0.31533430610112728 0 -0.33598267166820661 -0.31469510726261241 0 -0.33658383463392733 -0.29794916771852248 0 -0.33598267166820661 -0.31469510726261241 0 -0.34843190179817718 -0.31540790251643019 0 -0.34828474321185671 -0.28056402933591768 0 -0.33658383463392733 -0.29794916771852248 0 -0.32616174140801057 -0.2702464185870691 0 -0.34828474321185671 -0.28056402933591768 0 -0.33658383463392733 -0.29794916771852248 0 -0.32616174140801057 -0.2702464185870691 0 -0.33658383463392733 -0.29794916771852248 0 -0.31543750222054101 -0.29309912821794681 0 -0.31543750222054101 -0.29309912821794681 0 -0.32488292605599811 -0.31533430610112728 0 -0.30880828462222593 -0.30835075437429338 0 -0.33658383463392733 -0.29794916771852248 0 -0.31543750222054101 -0.29309912821794681 0 -0.32488292605599811 -0.31533430610112728 0 -0.31543750222054101 -0.29309912821794681 0 -0.32488292605599811 -0.31533430610112728 0 -0.32393332595201257 -0.32213856893385412 0 -0.32488292605599811 -0.31533430610112728 0 -0.30865099597446471 -0.33945160851442108 0 -0.32488292605599811 -0.31533430610112728 0 -0.30742226906225611 -0.32252841288139489 0 -0.30880828462222593 -0.30835075437429338 0 -0.32488292605599811 -0.31533430610112728 0 -0.30865099597446471 -0.33945160851442108 0 -0.30742226906225611 -0.32252841288139489 0 -0.32488292605599811 -0.31533430610112728 0 -0.30865099597446471 -0.33945160851442108 0 -0.32393332595201257 -0.32213856893385412 0 -0.32488292605599811 -0.31533430610112728 0 -0.3290710439973345 -0.3251934240235857 0 -0.32393332595201257 -0.32213856893385412 0 -0.3290710439973345 -0.3251934240235857 0 -0.32488292605599811 -0.31533430610112728 0 -0.3290710439973345 -0.3251934240235857 0 -0.32393332595201257 -0.32213856893385412 0 -0.32435610893071332 -0.34019238078191949 0 -0.30865099597446471 -0.33945160851442108 0 -0.32393332595201257 -0.32213856893385412 0 -0.32435610893071332 -0.34019238078191949 0 -0.3290710439973345 -0.3251934240235857 0 -0.3290710439973345 -0.3251934240235857 0 -0.33842455205428862 -0.34721222583715777 0 -0.3290710439973345 -0.3251934240235857 0 -0.35141515024984821 -0.3384790901712591 0 -0.3290710439973345 -0.3251934240235857 0 -0.35141515024984821 -0.3384790901712591 0 -0.33842455205428862 -0.34721222583715777 0 -0.34312403408203901 -0.32794635582036041 0 -0.3290710439973345 -0.3251934240235857 0 -0.35141515024984821 -0.3384790901712591 0 -0.32435610893071332 -0.34019238078191949 0 -0.3290710439973345 -0.3251934240235857 0 -0.33842455205428862 -0.34721222583715777 0 -0.34312403408203901 -0.32794635582036041 0 -0.33713953151440468 -0.32210652119038569 0 -0.3290710439973345 -0.3251934240235857 0 -0.34312403408203901 -0.32794635582036041 0 -0.33713953151440468 -0.32210652119038569 0 -0.34843190179817718 -0.31540790251643019 0 -0.33713953151440468 -0.32210652119038569 0 -0.3290710439973345 -0.3251934240235857 0 -0.3314353984898647 -0.31941449082474899 0 -0.32488292605599811 -0.31533430610112728 0 -0.3314353984898647 -0.31941449082474899 0 -0.33598267166820661 -0.31469510726261241 0 -0.32488292605599811 -0.31533430610112728 0 -0.3290710439973345 -0.3251934240235857 0 -0.3314353984898647 -0.31941449082474899 0 -0.33713953151440468 -0.32210652119038569 0 -0.3314353984898647 -0.31941449082474899 0 -0.33598267166820661 -0.31469510726261241 0 -0.33713953151440468 -0.32210652119038569 0 -0.33598267166820661 -0.31469510726261241 0 -0.34843190179817718 -0.31540790251643019 0 -0.34312403408203901 -0.32794635582036041 0 -0.34843190179817718 -0.31540790251643019 0 -0.3598143623043441 -0.32655056570390067 0 -0.36442984490046337 -0.31102819277914928 0 -0.34843190179817718 -0.31540790251643019 0 -0.3598143623043441 -0.32655056570390067 0 -0.37680492703374102 -0.32622567850056539 0 -0.38207090706375169 -0.30755372683824073 0 -0.36442984490046337 -0.31102819277914928 0 -0.37680492703374102 -0.32622567850056539 0 -0.36442984490046337 -0.31102819277914928 0 -0.3598143623043441 -0.32655056570390067 0 -0.3598143623043441 -0.32655056570390067 0 -0.35141515024984821 -0.3384790901712591 0 -0.37375925650236208 -0.35176475631893173 0 -0.37680492703374102 -0.32622567850056539 0 -0.3598143623043441 -0.32655056570390067 0 -0.37375925650236208 -0.35176475631893173 0 -0.34312403408203901 -0.32794635582036041 0 -0.3598143623043441 -0.32655056570390067 0 -0.35141515024984821 -0.3384790901712591 0 -0.35141515024984821 -0.3384790901712591 0 -0.35432950288930259 -0.35549165621219708 0 -0.33842455205428862 -0.34721222583715777 0 -0.35432950288930259 -0.35549165621219708 0 -0.34777806011124213 -0.36923102765073018 0 -0.33842455205428862 -0.34721222583715777 0 -0.35141515024984821 -0.3384790901712591 0 -0.37375925650236208 -0.35176475631893173 0 -0.35141515024984821 -0.3384790901712591 0 -0.35432950288930259 -0.35549165621219708 0 -0.37375925650236208 -0.35176475631893173 0 -0.35432950288930259 -0.35549165621219708 0 -0.37375925650236208 -0.35176475631893173 0 -0.37367381685810741 -0.36766937258605342 0 -0.35432950288930259 -0.35549165621219708 0 -0.37367381685810741 -0.36766937258605342 0 -0.35901837125840491 -0.37087074600000092 0 -0.37367381685810741 -0.36766937258605342 0 -0.35901837125840491 -0.37087074600000092 0 -0.36582863262733001 -0.38110790764763192 0 -0.35901837125840491 -0.37087074600000092 0 -0.34777806011124213 -0.36923102765073018 0 -0.35348184380604247 -0.38085376590339221 0 -0.35432950288930259 -0.35549165621219708 0 -0.35901837125840491 -0.37087074600000092 0 -0.34777806011124213 -0.36923102765073018 0 -0.34777806011124213 -0.36923102765073018 0 -0.33842455205428862 -0.34721222583715777 0 -0.32472688938627498 -0.36177304337713379 0 -0.34777806011124213 -0.36923102765073018 0 -0.32472688938627498 -0.36177304337713379 0 -0.33168567749387812 -0.37760406933993212 0 -0.32435610893071332 -0.34019238078191949 0 -0.33842455205428862 -0.34721222583715777 0 -0.32472688938627498 -0.36177304337713379 0 -0.34777806011124213 -0.36923102765073018 0 -0.33842455205428862 -0.34721222583715777 0 -0.32435610893071332 -0.34019238078191949 0 -0.31044819871585549 -0.35388113379850489 0 -0.30865099597446471 -0.33945160851442108 0 -0.32435610893071332 -0.34019238078191949 0 -0.32472688938627498 -0.36177304337713379 0 -0.31044819871585549 -0.35388113379850489 0 -0.32472688938627498 -0.36177304337713379 0 -0.30522580768714319 -0.36888593173740358 0 -0.31834191434954878 -0.37954479593773099 0 -0.32472688938627498 -0.36177304337713379 0 -0.33168567749387812 -0.37760406933993212 0 -0.31834191434954878 -0.37954479593773099 0 -0.32472688938627498 -0.36177304337713379 0 -0.30522580768714319 -0.36888593173740358 0 -0.31044819871585549 -0.35388113379850489 0 -0.31044819871585549 -0.35388113379850489 0 -0.29655369765149181 -0.35367517758561401 0 -0.30865099597446471 -0.33945160851442108 0 -0.30522580768714319 -0.36888593173740358 0 -0.31044819871585549 -0.35388113379850489 0 -0.29655369765149181 -0.35367517758561401 0 -0.29655369765149181 -0.35367517758561401 0 -0.27843664637040572 -0.35523208052723088 0 -0.28889395014416069 -0.33453536264710948 0 -0.30522580768714319 -0.36888593173740358 0 -0.28766658701692049 -0.37006494828901387 0 -0.29648410022266541 -0.37732551396455349 0 -0.30522580768714319 -0.36888593173740358 0 -0.29655369765149181 -0.35367517758561401 0 -0.28766658701692049 -0.37006494828901387 0 -0.29655369765149181 -0.35367517758561401 0 -0.28766658701692049 -0.37006494828901387 0 -0.27843664637040572 -0.35523208052723088 0 -0.28766658701692049 -0.37006494828901387 0 -0.27296856034325911 -0.3709841081039057 0 -0.27843664637040572 -0.35523208052723088 0 -0.28766658701692049 -0.37006494828901387 0 -0.27296856034325911 -0.3709841081039057 0 -0.27984962255216772 -0.37718658713522341 0 -0.26812806966705482 -0.36101813014815631 0 -0.27296856034325911 -0.3709841081039057 0 -0.27843664637040572 -0.35523208052723088 0 -0.26812806966705482 -0.36101813014815631 0 -0.27296856034325911 -0.3709841081039057 0 -0.25934190744446889 -0.36674172805788308 0 -0.25934190744446889 -0.36674172805788308 0 -0.26174071051694819 -0.3809219102723978 0 -0.24300320825855271 -0.3768286419098269 0 -0.27296856034325911 -0.3709841081039057 0 -0.25934190744446889 -0.36674172805788308 0 -0.26174071051694819 -0.3809219102723978 0 -0.26812806966705482 -0.36101813014815631 0 -0.25934190744446889 -0.36674172805788308 0 -0.26176516451008569 -0.35111460390360583 0 -0.26176516451008569 -0.35111460390360583 0 -0.2458903191612237 -0.35977789146509231 0 -0.247265814921798 -0.3446520577861556 0 -0.25934190744446889 -0.36674172805788308 0 -0.26176516451008569 -0.35111460390360583 0 -0.2458903191612237 -0.35977789146509231 0 -0.26812806966705482 -0.36101813014815631 0 -0.26176516451008569 -0.35111460390360583 0 -0.27843664637040572 -0.35523208052723088 0 -0.26176516451008569 -0.35111460390360583 0 -0.27843664637040572 -0.35523208052723088 0 -0.27228555805351851 -0.34033595915188147 0 -0.27228555805351851 -0.34033595915188147 0 -0.27108377745872247 -0.32640452672186487 0 -0.28889395014416069 -0.33453536264710948 0 -0.27843664637040572 -0.35523208052723088 0 -0.27228555805351851 -0.34033595915188147 0 -0.28889395014416069 -0.33453536264710948 0 -0.27228555805351851 -0.34033595915188147 0 -0.2567583914609915 -0.33258759835201063 0 -0.27108377745872247 -0.32640452672186487 0 -0.26176516451008569 -0.35111460390360583 0 -0.27228555805351851 -0.34033595915188147 0 -0.2567583914609915 -0.33258759835201063 0 -0.26176516451008569 -0.35111460390360583 0 -0.2567583914609915 -0.33258759835201063 0 -0.247265814921798 -0.3446520577861556 0 -0.2567583914609915 -0.33258759835201063 0 -0.25976271365412262 -0.31481476486389631 0 -0.24436533018786191 -0.31749169771618618 0 -0.2567583914609915 -0.33258759835201063 0 -0.25976271365412262 -0.31481476486389631 0 -0.27108377745872247 -0.32640452672186487 0 -0.25976271365412262 -0.31481476486389631 0 -0.27108377745872247 -0.32640452672186487 0 -0.28172432323510782 -0.30986379095351668 0 -0.27108377745872247 -0.32640452672186487 0 -0.28889395014416069 -0.33453536264710948 0 -0.28172432323510782 -0.30986379095351668 0 -0.28889395014416069 -0.33453536264710948 0 -0.29696912868060138 -0.31406820710501099 0 -0.28172432323510782 -0.30986379095351668 0 -0.29655369765149181 -0.35367517758561401 0 -0.28889395014416069 -0.33453536264710948 0 -0.30865099597446471 -0.33945160851442108 0 -0.28889395014416069 -0.33453536264710948 0 -0.30865099597446471 -0.33945160851442108 0 -0.30742226906225611 -0.32252841288139489 0 -0.28889395014416069 -0.33453536264710948 0 -0.30742226906225611 -0.32252841288139489 0 -0.29696912868060138 -0.31406820710501099 0 -0.30742226906225611 -0.32252841288139489 0 -0.29696912868060138 -0.31406820710501099 0 -0.30880828462222593 -0.30835075437429338 0 -0.29696912868060138 -0.31406820710501099 0 -0.29984293481407492 -0.29801169876790462 0 -0.30880828462222593 -0.30835075437429338 0 -0.31543750222054101 -0.29309912821794681 0 -0.29984293481407492 -0.29801169876790462 0 -0.30880828462222593 -0.30835075437429338 0 -0.31543750222054101 -0.29309912821794681 0 -0.29984293481407492 -0.29801169876790462 0 -0.30664529687623188 -0.27921039347313181 0 -0.29984293481407492 -0.29801169876790462 0 -0.28947307324974142 -0.28347791848352788 0 -0.30664529687623188 -0.27921039347313181 0 -0.29696912868060138 -0.31406820710501099 0 -0.29984293481407492 -0.29801169876790462 0 -0.28172432323510782 -0.30986379095351668 0 -0.29984293481407492 -0.29801169876790462 0 -0.28947307324974142 -0.28347791848352788 0 -0.28172432323510782 -0.30986379095351668 0 -0.25976271365412262 -0.31481476486389631 0 -0.28172432323510782 -0.30986379095351668 0 -0.26655802236667342 -0.29902203928722049 0 -0.28947307324974142 -0.28347791848352788 0 -0.28172432323510782 -0.30986379095351668 0 -0.26655802236667342 -0.29902203928722049 0 -0.25976271365412262 -0.31481476486389631 0 -0.26655802236667342 -0.29902203928722049 0 -0.25008045053424988 -0.30220609096083711 0 -0.25976271365412262 -0.31481476486389631 0 -0.25008045053424988 -0.30220609096083711 0 -0.24436533018786191 -0.31749169771618618 0 -0.26655802236667342 -0.29902203928722049 0 -0.25599936036228632 -0.28628528780799478 0 -0.27106021136977088 -0.28162129779876061 0 -0.26655802236667342 -0.29902203928722049 0 -0.25008045053424988 -0.30220609096083711 0 -0.25599936036228632 -0.28628528780799478 0 -0.28947307324974142 -0.28347791848352788 0 -0.26655802236667342 -0.29902203928722049 0 -0.27106021136977088 -0.28162129779876061 0 -0.27106021136977088 -0.28162129779876061 0 -0.28047606832563848 -0.26846444788696472 0 -0.26278702599662962 -0.27032427487989169 0 -0.28947307324974142 -0.28347791848352788 0 -0.27106021136977088 -0.28162129779876061 0 -0.28047606832563848 -0.26846444788696472 0 -0.25599936036228632 -0.28628528780799478 0 -0.27106021136977088 -0.28162129779876061 0 -0.26278702599662962 -0.27032427487989169 0 -0.25599936036228632 -0.28628528780799478 0 -0.26278702599662962 -0.27032427487989169 0 -0.24528171809468299 -0.27407144203953199 0 -0.26278702599662962 -0.27032427487989169 0 -0.24528171809468299 -0.27407144203953199 0 -0.25346419334368148 -0.24821555279875021 0 -0.26278702599662962 -0.27032427487989169 0 -0.28191573780031948 -0.24961119708936949 0 -0.25346419334368148 -0.24821555279875021 0 -0.28047606832563848 -0.26846444788696472 0 -0.26278702599662962 -0.27032427487989169 0 -0.28191573780031948 -0.24961119708936949 0 -0.30403873960416522 -0.25992880783821931 0 -0.28191573780031948 -0.24961119708936949 0 -0.28047606832563848 -0.26846444788696472 0 -0.30403873960416522 -0.25992880783821931 0 -0.28191573780031948 -0.24961119708936949 0 -0.28947307324974142 -0.28347791848352788 0 -0.28047606832563848 -0.26846444788696472 0 -0.30403873960416522 -0.25992880783821931 0 -0.32616174140801057 -0.2702464185870691 0 -0.30664529687623188 -0.27921039347313181 0 -0.30403873960416522 -0.25992880783821931 0 -0.28947307324974142 -0.28347791848352788 0 -0.30664529687623188 -0.27921039347313181 0 -0.30403873960416522 -0.25992880783821931 0 -0.33593673901179077 -0.46122986432662127 0 -0.35015209651977341 -0.46897643342248652 0 -0.34377937747385051 -0.44927607504031841 0 -0.33593673901179077 -0.46122986432662127 0 -0.31885784577898779 -0.4576289775742271 0 -0.32989727876498548 -0.47912083485532059 0 -0.33593673901179077 -0.46122986432662127 0 -0.32879755342556582 -0.44719658043999361 0 -0.34377937747385051 -0.44927607504031841 0 -0.33707193832870791 -0.4376989072087013 0 -0.32879755342556582 -0.44719658043999361 0 -0.34377937747385051 -0.44927607504031841 0 -0.33707193832870791 -0.4376989072087013 0 -0.34377937747385051 -0.44927607504031841 0 -0.34847068221687177 -0.43515821905545238 0 -0.33707193832870791 -0.4376989072087013 0 -0.32879755342556582 -0.44719658043999361 0 -0.32486719988719842 -0.43363603468978679 0 -0.32879755342556582 -0.44719658043999361 0 -0.31591793737420099 -0.44270381407736059 0 -0.31885784577898779 -0.4576289775742271 0 -0.32879755342556582 -0.44719658043999361 0 -0.31591793737420099 -0.44270381407736059 0 -0.32486719988719842 -0.43363603468978679 0 -0.33593673901179077 -0.46122986432662127 0 -0.32879755342556582 -0.44719658043999361 0 -0.31885784577898779 -0.4576289775742271 0 -0.31451028023015881 -0.5 0 -0.32989727876498548 -0.47912083485532059 0 -0.31033769547596729 -0.47295405842081012 0 -0.31885784577898779 -0.4576289775742271 0 -0.32989727876498548 -0.47912083485532059 0 -0.31033769547596729 -0.47295405842081012 0 -0.31451028023015881 -0.5 0 -0.34298674307315291 -0.5 0 -0.32989727876498548 -0.47912083485532059 0 -0.33593673901179077 -0.46122986432662127 0 -0.32989727876498548 -0.47912083485532059 0 -0.35015209651977341 -0.46897643342248652 0 -0.34298674307315291 -0.5 0 -0.32989727876498548 -0.47912083485532059 0 -0.35015209651977341 -0.46897643342248652 0 -0.34298674307315291 -0.5 0 -0.35015209651977341 -0.46897643342248652 0 -0.36725232308377331 -0.48014495464580342 0 -0.34298674307315291 -0.5 0 -0.37146320591614712 -0.5 0 -0.36725232308377331 -0.48014495464580342 0 -0.35015209651977341 -0.46897643342248652 0 -0.36725232308377331 -0.48014495464580342 0 -0.3672623930506938 -0.46333460680278349 0 -0.38199555400001028 -0.4658636303410324 0 -0.36725232308377331 -0.48014495464580342 0 -0.3672623930506938 -0.46333460680278349 0 -0.3672623930506938 -0.46333460680278349 0 -0.35876182998161937 -0.44979830693523759 0 -0.37442419446080583 -0.44966624010971662 0 -0.38199555400001028 -0.4658636303410324 0 -0.3672623930506938 -0.46333460680278349 0 -0.37442419446080583 -0.44966624010971662 0 -0.35015209651977341 -0.46897643342248652 0 -0.3672623930506938 -0.46333460680278349 0 -0.35876182998161937 -0.44979830693523759 0 -0.35015209651977341 -0.46897643342248652 0 -0.34377937747385051 -0.44927607504031841 0 -0.35876182998161937 -0.44979830693523759 0 -0.35876182998161937 -0.44979830693523759 0 -0.36140097643995478 -0.43388132033937732 0 -0.34847068221687177 -0.43515821905545238 0 -0.34377937747385051 -0.44927607504031841 0 -0.35876182998161937 -0.44979830693523759 0 -0.34847068221687177 -0.43515821905545238 0 -0.35876182998161937 -0.44979830693523759 0 -0.37442419446080583 -0.44966624010971662 0 -0.36140097643995478 -0.43388132033937732 0 -0.37989548677862839 -0.43349641975054048 0 -0.37442419446080583 -0.44966624010971662 0 -0.36140097643995478 -0.43388132033937732 0 -0.37989548677862839 -0.43349641975054048 0 -0.36140097643995478 -0.43388132033937732 0 -0.37006662564312492 -0.42414264653414069 0 -0.36140097643995478 -0.43388132033937732 0 -0.37006662564312492 -0.42414264653414069 0 -0.36124972947753631 -0.42153755776119989 0 -0.3788463541689675 -0.42100415070222019 0 -0.37006662564312492 -0.42414264653414069 0 -0.37121927084163903 -0.41626129660232791 0 -0.37006662564312492 -0.42414264653414069 0 -0.37121927084163903 -0.41626129660232791 0 -0.36124972947753631 -0.42153755776119989 0 -0.37121927084163903 -0.41626129660232791 0 -0.37266055146815918 -0.40851580327183801 0 -0.36469350732220179 -0.40938521344560219 0 -0.38022452951193009 -0.41254470748584893 0 -0.37121927084163903 -0.41626129660232791 0 -0.37266055146815918 -0.40851580327183801 0 -0.37266055146815918 -0.40851580327183801 0 -0.36469350732220179 -0.40938521344560219 0 -0.36919054982281679 -0.40485320012922571 0 -0.36469350732220179 -0.40938521344560219 0 -0.35570614194425282 -0.41400736050568632 0 -0.35773107686951539 -0.40842950520037591 0 -0.36469350732220179 -0.40938521344560219 0 -0.35773107686951539 -0.40842950520037591 0 -0.3598880929128026 -0.40465262530244778 0 -0.36469350732220179 -0.40938521344560219 0 -0.36124972947753631 -0.42153755776119989 0 -0.35570614194425282 -0.41400736050568632 0 -0.37121927084163903 -0.41626129660232791 0 -0.36469350732220179 -0.40938521344560219 0 -0.36124972947753631 -0.42153755776119989 0 -0.36124972947753631 -0.42153755776119989 0 -0.35570614194425282 -0.41400736050568632 0 -0.35166940124758661 -0.42408489217657802 0 -0.35773107686951539 -0.40842950520037591 0 -0.3598880929128026 -0.40465262530244778 0 -0.35063656529880449 -0.40567282154776751 0 -0.35570614194425282 -0.41400736050568632 0 -0.35773107686951539 -0.40842950520037591 0 -0.35063656529880449 -0.40567282154776751 0 -0.34601365153850022 -0.41479284212809631 0 -0.35063656529880449 -0.40567282154776751 0 -0.34192327637816178 -0.40766074456661588 0 -0.35570614194425282 -0.41400736050568632 0 -0.34601365153850022 -0.41479284212809631 0 -0.35063656529880449 -0.40567282154776751 0 -0.34601365153850022 -0.41479284212809631 0 -0.35166940124758661 -0.42408489217657802 0 -0.33703073661589789 -0.42396683793450862 0 -0.35570614194425282 -0.41400736050568632 0 -0.34601365153850022 -0.41479284212809631 0 -0.35166940124758661 -0.42408489217657802 0 -0.34847068221687177 -0.43515821905545238 0 -0.35166940124758661 -0.42408489217657802 0 -0.33703073661589789 -0.42396683793450862 0 -0.36140097643995478 -0.43388132033937732 0 -0.34847068221687177 -0.43515821905545238 0 -0.35166940124758661 -0.42408489217657802 0 -0.36140097643995478 -0.43388132033937732 0 -0.36124972947753631 -0.42153755776119989 0 -0.35166940124758661 -0.42408489217657802 0 -0.35901837125840491 -0.37087074600000092 0 -0.36582863262733001 -0.38110790764763192 0 -0.35348184380604247 -0.38085376590339221 0 -0.37785695543098807 -0.38301425675691869 0 -0.37367381685810741 -0.36766937258605342 0 -0.36582863262733001 -0.38110790764763192 0 -0.37785695543098807 -0.38301425675691869 0 -0.36582863262733001 -0.38110790764763192 0 -0.3674434599388498 -0.39325176925211441 0 -0.36582863262733001 -0.38110790764763192 0 -0.3674434599388498 -0.39325176925211441 0 -0.35738569150982302 -0.38711169971535991 0 -0.39215823202996603 -0.39331349430551549 0 -0.36410131104928528 -0.39485838391446892 0 -0.3674434599388498 -0.39325176925211441 0 -0.36410131104928528 -0.39485838391446892 0 -0.36583218619736058 -0.39891159702881718 0 -0.35771733888721269 -0.40129611187372061 0 -0.36410131104928528 -0.39485838391446892 0 -0.36852284709786692 -0.39768587012888151 0 -0.36583218619736058 -0.39891159702881718 0 -0.37501551017570722 -0.39800740959626019 0 -0.36410131104928528 -0.39485838391446892 0 -0.36852284709786692 -0.39768587012888151 0 -0.37501551017570722 -0.39800740959626019 0 -0.36852284709786692 -0.39768587012888151 0 -0.36959075904207739 -0.40086774143547138 0 -0.36852284709786692 -0.39768587012888151 0 -0.36959075904207739 -0.40086774143547138 0 -0.36583218619736058 -0.39891159702881718 0 -0.37501551017570722 -0.39800740959626019 0 -0.36959075904207739 -0.40086774143547138 0 -0.37372851132735591 -0.40301717595400871 0 -0.37266055146815918 -0.40851580327183801 0 -0.37372851132735591 -0.40301717595400871 0 -0.36919054982281679 -0.40485320012922571 0 -0.37808561525725931 -0.4056729897961725 0 -0.37266055146815918 -0.40851580327183801 0 -0.37372851132735591 -0.40301717595400871 0 -0.36959075904207739 -0.40086774143547138 0 -0.37372851132735591 -0.40301717595400871 0 -0.36919054982281679 -0.40485320012922571 0 -0.36959075904207739 -0.40086774143547138 0 -0.36919054982281679 -0.40485320012922571 0 -0.36525494963135691 -0.40273119577563521 0 -0.36469350732220179 -0.40938521344560219 0 -0.36919054982281679 -0.40485320012922571 0 -0.36525494963135691 -0.40273119577563521 0 -0.36525494963135691 -0.40273119577563521 0 -0.36583218619736058 -0.39891159702881718 0 -0.35771733888721269 -0.40129611187372061 0 -0.36959075904207739 -0.40086774143547138 0 -0.36525494963135691 -0.40273119577563521 0 -0.36583218619736058 -0.39891159702881718 0 -0.36525494963135691 -0.40273119577563521 0 -0.3598880929128026 -0.40465262530244778 0 -0.35771733888721269 -0.40129611187372061 0 -0.36469350732220179 -0.40938521344560219 0 -0.36525494963135691 -0.40273119577563521 0 -0.3598880929128026 -0.40465262530244778 0 -0.3674434599388498 -0.39325176925211441 0 -0.34278882966706947 -0.39323335605830118 0 -0.36410131104928528 -0.39485838391446892 0 -0.35771733888721269 -0.40129611187372061 0 -0.34746059939626028 -0.40194498739209189 0 -0.36410131104928528 -0.39485838391446892 0 -0.33609936988597988 -0.39634965744007611 0 -0.36410131104928528 -0.39485838391446892 0 -0.34746059939626028 -0.40194498739209189 0 -0.33609936988597988 -0.39634965744007611 0 -0.36410131104928528 -0.39485838391446892 0 -0.3674434599388498 -0.39325176925211441 0 -0.34278882966706947 -0.39323335605830118 0 -0.3674434599388498 -0.39325176925211441 0 -0.35738569150982302 -0.38711169971535991 0 -0.34278882966706947 -0.39323335605830118 0 -0.36410131104928528 -0.39485838391446892 0 -0.33609936988597988 -0.39634965744007611 0 -0.34278882966706947 -0.39323335605830118 0 -0.3598880929128026 -0.40465262530244778 0 -0.35771733888721269 -0.40129611187372061 0 -0.35063656529880449 -0.40567282154776751 0 -0.35771733888721269 -0.40129611187372061 0 -0.34746059939626028 -0.40194498739209189 0 -0.35063656529880449 -0.40567282154776751 0 -0.34746059939626028 -0.40194498739209189 0 -0.35063656529880449 -0.40567282154776751 0 -0.34192327637816178 -0.40766074456661588 0 -0.36582863262733001 -0.38110790764763192 0 -0.35738569150982302 -0.38711169971535991 0 -0.35348184380604247 -0.38085376590339221 0 -0.35348184380604247 -0.38085376590339221 0 -0.34288512874023142 -0.38073366722216412 0 -0.34278882966706947 -0.39323335605830118 0 -0.35738569150982302 -0.38711169971535991 0 -0.35348184380604247 -0.38085376590339221 0 -0.34278882966706947 -0.39323335605830118 0 -0.34777806011124213 -0.36923102765073018 0 -0.35348184380604247 -0.38085376590339221 0 -0.34288512874023142 -0.38073366722216412 0 -0.34777806011124213 -0.36923102765073018 0 -0.33168567749387812 -0.37760406933993212 0 -0.34288512874023142 -0.38073366722216412 0 -0.33168567749387812 -0.37760406933993212 0 -0.34288512874023142 -0.38073366722216412 0 -0.3351240262982132 -0.38692409014375551 0 -0.34288512874023142 -0.38073366722216412 0 -0.3351240262982132 -0.38692409014375551 0 -0.34278882966706947 -0.39323335605830118 0 -0.33168567749387812 -0.37760406933993212 0 -0.3351240262982132 -0.38692409014375551 0 -0.32582145438423232 -0.38432197457147671 0 -0.33609936988597988 -0.39634965744007611 0 -0.34278882966706947 -0.39323335605830118 0 -0.31813419939528909 -0.39321494286448788 0 -0.3351240262982132 -0.38692409014375551 0 -0.34278882966706947 -0.39323335605830118 0 -0.31813419939528909 -0.39321494286448788 0 -0.34278882966706947 -0.39323335605830118 0 -0.31813419939528909 -0.39321494286448788 0 -0.34746059939626028 -0.40194498739209189 0 -0.33609936988597988 -0.39634965744007611 0 -0.33428573487811769 -0.40583220500990302 0 -0.34746059939626028 -0.40194498739209189 0 -0.33428573487811769 -0.40583220500990302 0 -0.34192327637816178 -0.40766074456661588 0 -0.33609936988597988 -0.39634965744007611 0 -0.33428573487811769 -0.40583220500990302 0 -0.3230186802127078 -0.40468927703216201 0 -0.33609936988597988 -0.39634965744007611 0 -0.3230186802127078 -0.40468927703216201 0 -0.30809742872267443 -0.39784093096568329 0 -0.33609936988597988 -0.39634965744007611 0 -0.31813419939528909 -0.39321494286448788 0 -0.30809742872267443 -0.39784093096568329 0 -0.33609936988597988 -0.39634965744007611 0 -0.30809742872267443 -0.39784093096568329 0 -0.3230186802127078 -0.40468927703216201 0 -0.31289921996229741 -0.40706284742950299 0 -0.30809742872267443 -0.39784093096568329 0 -0.3351240262982132 -0.38692409014375551 0 -0.31813419939528909 -0.39321494286448788 0 -0.32582145438423232 -0.38432197457147671 0 -0.31813419939528909 -0.39321494286448788 0 -0.32582145438423232 -0.38432197457147671 0 -0.31834191434954878 -0.37954479593773099 0 -0.31813419939528909 -0.39321494286448788 0 -0.31834191434954878 -0.37954479593773099 0 -0.3061840759923114 -0.38277679382366181 0 -0.33168567749387812 -0.37760406933993212 0 -0.32582145438423232 -0.38432197457147671 0 -0.31834191434954878 -0.37954479593773099 0 -0.33703073661589789 -0.42396683793450862 0 -0.32339903184552748 -0.4215175314842281 0 -0.32486719988719842 -0.43363603468978679 0 -0.33707193832870791 -0.4376989072087013 0 -0.33703073661589789 -0.42396683793450862 0 -0.32486719988719842 -0.43363603468978679 0 -0.33707193832870791 -0.4376989072087013 0 -0.34847068221687177 -0.43515821905545238 0 -0.33703073661589789 -0.42396683793450862 0 -0.34601365153850022 -0.41479284212809631 0 -0.33703073661589789 -0.42396683793450862 0 -0.33728674053202418 -0.41261216625704272 0 -0.34601365153850022 -0.41479284212809631 0 -0.34192327637816178 -0.40766074456661588 0 -0.33728674053202418 -0.41261216625704272 0 -0.33428573487811769 -0.40583220500990302 0 -0.34192327637816178 -0.40766074456661588 0 -0.33728674053202418 -0.41261216625704272 0 -0.33428573487811769 -0.40583220500990302 0 -0.33728674053202418 -0.41261216625704272 0 -0.3283306274575557 -0.41319056624820061 0 -0.33428573487811769 -0.40583220500990302 0 -0.3230186802127078 -0.40468927703216201 0 -0.3283306274575557 -0.41319056624820061 0 -0.33703073661589789 -0.42396683793450862 0 -0.3283306274575557 -0.41319056624820061 0 -0.32339903184552748 -0.4215175314842281 0 -0.33703073661589789 -0.42396683793450862 0 -0.33728674053202418 -0.41261216625704272 0 -0.3283306274575557 -0.41319056624820061 0 -0.3283306274575557 -0.41319056624820061 0 -0.32339903184552748 -0.4215175314842281 0 -0.31963080584795112 -0.41228606202816842 0 -0.3230186802127078 -0.40468927703216201 0 -0.3283306274575557 -0.41319056624820061 0 -0.31963080584795112 -0.41228606202816842 0 -0.31963080584795112 -0.41228606202816842 0 -0.31289921996229741 -0.40706284742950299 0 -0.31050646976166718 -0.41497008794674839 0 -0.3230186802127078 -0.40468927703216201 0 -0.31963080584795112 -0.41228606202816842 0 -0.31289921996229741 -0.40706284742950299 0 -0.32339903184552748 -0.4215175314842281 0 -0.31963080584795112 -0.41228606202816842 0 -0.31050646976166718 -0.41497008794674839 0 -0.32339903184552748 -0.4215175314842281 0 -0.30850505060884931 -0.42831344960936862 0 -0.31050646976166718 -0.41497008794674839 0 -0.32339903184552748 -0.4215175314842281 0 -0.32486719988719842 -0.43363603468978679 0 -0.30850505060884931 -0.42831344960936862 0 -0.31591793737420099 -0.44270381407736059 0 -0.32486719988719842 -0.43363603468978679 0 -0.30850505060884931 -0.42831344960936862 0 -0.30850505060884931 -0.42831344960936862 0 -0.29487719554397063 -0.41686524366431688 0 -0.28794125329539683 -0.43374339648287619 0 -0.30850505060884931 -0.42831344960936862 0 -0.28794125329539683 -0.43374339648287619 0 -0.29915932607917378 -0.44997167938060301 0 -0.31050646976166718 -0.41497008794674839 0 -0.30418876682684898 -0.40786629006408931 0 -0.29487719554397063 -0.41686524366431688 0 -0.30850505060884931 -0.42831344960936862 0 -0.31050646976166718 -0.41497008794674839 0 -0.29487719554397063 -0.41686524366431688 0 -0.31289921996229741 -0.40706284742950299 0 -0.31050646976166718 -0.41497008794674839 0 -0.30418876682684898 -0.40786629006408931 0 -0.30418876682684898 -0.40786629006408931 0 -0.29487719554397063 -0.41686524366431688 0 -0.29448871736124699 -0.40595209753700667 0 -0.29487719554397063 -0.41686524366431688 0 -0.28394831272771948 -0.40991234914241592 0 -0.27777394953363532 -0.4205945432988456 0 -0.29487719554397063 -0.41686524366431688 0 -0.28394831272771948 -0.40991234914241592 0 -0.29448871736124699 -0.40595209753700667 0 -0.29487719554397063 -0.41686524366431688 0 -0.28794125329539683 -0.43374339648287619 0 -0.27777394953363532 -0.4205945432988456 0 -0.31813419939528909 -0.39321494286448788 0 -0.3061840759923114 -0.38277679382366181 0 -0.2934795691235087 -0.39319652967067481 0 -0.3061840759923114 -0.38277679382366181 0 -0.2934795691235087 -0.39319652967067481 0 -0.29648410022266541 -0.37732551396455349 0 -0.30522580768714319 -0.36888593173740358 0 -0.3061840759923114 -0.38277679382366181 0 -0.29648410022266541 -0.37732551396455349 0 -0.30522580768714319 -0.36888593173740358 0 -0.31834191434954878 -0.37954479593773099 0 -0.3061840759923114 -0.38277679382366181 0 -0.31813419939528909 -0.39321494286448788 0 -0.30809742872267443 -0.39784093096568329 0 -0.2934795691235087 -0.39319652967067481 0 -0.31813419939528909 -0.39321494286448788 0 -0.2934795691235087 -0.39319652967067481 0 -0.31289921996229741 -0.40706284742950299 0 -0.30418876682684898 -0.40786629006408931 0 -0.30809742872267443 -0.39784093096568329 0 -0.30418876682684898 -0.40786629006408931 0 -0.30809742872267443 -0.39784093096568329 0 -0.29448871736124699 -0.40595209753700667 0 -0.30809742872267443 -0.39784093096568329 0 -0.2934795691235087 -0.39319652967067481 0 -0.28009548755936892 -0.39933220449129048 0 -0.30809742872267443 -0.39784093096568329 0 -0.28009548755936892 -0.39933220449129048 0 -0.30809742872267443 -0.39784093096568329 0 -0.29448871736124699 -0.40595209753700667 0 -0.28009548755936892 -0.39933220449129048 0 -0.28394831272771948 -0.40991234914241592 0 -0.29448871736124699 -0.40595209753700667 0 -0.28009548755936892 -0.39933220449129048 0 -0.2934795691235087 -0.39319652967067481 0 -0.2865904668722738 -0.38046568592542768 0 -0.29648410022266541 -0.37732551396455349 0 -0.2934795691235087 -0.39319652967067481 0 -0.2865904668722738 -0.38046568592542768 0 -0.27524202228020239 -0.38517156788351009 0 -0.28766658701692049 -0.37006494828901387 0 -0.2865904668722738 -0.38046568592542768 0 -0.27984962255216772 -0.37718658713522341 0 -0.28766658701692049 -0.37006494828901387 0 -0.2865904668722738 -0.38046568592542768 0 -0.29648410022266541 -0.37732551396455349 0 -0.2934795691235087 -0.39319652967067481 0 -0.27524202228020239 -0.38517156788351009 0 -0.26882493885172831 -0.39317811647686302 0 -0.27296856034325911 -0.3709841081039057 0 -0.27524202228020239 -0.38517156788351009 0 -0.26174071051694819 -0.3809219102723978 0 -0.27296856034325911 -0.3709841081039057 0 -0.27984962255216772 -0.37718658713522341 0 -0.27524202228020239 -0.38517156788351009 0 -0.2865904668722738 -0.38046568592542768 0 -0.27984962255216772 -0.37718658713522341 0 -0.27524202228020239 -0.38517156788351009 0 -0.27524202228020239 -0.38517156788351009 0 -0.26882493885172831 -0.39317811647686302 0 -0.26174071051694819 -0.3809219102723978 0 -0.27524202228020239 -0.38517156788351009 0 -0.26882493885172831 -0.39317811647686302 0 -0.2934795691235087 -0.39319652967067481 0 -0.26882493885172831 -0.39317811647686302 0 -0.28009548755936892 -0.39933220449129048 0 -0.2934795691235087 -0.39319652967067481 0 -0.26882493885172831 -0.39317811647686302 0 -0.26882493885172831 -0.39317811647686302 0 -0.28009548755936892 -0.39933220449129048 0 -0.270082688016682 -0.40893173784406411 0 -0.28394831272771948 -0.40991234914241592 0 -0.28009548755936892 -0.39933220449129048 0 -0.270082688016682 -0.40893173784406411 0 -0.26882493885172831 -0.39317811647686302 0 -0.25014799577654118 -0.41648120330340072 0 -0.24838936532526301 -0.39316285426559011 0 -0.26882493885172831 -0.39317811647686302 0 -0.24838936532526301 -0.39316285426559011 0 -0.26882493885172831 -0.39317811647686302 0 -0.270082688016682 -0.40893173784406411 0 -0.25014799577654118 -0.41648120330340072 0 -0.26882493885172831 -0.39317811647686302 0 -0.25014799577654118 -0.41648120330340072 0 -0.26882493885172831 -0.39317811647686302 0 -0.26174071051694819 -0.3809219102723978 0 -0.24838936532526301 -0.39316285426559011 0 -0.26174071051694819 -0.3809219102723978 0 -0.24838936532526301 -0.39316285426559011 0 -0.24300320825855271 -0.3768286419098269 0 -0.28794125329539683 -0.43374339648287619 0 -0.2690330482005982 -0.43513109204768968 0 -0.27777394953363532 -0.4205945432988456 0 -0.2690330482005982 -0.43513109204768968 0 -0.27777394953363532 -0.4205945432988456 0 -0.26408450290410329 -0.42297342992594839 0 -0.28394831272771948 -0.40991234914241592 0 -0.27777394953363532 -0.4205945432988456 0 -0.270082688016682 -0.40893173784406411 0 -0.27777394953363532 -0.4205945432988456 0 -0.270082688016682 -0.40893173784406411 0 -0.26408450290410329 -0.42297342992594839 0 -0.270082688016682 -0.40893173784406411 0 -0.25014799577654118 -0.41648120330340072 0 -0.26408450290410329 -0.42297342992594839 0 -0.25014799577654118 -0.41648120330340072 0 -0.25338483299305969 -0.43372857313574231 0 -0.26408450290410329 -0.42297342992594839 0 -0.2690330482005982 -0.43513109204768968 0 -0.25338483299305969 -0.43372857313574231 0 -0.26408450290410329 -0.42297342992594839 0 -0.2690330482005982 -0.43513109204768968 0 -0.25338483299305969 -0.43372857313574231 0 -0.25570750495126032 -0.45143082925249012 0 -0.25570750495126032 -0.45143082925249012 0 -0.25470831005551559 -0.46995098364596122 0 -0.24161269729847379 -0.46588060616763233 0 -0.25570750495126032 -0.45143082925249012 0 -0.26938746802774161 -0.46815139092867009 0 -0.25470831005551559 -0.46995098364596122 0 -0.25570750495126032 -0.45143082925249012 0 -0.26938746802774161 -0.46815139092867009 0 -0.27829894980615377 -0.45158437089643411 0 -0.26938746802774161 -0.46815139092867009 0 -0.27829894980615377 -0.45158437089643411 0 -0.28952225014170008 -0.46902344043112459 0 -0.2690330482005982 -0.43513109204768968 0 -0.25570750495126032 -0.45143082925249012 0 -0.27829894980615377 -0.45158437089643411 0 -0.28794125329539683 -0.43374339648287619 0 -0.2690330482005982 -0.43513109204768968 0 -0.27829894980615377 -0.45158437089643411 0 -0.28794125329539683 -0.43374339648287619 0 -0.27829894980615377 -0.45158437089643411 0 -0.29915932607917378 -0.44997167938060301 0 -0.27829894980615377 -0.45158437089643411 0 -0.29915932607917378 -0.44997167938060301 0 -0.28952225014170008 -0.46902344043112459 0 -0.29915932607917378 -0.44997167938060301 0 -0.31033769547596729 -0.47295405842081012 0 -0.28952225014170008 -0.46902344043112459 0 -0.31885784577898779 -0.4576289775742271 0 -0.29915932607917378 -0.44997167938060301 0 -0.31033769547596729 -0.47295405842081012 0 -0.31591793737420099 -0.44270381407736059 0 -0.31885784577898779 -0.4576289775742271 0 -0.29915932607917378 -0.44997167938060301 0 -0.31591793737420099 -0.44270381407736059 0 -0.30850505060884931 -0.42831344960936862 0 -0.29915932607917378 -0.44997167938060301 0 -0.31451028023015881 -0.5 0 -0.29794801184677361 -0.48579030044137739 0 -0.28603381738716471 -0.5 0 -0.31451028023015881 -0.5 0 -0.29794801184677361 -0.48579030044137739 0 -0.31033769547596729 -0.47295405842081012 0 -0.29794801184677361 -0.48579030044137739 0 -0.31033769547596729 -0.47295405842081012 0 -0.28952225014170008 -0.46902344043112459 0 -0.29794801184677361 -0.48579030044137739 0 -0.28952225014170008 -0.46902344043112459 0 -0.27655601530842799 -0.48427359666258329 0 -0.29794801184677361 -0.48579030044137739 0 -0.28603381738716471 -0.5 0 -0.27655601530842799 -0.48427359666258329 0 -0.28603381738716471 -0.5 0 -0.27655601530842799 -0.48427359666258329 0 -0.2575573545441705 -0.5 0 -0.26938746802774161 -0.46815139092867009 0 -0.28952225014170008 -0.46902344043112459 0 -0.27655601530842799 -0.48427359666258329 0 -0.26938746802774161 -0.46815139092867009 0 -0.27655601530842799 -0.48427359666258329 0 -0.25888718990301779 -0.48267644817432809 0 -0.26938746802774161 -0.46815139092867009 0 -0.25888718990301779 -0.48267644817432809 0 -0.25470831005551559 -0.46995098364596122 0 -0.25888718990301779 -0.48267644817432809 0 -0.25470831005551559 -0.46995098364596122 0 -0.24771813852586311 -0.47993919452042322 0 -0.25888718990301779 -0.48267644817432809 0 -0.2575573545441705 -0.5 0 -0.24600212161023219 -0.49334519391237608 0 -0.27655601530842799 -0.48427359666258329 0 -0.25888718990301779 -0.48267644817432809 0 -0.2575573545441705 -0.5 0 -0.25888718990301779 -0.48267644817432809 0 -0.24600212161023219 -0.49334519391237608 0 -0.24771813852586311 -0.47993919452042322 0 -0.24600212161023219 -0.49334519391237608 0 -0.23628332622021431 -0.47979578460775979 0 -0.22121770447466671 -0.48624639262396618 0 -0.2575573545441705 -0.5 0 -0.24600212161023219 -0.49334519391237608 0 -0.22908089170117629 -0.5 0 -0.24600212161023219 -0.49334519391237608 0 -0.24771813852586311 -0.47993919452042322 0 -0.23628332622021431 -0.47979578460775979 0 -0.25470831005551559 -0.46995098364596122 0 -0.24771813852586311 -0.47993919452042322 0 -0.24161269729847379 -0.46588060616763233 0 -0.23628332622021431 -0.47979578460775979 0 -0.22669780560202241 -0.46937465982661558 0 -0.24161269729847379 -0.46588060616763233 0 -0.24771813852586311 -0.47993919452042322 0 -0.23628332622021431 -0.47979578460775979 0 -0.24161269729847379 -0.46588060616763233 0 -0.23628332622021431 -0.47979578460775979 0 -0.22669780560202241 -0.46937465982661558 0 -0.22121770447466671 -0.48624639262396618 0 -0.22669780560202241 -0.46937465982661558 0 -0.22121770447466671 -0.48624639262396618 0 -0.2127941096261631 -0.46308737695647317 0 -0.24600212161023219 -0.49334519391237608 0 -0.22121770447466671 -0.48624639262396618 0 -0.24600212161023219 -0.49334519391237608 0 -0.22908089170117629 -0.5 0 -0.22121770447466671 -0.48624639262396618 0 -0.25570750495126032 -0.45143082925249012 0 -0.24161269729847379 -0.46588060616763233 0 -0.2314710527013521 -0.43978429012993692 0 -0.25338483299305969 -0.43372857313574231 0 -0.25570750495126032 -0.45143082925249012 0 -0.2314710527013521 -0.43978429012993692 0 -0.22669780560202241 -0.46937465982661558 0 -0.2314710527013521 -0.43978429012993692 0 -0.2127941096261631 -0.46308737695647317 0 -0.22669780560202241 -0.46937465982661558 0 -0.24161269729847379 -0.46588060616763233 0 -0.2314710527013521 -0.43978429012993692 0 -0.2314710527013521 -0.43978429012993692 0 -0.2127941096261631 -0.46308737695647317 0 -0.2314710527013521 -0.43978429012993692 0 -0.20509416255310101 -0.43934015315530311 0 -0.2127941096261631 -0.46308737695647317 0 -0.2127941096261631 -0.46308737695647317 0 -0.1882856083534398 -0.4666817748806914 0 -0.19063860440776401 -0.45296465086813381 0 -0.20509416255310101 -0.43934015315530311 0 -0.2127941096261631 -0.46308737695647317 0 -0.19063860440776401 -0.45296465086813381 0 -0.20509416255310101 -0.43934015315530311 0 -0.19063860440776401 -0.45296465086813381 0 -0.1860968876546574 -0.4361899180395663 0 -0.22121770447466671 -0.48624639262396618 0 -0.1964332873391012 -0.47914759133555629 0 -0.20060442885818219 -0.5 0 -0.22908089170117629 -0.5 0 -0.22121770447466671 -0.48624639262396618 0 -0.20060442885818219 -0.5 0 -0.22121770447466671 -0.48624639262396618 0 -0.1964332873391012 -0.47914759133555629 0 -0.22121770447466671 -0.48624639262396618 0 -0.2127941096261631 -0.46308737695647317 0 -0.1964332873391012 -0.47914759133555629 0 -0.2127941096261631 -0.46308737695647317 0 -0.1882856083534398 -0.4666817748806914 0 -0.1964332873391012 -0.47914759133555629 0 -0.20060442885818219 -0.5 0 -0.18160673211640249 -0.49505873029012532 0 -0.18610944099138521 -0.48560402272737491 0 -0.1964332873391012 -0.47914759133555629 0 -0.20060442885818219 -0.5 0 -0.18610944099138521 -0.48560402272737491 0 -0.20060442885818219 -0.5 0 -0.17212796601518809 -0.5 0 -0.18160673211640249 -0.49505873029012532 0 -0.18160673211640249 -0.49505873029012532 0 -0.16346780318567411 -0.48190842781918491 0 -0.17593324503095509 -0.48356142882210079 0 -0.18160673211640249 -0.49505873029012532 0 -0.16346780318567411 -0.48190842781918491 0 -0.17212796601518809 -0.5 0 -0.18160673211640249 -0.49505873029012532 0 -0.16346780318567411 -0.48190842781918491 0 -0.18160673211640249 -0.49505873029012532 0 -0.18610944099138521 -0.48560402272737491 0 -0.17593324503095509 -0.48356142882210079 0 -0.17212796601518809 -0.5 0 -0.16346780318567411 -0.48190842781918491 0 -0.14365150317219391 -0.5 0 -0.15699188241284179 -0.47097233805931699 0 -0.17164887020353559 -0.47204879004714639 0 -0.14953672395004969 -0.46651592089129112 0 -0.15699188241284179 -0.47097233805931699 0 -0.16346780318567411 -0.48190842781918491 0 -0.17164887020353559 -0.47204879004714639 0 -0.16346780318567411 -0.48190842781918491 0 -0.17164887020353559 -0.47204879004714639 0 -0.17593324503095509 -0.48356142882210079 0 -0.1882856083534398 -0.4666817748806914 0 -0.1964332873391012 -0.47914759133555629 0 -0.17164887020353559 -0.47204879004714639 0 -0.1964332873391012 -0.47914759133555629 0 -0.18610944099138521 -0.48560402272737491 0 -0.17164887020353559 -0.47204879004714639 0 -0.1964332873391012 -0.47914759133555629 0 -0.17164887020353559 -0.47204879004714639 0 -0.18610944099138521 -0.48560402272737491 0 -0.17164887020353559 -0.47204879004714639 0 -0.17593324503095509 -0.48356142882210079 0 -0.1882856083534398 -0.4666817748806914 0 -0.17164887020353559 -0.47204879004714639 0 -0.1760322134179679 -0.45880979178877762 0 -0.1882856083534398 -0.4666817748806914 0 -0.19063860440776401 -0.45296465086813381 0 -0.1760322134179679 -0.45880979178877762 0 -0.19063860440776401 -0.45296465086813381 0 -0.17472194670784699 -0.44444760419482832 0 -0.1860968876546574 -0.4361899180395663 0 -0.19063860440776401 -0.45296465086813381 0 -0.1760322134179679 -0.45880979178877762 0 -0.17472194670784699 -0.44444760419482832 0 -0.16413060541719721 -0.45148273393297972 0 -0.15642982238080741 -0.45705850598932479 0 -0.14846543954508529 -0.44894535056221158 0 -0.16413060541719721 -0.45148273393297972 0 -0.16039568398272369 -0.43858606291795699 0 -0.14846543954508529 -0.44894535056221158 0 -0.17472194670784699 -0.44444760419482832 0 -0.16413060541719721 -0.45148273393297972 0 -0.16039568398272369 -0.43858606291795699 0 -0.1760322134179679 -0.45880979178877762 0 -0.17472194670784699 -0.44444760419482832 0 -0.16413060541719721 -0.45148273393297972 0 -0.17164887020353559 -0.47204879004714639 0 -0.1639462210676331 -0.46143738741767271 0 -0.14686445306797019 -0.46494998875873589 0 -0.17164887020353559 -0.47204879004714639 0 -0.14686445306797019 -0.46494998875873589 0 -0.17164887020353559 -0.47204879004714639 0 -0.1760322134179679 -0.45880979178877762 0 -0.1639462210676331 -0.46143738741767271 0 -0.1760322134179679 -0.45880979178877762 0 -0.16413060541719721 -0.45148273393297972 0 -0.1639462210676331 -0.46143738741767271 0 -0.16413060541719721 -0.45148273393297972 0 -0.15642982238080741 -0.45705850598932479 0 -0.1639462210676331 -0.46143738741767271 0 -0.14686445306797019 -0.46494998875873589 0 -0.14846543954508529 -0.44894535056221158 0 -0.12798242029922571 -0.45372165104675771 0 -0.15699188241284179 -0.47097233805931699 0 -0.14953672395004969 -0.46651592089129112 0 -0.15642982238080741 -0.45705850598932479 0 -0.14686445306797019 -0.46494998875873589 0 -0.14846543954508529 -0.44894535056221158 0 -0.17164887020353559 -0.47204879004714639 0 -0.14953672395004969 -0.46651592089129112 0 -0.14686445306797019 -0.46494998875873589 0 -0.15642982238080741 -0.45705850598932479 0 -0.1639462210676331 -0.46143738741767271 0 -0.14686445306797019 -0.46494998875873589 0 -0.15699188241284179 -0.47097233805931699 0 -0.14953672395004969 -0.46651592089129112 0 -0.14532887425494409 -0.46875812534824662 0 -0.14686445306797019 -0.46494998875873589 0 -0.1356426052378904 -0.46173580512880669 0 -0.14532887425494409 -0.46875812534824662 0 -0.14686445306797019 -0.46494998875873589 0 -0.1356426052378904 -0.46173580512880669 0 -0.14953672395004969 -0.46651592089129112 0 -0.14532887425494409 -0.46875812534824662 0 -0.14953672395004969 -0.46651592089129112 0 -0.14686445306797019 -0.46494998875873589 0 -0.14532887425494409 -0.46875812534824662 0 -0.14953672395004969 -0.46651592089129112 0 -0.14686445306797019 -0.46494998875873589 0 -0.14846543954508529 -0.44894535056221158 0 -0.13205437630169559 -0.43625871820990142 0 -0.14830349604402129 -0.43408530522863659 0 -0.16039568398272369 -0.43858606291795699 0 -0.14846543954508529 -0.44894535056221158 0 -0.14830349604402129 -0.43408530522863659 0 -0.14846543954508529 -0.44894535056221158 0 -0.12798242029922571 -0.45372165104675771 0 -0.13205437630169559 -0.43625871820990142 0 -0.14686445306797019 -0.46494998875873589 0 -0.1356426052378904 -0.46173580512880669 0 -0.12798242029922571 -0.45372165104675771 0 -0.14686445306797019 -0.46494998875873589 0 -0.12798242029922571 -0.45372165104675771 0 -0.1356426052378904 -0.46173580512880669 0 -0.1276139703006203 -0.46768189475425948 0 -0.14532887425494409 -0.46875812534824662 0 -0.1356426052378904 -0.46173580512880669 0 -0.14532887425494409 -0.46875812534824662 0 -0.1356426052378904 -0.46173580512880669 0 -0.130160841481294 -0.46016570761934111 0 -0.1356426052378904 -0.46173580512880669 0 -0.1223714963841853 -0.452114559231794 0 -0.1356426052378904 -0.46173580512880669 0 -0.12798242029922571 -0.45372165104675771 0 -0.1223714963841853 -0.452114559231794 0 -0.1356426052378904 -0.46173580512880669 0 -0.130160841481294 -0.46016570761934111 0 -0.1223714963841853 -0.452114559231794 0 -0.1356426052378904 -0.46173580512880669 0 -0.130160841481294 -0.46016570761934111 0 -0.1276139703006203 -0.46768189475425948 0 -0.130160841481294 -0.46016570761934111 0 -0.1276139703006203 -0.46768189475425948 0 -0.1214594444423419 -0.46076966567589389 0 -0.12578544199870001 -0.47917208356550189 0 -0.14546024343403199 -0.48305752614656672 0 -0.14532887425494409 -0.46875812534824662 0 -0.12578544199870001 -0.47917208356550189 0 -0.14532887425494409 -0.46875812534824662 0 -0.1276139703006203 -0.46768189475425948 0 -0.12578544199870001 -0.47917208356550189 0 -0.14532887425494409 -0.46875812534824662 0 -0.12578544199870001 -0.47917208356550189 0 -0.14365150317219391 -0.5 0 -0.1151750403291998 -0.5 0 -0.12578544199870001 -0.47917208356550189 0 -0.14365150317219391 -0.5 0 -0.14546024343403199 -0.48305752614656672 0 -0.16346780318567411 -0.48190842781918491 0 -0.14365150317219391 -0.5 0 -0.14546024343403199 -0.48305752614656672 0 -0.15699188241284179 -0.47097233805931699 0 -0.16346780318567411 -0.48190842781918491 0 -0.14532887425494409 -0.46875812534824662 0 -0.16346780318567411 -0.48190842781918491 0 -0.14532887425494409 -0.46875812534824662 0 -0.16346780318567411 -0.48190842781918491 0 -0.14546024343403199 -0.48305752614656672 0 -0.14532887425494409 -0.46875812534824662 0 -0.14299339925155771 -0.39641298765598482 0 -0.16001007742825499 -0.4089382623459038 0 -0.1638188800611815 -0.38478395391029979 0 -0.13967350730362829 -0.37678139160839619 0 -0.1638188800611815 -0.38478395391029979 0 -0.13967350730362829 -0.37678139160839619 0 -0.1638188800611815 -0.38478395391029979 0 -0.15611973104540189 -0.36512640122172269 0 -0.14299339925155771 -0.39641298765598482 0 -0.13967350730362829 -0.37678139160839619 0 -0.1638188800611815 -0.38478395391029979 0 -0.14299339925155771 -0.39641298765598482 0 -0.13967350730362829 -0.37678139160839619 0 -0.12746112459551179 -0.3876314843540985 0 -0.13967350730362829 -0.37678139160839619 0 -0.12746112459551179 -0.3876314843540985 0 -0.1202449094974696 -0.37252035622549928 0 -0.14299339925155771 -0.39641298765598482 0 -0.14017767667191791 -0.41818496192180332 0 -0.1244361553462176 -0.40367529259255358 0 -0.14299339925155771 -0.39641298765598482 0 -0.12746112459551179 -0.3876314843540985 0 -0.1244361553462176 -0.40367529259255358 0 -0.14017767667191791 -0.41818496192180332 0 -0.1193116215658578 -0.42177231840057378 0 -0.1244361553462176 -0.40367529259255358 0 -0.14017767667191791 -0.41818496192180332 0 -0.13205437630169559 -0.43625871820990142 0 -0.1193116215658578 -0.42177231840057378 0 -0.14017767667191791 -0.41818496192180332 0 -0.13205437630169559 -0.43625871820990142 0 -0.14830349604402129 -0.43408530522863659 0 -0.14017767667191791 -0.41818496192180332 0 -0.14830349604402129 -0.43408530522863659 0 -0.15657540931866151 -0.42458744128188919 0 -0.16039568398272369 -0.43858606291795699 0 -0.14830349604402129 -0.43408530522863659 0 -0.15657540931866151 -0.42458744128188919 0 -0.14017767667191791 -0.41818496192180332 0 -0.16001007742825499 -0.4089382623459038 0 -0.15657540931866151 -0.42458744128188919 0 -0.14299339925155771 -0.39641298765598482 0 -0.14017767667191791 -0.41818496192180332 0 -0.16001007742825499 -0.4089382623459038 0 -0.16001007742825499 -0.4089382623459038 0 -0.15657540931866151 -0.42458744128188919 0 -0.17017720686353019 -0.42796794230719659 0 -0.16001007742825499 -0.4089382623459038 0 -0.1817667606809141 -0.41450967379729481 0 -0.17303759617657979 -0.39996039881166939 0 -0.16001007742825499 -0.4089382623459038 0 -0.17017720686353019 -0.42796794230719659 0 -0.1817667606809141 -0.41450967379729481 0 -0.17472194670784699 -0.44444760419482832 0 -0.16039568398272369 -0.43858606291795699 0 -0.17017720686353019 -0.42796794230719659 0 -0.16039568398272369 -0.43858606291795699 0 -0.15657540931866151 -0.42458744128188919 0 -0.17017720686353019 -0.42796794230719659 0 -0.17472194670784699 -0.44444760419482832 0 -0.17017720686353019 -0.42796794230719659 0 -0.1860968876546574 -0.4361899180395663 0 -0.17017720686353019 -0.42796794230719659 0 -0.1860968876546574 -0.4361899180395663 0 -0.1817667606809141 -0.41450967379729481 0 -0.1817667606809141 -0.41450967379729481 0 -0.17303759617657979 -0.39996039881166939 0 -0.18796425281873469 -0.39278651621220362 0 -0.17303759617657979 -0.39996039881166939 0 -0.1638188800611815 -0.38478395391029979 0 -0.18796425281873469 -0.39278651621220362 0 -0.16001007742825499 -0.4089382623459038 0 -0.17303759617657979 -0.39996039881166939 0 -0.1638188800611815 -0.38478395391029979 0 -0.1638188800611815 -0.38478395391029979 0 -0.18796425281873469 -0.39278651621220362 0 -0.1638188800611815 -0.38478395391029979 0 -0.18796425281873469 -0.39278651621220362 0 -0.17634412088915 -0.37332150205102482 0 -0.18796425281873469 -0.39278651621220362 0 -0.19277638213751949 -0.36531591894932353 0 -0.17634412088915 -0.37332150205102482 0 -0.18796425281873469 -0.39278651621220362 0 -0.213869217550893 -0.38835166636410379 0 -0.20753299952950419 -0.3775465787937346 0 -0.18796425281873469 -0.39278651621220362 0 -0.20753299952950419 -0.3775465787937346 0 -0.19277638213751949 -0.36531591894932353 0 -0.18796425281873469 -0.39278651621220362 0 -0.2121096255762881 -0.40078907851410728 0 -0.198359497797988 -0.4101928600319209 0 -0.1817667606809141 -0.41450967379729481 0 -0.18796425281873469 -0.39278651621220362 0 -0.198359497797988 -0.4101928600319209 0 -0.18796425281873469 -0.39278651621220362 0 -0.2121096255762881 -0.40078907851410728 0 -0.2121096255762881 -0.40078907851410728 0 -0.213869217550893 -0.38835166636410379 0 -0.22795379179879779 -0.39314759205431871 0 -0.18796425281873469 -0.39278651621220362 0 -0.2121096255762881 -0.40078907851410728 0 -0.213869217550893 -0.38835166636410379 0 -0.213869217550893 -0.38835166636410379 0 -0.20753299952950419 -0.3775465787937346 0 -0.22393450256760999 -0.37703554680928192 0 -0.20509416255310101 -0.43934015315530311 0 -0.1860968876546574 -0.4361899180395663 0 -0.19720224394721761 -0.42470974449979543 0 -0.1860968876546574 -0.4361899180395663 0 -0.1817667606809141 -0.41450967379729481 0 -0.19720224394721761 -0.42470974449979543 0 -0.1817667606809141 -0.41450967379729481 0 -0.19720224394721761 -0.42470974449979543 0 -0.198359497797988 -0.4101928600319209 0 -0.19720224394721761 -0.42470974449979543 0 -0.198359497797988 -0.4101928600319209 0 -0.2121672307907102 -0.42113659451268032 0 -0.2121096255762881 -0.40078907851410728 0 -0.198359497797988 -0.4101928600319209 0 -0.2121672307907102 -0.42113659451268032 0 -0.2121096255762881 -0.40078907851410728 0 -0.2121672307907102 -0.42113659451268032 0 -0.2287668021683148 -0.4120034407450186 0 -0.2314710527013521 -0.43978429012993692 0 -0.20509416255310101 -0.43934015315530311 0 -0.2121672307907102 -0.42113659451268032 0 -0.20509416255310101 -0.43934015315530311 0 -0.19720224394721761 -0.42470974449979543 0 -0.2121672307907102 -0.42113659451268032 0 -0.2314710527013521 -0.43978429012993692 0 -0.2121672307907102 -0.42113659451268032 0 -0.2287668021683148 -0.4120034407450186 0 -0.25014799577654118 -0.41648120330340072 0 -0.2287668021683148 -0.4120034407450186 0 -0.23881448876722919 -0.40369877259208198 0 -0.25014799577654118 -0.41648120330340072 0 -0.2314710527013521 -0.43978429012993692 0 -0.25014799577654118 -0.41648120330340072 0 -0.25338483299305969 -0.43372857313574231 0 -0.2314710527013521 -0.43978429012993692 0 -0.25014799577654118 -0.41648120330340072 0 -0.2314710527013521 -0.43978429012993692 0 -0.2287668021683148 -0.4120034407450186 0 -0.213869217550893 -0.38835166636410379 0 -0.22393450256760999 -0.37703554680928192 0 -0.22795379179879779 -0.39314759205431871 0 -0.22393450256760999 -0.37703554680928192 0 -0.22795379179879779 -0.39314759205431871 0 -0.24300320825855271 -0.3768286419098269 0 -0.2287668021683148 -0.4120034407450186 0 -0.22795379179879779 -0.39314759205431871 0 -0.23881448876722919 -0.40369877259208198 0 -0.2121096255762881 -0.40078907851410728 0 -0.2287668021683148 -0.4120034407450186 0 -0.22795379179879779 -0.39314759205431871 0 -0.22795379179879779 -0.39314759205431871 0 -0.24838936532526301 -0.39316285426559011 0 -0.23881448876722919 -0.40369877259208198 0 -0.25014799577654118 -0.41648120330340072 0 -0.24838936532526301 -0.39316285426559011 0 -0.23881448876722919 -0.40369877259208198 0 -0.22795379179879779 -0.39314759205431871 0 -0.24838936532526301 -0.39316285426559011 0 -0.22795379179879779 -0.39314759205431871 0 -0.24838936532526301 -0.39316285426559011 0 -0.24300320825855271 -0.3768286419098269 0 -0.24300320825855271 -0.3768286419098269 0 -0.2458903191612237 -0.35977789146509231 0 -0.23307819148760539 -0.36514576812321392 0 -0.25934190744446889 -0.36674172805788308 0 -0.24300320825855271 -0.3768286419098269 0 -0.2458903191612237 -0.35977789146509231 0 -0.22393450256760999 -0.37703554680928192 0 -0.24300320825855271 -0.3768286419098269 0 -0.23307819148760539 -0.36514576812321392 0 -0.22393450256760999 -0.37703554680928192 0 -0.23307819148760539 -0.36514576812321392 0 -0.2161173327254052 -0.36109865456114498 0 -0.23307819148760539 -0.36514576812321392 0 -0.232634001217873 -0.34963287091258838 0 -0.2161173327254052 -0.36109865456114498 0 -0.232634001217873 -0.34963287091258838 0 -0.2161173327254052 -0.36109865456114498 0 -0.21873207010194959 -0.34729951366361039 0 -0.232634001217873 -0.34963287091258838 0 -0.22631545602566211 -0.33465717348937579 0 -0.21873207010194959 -0.34729951366361039 0 -0.2458903191612237 -0.35977789146509231 0 -0.232634001217873 -0.34963287091258838 0 -0.247265814921798 -0.3446520577861556 0 -0.2458903191612237 -0.35977789146509231 0 -0.23307819148760539 -0.36514576812321392 0 -0.232634001217873 -0.34963287091258838 0 -0.2567583914609915 -0.33258759835201063 0 -0.247265814921798 -0.3446520577861556 0 -0.23984499387349281 -0.33292340673557003 0 -0.232634001217873 -0.34963287091258838 0 -0.247265814921798 -0.3446520577861556 0 -0.23984499387349281 -0.33292340673557003 0 -0.2567583914609915 -0.33258759835201063 0 -0.23984499387349281 -0.33292340673557003 0 -0.24436533018786191 -0.31749169771618618 0 -0.23984499387349281 -0.33292340673557003 0 -0.24436533018786191 -0.31749169771618618 0 -0.22882588201598031 -0.32000522524258118 0 -0.24436533018786191 -0.31749169771618618 0 -0.22882588201598031 -0.32000522524258118 0 -0.23385571154840429 -0.30514294509554152 0 -0.22882588201598031 -0.32000522524258118 0 -0.22631545602566211 -0.33465717348937579 0 -0.2118908683175518 -0.32483881152705302 0 -0.22882588201598031 -0.32000522524258118 0 -0.2118908683175518 -0.32483881152705302 0 -0.21685180783710531 -0.30565907251117658 0 -0.232634001217873 -0.34963287091258838 0 -0.23984499387349281 -0.33292340673557003 0 -0.22631545602566211 -0.33465717348937579 0 -0.22631545602566211 -0.33465717348937579 0 -0.2118908683175518 -0.32483881152705302 0 -0.21873207010194959 -0.34729951366361039 0 -0.23984499387349281 -0.33292340673557003 0 -0.22882588201598031 -0.32000522524258118 0 -0.22631545602566211 -0.33465717348937579 0 -0.2118908683175518 -0.32483881152705302 0 -0.2034395125278228 -0.34384718235525169 0 -0.21873207010194959 -0.34729951366361039 0 -0.2118908683175518 -0.32483881152705302 0 -0.1910119304775495 -0.32345747375755918 0 -0.19812978410937521 -0.29923010451123949 0 -0.1910119304775495 -0.32345747375755918 0 -0.2034395125278228 -0.34384718235525169 0 -0.18615265757541621 -0.34209692331055858 0 -0.2118908683175518 -0.32483881152705302 0 -0.1910119304775495 -0.32345747375755918 0 -0.2034395125278228 -0.34384718235525169 0 -0.19277638213751949 -0.36531591894932353 0 -0.2034395125278228 -0.34384718235525169 0 -0.18615265757541621 -0.34209692331055858 0 -0.20753299952950419 -0.3775465787937346 0 -0.22393450256760999 -0.37703554680928192 0 -0.2161173327254052 -0.36109865456114498 0 -0.20753299952950419 -0.3775465787937346 0 -0.19277638213751949 -0.36531591894932353 0 -0.2161173327254052 -0.36109865456114498 0 -0.19277638213751949 -0.36531591894932353 0 -0.2161173327254052 -0.36109865456114498 0 -0.2034395125278228 -0.34384718235525169 0 -0.2161173327254052 -0.36109865456114498 0 -0.2034395125278228 -0.34384718235525169 0 -0.21873207010194959 -0.34729951366361039 0 -0.21930230117124799 -0.25295044087590401 0 -0.23411881780064081 -0.26067207465961989 0 -0.22036275698445901 -0.28013045877708009 0 -0.23411881780064081 -0.26067207465961989 0 -0.24528171809468299 -0.27407144203953199 0 -0.25346419334368148 -0.24821555279875021 0 -0.23411881780064081 -0.26067207465961989 0 -0.24528171809468299 -0.27407144203953199 0 -0.22036275698445901 -0.28013045877708009 0 -0.22036275698445901 -0.28013045877708009 0 -0.23993405853826569 -0.28994729034597988 0 -0.23385571154840429 -0.30514294509554152 0 -0.24528171809468299 -0.27407144203953199 0 -0.22036275698445901 -0.28013045877708009 0 -0.23993405853826569 -0.28994729034597988 0 -0.25599936036228632 -0.28628528780799478 0 -0.24528171809468299 -0.27407144203953199 0 -0.23993405853826569 -0.28994729034597988 0 -0.25008045053424988 -0.30220609096083711 0 -0.25599936036228632 -0.28628528780799478 0 -0.23993405853826569 -0.28994729034597988 0 -0.25008045053424988 -0.30220609096083711 0 -0.23993405853826569 -0.28994729034597988 0 -0.23385571154840429 -0.30514294509554152 0 -0.25008045053424988 -0.30220609096083711 0 -0.24436533018786191 -0.31749169771618618 0 -0.23385571154840429 -0.30514294509554152 0 -0.22036275698445901 -0.28013045877708009 0 -0.23385571154840429 -0.30514294509554152 0 -0.21685180783710531 -0.30565907251117658 0 -0.22882588201598031 -0.32000522524258118 0 -0.23385571154840429 -0.30514294509554152 0 -0.21685180783710531 -0.30565907251117658 0 -0.2118908683175518 -0.32483881152705302 0 -0.21685180783710531 -0.30565907251117658 0 -0.19812978410937521 -0.29923010451123949 0 -0.1910119304775495 -0.32345747375755918 0 -0.19812978410937521 -0.29923010451123949 0 -0.17402085879199641 -0.30252042960865938 0 -0.19812978410937521 -0.29923010451123949 0 -0.19626421680878151 -0.27536946113352151 0 -0.17753186465666021 -0.28065186093214528 0 -0.22036275698445901 -0.28013045877708009 0 -0.21685180783710531 -0.30565907251117658 0 -0.19812978410937521 -0.29923010451123949 0 -0.22036275698445901 -0.28013045877708009 0 -0.19812978410937521 -0.29923010451123949 0 -0.19626421680878151 -0.27536946113352151 0 -0.22036275698445901 -0.28013045877708009 0 -0.19626421680878151 -0.27536946113352151 0 -0.201941962032301 -0.25777820069528129 0 -0.201941962032301 -0.25777820069528129 0 -0.18174050912316109 -0.25437182043704609 0 -0.2075298900228397 -0.23862318425924861 0 -0.19626421680878151 -0.27536946113352151 0 -0.201941962032301 -0.25777820069528129 0 -0.18174050912316109 -0.25437182043704609 0 -0.21930230117124799 -0.25295044087590401 0 -0.22036275698445901 -0.28013045877708009 0 -0.201941962032301 -0.25777820069528129 0 -0.15832530985914769 -0.2643720413550551 0 -0.18174050912316109 -0.25437182043704609 0 -0.1574723052227173 -0.23960148641780851 0 -0.19626421680878151 -0.27536946113352151 0 -0.18174050912316109 -0.25437182043704609 0 -0.17753186465666021 -0.28065186093214528 0 -0.15832530985914769 -0.2643720413550551 0 -0.18174050912316109 -0.25437182043704609 0 -0.17753186465666021 -0.28065186093214528 0 -0.15832530985914769 -0.2643720413550551 0 -0.17753186465666021 -0.28065186093214528 0 -0.15990500002874339 -0.28368844793796788 0 -0.15990500002874339 -0.28368844793796788 0 -0.17402085879199641 -0.30252042960865938 0 -0.14954844785011179 -0.30074089296884232 0 -0.17753186465666021 -0.28065186093214528 0 -0.15990500002874339 -0.28368844793796788 0 -0.17402085879199641 -0.30252042960865938 0 -0.19812978410937521 -0.29923010451123949 0 -0.17753186465666021 -0.28065186093214528 0 -0.17402085879199641 -0.30252042960865938 0 -0.17402085879199641 -0.30252042960865938 0 -0.14954844785011179 -0.30074089296884232 0 -0.1677479104008307 -0.32783423947226142 0 -0.14954844785011179 -0.30074089296884232 0 -0.12659387408615261 -0.3150822694437892 0 -0.1190639156014673 -0.29727410105308999 0 -0.14954844785011179 -0.30074089296884232 0 -0.13654346101632489 -0.27698313373899919 0 -0.1190639156014673 -0.29727410105308999 0 -0.15990500002874339 -0.28368844793796788 0 -0.14954844785011179 -0.30074089296884232 0 -0.13654346101632489 -0.27698313373899919 0 -0.15832530985914769 -0.2643720413550551 0 -0.15990500002874339 -0.28368844793796788 0 -0.13654346101632489 -0.27698313373899919 0 -0.13654346101632489 -0.27698313373899919 0 -0.12028079273907991 -0.26565426569811279 0 -0.13355881260256089 -0.2496977061671225 0 -0.15832530985914769 -0.2643720413550551 0 -0.13355881260256089 -0.2496977061671225 0 -0.1574723052227173 -0.23960148641780851 0 -0.15832530985914769 -0.2643720413550551 0 -0.13654346101632489 -0.27698313373899919 0 -0.13355881260256089 -0.2496977061671225 0 -0.17193834740664971 -0.35395805396543328 0 -0.1498103656353926 -0.34453690856991698 0 -0.15611973104540189 -0.36512640122172269 0 -0.1638188800611815 -0.38478395391029979 0 -0.17634412088915 -0.37332150205102482 0 -0.15611973104540189 -0.36512640122172269 0 -0.17634412088915 -0.37332150205102482 0 -0.17193834740664971 -0.35395805396543328 0 -0.15611973104540189 -0.36512640122172269 0 -0.19277638213751949 -0.36531591894932353 0 -0.17634412088915 -0.37332150205102482 0 -0.17193834740664971 -0.35395805396543328 0 -0.19277638213751949 -0.36531591894932353 0 -0.17193834740664971 -0.35395805396543328 0 -0.18615265757541621 -0.34209692331055858 0 -0.17193834740664971 -0.35395805396543328 0 -0.18615265757541621 -0.34209692331055858 0 -0.1677479104008307 -0.32783423947226142 0 -0.1910119304775495 -0.32345747375755918 0 -0.18615265757541621 -0.34209692331055858 0 -0.1677479104008307 -0.32783423947226142 0 -0.1910119304775495 -0.32345747375755918 0 -0.17402085879199641 -0.30252042960865938 0 -0.1677479104008307 -0.32783423947226142 0 -0.17193834740664971 -0.35395805396543328 0 -0.1677479104008307 -0.32783423947226142 0 -0.1498103656353926 -0.34453690856991698 0 -0.1677479104008307 -0.32783423947226142 0 -0.14415359058046451 -0.32450431874860042 0 -0.1498103656353926 -0.34453690856991698 0 -0.14954844785011179 -0.30074089296884232 0 -0.1677479104008307 -0.32783423947226142 0 -0.14415359058046451 -0.32450431874860042 0 -0.14954844785011179 -0.30074089296884232 0 -0.14415359058046451 -0.32450431874860042 0 -0.12659387408615261 -0.3150822694437892 0 -0.14415359058046451 -0.32450431874860042 0 -0.12659387408615261 -0.3150822694437892 0 -0.12735804496977729 -0.33461089616549811 0 -0.14415359058046451 -0.32450431874860042 0 -0.12735804496977729 -0.33461089616549811 0 -0.1498103656353926 -0.34453690856991698 0 -0.12735804496977729 -0.33461089616549811 0 -0.13041156362616549 -0.35456678270330699 0 -0.1498103656353926 -0.34453690856991698 0 -0.13041156362616549 -0.35456678270330699 0 -0.1498103656353926 -0.34453690856991698 0 -0.15611973104540189 -0.36512640122172269 0 -0.13967350730362829 -0.37678139160839619 0 -0.13041156362616549 -0.35456678270330699 0 -0.15611973104540189 -0.36512640122172269 0 -0.13967350730362829 -0.37678139160839619 0 -0.13041156362616549 -0.35456678270330699 0 -0.1202449094974696 -0.37252035622549928 0 -0.1202449094974696 -0.37252035622549928 0 -0.1025286279774919 -0.37020248041810722 0 -0.11110647592191281 -0.35684885660437482 0 -0.13041156362616549 -0.35456678270330699 0 -0.1202449094974696 -0.37252035622549928 0 -0.11110647592191281 -0.35684885660437482 0 -0.1025286279774919 -0.37020248041810722 0 -0.11110647592191281 -0.35684885660437482 0 -0.089462968588986932 -0.34443686554264891 0 -0.11110647592191281 -0.35684885660437482 0 -0.1109841026394171 -0.34121362452920517 0 -0.089462968588986932 -0.34443686554264891 0 -0.13041156362616549 -0.35456678270330699 0 -0.11110647592191281 -0.35684885660437482 0 -0.1109841026394171 -0.34121362452920517 0 -0.12735804496977729 -0.33461089616549811 0 -0.1109841026394171 -0.34121362452920517 0 -0.1101836035428151 -0.32478245233520842 0 -0.12735804496977729 -0.33461089616549811 0 -0.13041156362616549 -0.35456678270330699 0 -0.1109841026394171 -0.34121362452920517 0 -0.12659387408615261 -0.3150822694437892 0 -0.1101836035428151 -0.32478245233520842 0 -0.11384291360269071 -0.31301719449784021 0 -0.12659387408615261 -0.3150822694437892 0 -0.12735804496977729 -0.33461089616549811 0 -0.1101836035428151 -0.32478245233520842 0 -0.1101836035428151 -0.32478245233520842 0 -0.11384291360269071 -0.31301719449784021 0 -0.1027318399088402 -0.31617319760237272 0 -0.1101836035428151 -0.32478245233520842 0 -0.10057558984094141 -0.3228328416890045 0 -0.097381959186845016 -0.33203589382419407 0 -0.1101836035428151 -0.32478245233520842 0 -0.1027318399088402 -0.31617319760237272 0 -0.10057558984094141 -0.3228328416890045 0 -0.10057558984094141 -0.3228328416890045 0 -0.097381959186845016 -0.33203589382419407 0 -0.092004956725265361 -0.31833982299424268 0 -0.1027318399088402 -0.31617319760237272 0 -0.092004956725265361 -0.31833982299424268 0 -0.098671017013105766 -0.30821431290695211 0 -0.1027318399088402 -0.31617319760237272 0 -0.10057558984094141 -0.3228328416890045 0 -0.092004956725265361 -0.31833982299424268 0 -0.1109841026394171 -0.34121362452920517 0 -0.097381959186845016 -0.33203589382419407 0 -0.089462968588986932 -0.34443686554264891 0 -0.1109841026394171 -0.34121362452920517 0 -0.1101836035428151 -0.32478245233520842 0 -0.097381959186845016 -0.33203589382419407 0 -0.092004956725265361 -0.31833982299424268 0 -0.089462968588986932 -0.34443686554264891 0 -0.079387770285372 -0.33820176543939079 0 -0.073629636103359333 -0.34476783885119783 0 -0.089462968588986932 -0.34443686554264891 0 -0.092004956725265361 -0.31833982299424268 0 -0.088408905547640193 -0.32215205719342471 0 -0.089462968588986932 -0.34443686554264891 0 -0.097381959186845016 -0.33203589382419407 0 -0.092004956725265361 -0.31833982299424268 0 -0.089462968588986932 -0.34443686554264891 0 -0.081554023385375957 -0.33011189053049428 0 -0.088408905547640193 -0.32215205719342471 0 -0.089462968588986932 -0.34443686554264891 0 -0.081554023385375957 -0.33011189053049428 0 -0.079387770285372 -0.33820176543939079 0 -0.089462968588986932 -0.34443686554264891 0 -0.088408905547640193 -0.32215205719342471 0 -0.081195163737748322 -0.3168833603259863 0 -0.086972980365637553 -0.30627292361820102 0 -0.088408905547640193 -0.32215205719342471 0 -0.086972980365637553 -0.30627292361820102 0 -0.092004956725265361 -0.31833982299424268 0 -0.088408905547640193 -0.32215205719342471 0 -0.086972980365637553 -0.30627292361820102 0 -0.081554023385375957 -0.33011189053049428 0 -0.088408905547640193 -0.32215205719342471 0 -0.081848132023119399 -0.32271822861605531 0 -0.081554023385375957 -0.33011189053049428 0 -0.081848132023119399 -0.32271822861605531 0 -0.075430160774703797 -0.32159363803813451 0 -0.081848132023119399 -0.32271822861605531 0 -0.081195163737748322 -0.3168833603259863 0 -0.075430160774703797 -0.32159363803813451 0 -0.088408905547640193 -0.32215205719342471 0 -0.081848132023119399 -0.32271822861605531 0 -0.081195163737748322 -0.3168833603259863 0 -0.075430160774703797 -0.32159363803813451 0 -0.064465689500359136 -0.31582113440945808 0 -0.075525193069806693 -0.31037404713149552 0 -0.081195163737748322 -0.3168833603259863 0 -0.075430160774703797 -0.32159363803813451 0 -0.075525193069806693 -0.31037404713149552 0 -0.075430160774703797 -0.32159363803813451 0 -0.068243037086878094 -0.32501211542267389 0 -0.072904453063765806 -0.33349046683322231 0 -0.075430160774703797 -0.32159363803813451 0 -0.068243037086878094 -0.32501211542267389 0 -0.064465689500359136 -0.31582113440945808 0 -0.068243037086878094 -0.32501211542267389 0 -0.064465689500359136 -0.31582113440945808 0 -0.060171845008683701 -0.32914322240988109 0 -0.079387770285372 -0.33820176543939079 0 -0.072904453063765806 -0.33349046683322231 0 -0.073629636103359333 -0.34476783885119783 0 -0.081554023385375957 -0.33011189053049428 0 -0.079387770285372 -0.33820176543939079 0 -0.072904453063765806 -0.33349046683322231 0 -0.081554023385375957 -0.33011189053049428 0 -0.075430160774703797 -0.32159363803813451 0 -0.072904453063765806 -0.33349046683322231 0 -0.068243037086878094 -0.32501211542267389 0 -0.072904453063765806 -0.33349046683322231 0 -0.060171845008683701 -0.32914322240988109 0 -0.072904453063765806 -0.33349046683322231 0 -0.059275645073211577 -0.3420228727469149 0 -0.060171845008683701 -0.32914322240988109 0 -0.072904453063765806 -0.33349046683322231 0 -0.073629636103359333 -0.34476783885119783 0 -0.059275645073211577 -0.3420228727469149 0 -0.064491730159867908 -0.35151337682494399 0 -0.073629636103359333 -0.34476783885119783 0 -0.059275645073211577 -0.3420228727469149 0 -0.064491730159867908 -0.35151337682494399 0 -0.073629636103359333 -0.34476783885119783 0 -0.077402499739820593 -0.35596840264795482 0 -0.064491730159867908 -0.35151337682494399 0 -0.077402499739820593 -0.35596840264795482 0 -0.069430872620124373 -0.36032855382554541 0 -0.064491730159867908 -0.35151337682494399 0 -0.069430872620124373 -0.36032855382554541 0 -0.060138218332676567 -0.36363939627770731 0 -0.069430872620124373 -0.36032855382554541 0 -0.074185126376287852 -0.36967509387154418 0 -0.060138218332676567 -0.36363939627770731 0 -0.074185126376287852 -0.36967509387154418 0 -0.060138218332676567 -0.36363939627770731 0 -0.061650827460071958 -0.37776449475139789 0 -0.077402499739820593 -0.35596840264795482 0 -0.069430872620124373 -0.36032855382554541 0 -0.074185126376287852 -0.36967509387154418 0 -0.077402499739820593 -0.35596840264795482 0 -0.074185126376287852 -0.36967509387154418 0 -0.086920980452708518 -0.37053390809105508 0 -0.1025286279774919 -0.37020248041810722 0 -0.086920980452708518 -0.37053390809105508 0 -0.089462968588986932 -0.34443686554264891 0 -0.074185126376287852 -0.36967509387154418 0 -0.086920980452708518 -0.37053390809105508 0 -0.07887246609233356 -0.38180927860457609 0 -0.077402499739820593 -0.35596840264795482 0 -0.086920980452708518 -0.37053390809105508 0 -0.089462968588986932 -0.34443686554264891 0 -0.086920980452708518 -0.37053390809105508 0 -0.089462968588986932 -0.34443686554264891 0 -0.073629636103359333 -0.34476783885119783 0 -0.077402499739820593 -0.35596840264795482 0 -0.089462968588986932 -0.34443686554264891 0 -0.097254442924579007 -0.26444654837757708 0 -0.09996194098761424 -0.23665031630931771 0 -0.097254442924579007 -0.26444654837757708 0 -0.11437414826144621 -0.25049231715679721 0 -0.09996194098761424 -0.23665031630931771 0 -0.097254442924579007 -0.26444654837757708 0 -0.11437414826144621 -0.25049231715679721 0 -0.12028079273907991 -0.26565426569811279 0 -0.11437414826144621 -0.25049231715679721 0 -0.12028079273907991 -0.26565426569811279 0 -0.13355881260256089 -0.2496977061671225 0 -0.13654346101632489 -0.27698313373899919 0 -0.12028079273907991 -0.26565426569811279 0 -0.1119226582642678 -0.27960268466597749 0 -0.097254442924579007 -0.26444654837757708 0 -0.12028079273907991 -0.26565426569811279 0 -0.1119226582642678 -0.27960268466597749 0 -0.097254442924579007 -0.26444654837757708 0 -0.1119226582642678 -0.27960268466597749 0 -0.094546944861543025 -0.29224278044583651 0 -0.097254442924579007 -0.26444654837757708 0 -0.094546944861543025 -0.29224278044583651 0 -0.094546944861543025 -0.29224278044583651 0 -0.1190639156014673 -0.29727410105308999 0 -0.1119226582642678 -0.27960268466597749 0 -0.094546944861543025 -0.29224278044583651 0 -0.1190639156014673 -0.29727410105308999 0 -0.13654346101632489 -0.27698313373899919 0 -0.1119226582642678 -0.27960268466597749 0 -0.1190639156014673 -0.29727410105308999 0 -0.11384291360269071 -0.31301719449784021 0 -0.1190639156014673 -0.29727410105308999 0 -0.10540032655677441 -0.30610145058535648 0 -0.12659387408615261 -0.3150822694437892 0 -0.11384291360269071 -0.31301719449784021 0 -0.1190639156014673 -0.29727410105308999 0 -0.094546944861543025 -0.29224278044583651 0 -0.10540032655677441 -0.30610145058535648 0 -0.098671017013105766 -0.30821431290695211 0 -0.11384291360269071 -0.31301719449784021 0 -0.1027318399088402 -0.31617319760237272 0 -0.10540032655677441 -0.30610145058535648 0 -0.1027318399088402 -0.31617319760237272 0 -0.10540032655677441 -0.30610145058535648 0 -0.098671017013105766 -0.30821431290695211 0 -0.092004956725265361 -0.31833982299424268 0 -0.094546944861543025 -0.29224278044583651 0 -0.098671017013105766 -0.30821431290695211 0 -0.094546944861543025 -0.29224278044583651 0 -0.1190639156014673 -0.29727410105308999 0 -0.10540032655677441 -0.30610145058535648 0 -0.086972980365637553 -0.30627292361820102 0 -0.085537055183634109 -0.29039379004297722 0 -0.092004956725265361 -0.31833982299424268 0 -0.094546944861543025 -0.29224278044583651 0 -0.086972980365637553 -0.30627292361820102 0 -0.086972980365637553 -0.30627292361820102 0 -0.079636069813255606 -0.30169950019328351 0 -0.085537055183634109 -0.29039379004297722 0 -0.092004956725265361 -0.31833982299424268 0 -0.094546944861543025 -0.29224278044583651 0 -0.079636069813255606 -0.30169950019328351 0 -0.070509050633944068 -0.29975723998046028 0 -0.085537055183634109 -0.29039379004297722 0 -0.081195163737748322 -0.3168833603259863 0 -0.086972980365637553 -0.30627292361820102 0 -0.075525193069806693 -0.31037404713149552 0 -0.086972980365637553 -0.30627292361820102 0 -0.079636069813255606 -0.30169950019328351 0 -0.075525193069806693 -0.31037404713149552 0 -0.064465689500359136 -0.31582113440945808 0 -0.075525193069806693 -0.31037404713149552 0 -0.070509050633944068 -0.29975723998046028 0 -0.064465689500359136 -0.31582113440945808 0 -0.070509050633944068 -0.29975723998046028 0 -0.054029402546928368 -0.30477384002300811 0 -0.079636069813255606 -0.30169950019328351 0 -0.075525193069806693 -0.31037404713149552 0 -0.070509050633944068 -0.29975723998046028 0 -0.085537055183634109 -0.29039379004297722 0 -0.074151691086618954 -0.27796190486623612 0 -0.060036033536231867 -0.28516052460078839 0 -0.070509050633944068 -0.29975723998046028 0 -0.085537055183634109 -0.29039379004297722 0 -0.060036033536231867 -0.28516052460078839 0 -0.085537055183634109 -0.29039379004297722 0 -0.060036033536231867 -0.28516052460078839 0 -0.094546944861543025 -0.29224278044583651 0 -0.085537055183634109 -0.29039379004297722 0 -0.083469356647459914 -0.26752821065155907 0 -0.094546944861543025 -0.29224278044583651 0 -0.086972980365637553 -0.30627292361820102 0 -0.085537055183634109 -0.29039379004297722 0 -0.094546944861543025 -0.29224278044583651 0 -0.085537055183634109 -0.29039379004297722 0 -0.085537055183634109 -0.29039379004297722 0 -0.083469356647459914 -0.26752821065155907 0 -0.085537055183634109 -0.29039379004297722 0 -0.083469356647459914 -0.26752821065155907 0 -0.074151691086618954 -0.27796190486623612 0 -0.097254442924579007 -0.26444654837757708 0 -0.094546944861543025 -0.29224278044583651 0 -0.083469356647459914 -0.26752821065155907 0 -0.083469356647459914 -0.26752821065155907 0 -0.074151691086618954 -0.27796190486623612 0 -0.066578389776785984 -0.26142320985948869 0 -0.074151691086618954 -0.27796190486623612 0 -0.066578389776785984 -0.26142320985948869 0 -0.060036033536231867 -0.28516052460078839 0 -0.083469356647459914 -0.26752821065155907 0 -0.066578389776785984 -0.26142320985948869 0 -0.081401658111284914 -0.24466263126014121 0 -0.066578389776785984 -0.26142320985948869 0 -0.081401658111284914 -0.24466263126014121 0 -0.067406794775839135 -0.24418288511786759 0 -0.097254442924579007 -0.26444654837757708 0 -0.083469356647459914 -0.26752821065155907 0 -0.081401658111284914 -0.24466263126014121 0 -0.083469356647459914 -0.26752821065155907 0 -0.081401658111284914 -0.24466263126014121 0 -0.031594604406692657 -0.25700172888382072 0 -0.045946553200304253 -0.2661448097297483 0 -0.05132256102027493 -0.24310343780616009 0 -0.031594604406692657 -0.25700172888382072 0 -0.045946553200304253 -0.2661448097297483 0 -0.025586211023447141 -0.26942369202782779 0 -0.031594604406692657 -0.25700172888382072 0 -0.05132256102027493 -0.24310343780616009 0 -0.066578389776785984 -0.26142320985948869 0 -0.045946553200304253 -0.2661448097297483 0 -0.05132256102027493 -0.24310343780616009 0 -0.066578389776785984 -0.26142320985948869 0 -0.045946553200304253 -0.2661448097297483 0 -0.060036033536231867 -0.28516052460078839 0 -0.045946553200304253 -0.2661448097297483 0 -0.034535011888829577 -0.27992725915859951 0 -0.025586211023447141 -0.26942369202782779 0 -0.045946553200304253 -0.2661448097297483 0 -0.034535011888829577 -0.27992725915859951 0 -0.060036033536231867 -0.28516052460078839 0 -0.034535011888829577 -0.27992725915859951 0 -0.042949191561027361 -0.2955658951115217 0 -0.060036033536231867 -0.28516052460078839 0 -0.034535011888829577 -0.27992725915859951 0 -0.042949191561027361 -0.2955658951115217 0 -0.02801962723209445 -0.297618451773978 0 -0.034535011888829577 -0.27992725915859951 0 -0.060036033536231867 -0.28516052460078839 0 -0.042949191561027361 -0.2955658951115217 0 -0.060036033536231867 -0.28516052460078839 0 -0.054029402546928368 -0.30477384002300811 0 -0.070509050633944068 -0.29975723998046028 0 -0.060036033536231867 -0.28516052460078839 0 -0.054029402546928368 -0.30477384002300811 0 -0.054029402546928368 -0.30477384002300811 0 -0.038125882601052541 -0.31034940000123468 0 -0.050888198794844089 -0.32040896258203788 0 -0.042949191561027361 -0.2955658951115217 0 -0.054029402546928368 -0.30477384002300811 0 -0.038125882601052541 -0.31034940000123468 0 -0.042949191561027361 -0.2955658951115217 0 -0.038125882601052541 -0.31034940000123468 0 -0.02801962723209445 -0.297618451773978 0 -0.038125882601052541 -0.31034940000123468 0 -0.02801962723209445 -0.297618451773978 0 -0.022489455963396899 -0.31027528556338291 0 -0.02801962723209445 -0.297618451773978 0 -0.022489455963396899 -0.31027528556338291 0 -0.013357561183036061 -0.29945589093693181 0 -0.022489455963396899 -0.31027528556338291 0 -0.0074209204564366664 -0.31244580551942253 0 -0.013357561183036061 -0.29945589093693181 0 -0.0074209204564366664 -0.31244580551942253 0 -0.013357561183036061 -0.29945589093693181 0 0.00070050571613747476 -0.2985815963608216 0 -0.013357561183036061 -0.29945589093693181 0 -0.0060768745930243557 -0.28868453192696197 0 -0.018209711637966131 -0.28831280572878998 0 -0.0060768745930243557 -0.28868453192696197 0 -0.0090339902414272796 -0.27469399371641051 0 0.0078613088204720159 -0.28479831103914188 0 -0.013357561183036061 -0.29945589093693181 0 -0.0060768745930243557 -0.28868453192696197 0 0.00070050571613747476 -0.2985815963608216 0 -0.0060768745930243557 -0.28868453192696197 0 -0.018209711637966131 -0.28831280572878998 0 -0.0090339902414272796 -0.27469399371641051 0 -0.034535011888829577 -0.27992725915859951 0 -0.02801962723209445 -0.297618451773978 0 -0.018209711637966131 -0.28831280572878998 0 -0.02801962723209445 -0.297618451773978 0 -0.013357561183036061 -0.29945589093693181 0 -0.018209711637966131 -0.28831280572878998 0 -0.031594604406692657 -0.25700172888382072 0 -0.025586211023447141 -0.26942369202782779 0 -0.01186664779311036 -0.27090001996148128 0 -0.034535011888829577 -0.27992725915859951 0 -0.025586211023447141 -0.26942369202782779 0 -0.0090339902414272796 -0.27469399371641051 0 -0.034535011888829577 -0.27992725915859951 0 -0.0090339902414272796 -0.27469399371641051 0 -0.034535011888829577 -0.27992725915859951 0 -0.018209711637966131 -0.28831280572878998 0 -0.0090339902414272796 -0.27469399371641051 0 -0.01186664779311036 -0.27090001996148128 0 0.0078613088204720159 -0.28479831103914188 0 -0.0090339902414272796 -0.27469399371641051 0 -0.01186664779311036 -0.27090001996148128 0 0.0078613088204720159 -0.28479831103914188 0 -0.025586211023447141 -0.26942369202782779 0 -0.0090339902414272796 -0.27469399371641051 0 -0.01186664779311036 -0.27090001996148128 0 -0.00078508196032120968 -0.26703854446780351 0 -0.01186664779311036 -0.27090001996148128 0 0.0053490981021702948 -0.27300109275042561 0 -0.01186664779311036 -0.27090001996148128 0 -0.0064030148223353034 -0.25860466309365893 0 -0.016937574742592561 -0.25899543121632429 0 -0.00078508196032120968 -0.26703854446780351 0 -0.01186664779311036 -0.27090001996148128 0 -0.0064030148223353034 -0.25860466309365893 0 -0.00078508196032120968 -0.26703854446780351 0 -0.0064030148223353034 -0.25860466309365893 0 0.0028799528272470888 -0.26276843333515038 0 -0.0064030148223353034 -0.25860466309365893 0 -0.0027879324552719381 -0.24539863686431981 0 0.0059842086934125353 -0.25674621383972213 0 -0.0064030148223353034 -0.25860466309365893 0 -0.01788603194823192 -0.2494753129263366 0 -0.0027879324552719381 -0.24539863686431981 0 -0.0064030148223353034 -0.25860466309365893 0 -0.016937574742592561 -0.25899543121632429 0 -0.01788603194823192 -0.2494753129263366 0 -0.031594604406692657 -0.25700172888382072 0 -0.016937574742592561 -0.25899543121632429 0 -0.01788603194823192 -0.2494753129263366 0 -0.031594604406692657 -0.25700172888382072 0 -0.01186664779311036 -0.27090001996148128 0 -0.016937574742592561 -0.25899543121632429 0 -0.031594604406692657 -0.25700172888382072 0 -0.01186664779311036 -0.27090001996148128 0 -0.044870434282052583 -0.34838889067408818 0 -0.038504106376608602 -0.35562033171832008 0 -0.045508724163812082 -0.36294674002268951 0 -0.044870434282052583 -0.34838889067408818 0 -0.031488136155190083 -0.34843256654438659 0 -0.036167602548620392 -0.33784388920267089 0 -0.044870434282052583 -0.34838889067408818 0 -0.031488136155190083 -0.34843256654438659 0 -0.038504106376608602 -0.35562033171832008 0 -0.031488136155190083 -0.34843256654438659 0 -0.038504106376608602 -0.35562033171832008 0 -0.032149130905379651 -0.36271312963211633 0 -0.038504106376608602 -0.35562033171832008 0 -0.032149130905379651 -0.36271312963211633 0 -0.045508724163812082 -0.36294674002268951 0 -0.032149130905379651 -0.36271312963211633 0 -0.045508724163812082 -0.36294674002268951 0 -0.036812411860601253 -0.37558516926459101 0 -0.032149130905379651 -0.36271312963211633 0 -0.02625864979504015 -0.36992268064492478 0 -0.036812411860601253 -0.37558516926459101 0 -0.045508724163812082 -0.36294674002268951 0 -0.036812411860601253 -0.37558516926459101 0 -0.050590646601294011 -0.37718949623412629 0 -0.045508724163812082 -0.36294674002268951 0 -0.060138218332676567 -0.36363939627770731 0 -0.054856950402324148 -0.3537022553092688 0 -0.045508724163812082 -0.36294674002268951 0 -0.060138218332676567 -0.36363939627770731 0 -0.050590646601294011 -0.37718949623412629 0 -0.060138218332676567 -0.36363939627770731 0 -0.061650827460071958 -0.37776449475139789 0 -0.050590646601294011 -0.37718949623412629 0 -0.064491730159867908 -0.35151337682494399 0 -0.060138218332676567 -0.36363939627770731 0 -0.054856950402324148 -0.3537022553092688 0 -0.044870434282052583 -0.34838889067408818 0 -0.045508724163812082 -0.36294674002268951 0 -0.054856950402324148 -0.3537022553092688 0 -0.044870434282052583 -0.34838889067408818 0 -0.054856950402324148 -0.3537022553092688 0 -0.059275645073211577 -0.3420228727469149 0 -0.064491730159867908 -0.35151337682494399 0 -0.054856950402324148 -0.3537022553092688 0 -0.059275645073211577 -0.3420228727469149 0 -0.059275645073211577 -0.3420228727469149 0 -0.060171845008683701 -0.32914322240988109 0 -0.048169437880678068 -0.33522270142491289 0 -0.060171845008683701 -0.32914322240988109 0 -0.048169437880678068 -0.33522270142491289 0 -0.050888198794844089 -0.32040896258203788 0 -0.044870434282052583 -0.34838889067408818 0 -0.059275645073211577 -0.3420228727469149 0 -0.048169437880678068 -0.33522270142491289 0 -0.064465689500359136 -0.31582113440945808 0 -0.054029402546928368 -0.30477384002300811 0 -0.050888198794844089 -0.32040896258203788 0 -0.064465689500359136 -0.31582113440945808 0 -0.060171845008683701 -0.32914322240988109 0 -0.050888198794844089 -0.32040896258203788 0 -0.038125882601052541 -0.31034940000123468 0 -0.050888198794844089 -0.32040896258203788 0 -0.039137938563746623 -0.3252195670622508 0 -0.048169437880678068 -0.33522270142491289 0 -0.050888198794844089 -0.32040896258203788 0 -0.039137938563746623 -0.3252195670622508 0 -0.039137938563746623 -0.3252195670622508 0 -0.029818660142940621 -0.3291019357005559 0 -0.029947317999776971 -0.31950371937313871 0 -0.038125882601052541 -0.31034940000123468 0 -0.039137938563746623 -0.3252195670622508 0 -0.029947317999776971 -0.31950371937313871 0 -0.044870434282052583 -0.34838889067408818 0 -0.048169437880678068 -0.33522270142491289 0 -0.036167602548620392 -0.33784388920267089 0 -0.048169437880678068 -0.33522270142491289 0 -0.039137938563746623 -0.3252195670622508 0 -0.036167602548620392 -0.33784388920267089 0 -0.039137938563746623 -0.3252195670622508 0 -0.036167602548620392 -0.33784388920267089 0 -0.029818660142940621 -0.3291019357005559 0 -0.029818660142940621 -0.3291019357005559 0 -0.022292011599498202 -0.33877376364834899 0 -0.020164652727748169 -0.32257240853826918 0 -0.022292011599498202 -0.33877376364834899 0 -0.020164652727748169 -0.32257240853826918 0 -0.0073090187898726703 -0.32644714733581232 0 -0.031488136155190083 -0.34843256654438659 0 -0.036167602548620392 -0.33784388920267089 0 -0.022292011599498202 -0.33877376364834899 0 -0.036167602548620392 -0.33784388920267089 0 -0.029818660142940621 -0.3291019357005559 0 -0.022292011599498202 -0.33877376364834899 0 -0.038125882601052541 -0.31034940000123468 0 -0.022489455963396899 -0.31027528556338291 0 -0.029947317999776971 -0.31950371937313871 0 -0.022489455963396899 -0.31027528556338291 0 -0.029947317999776971 -0.31950371937313871 0 -0.020164652727748169 -0.32257240853826918 0 -0.029818660142940621 -0.3291019357005559 0 -0.029947317999776971 -0.31950371937313871 0 -0.020164652727748169 -0.32257240853826918 0 -0.022489455963396899 -0.31027528556338291 0 -0.0074209204564366664 -0.31244580551942253 0 -0.020164652727748169 -0.32257240853826918 0 -0.0074209204564366664 -0.31244580551942253 0 -0.020164652727748169 -0.32257240853826918 0 -0.0073090187898726703 -0.32644714733581232 0 -0.0074209204564366664 -0.31244580551942253 0 -0.0073090187898726703 -0.32644714733581232 0 0.0019524439344398539 -0.31934945332578601 0 -0.022292011599498202 -0.33877376364834899 0 -0.0073090187898726703 -0.32644714733581232 0 -0.0052977523197558392 -0.33907190723812147 0 -0.022292011599498202 -0.33877376364834899 0 -0.0052977523197558392 -0.33907190723812147 0 -0.013290371387499059 -0.34697148543581591 0 -0.0073090187898726703 -0.32644714733581232 0 -0.0052977523197558392 -0.33907190723812147 0 0.0072742440764781337 -0.32873799983209401 0 -0.0052977523197558392 -0.33907190723812147 0 -0.0035546916292847502 -0.35191356541576851 0 -0.013290371387499059 -0.34697148543581591 0 -0.0052977523197558392 -0.33907190723812147 0 -0.0035546916292847502 -0.35191356541576851 0 0.0063003120656644216 -0.34388798576577179 0 -0.0035546916292847502 -0.35191356541576851 0 -0.0044151325190836394 -0.36555497356786892 0 0.0072896530918497614 -0.3572746125926608 0 -0.0035546916292847502 -0.35191356541576851 0 -0.01395386093825734 -0.3572585353413712 0 -0.0044151325190836394 -0.36555497356786892 0 -0.0035546916292847502 -0.35191356541576851 0 -0.01395386093825734 -0.3572585353413712 0 -0.013290371387499059 -0.34697148543581591 0 -0.01395386093825734 -0.3572585353413712 0 -0.013290371387499059 -0.34697148543581591 0 -0.021607582791177488 -0.34895132528442718 0 -0.022292011599498202 -0.33877376364834899 0 -0.013290371387499059 -0.34697148543581591 0 -0.021607582791177488 -0.34895132528442718 0 -0.01395386093825734 -0.3572585353413712 0 -0.021607582791177488 -0.34895132528442718 0 -0.023871708338618559 -0.35598310835651642 0 -0.031488136155190083 -0.34843256654438659 0 -0.032149130905379651 -0.36271312963211633 0 -0.023871708338618559 -0.35598310835651642 0 -0.031488136155190083 -0.34843256654438659 0 -0.021607582791177488 -0.34895132528442718 0 -0.023871708338618559 -0.35598310835651642 0 -0.031488136155190083 -0.34843256654438659 0 -0.022292011599498202 -0.33877376364834899 0 -0.021607582791177488 -0.34895132528442718 0 -0.02625864979504015 -0.36992268064492478 0 -0.01805022503641969 -0.37648405879732699 0 -0.036812411860601253 -0.37558516926459101 0 -0.032149130905379651 -0.36271312963211633 0 -0.023871708338618559 -0.35598310835651642 0 -0.018022831377761339 -0.36490836488566308 0 -0.032149130905379651 -0.36271312963211633 0 -0.02625864979504015 -0.36992268064492478 0 -0.018022831377761339 -0.36490836488566308 0 -0.01395386093825734 -0.3572585353413712 0 -0.023871708338618559 -0.35598310835651642 0 -0.018022831377761339 -0.36490836488566308 0 -0.018022831377761339 -0.36490836488566308 0 -0.01805022503641969 -0.37648405879732699 0 -0.018022831377761339 -0.36490836488566308 0 -0.01492727137686359 -0.3742199898777851 0 -0.01805022503641969 -0.37648405879732699 0 -0.02625864979504015 -0.36992268064492478 0 -0.018022831377761339 -0.36490836488566308 0 -0.01805022503641969 -0.37648405879732699 0 -0.01492727137686359 -0.3742199898777851 0 -0.01240520882526947 -0.36616343019746289 0 -0.0044151325190836394 -0.36555497356786892 0 -0.01492727137686359 -0.3742199898777851 0 -0.0044151325190836394 -0.36555497356786892 0 0.0064397945350947311 -0.37378650621160159 0 -0.018022831377761339 -0.36490836488566308 0 -0.01492727137686359 -0.3742199898777851 0 -0.01240520882526947 -0.36616343019746289 0 -0.01395386093825734 -0.3572585353413712 0 -0.01240520882526947 -0.36616343019746289 0 -0.0044151325190836394 -0.36555497356786892 0 -0.01395386093825734 -0.3572585353413712 0 -0.018022831377761339 -0.36490836488566308 0 -0.01240520882526947 -0.36616343019746289 0 -0.01492727137686359 -0.3742199898777851 0 -0.018078344358931221 -0.38836639530209349 0 0.0064397945350947311 -0.37378650621160159 0 -0.018078344358931221 -0.38836639530209349 0 0.00028119204996319801 -0.39109590938555239 0 0.0064397945350947311 -0.37378650621160159 0 -0.018078344358931221 -0.38836639530209349 0 0.0064397945350947311 -0.37378650621160159 0 -0.0065701789597016232 -0.39935381391183961 0 -0.018078344358931221 -0.38836639530209349 0 -0.018131420458198929 -0.41079467648819468 0 -0.0065701789597016232 -0.39935381391183961 0 -0.018078344358931221 -0.38836639530209349 0 0.00028119204996319801 -0.39109590938555239 0 -0.0065701789597016232 -0.39935381391183961 0 -0.018131420458198929 -0.41079467648819468 0 0.0096478569283612071 -0.40715827447151909 0 -0.018078344358931221 -0.38836639530209349 0 -0.018131420458198929 -0.41079467648819468 0 -0.018078344358931221 -0.38836639530209349 0 -0.041443444634256039 -0.40226062161652959 0 -0.018078344358931221 -0.38836639530209349 0 -0.041443444634256039 -0.40226062161652959 0 -0.018131420458198929 -0.41079467648819468 0 -0.01805022503641969 -0.37648405879732699 0 -0.041937314553976028 -0.393801644279136 0 -0.01805022503641969 -0.37648405879732699 0 -0.018078344358931221 -0.38836639530209349 0 -0.041937314553976028 -0.393801644279136 0 -0.01805022503641969 -0.37648405879732699 0 -0.018078344358931221 -0.38836639530209349 0 -0.01492727137686359 -0.3742199898777851 0 -0.01805022503641969 -0.37648405879732699 0 -0.018078344358931221 -0.38836639530209349 0 -0.01492727137686359 -0.3742199898777851 0 -0.01805022503641969 -0.37648405879732699 0 -0.036812411860601253 -0.37558516926459101 0 -0.041937314553976028 -0.393801644279136 0 -0.050590646601294011 -0.37718949623412629 0 -0.01805022503641969 -0.37648405879732699 0 -0.036812411860601253 -0.37558516926459101 0 -0.041937314553976028 -0.393801644279136 0 -0.018078344358931221 -0.38836639530209349 0 -0.041937314553976028 -0.393801644279136 0 -0.041443444634256039 -0.40226062161652959 0 -0.041937314553976028 -0.393801644279136 0 -0.041443444634256039 -0.40226062161652959 0 -0.065824404071532616 -0.41111922976094489 0 -0.041937314553976028 -0.393801644279136 0 -0.057496383236626203 -0.38939953280923628 0 -0.065824404071532616 -0.41111922976094489 0 -0.041937314553976028 -0.393801644279136 0 -0.065824404071532616 -0.41111922976094489 0 -0.041937314553976028 -0.393801644279136 0 -0.057496383236626203 -0.38939953280923628 0 -0.050590646601294011 -0.37718949623412629 0 -0.057496383236626203 -0.38939953280923628 0 -0.061650827460071958 -0.37776449475139789 0 -0.050590646601294011 -0.37718949623412629 0 -0.059170384705036869 -0.44410323195397688 0 -0.064808544909579657 -0.41615484793096769 0 -0.047233061707888803 -0.42211059519211053 0 -0.037273235827979208 -0.43523176514314837 0 -0.059170384705036869 -0.44410323195397688 0 -0.047233061707888803 -0.42211059519211053 0 -0.059170384705036869 -0.44410323195397688 0 -0.064808544909579657 -0.41615484793096769 0 -0.041443444634256039 -0.40226062161652959 0 -0.064808544909579657 -0.41615484793096769 0 -0.041443444634256039 -0.40226062161652959 0 -0.047233061707888803 -0.42211059519211053 0 -0.064808544909579657 -0.41615484793096769 0 -0.041443444634256039 -0.40226062161652959 0 -0.065824404071532616 -0.41111922976094489 0 -0.064808544909579657 -0.41615484793096769 0 -0.041443444634256039 -0.40226062161652959 0 -0.047233061707888803 -0.42211059519211053 0 -0.033469698462591832 -0.41280250931593032 0 -0.047233061707888803 -0.42211059519211053 0 -0.033469698462591832 -0.41280250931593032 0 -0.037273235827979208 -0.43523176514314837 0 -0.033469698462591832 -0.41280250931593032 0 -0.037273235827979208 -0.43523176514314837 0 -0.018180003775471999 -0.43132445007169468 0 -0.041443444634256039 -0.40226062161652959 0 -0.033469698462591832 -0.41280250931593032 0 -0.018131420458198929 -0.41079467648819468 0 -0.018180003775471999 -0.43132445007169468 0 -0.018131420458198929 -0.41079467648819468 0 -0.033469698462591832 -0.41280250931593032 0 -0.018180003775471999 -0.43132445007169468 0 -0.018131420458198929 -0.41079467648819468 0 -0.033469698462591832 -0.41280250931593032 0 -0.018131420458198929 -0.41079467648819468 0 -0.018131420458198929 -0.41079467648819468 0 0.0096478569283612071 -0.40715827447151909 0 -0.018180003775471999 -0.43132445007169468 0 -0.018131420458198929 -0.41079467648819468 0 -0.0035836006262223211 -0.42109404790360599 0 -0.018131420458198929 -0.41079467648819468 0 -0.0035836006262223211 -0.42109404790360599 0 0.0096478569283612071 -0.40715827447151909 0 -0.018180003775471999 -0.43132445007169468 0 -0.0035836006262223211 -0.42109404790360599 0 0.0086228470973496642 -0.43408322599107407 0 -0.018180003775471999 -0.43132445007169468 0 -0.00063600287822451068 -0.45042270870384937 0 -0.018228587092744278 -0.45185422365519468 0 -0.018180003775471999 -0.43132445007169468 0 -0.00063600287822451068 -0.45042270870384937 0 0.0086228470973496642 -0.43408322599107407 0 -0.00063600287822451068 -0.45042270870384937 0 -0.018228587092744278 -0.45185422365519468 0 -0.0031950402278951582 -0.47355988848270247 0 -0.018228587092744278 -0.45185422365519468 0 -0.028850368584379549 -0.47424093604857143 0 -0.039410960142127277 -0.45549635455557558 0 -0.018228587092744278 -0.45185422365519468 0 -0.0031950402278951582 -0.47355988848270247 0 -0.028850368584379549 -0.47424093604857143 0 -0.037273235827979208 -0.43523176514314837 0 -0.018180003775471999 -0.43132445007169468 0 -0.018228587092744278 -0.45185422365519468 0 -0.018180003775471999 -0.43132445007169468 0 -0.018228587092744278 -0.45185422365519468 0 -0.0031950402278951582 -0.47355988848270247 0 -0.018819842018078289 -0.5 0 0.010254380259800079 -0.5 0 -0.0031950402278951582 -0.47355988848270247 0 -0.028850368584379549 -0.47424093604857143 0 -0.018819842018078289 -0.5 0 -0.028850368584379549 -0.47424093604857143 0 -0.018819842018078289 -0.5 0 -0.047894064295956773 -0.49999999999999639 0 -0.028850368584379549 -0.47424093604857143 0 -0.053532224500496467 -0.47205161597698658 0 -0.047894064295956773 -0.49999999999999639 0 -0.047894064295956773 -0.49999999999999639 0 -0.074310307458921587 -0.50000000000000477 0 -0.063111689998319384 -0.48685343864025987 0 -0.053532224500496467 -0.47205161597698658 0 -0.047894064295956773 -0.49999999999999639 0 -0.053532224500496467 -0.47205161597698658 0 -0.047894064295956773 -0.49999999999999639 0 -0.063111689998319384 -0.48685343864025987 0 -0.037273235827979208 -0.43523176514314837 0 -0.039410960142127277 -0.45549635455557558 0 -0.059170384705036869 -0.44410323195397688 0 -0.037273235827979208 -0.43523176514314837 0 -0.018228587092744278 -0.45185422365519468 0 -0.039410960142127277 -0.45549635455557558 0 -0.028850368584379549 -0.47424093604857143 0 -0.053532224500496467 -0.47205161597698658 0 -0.039410960142127277 -0.45549635455557558 0 -0.053532224500496467 -0.47205161597698658 0 -0.059170384705036869 -0.44410323195397688 0 -0.053532224500496467 -0.47205161597698658 0 -0.059170384705036869 -0.44410323195397688 0 -0.067130698240080028 -0.46056031592077851 0 -0.053532224500496467 -0.47205161597698658 0 -0.039410960142127277 -0.45549635455557558 0 -0.059170384705036869 -0.44410323195397688 0 -0.059170384705036869 -0.44410323195397688 0 -0.067130698240080028 -0.46056031592077851 0 -0.079110020016883859 -0.45072427716809882 0 -0.059170384705036869 -0.44410323195397688 0 -0.079110020016883859 -0.45072427716809882 0 -0.081509876295859041 -0.42608641575214518 0 -0.067130698240080028 -0.46056031592077851 0 -0.079110020016883859 -0.45072427716809882 0 -0.076710163737902931 -0.4753621385840518 0 -0.079110020016883859 -0.45072427716809882 0 -0.076710163737902931 -0.4753621385840518 0 -0.088078431388801143 -0.46362540006426911 0 -0.079110020016883859 -0.45072427716809882 0 -0.076710163737902931 -0.4753621385840518 0 -0.088078431388801143 -0.46362540006426911 0 -0.079110020016883859 -0.45072427716809882 0 -0.097356361224412075 -0.45206768248792212 0 -0.079110020016883859 -0.45072427716809882 0 -0.081509876295859041 -0.42608641575214518 0 -0.079110020016883859 -0.45072427716809882 0 -0.097356361224412075 -0.45206768248792212 0 -0.095305131913166599 -0.43428986454346841 0 -0.074310307458921587 -0.50000000000000477 0 -0.063111689998319384 -0.48685343864025987 0 -0.076710163737902931 -0.4753621385840518 0 -0.074310307458921587 -0.50000000000000477 0 -0.076710163737902931 -0.4753621385840518 0 -0.053532224500496467 -0.47205161597698658 0 -0.067130698240080028 -0.46056031592077851 0 -0.076710163737902931 -0.4753621385840518 0 -0.053532224500496467 -0.47205161597698658 0 -0.063111689998319384 -0.48685343864025987 0 -0.076710163737902931 -0.4753621385840518 0 -0.088078431388801143 -0.46362540006426911 0 -0.09073067512867318 -0.48402172310900982 0 -0.10177040680827849 -0.4656529679067985 0 -0.088078431388801143 -0.46362540006426911 0 -0.076710163737902931 -0.4753621385840518 0 -0.09073067512867318 -0.48402172310900982 0 -0.074310307458921587 -0.50000000000000477 0 -0.09073067512867318 -0.48402172310900982 0 -0.08669857748620563 -0.50000000000000111 0 -0.074310307458921587 -0.50000000000000477 0 -0.076710163737902931 -0.4753621385840518 0 -0.09073067512867318 -0.48402172310900982 0 -0.09073067512867318 -0.48402172310900982 0 -0.08669857748620563 -0.50000000000000111 0 -0.106242009742453 -0.48958604178275189 0 -0.08669857748620563 -0.50000000000000111 0 -0.106242009742453 -0.48958604178275189 0 -0.1151750403291998 -0.5 0 -0.08669857748620563 -0.50000000000000111 0 -0.106242009742453 -0.48958604178275189 0 -0.09073067512867318 -0.48402172310900982 0 -0.1098625469514177 -0.47675587989259488 0 -0.10177040680827849 -0.4656529679067985 0 -0.09073067512867318 -0.48402172310900982 0 -0.106242009742453 -0.48958604178275189 0 -0.1098625469514177 -0.47675587989259488 0 -0.1098625469514177 -0.47675587989259488 0 -0.10177040680827849 -0.4656529679067985 0 -0.11600511774271791 -0.4675830549896236 0 -0.12578544199870001 -0.47917208356550189 0 -0.1098625469514177 -0.47675587989259488 0 -0.11600511774271791 -0.4675830549896236 0 -0.12578544199870001 -0.47917208356550189 0 -0.106242009742453 -0.48958604178275189 0 -0.1098625469514177 -0.47675587989259488 0 -0.1276139703006203 -0.46768189475425948 0 -0.12578544199870001 -0.47917208356550189 0 -0.11600511774271791 -0.4675830549896236 0 -0.12578544199870001 -0.47917208356550189 0 -0.106242009742453 -0.48958604178275189 0 -0.1151750403291998 -0.5 0 -0.12578544199870001 -0.47917208356550189 0 -0.106242009742453 -0.48958604178275189 0 -0.1091003875304809 -0.4424933133347802 0 -0.097356361224412075 -0.45206768248792212 0 -0.095305131913166599 -0.43428986454346841 0 -0.1091003875304809 -0.4424933133347802 0 -0.097356361224412075 -0.45206768248792212 0 -0.11114579630289211 -0.45630311178445138 0 -0.1091003875304809 -0.4424933133347802 0 -0.095468695855318433 -0.43261065326132342 0 -0.1091003875304809 -0.4424933133347802 0 -0.095305131913166599 -0.43428986454346841 0 -0.088078431388801143 -0.46362540006426911 0 -0.097356361224412075 -0.45206768248792212 0 -0.10177040680827849 -0.4656529679067985 0 -0.097356361224412075 -0.45206768248792212 0 -0.10177040680827849 -0.4656529679067985 0 -0.11114579630289211 -0.45630311178445138 0 -0.11114579630289211 -0.45630311178445138 0 -0.11600511774271791 -0.4675830549896236 0 -0.1214594444423419 -0.46076966567589389 0 -0.10177040680827849 -0.4656529679067985 0 -0.11114579630289211 -0.45630311178445138 0 -0.11600511774271791 -0.4675830549896236 0 -0.1276139703006203 -0.46768189475425948 0 -0.11600511774271791 -0.4675830549896236 0 -0.1214594444423419 -0.46076966567589389 0 -0.130160841481294 -0.46016570761934111 0 -0.1214594444423419 -0.46076966567589389 0 -0.1223714963841853 -0.452114559231794 0 -0.11114579630289211 -0.45630311178445138 0 -0.1214594444423419 -0.46076966567589389 0 -0.1223714963841853 -0.452114559231794 0 -0.12798242029922571 -0.45372165104675771 0 -0.13205437630169559 -0.43625871820990142 0 -0.1091003875304809 -0.4424933133347802 0 -0.12798242029922571 -0.45372165104675771 0 -0.1091003875304809 -0.4424933133347802 0 -0.1223714963841853 -0.452114559231794 0 -0.12798242029922571 -0.45372165104675771 0 -0.1091003875304809 -0.4424933133347802 0 -0.1091003875304809 -0.4424933133347802 0 -0.11114579630289211 -0.45630311178445138 0 -0.1223714963841853 -0.452114559231794 0 -0.1091003875304809 -0.4424933133347802 0 -0.1223714963841853 -0.452114559231794 0 -0.13205437630169559 -0.43625871820990142 0 -0.1091003875304809 -0.4424933133347802 0 -0.1193116215658578 -0.42177231840057378 0 -0.1091003875304809 -0.4424933133347802 0 -0.1045901022956479 -0.42308792471077328 0 -0.1193116215658578 -0.42177231840057378 0 -0.1091003875304809 -0.4424933133347802 0 -0.1045901022956479 -0.42308792471077328 0 -0.095468695855318433 -0.43261065326132342 0 -0.1045901022956479 -0.42308792471077328 0 -0.095468695855318433 -0.43261065326132342 0 -0.095126082777116427 -0.41368349424861611 0 -0.1091003875304809 -0.4424933133347802 0 -0.095305131913166599 -0.43428986454346841 0 -0.095468695855318433 -0.43261065326132342 0 -0.095126082777116427 -0.41368349424861611 0 -0.10638495243235301 -0.40895886155814959 0 -0.098096749582792936 -0.39808458213412251 0 -0.1045901022956479 -0.42308792471077328 0 -0.095126082777116427 -0.41368349424861611 0 -0.10638495243235301 -0.40895886155814959 0 -0.10638495243235301 -0.40895886155814959 0 -0.1193116215658578 -0.42177231840057378 0 -0.1244361553462176 -0.40367529259255358 0 -0.1045901022956479 -0.42308792471077328 0 -0.10638495243235301 -0.40895886155814959 0 -0.1193116215658578 -0.42177231840057378 0 -0.10638495243235301 -0.40895886155814959 0 -0.1244361553462176 -0.40367529259255358 0 -0.1106186635415284 -0.38941488964136611 0 -0.12746112459551179 -0.3876314843540985 0 -0.1244361553462176 -0.40367529259255358 0 -0.1106186635415284 -0.38941488964136611 0 -0.1202449094974696 -0.37252035622549928 0 -0.1025286279774919 -0.37020248041810722 0 -0.1106186635415284 -0.38941488964136611 0 -0.12746112459551179 -0.3876314843540985 0 -0.1202449094974696 -0.37252035622549928 0 -0.1106186635415284 -0.38941488964136611 0 -0.1025286279774919 -0.37020248041810722 0 -0.1106186635415284 -0.38941488964136611 0 -0.096338444304653548 -0.38515970370636438 0 -0.1025286279774919 -0.37020248041810722 0 -0.086920980452708518 -0.37053390809105508 0 -0.096338444304653548 -0.38515970370636438 0 -0.10638495243235301 -0.40895886155814959 0 -0.1106186635415284 -0.38941488964136611 0 -0.098096749582792936 -0.39808458213412251 0 -0.1106186635415284 -0.38941488964136611 0 -0.096338444304653548 -0.38515970370636438 0 -0.098096749582792936 -0.39808458213412251 0 -0.095126082777116427 -0.41368349424861611 0 -0.098096749582792936 -0.39808458213412251 0 -0.08437899231643009 -0.39663095063946119 0 -0.096338444304653548 -0.38515970370636438 0 -0.098096749582792936 -0.39808458213412251 0 -0.08437899231643009 -0.39663095063946119 0 -0.086920980452708518 -0.37053390809105508 0 -0.08437899231643009 -0.39663095063946119 0 -0.07887246609233356 -0.38180927860457609 0 -0.086920980452708518 -0.37053390809105508 0 -0.08437899231643009 -0.39663095063946119 0 -0.086920980452708518 -0.37053390809105508 0 -0.096338444304653548 -0.38515970370636438 0 -0.08437899231643009 -0.39663095063946119 0 -0.074185126376287852 -0.36967509387154418 0 -0.061650827460071958 -0.37776449475139789 0 -0.070004765223907819 -0.39039716181624412 0 -0.074185126376287852 -0.36967509387154418 0 -0.07887246609233356 -0.38180927860457609 0 -0.070004765223907819 -0.39039716181624412 0 -0.074185126376287852 -0.36967509387154418 0 -0.070004765223907819 -0.39039716181624412 0 -0.08437899231643009 -0.39663095063946119 0 -0.07887246609233356 -0.38180927860457609 0 -0.070004765223907819 -0.39039716181624412 0 -0.057496383236626203 -0.38939953280923628 0 -0.061650827460071958 -0.37776449475139789 0 -0.070004765223907819 -0.39039716181624412 0 -0.057496383236626203 -0.38939953280923628 0 -0.070004765223907819 -0.39039716181624412 0 -0.065824404071532616 -0.41111922976094489 0 -0.08437899231643009 -0.39663095063946119 0 -0.070004765223907819 -0.39039716181624412 0 -0.065824404071532616 -0.41111922976094489 0 -0.070004765223907819 -0.39039716181624412 0 -0.065824404071532616 -0.41111922976094489 0 -0.065824404071532616 -0.41111922976094489 0 -0.08183700418015516 -0.4227279931878678 0 -0.064808544909579657 -0.41615484793096769 0 -0.081509876295859041 -0.42608641575214518 0 -0.064808544909579657 -0.41615484793096769 0 -0.08183700418015516 -0.4227279931878678 0 -0.081509876295859041 -0.42608641575214518 0 -0.065824404071532616 -0.41111922976094489 0 -0.064808544909579657 -0.41615484793096769 0 -0.08183700418015516 -0.4227279931878678 0 -0.08437899231643009 -0.39663095063946119 0 -0.065824404071532616 -0.41111922976094489 0 -0.08183700418015516 -0.4227279931878678 0 -0.065824404071532616 -0.41111922976094489 0 -0.064808544909579657 -0.41615484793096769 0 -0.059170384705036869 -0.44410323195397688 0 -0.064808544909579657 -0.41615484793096769 0 -0.081509876295859041 -0.42608641575214518 0 -0.095468695855318433 -0.43261065326132342 0 -0.095126082777116427 -0.41368349424861611 0 -0.08183700418015516 -0.4227279931878678 0 -0.079110020016883859 -0.45072427716809882 0 -0.095305131913166599 -0.43428986454346841 0 -0.081509876295859041 -0.42608641575214518 0 -0.08183700418015516 -0.4227279931878678 0 -0.081509876295859041 -0.42608641575214518 0 -0.095305131913166599 -0.43428986454346841 0 -0.095468695855318433 -0.43261065326132342 0 -0.081509876295859041 -0.42608641575214518 0 -0.095305131913166599 -0.43428986454346841 0 -0.081509876295859041 -0.42608641575214518 0 -0.095468695855318433 -0.43261065326132342 0 -0.08183700418015516 -0.4227279931878678 0 -0.081509876295859041 -0.42608641575214518 0 -0.095468695855318433 -0.43261065326132342 0 -0.08183700418015516 -0.4227279931878678 0 -0.08437899231643009 -0.39663095063946119 0 -0.08183700418015516 -0.4227279931878678 0 -0.095126082777116427 -0.41368349424861611 0 -0.08437899231643009 -0.39663095063946119 0 -0.08183700418015516 -0.4227279931878678 0 -0.087961402494441704 -0.086500428379449101 0 -0.070075941313342438 -0.083726543645775073 0 -0.076948692228584831 -0.098460306332484787 0 -0.087961402494441704 -0.086500428379449101 0 -0.083767187507549995 -0.06481735130141901 0 -0.070075941313342438 -0.083726543645775073 0 -0.087961402494441704 -0.086500428379449101 0 -0.070075941313342438 -0.083726543645775073 0 -0.087961402494441704 -0.086500428379449101 0 -0.087639262845735422 -0.097278183261884921 0 -0.096363889663220875 -0.09607238484248562 0 -0.087961402494441704 -0.086500428379449101 0 -0.096363889663220875 -0.09607238484248562 0 -0.096381497996848739 -0.08134425063638856 0 -0.087961402494441704 -0.086500428379449101 0 -0.083767187507549995 -0.06481735130141901 0 -0.096381497996848739 -0.08134425063638856 0 -0.083767187507549995 -0.06481735130141901 0 -0.096381497996848739 -0.08134425063638856 0 -0.083767187507549995 -0.06481735130141901 0 -0.096381497996848739 -0.08134425063638856 0 -0.096375535474321677 -0.079687002069074017 0 -0.083767187507549995 -0.06481735130141901 0 -0.096375535474321677 -0.079687002069074017 0 -0.097957114600540879 -0.065565649830007386 0 -0.083767187507549995 -0.06481735130141901 0 -0.070075941313342438 -0.083726543645775073 0 -0.083767187507549995 -0.06481735130141901 0 -0.070075941313342438 -0.083726543645775073 0 -0.062303790000144153 -0.065697019804546425 0 -0.070075941313342438 -0.083726543645775073 0 -0.056576234466988243 -0.1023711980277994 0 -0.070075941313342438 -0.083726543645775073 0 -0.076948692228584831 -0.098460306332484787 0 -0.056576234466988243 -0.1023711980277994 0 -0.076948692228584831 -0.098460306332484787 0 -0.07728096765399535 -0.1115262408934171 0 -0.056576234466988243 -0.1023711980277994 0 -0.056576234466988243 -0.1023711980277994 0 -0.074673213010391343 -0.12550637003487361 0 -0.060167275557391153 -0.1185355675063557 0 -0.056576234466988243 -0.1023711980277994 0 -0.074673213010391343 -0.12550637003487361 0 -0.07728096765399535 -0.1115262408934171 0 -0.056576234466988243 -0.1023711980277994 0 -0.074673213010391343 -0.12550637003487361 0 -0.060167275557391153 -0.1185355675063557 0 -0.074673213010391343 -0.12550637003487361 0 -0.065613179181117698 -0.1303470642693462 0 -0.07728096765399535 -0.1115262408934171 0 -0.089101494505283665 -0.12100450891030209 0 -0.074673213010391343 -0.12550637003487361 0 -0.07728096765399535 -0.1115262408934171 0 -0.089101494505283665 -0.12100450891030209 0 -0.089283066996694346 -0.1080796134931203 0 -0.089101494505283665 -0.12100450891030209 0 -0.089283066996694346 -0.1080796134931203 0 -0.102149265395751 -0.1110699179469531 0 -0.076948692228584831 -0.098460306332484787 0 -0.089283066996694346 -0.1080796134931203 0 -0.087639262845735422 -0.097278183261884921 0 -0.087961402494441704 -0.086500428379449101 0 -0.076948692228584831 -0.098460306332484787 0 -0.087639262845735422 -0.097278183261884921 0 -0.076948692228584831 -0.098460306332484787 0 -0.07728096765399535 -0.1115262408934171 0 -0.089283066996694346 -0.1080796134931203 0 -0.089283066996694346 -0.1080796134931203 0 -0.087639262845735422 -0.097278183261884921 0 -0.096363889663220875 -0.09607238484248562 0 -0.089283066996694346 -0.1080796134931203 0 -0.096363889663220875 -0.09607238484248562 0 -0.102149265395751 -0.1110699179469531 0 -0.096363889663220875 -0.09607238484248562 0 -0.10899580848614759 -0.097871149971358179 0 -0.102149265395751 -0.1110699179469531 0 -0.102149265395751 -0.1110699179469531 0 -0.12161011897544639 -0.1143980493063277 0 -0.1028934165763854 -0.12684356447062309 0 -0.089101494505283665 -0.12100450891030209 0 -0.102149265395751 -0.1110699179469531 0 -0.1028934165763854 -0.12684356447062309 0 -0.10899580848614759 -0.097871149971358179 0 -0.12161011897544639 -0.1143980493063277 0 -0.10899580848614759 -0.097871149971358179 0 -0.12161011897544639 -0.1143980493063277 0 -0.12767639917558171 -0.095214282378036696 0 -0.10899580848614759 -0.097871149971358179 0 -0.102149265395751 -0.1110699179469531 0 -0.12161011897544639 -0.1143980493063277 0 -0.10899580848614759 -0.097871149971358179 0 -0.1132605409186659 -0.080905517023447962 0 -0.12767639917558171 -0.095214282378036696 0 -0.10899580848614759 -0.097871149971358179 0 -0.1132605409186659 -0.080905517023447962 0 -0.096381497996848739 -0.08134425063638856 0 -0.1132605409186659 -0.080905517023447962 0 -0.096381497996848739 -0.08134425063638856 0 -0.096375535474321677 -0.079687002069074017 0 -0.096363889663220875 -0.09607238484248562 0 -0.10899580848614759 -0.097871149971358179 0 -0.096381497996848739 -0.08134425063638856 0 -0.10899580848614759 -0.097871149971358179 0 -0.096381497996848739 -0.08134425063638856 0 -0.096375535474321677 -0.079687002069074017 0 -0.097957114600540879 -0.065565649830007386 0 -0.1118173875218271 -0.062434066182754072 0 -0.096375535474321677 -0.079687002069074017 0 -0.1118173875218271 -0.062434066182754072 0 -0.1132605409186659 -0.080905517023447962 0 -0.096375535474321677 -0.079687002069074017 0 -0.1118173875218271 -0.062434066182754072 0 -0.1132605409186659 -0.080905517023447962 0 -0.1118173875218271 -0.062434066182754072 0 -0.13994822908535109 -0.070361261062693692 0 -0.1118173875218271 -0.062434066182754072 0 -0.10780780904571791 -0.049880520796298948 0 -0.12725923956933161 -0.045181130296433343 0 -0.1118173875218271 -0.062434066182754072 0 -0.12725923956933161 -0.045181130296433343 0 -0.1047870900423291 -0.03578643808491877 0 -0.10780780904571791 -0.049880520796298948 0 -0.12725923956933161 -0.045181130296433343 0 -0.1047870900423291 -0.03578643808491877 0 -0.11495211715658139 -0.02075877961845643 0 -0.12725923956933161 -0.045181130296433343 0 -0.11495211715658139 -0.02075877961845643 0 -0.12725923956933161 -0.045181130296433343 0 -0.1047870900423291 -0.03578643808491877 0 -0.094277138774939609 -0.050301894693168918 0 -0.087713736766911077 -0.034266285003381539 0 -0.1047870900423291 -0.03578643808491877 0 -0.094277138774939609 -0.050301894693168918 0 -0.10780780904571791 -0.049880520796298948 0 -0.1047870900423291 -0.03578643808491877 0 -0.094277138774939609 -0.050301894693168918 0 -0.097957114600540879 -0.065565649830007386 0 -0.1118173875218271 -0.062434066182754072 0 -0.10780780904571791 -0.049880520796298948 0 -0.097957114600540879 -0.065565649830007386 0 -0.094277138774939609 -0.050301894693168918 0 -0.10780780904571791 -0.049880520796298948 0 -0.1203328952813548 -0.0044339126386656706 0 -0.11495211715658139 -0.02075877961845643 0 -0.1308871796528614 -0.016470598670949719 0 -0.1203328952813548 -0.0044339126386656706 0 -0.11495211715658139 -0.02075877961845643 0 -0.1026449947438315 0.003663571059520726 0 -0.11495211715658139 -0.02075877961845643 0 -0.1308871796528614 -0.016470598670949719 0 -0.12725923956933161 -0.045181130296433343 0 -0.1047870900423291 -0.03578643808491877 0 -0.096694079607189592 -0.019677198183491031 0 -0.087713736766911077 -0.034266285003381539 0 -0.1047870900423291 -0.03578643808491877 0 -0.11495211715658139 -0.02075877961845643 0 -0.096694079607189592 -0.019677198183491031 0 -0.096694079607189592 -0.019677198183491031 0 -0.08597795090394926 -0.0076000302298698573 0 -0.1026449947438315 0.003663571059520726 0 -0.11495211715658139 -0.02075877961845643 0 -0.1026449947438315 0.003663571059520726 0 -0.11495211715658139 -0.02075877961845643 0 -0.096694079607189592 -0.019677198183491031 0 -0.1026449947438315 0.003663571059520726 0 -0.096694079607189592 -0.019677198183491031 0 -0.08597795090394926 -0.0076000302298698573 0 -0.07717408885708503 -0.021215427080197032 0 -0.096694079607189592 -0.019677198183491031 0 -0.07717408885708503 -0.021215427080197032 0 -0.087713736766911077 -0.034266285003381539 0 -0.07717408885708503 -0.021215427080197032 0 -0.087713736766911077 -0.034266285003381539 0 -0.074907118569077058 -0.034531998756287062 0 -0.063595575676258759 -0.02966348765871105 0 -0.0690357512981494 -0.0069628791447860954 0 -0.063595575676258759 -0.02966348765871105 0 -0.07717408885708503 -0.021215427080197032 0 -0.0690357512981494 -0.0069628791447860954 0 -0.063595575676258759 -0.02966348765871105 0 -0.07717408885708503 -0.021215427080197032 0 -0.074907118569077058 -0.034531998756287062 0 -0.08597795090394926 -0.0076000302298698573 0 -0.07717408885708503 -0.021215427080197032 0 -0.0690357512981494 -0.0069628791447860954 0 -0.083767187507549995 -0.06481735130141901 0 -0.094277138774939609 -0.050301894693168918 0 -0.081318823275986107 -0.04530567689386078 0 -0.083767187507549995 -0.06481735130141901 0 -0.094277138774939609 -0.050301894693168918 0 -0.083767187507549995 -0.06481735130141901 0 -0.097957114600540879 -0.065565649830007386 0 -0.094277138774939609 -0.050301894693168918 0 -0.094277138774939609 -0.050301894693168918 0 -0.087713736766911077 -0.034266285003381539 0 -0.081318823275986107 -0.04530567689386078 0 -0.087713736766911077 -0.034266285003381539 0 -0.081318823275986107 -0.04530567689386078 0 -0.074907118569077058 -0.034531998756287062 0 -0.063595575676258759 -0.02966348765871105 0 -0.067124501253761348 -0.043012592284809879 0 -0.058155400054368103 -0.052364096172636043 0 -0.081318823275986107 -0.04530567689386078 0 -0.074907118569077058 -0.034531998756287062 0 -0.067124501253761348 -0.043012592284809879 0 -0.063595575676258759 -0.02966348765871105 0 -0.074907118569077058 -0.034531998756287062 0 -0.067124501253761348 -0.043012592284809879 0 -0.067124501253761348 -0.043012592284809879 0 -0.058155400054368103 -0.052364096172636043 0 -0.062303790000144153 -0.065697019804546425 0 -0.083767187507549995 -0.06481735130141901 0 -0.067124501253761348 -0.043012592284809879 0 -0.062303790000144153 -0.065697019804546425 0 -0.083767187507549995 -0.06481735130141901 0 -0.067124501253761348 -0.043012592284809879 0 -0.083767187507549995 -0.06481735130141901 0 -0.081318823275986107 -0.04530567689386078 0 -0.067124501253761348 -0.043012592284809879 0 -0.05122599759396116 -0.060844501720188682 0 -0.058155400054368103 -0.052364096172636043 0 -0.062303790000144153 -0.065697019804546425 0 -0.05122599759396116 -0.060844501720188682 0 -0.058155400054368103 -0.052364096172636043 0 -0.046126091915921229 -0.050876359607988697 0 -0.063595575676258759 -0.02966348765871105 0 -0.058155400054368103 -0.052364096172636043 0 -0.063595575676258759 -0.02966348765871105 0 -0.058155400054368103 -0.052364096172636043 0 -0.045430581072266503 -0.037312437153911721 0 -0.058155400054368103 -0.052364096172636043 0 -0.045430581072266503 -0.037312437153911721 0 -0.046126091915921229 -0.050876359607988697 0 -0.045430581072266503 -0.037312437153911721 0 -0.03555395045377284 -0.025273813134376599 0 -0.02580092391809222 -0.039087265977424811 0 -0.045430581072266503 -0.037312437153911721 0 -0.0355481683296065 -0.052278730005823892 0 -0.02580092391809222 -0.039087265977424811 0 -0.045430581072266503 -0.037312437153911721 0 -0.0355481683296065 -0.052278730005823892 0 -0.046126091915921229 -0.050876359607988697 0 -0.0355481683296065 -0.052278730005823892 0 -0.025982740091705619 -0.063260483884413021 0 -0.0411782957374466 -0.063395051635484936 0 -0.05122599759396116 -0.060844501720188682 0 -0.046126091915921229 -0.050876359607988697 0 -0.0411782957374466 -0.063395051635484936 0 -0.0355481683296065 -0.052278730005823892 0 -0.046126091915921229 -0.050876359607988697 0 -0.0411782957374466 -0.063395051635484936 0 -0.0690357512981494 -0.0069628791447860954 0 -0.050756340277634988 -0.022422455442903829 0 -0.04051248678685327 -0.0091701030098075009 0 -0.0690357512981494 -0.0069628791447860954 0 -0.04051248678685327 -0.0091701030098075009 0 -0.054143937104984843 0.0086080978698742146 0 -0.063595575676258759 -0.02966348765871105 0 -0.0690357512981494 -0.0069628791447860954 0 -0.050756340277634988 -0.022422455442903829 0 -0.063595575676258759 -0.02966348765871105 0 -0.045430581072266503 -0.037312437153911721 0 -0.050756340277634988 -0.022422455442903829 0 -0.050756340277634988 -0.022422455442903829 0 -0.03555395045377284 -0.025273813134376599 0 -0.04051248678685327 -0.0091701030098075009 0 -0.045430581072266503 -0.037312437153911721 0 -0.050756340277634988 -0.022422455442903829 0 -0.03555395045377284 -0.025273813134376599 0 -0.04051248678685327 -0.0091701030098075009 0 -0.036671200689271023 0.0057763915615372261 0 -0.02165275992836839 0.0022290584850298968 0 -0.04051248678685327 -0.0091701030098075009 0 -0.01431435690640225 -0.01483652694504059 0 -0.02165275992836839 0.0022290584850298968 0 -0.03555395045377284 -0.025273813134376599 0 -0.04051248678685327 -0.0091701030098075009 0 -0.01431435690640225 -0.01483652694504059 0 -0.03555395045377284 -0.025273813134376599 0 -0.01431435690640225 -0.01483652694504059 0 -0.02580092391809222 -0.039087265977424811 0 -0.01431435690640225 -0.01483652694504059 0 -0.02580092391809222 -0.039087265977424811 0 -0.0072972502983304158 -0.034748904429526939 0 -0.01431435690640225 -0.01483652694504059 0 -0.02580092391809222 -0.039087265977424811 0 -0.01431435690640225 -0.01483652694504059 0 -0.0072972502983304158 -0.034748904429526939 0 0.00087121664655170873 -0.021536788382980631 0 -0.01431435690640225 -0.01483652694504059 0 -3.0483325887532769e-05 -0.0080437905340390685 0 -0.002827789894712216 0.0094142120873437173 0 -0.01431435690640225 -0.01483652694504059 0 -0.002827789894712216 0.0094142120873437173 0 -0.01431435690640225 -0.01483652694504059 0 -0.02165275992836839 0.0022290584850298968 0 -0.002827789894712216 0.0094142120873437173 0 -0.01431435690640225 -0.01483652694504059 0 -3.0483325887532769e-05 -0.0080437905340390685 0 0.00087121664655170873 -0.021536788382980631 0 -0.0355481683296065 -0.052278730005823892 0 -0.02580092391809222 -0.039087265977424811 0 -0.025982740091705619 -0.063260483884413021 0 -0.02580092391809222 -0.039087265977424811 0 -0.0055195432453418224 -0.053805599270284499 0 -0.025982740091705619 -0.063260483884413021 0 -0.0072972502983304158 -0.034748904429526939 0 -0.0055195432453418224 -0.053805599270284499 0 0.011289282780618861 -0.038717292824338147 0 -0.02580092391809222 -0.039087265977424811 0 -0.0072972502983304158 -0.034748904429526939 0 -0.0055195432453418224 -0.053805599270284499 0 -0.0055195432453418224 -0.053805599270284499 0 -0.0131751722637299 -0.074901712516008967 0 -0.025982740091705619 -0.063260483884413021 0 -0.0131751722637299 -0.074901712516008967 0 0.0013718725137959219 -0.084861861412949505 0 0.01176404020682973 -0.071033850231580098 0 -0.0055195432453418224 -0.053805599270284499 0 -0.0131751722637299 -0.074901712516008967 0 0.01176404020682973 -0.071033850231580098 0 -0.0131751722637299 -0.074901712516008967 0 0.01176404020682973 -0.071033850231580098 0 -0.01224364479170121 -0.086657070136444719 0 -0.023668817968797651 -0.089576247090457264 0 -0.007422044297151445 -0.097418498707338014 0 -0.01224364479170121 -0.086657070136444719 0 -0.007422044297151445 -0.097418498707338014 0 0.0013718725137959219 -0.084861861412949505 0 -0.0131751722637299 -0.074901712516008967 0 -0.01224364479170121 -0.086657070136444719 0 0.0013718725137959219 -0.084861861412949505 0 -0.0131751722637299 -0.074901712516008967 0 -0.023668817968797651 -0.089576247090457264 0 -0.038114384734289512 -0.078769574800437642 0 -0.0131751722637299 -0.074901712516008967 0 -0.01224364479170121 -0.086657070136444719 0 -0.023668817968797651 -0.089576247090457264 0 -0.0131751722637299 -0.074901712516008967 0 -0.038114384734289512 -0.078769574800437642 0 -0.0131751722637299 -0.074901712516008967 0 -0.025982740091705619 -0.063260483884413021 0 -0.038114384734289512 -0.078769574800437642 0 -0.025982740091705619 -0.063260483884413021 0 -0.0411782957374466 -0.063395051635484936 0 -0.038114384734289512 -0.078769574800437642 0 -0.0411782957374466 -0.063395051635484936 0 -0.038114384734289512 -0.078769574800437642 0 -0.049092921659072718 -0.070533452849191117 0 -0.025982740091705619 -0.063260483884413021 0 -0.038114384734289512 -0.078769574800437642 0 -0.038114384734289512 -0.078769574800437642 0 -0.056576234466988243 -0.1023711980277994 0 -0.037864262799270708 -0.099461868015171068 0 -0.023668817968797651 -0.089576247090457264 0 -0.038114384734289512 -0.078769574800437642 0 -0.037864262799270708 -0.099461868015171068 0 -0.038114384734289512 -0.078769574800437642 0 -0.054095163023816152 -0.081248059223105434 0 -0.070075941313342438 -0.083726543645775073 0 -0.054095163023816152 -0.081248059223105434 0 -0.056576234466988243 -0.1023711980277994 0 -0.070075941313342438 -0.083726543645775073 0 -0.054095163023816152 -0.081248059223105434 0 -0.038114384734289512 -0.078769574800437642 0 -0.056576234466988243 -0.1023711980277994 0 -0.038114384734289512 -0.078769574800437642 0 -0.054095163023816152 -0.081248059223105434 0 -0.056576234466988243 -0.1023711980277994 0 -0.054095163023816152 -0.081248059223105434 0 -0.062303790000144153 -0.065697019804546425 0 -0.049092921659072718 -0.070533452849191117 0 -0.038114384734289512 -0.078769574800437642 0 -0.054095163023816152 -0.081248059223105434 0 -0.049092921659072718 -0.070533452849191117 0 -0.070075941313342438 -0.083726543645775073 0 -0.054095163023816152 -0.081248059223105434 0 -0.062303790000144153 -0.065697019804546425 0 -0.05122599759396116 -0.060844501720188682 0 -0.062303790000144153 -0.065697019804546425 0 -0.049092921659072718 -0.070533452849191117 0 -0.05122599759396116 -0.060844501720188682 0 -0.0411782957374466 -0.063395051635484936 0 -0.049092921659072718 -0.070533452849191117 0 -0.056576234466988243 -0.1023711980277994 0 -0.044833903118468119 -0.1185887138689969 0 -0.060167275557391153 -0.1185355675063557 0 -0.056576234466988243 -0.1023711980277994 0 -0.044833903118468119 -0.1185887138689969 0 -0.044833903118468119 -0.1185887138689969 0 -0.065613179181117698 -0.1303470642693462 0 -0.060167275557391153 -0.1185355675063557 0 -0.044833903118468119 -0.1185887138689969 0 -0.065613179181117698 -0.1303470642693462 0 -0.037864262799270708 -0.099461868015171068 0 -0.044833903118468119 -0.1185887138689969 0 -0.0261279737078111 -0.1080036062881651 0 -0.056576234466988243 -0.1023711980277994 0 -0.037864262799270708 -0.099461868015171068 0 -0.044833903118468119 -0.1185887138689969 0 -0.044833903118468119 -0.1185887138689969 0 -0.0261279737078111 -0.1080036062881651 0 -0.044833903118468119 -0.1185887138689969 0 -0.029149457069571259 -0.1222194372970743 0 -0.0261279737078111 -0.1080036062881651 0 -0.0261279737078111 -0.1080036062881651 0 -0.0097176083517210351 -0.10937394875132909 0 -0.01496725314324907 -0.1211223232700802 0 -0.029149457069571259 -0.1222194372970743 0 -0.0261279737078111 -0.1080036062881651 0 -0.01496725314324907 -0.1211223232700802 0 -0.0261279737078111 -0.1080036062881651 0 -0.007422044297151445 -0.097418498707338014 0 -0.023668817968797651 -0.089576247090457264 0 -0.037864262799270708 -0.099461868015171068 0 -0.0261279737078111 -0.1080036062881651 0 -0.023668817968797651 -0.089576247090457264 0 -0.0261279737078111 -0.1080036062881651 0 -0.007422044297151445 -0.097418498707338014 0 -0.0261279737078111 -0.1080036062881651 0 -0.0097176083517210351 -0.10937394875132909 0 -0.007422044297151445 -0.097418498707338014 0 -0.0097176083517210351 -0.10937394875132909 0 -0.003750020310441117 -0.10389913432191671 0 -0.007422044297151445 -0.097418498707338014 0 -0.0097176083517210351 -0.10937394875132909 0 -0.003750020310441117 -0.10389913432191671 0 -0.0015245481095283991 -0.1098675185925166 0 -0.003750020310441117 -0.10389913432191671 0 -0.0015245481095283991 -0.1098675185925166 0 0.0030192891058982152 -0.1002006070164069 0 -0.007422044297151445 -0.097418498707338014 0 0.0030192891058982152 -0.1002006070164069 0 0.0013718725137959219 -0.084861861412949505 0 -0.003750020310441117 -0.10389913432191671 0 -0.007422044297151445 -0.097418498707338014 0 0.0030192891058982152 -0.1002006070164069 0 -0.0097176083517210351 -0.10937394875132909 0 -0.01496725314324907 -0.1211223232700802 0 -0.0049168295488564526 -0.11672263369041069 0 -0.0097176083517210351 -0.10937394875132909 0 -0.0049168295488564526 -0.11672263369041069 0 -0.0015245481095283991 -0.1098675185925166 0 -0.0049168295488564526 -0.11672263369041069 0 -0.0015245481095283991 -0.1098675185925166 0 0.0011804868638339221 -0.1150632320095166 0 -0.01496725314324907 -0.1211223232700802 0 -0.0049168295488564526 -0.11672263369041069 0 -0.002867853252260967 -0.124711792585839 0 -0.0049168295488564526 -0.11672263369041069 0 -0.002867853252260967 -0.124711792585839 0 0.0022235697328065532 -0.12005553949821809 0 -0.0049168295488564526 -0.11672263369041069 0 0.0022235697328065532 -0.12005553949821809 0 0.0011804868638339221 -0.1150632320095166 0 -0.002867853252260967 -0.124711792585839 0 -0.0058812764280807492 -0.13747873212161871 0 0.0026997577518843752 -0.13067008757766649 0 -0.01496725314324907 -0.1211223232700802 0 -0.002867853252260967 -0.124711792585839 0 -0.0058812764280807492 -0.13747873212161871 0 -0.029149457069571259 -0.1222194372970743 0 -0.01496725314324907 -0.1211223232700802 0 -0.029077129694826769 -0.14035063788729121 0 -0.01496725314324907 -0.1211223232700802 0 -0.0058812764280807492 -0.13747873212161871 0 -0.029077129694826769 -0.14035063788729121 0 -0.029077129694826769 -0.14035063788729121 0 -0.013320356271184891 -0.16211256190558529 0 -0.037274984665554553 -0.1605274349938996 0 -0.0058812764280807492 -0.13747873212161871 0 -0.029077129694826769 -0.14035063788729121 0 -0.013320356271184891 -0.16211256190558529 0 -0.029077129694826769 -0.14035063788729121 0 -0.013320356271184891 -0.16211256190558529 0 -0.0058812764280807492 -0.13747873212161871 0 -0.013320356271184891 -0.16211256190558529 0 0.0015128397872320701 -0.1492119739186559 0 -0.013320356271184891 -0.16211256190558529 0 0.0067519459956744054 -0.1627814159684321 0 0.0015128397872320701 -0.1492119739186559 0 -0.013320356271184891 -0.16211256190558529 0 0.0067519459956744054 -0.1627814159684321 0 0.0024364171524568871 -0.1838744859238792 0 -0.013320356271184891 -0.16211256190558529 0 -0.01635033696382834 -0.1900480636531677 0 0.0024364171524568871 -0.1838744859238792 0 -0.013320356271184891 -0.16211256190558529 0 0.0024364171524568871 -0.1838744859238792 0 -0.013320356271184891 -0.16211256190558529 0 -0.032583449702560538 -0.17920759470112341 0 -0.01635033696382834 -0.1900480636531677 0 -0.013320356271184891 -0.16211256190558529 0 -0.037274984665554553 -0.1605274349938996 0 -0.032583449702560538 -0.17920759470112341 0 -0.037274984665554553 -0.1605274349938996 0 -0.032583449702560538 -0.17920759470112341 0 -0.056961293078948289 -0.17386626017156301 0 -0.037274984665554553 -0.1605274349938996 0 -0.056961293078948289 -0.17386626017156301 0 -0.049260244619565553 -0.1423433344817184 0 -0.032583449702560538 -0.17920759470112341 0 -0.056961293078948289 -0.17386626017156301 0 -0.041528938941354579 -0.1962394779337755 0 -0.049260244619565553 -0.1423433344817184 0 -0.065613179181117698 -0.1303470642693462 0 -0.068935690494021179 -0.1509682654341451 0 -0.056961293078948289 -0.17386626017156301 0 -0.049260244619565553 -0.1423433344817184 0 -0.068935690494021179 -0.1509682654341451 0 -0.044833903118468119 -0.1185887138689969 0 -0.049260244619565553 -0.1423433344817184 0 -0.065613179181117698 -0.1303470642693462 0 -0.044833903118468119 -0.1185887138689969 0 -0.029077129694826769 -0.14035063788729121 0 -0.049260244619565553 -0.1423433344817184 0 -0.044833903118468119 -0.1185887138689969 0 -0.029149457069571259 -0.1222194372970743 0 -0.029077129694826769 -0.14035063788729121 0 -0.044833903118468119 -0.1185887138689969 0 -0.029077129694826769 -0.14035063788729121 0 -0.029077129694826769 -0.14035063788729121 0 -0.037274984665554553 -0.1605274349938996 0 -0.049260244619565553 -0.1423433344817184 0 -0.031594604406692657 -0.25700172888382072 0 -0.01788603194823192 -0.2494753129263366 0 -0.02439724643580991 -0.23331010287424339 0 -0.01788603194823192 -0.2494753129263366 0 -0.0027879324552719381 -0.24539863686431981 0 -0.02439724643580991 -0.23331010287424339 0 -0.0027879324552719381 -0.24539863686431981 0 -0.0098766684170926988 -0.22311394066580281 0 -0.02439724643580991 -0.23331010287424339 0 -0.0027879324552719381 -0.24539863686431981 0 -0.0098766684170926988 -0.22311394066580281 0 0.0077026290604160132 -0.22551752340324691 0 -0.0098766684170926988 -0.22311394066580281 0 -0.02439724643580991 -0.23331010287424339 0 -0.025914395233363471 -0.21095373540230181 0 -0.0098766684170926988 -0.22311394066580281 0 -0.025914395233363471 -0.21095373540230181 0 -0.0046935374609555604 -0.2061930603991465 0 -0.0098766684170926988 -0.22311394066580281 0 -0.0046935374609555604 -0.2061930603991465 0 0.0077026290604160132 -0.22551752340324691 0 -0.0046935374609555604 -0.2061930603991465 0 -0.01635033696382834 -0.1900480636531677 0 0.0024364171524568871 -0.1838744859238792 0 -0.032583449702560538 -0.17920759470112341 0 -0.01635033696382834 -0.1900480636531677 0 -0.041528938941354579 -0.1962394779337755 0 -0.025914395233363471 -0.21095373540230181 0 -0.01635033696382834 -0.1900480636531677 0 -0.041528938941354579 -0.1962394779337755 0 -0.025914395233363471 -0.21095373540230181 0 -0.0046935374609555604 -0.2061930603991465 0 -0.01635033696382834 -0.1900480636531677 0 -0.056961293078948289 -0.17386626017156301 0 -0.041528938941354579 -0.1962394779337755 0 -0.060916082165128602 -0.1991955957986373 0 -0.041528938941354579 -0.1962394779337755 0 -0.060916082165128602 -0.1991955957986373 0 -0.050304332119699723 -0.2175006884964677 0 -0.025914395233363471 -0.21095373540230181 0 -0.041528938941354579 -0.1962394779337755 0 -0.050304332119699723 -0.2175006884964677 0 -0.02439724643580991 -0.23331010287424339 0 -0.050304332119699723 -0.2175006884964677 0 -0.05132256102027493 -0.24310343780616009 0 -0.02439724643580991 -0.23331010287424339 0 -0.025914395233363471 -0.21095373540230181 0 -0.050304332119699723 -0.2175006884964677 0 -0.050304332119699723 -0.2175006884964677 0 -0.05132256102027493 -0.24310343780616009 0 -0.071050517633857183 -0.22920514672849959 0 -0.05132256102027493 -0.24310343780616009 0 -0.071050517633857183 -0.22920514672849959 0 -0.066578389776785984 -0.26142320985948869 0 -0.05132256102027493 -0.24310343780616009 0 -0.067406794775839135 -0.24418288511786759 0 -0.031594604406692657 -0.25700172888382072 0 -0.02439724643580991 -0.23331010287424339 0 -0.05132256102027493 -0.24310343780616009 0 -0.097254442924579007 -0.26444654837757708 0 -0.081401658111284914 -0.24466263126014121 0 -0.09996194098761424 -0.23665031630931771 0 -0.081401658111284914 -0.24466263126014121 0 -0.087867173532627726 -0.22375960483317289 0 -0.09996194098761424 -0.23665031630931771 0 -0.05132256102027493 -0.24310343780616009 0 -0.067406794775839135 -0.24418288511786759 0 -0.071050517633857183 -0.22920514672849959 0 -0.081401658111284914 -0.24466263126014121 0 -0.067406794775839135 -0.24418288511786759 0 -0.071050517633857183 -0.22920514672849959 0 -0.050304332119699723 -0.2175006884964677 0 -0.071050517633857183 -0.22920514672849959 0 -0.076640238040206421 -0.2101064088117125 0 -0.081401658111284914 -0.24466263126014121 0 -0.071050517633857183 -0.22920514672849959 0 -0.087867173532627726 -0.22375960483317289 0 -0.071050517633857183 -0.22920514672849959 0 -0.087867173532627726 -0.22375960483317289 0 -0.076640238040206421 -0.2101064088117125 0 -0.087867173532627726 -0.22375960483317289 0 -0.076640238040206421 -0.2101064088117125 0 -0.1026694390506494 -0.20885408424105831 0 -0.060916082165128602 -0.1991955957986373 0 -0.050304332119699723 -0.2175006884964677 0 -0.076640238040206421 -0.2101064088117125 0 -0.056961293078948289 -0.17386626017156301 0 -0.060916082165128602 -0.1991955957986373 0 -0.081164486162264043 -0.18979796489165429 0 -0.060916082165128602 -0.1991955957986373 0 -0.076640238040206421 -0.2101064088117125 0 -0.081164486162264043 -0.18979796489165429 0 -0.076640238040206421 -0.2101064088117125 0 -0.081164486162264043 -0.18979796489165429 0 -0.1026694390506494 -0.20885408424105831 0 -0.1026694390506494 -0.20885408424105831 0 -0.10537693711368459 -0.18105785217279899 0 -0.081164486162264043 -0.18979796489165429 0 -0.1026694390506494 -0.20885408424105831 0 -0.10537693711368459 -0.18105785217279899 0 -0.1239705705065718 -0.2003253943144121 0 -0.1026694390506494 -0.20885408424105831 0 -0.10537693711368459 -0.18105785217279899 0 -0.1239705705065718 -0.2003253943144121 0 -0.1026694390506494 -0.20885408424105831 0 -0.1199485736304608 -0.22886648962252851 0 -0.1026694390506494 -0.20885408424105831 0 -0.1199485736304608 -0.22886648962252851 0 -0.09996194098761424 -0.23665031630931771 0 -0.1026694390506494 -0.20885408424105831 0 -0.09996194098761424 -0.23665031630931771 0 -0.087867173532627726 -0.22375960483317289 0 -0.1026694390506494 -0.20885408424105831 0 -0.09996194098761424 -0.23665031630931771 0 -0.11437414826144621 -0.25049231715679721 0 -0.1199485736304608 -0.22886648962252851 0 -0.09996194098761424 -0.23665031630931771 0 -0.11437414826144621 -0.25049231715679721 0 -0.1199485736304608 -0.22886648962252851 0 -0.13355881260256089 -0.2496977061671225 0 -0.086392455243764585 -0.14210541466970009 0 -0.084422927524966954 -0.16570758815415609 0 -0.1056879960141557 -0.15291930458211389 0 -0.086392455243764585 -0.14210541466970009 0 -0.068935690494021179 -0.1509682654341451 0 -0.084422927524966954 -0.16570758815415609 0 -0.089101494505283665 -0.12100450891030209 0 -0.086392455243764585 -0.14210541466970009 0 -0.1028934165763854 -0.12684356447062309 0 -0.089101494505283665 -0.12100450891030209 0 -0.086392455243764585 -0.14210541466970009 0 -0.074673213010391343 -0.12550637003487361 0 -0.086392455243764585 -0.14210541466970009 0 -0.065613179181117698 -0.1303470642693462 0 -0.086392455243764585 -0.14210541466970009 0 -0.074673213010391343 -0.12550637003487361 0 -0.065613179181117698 -0.1303470642693462 0 -0.086392455243764585 -0.14210541466970009 0 -0.065613179181117698 -0.1303470642693462 0 -0.068935690494021179 -0.1509682654341451 0 -0.056961293078948289 -0.17386626017156301 0 -0.068935690494021179 -0.1509682654341451 0 -0.084422927524966954 -0.16570758815415609 0 -0.056961293078948289 -0.17386626017156301 0 -0.081164486162264043 -0.18979796489165429 0 -0.084422927524966954 -0.16570758815415609 0 -0.081164486162264043 -0.18979796489165429 0 -0.084422927524966954 -0.16570758815415609 0 -0.10537693711368459 -0.18105785217279899 0 -0.084422927524966954 -0.16570758815415609 0 -0.10537693711368459 -0.18105785217279899 0 -0.1056879960141557 -0.15291930458211389 0 -0.1239705705065718 -0.2003253943144121 0 -0.10537693711368459 -0.18105785217279899 0 -0.1280661556913259 -0.1709879448821324 0 -0.10537693711368459 -0.18105785217279899 0 -0.1056879960141557 -0.15291930458211389 0 -0.1280661556913259 -0.1709879448821324 0 -0.1241035102962549 -0.1488124665458023 0 -0.1056879960141557 -0.15291930458211389 0 -0.1280661556913259 -0.1709879448821324 0 -0.1241035102962549 -0.1488124665458023 0 -0.1056879960141557 -0.15291930458211389 0 -0.117653585260247 -0.1353123826336235 0 -0.086392455243764585 -0.14210541466970009 0 -0.1056879960141557 -0.15291930458211389 0 -0.1028934165763854 -0.12684356447062309 0 -0.1056879960141557 -0.15291930458211389 0 -0.1028934165763854 -0.12684356447062309 0 -0.117653585260247 -0.1353123826336235 0 -0.12161011897544639 -0.1143980493063277 0 -0.117653585260247 -0.1353123826336235 0 -0.13397288443899269 -0.1335885282632506 0 -0.12161011897544639 -0.1143980493063277 0 -0.1028934165763854 -0.12684356447062309 0 -0.117653585260247 -0.1353123826336235 0 -0.1241035102962549 -0.1488124665458023 0 -0.117653585260247 -0.1353123826336235 0 -0.13397288443899269 -0.1335885282632506 0 -0.13397288443899269 -0.1335885282632506 0 -0.15905868006981611 -0.14022358826645809 0 -0.14238347132438051 -0.11563086419790421 0 -0.1402056809656306 -0.15168210142992999 0 -0.15298767155255161 -0.16657135195346581 0 -0.15905868006981611 -0.14022358826645809 0 -0.15298767155255161 -0.16657135195346581 0 -0.15905868006981611 -0.14022358826645809 0 -0.13397288443899269 -0.1335885282632506 0 -0.1402056809656306 -0.15168210142992999 0 -0.15905868006981611 -0.14022358826645809 0 -0.1241035102962549 -0.1488124665458023 0 -0.13397288443899269 -0.1335885282632506 0 -0.1402056809656306 -0.15168210142992999 0 -0.1402056809656306 -0.15168210142992999 0 -0.1280661556913259 -0.1709879448821324 0 -0.15298767155255161 -0.16657135195346581 0 -0.1241035102962549 -0.1488124665458023 0 -0.1402056809656306 -0.15168210142992999 0 -0.1280661556913259 -0.1709879448821324 0 -0.15298767155255161 -0.16657135195346581 0 -0.14691666303528719 -0.1929191156404734 0 -0.15298767155255161 -0.16657135195346581 0 -0.16495446390537599 -0.18320203838914051 0 -0.14691666303528719 -0.1929191156404734 0 -0.1280661556913259 -0.1709879448821324 0 -0.15298767155255161 -0.16657135195346581 0 -0.14691666303528719 -0.1929191156404734 0 -0.15298767155255161 -0.16657135195346581 0 -0.16495446390537599 -0.18320203838914051 0 -0.1773842602197058 -0.16147342872486159 0 -0.16495446390537599 -0.18320203838914051 0 -0.18488705326963789 -0.18618750428614089 0 -0.1773842602197058 -0.16147342872486159 0 -0.1773842602197058 -0.16147342872486159 0 -0.17951018254850981 -0.1396491989681411 0 -0.20046662441571661 -0.14657930116866469 0 -0.1773842602197058 -0.16147342872486159 0 -0.17951018254850981 -0.1396491989681411 0 -0.15905868006981611 -0.14022358826645809 0 -0.17951018254850981 -0.1396491989681411 0 -0.19304281467934639 -0.1243044362031622 0 -0.16512968858708049 -0.1138758245794506 0 -0.17951018254850981 -0.1396491989681411 0 -0.15905868006981611 -0.14022358826645809 0 -0.16512968858708049 -0.1138758245794506 0 -0.15905868006981611 -0.14022358826645809 0 -0.16512968858708049 -0.1138758245794506 0 -0.15298767155255161 -0.16657135195346581 0 -0.1773842602197058 -0.16147342872486159 0 -0.15905868006981611 -0.14022358826645809 0 -0.14084565451802281 -0.21926687932748101 0 -0.16857334917224809 -0.20704595331678491 0 -0.1574723052227173 -0.23960148641780851 0 -0.13355881260256089 -0.2496977061671225 0 -0.1574723052227173 -0.23960148641780851 0 -0.13355881260256089 -0.2496977061671225 0 -0.14084565451802281 -0.21926687932748101 0 -0.1574723052227173 -0.23960148641780851 0 -0.1199485736304608 -0.22886648962252851 0 -0.13355881260256089 -0.2496977061671225 0 -0.14084565451802281 -0.21926687932748101 0 -0.14084565451802281 -0.21926687932748101 0 -0.14691666303528719 -0.1929191156404734 0 -0.14084565451802281 -0.21926687932748101 0 -0.14691666303528719 -0.1929191156404734 0 -0.16857334917224809 -0.20704595331678491 0 -0.1239705705065718 -0.2003253943144121 0 -0.14084565451802281 -0.21926687932748101 0 -0.14691666303528719 -0.1929191156404734 0 -0.1239705705065718 -0.2003253943144121 0 -0.1199485736304608 -0.22886648962252851 0 -0.14084565451802281 -0.21926687932748101 0 -0.1239705705065718 -0.2003253943144121 0 -0.1280661556913259 -0.1709879448821324 0 -0.14691666303528719 -0.1929191156404734 0 -0.16495446390537599 -0.18320203838914051 0 -0.14691666303528719 -0.1929191156404734 0 -0.16857334917224809 -0.20704595331678491 0 -0.18488705326963789 -0.18618750428614089 0 -0.16857334917224809 -0.20704595331678491 0 -0.1889798730131336 -0.20715689860868261 0 -0.16495446390537599 -0.18320203838914051 0 -0.18488705326963789 -0.18618750428614089 0 -0.16857334917224809 -0.20704595331678491 0 -0.16857334917224809 -0.20704595331678491 0 -0.18138579784287381 -0.22950526666849441 0 -0.1889798730131336 -0.20715689860868261 0 -0.16857334917224809 -0.20704595331678491 0 -0.18138579784287381 -0.22950526666849441 0 -0.1574723052227173 -0.23960148641780851 0 -0.18174050912316109 -0.25437182043704609 0 -0.18138579784287381 -0.22950526666849441 0 -0.1574723052227173 -0.23960148641780851 0 -0.18138579784287381 -0.22950526666849441 0 -0.1574723052227173 -0.23960148641780851 0 -0.21930230117124799 -0.25295044087590401 0 -0.2075298900228397 -0.23862318425924861 0 -0.22672497109612619 -0.23623414455485209 0 -0.21930230117124799 -0.25295044087590401 0 -0.201941962032301 -0.25777820069528129 0 -0.2075298900228397 -0.23862318425924861 0 -0.18174050912316109 -0.25437182043704609 0 -0.18138579784287381 -0.22950526666849441 0 -0.2075298900228397 -0.23862318425924861 0 -0.18138579784287381 -0.22950526666849441 0 -0.20529929046303019 -0.21940904691918039 0 -0.18138579784287381 -0.22950526666849441 0 -0.2075298900228397 -0.23862318425924861 0 -0.20529929046303019 -0.21940904691918039 0 -0.2075298900228397 -0.23862318425924861 0 -0.20529929046303019 -0.21940904691918039 0 -0.22672497109612619 -0.23623414455485209 0 -0.20529929046303019 -0.21940904691918039 0 -0.20907371647745951 -0.1920646474351001 0 -0.2288699898506357 -0.20569333232027201 0 -0.18138579784287381 -0.22950526666849441 0 -0.20529929046303019 -0.21940904691918039 0 -0.1889798730131336 -0.20715689860868261 0 -0.20529929046303019 -0.21940904691918039 0 -0.1889798730131336 -0.20715689860868261 0 -0.20907371647745951 -0.1920646474351001 0 -0.18488705326963789 -0.18618750428614089 0 -0.1889798730131336 -0.20715689860868261 0 -0.20907371647745951 -0.1920646474351001 0 -0.20907371647745951 -0.1920646474351001 0 -0.2288699898506357 -0.20569333232027201 0 -0.23070678941040901 -0.1866295773046984 0 -0.2288699898506357 -0.20569333232027201 0 -0.23070678941040901 -0.1866295773046984 0 -0.25209658637131283 -0.19166369008343151 0 -0.2288699898506357 -0.20569333232027201 0 -0.25058635712221711 -0.2189374614689433 0 -0.25209658637131283 -0.19166369008343151 0 -0.20529929046303019 -0.21940904691918039 0 -0.2288699898506357 -0.20569333232027201 0 -0.22672497109612619 -0.23623414455485209 0 -0.2288699898506357 -0.20569333232027201 0 -0.22672497109612619 -0.23623414455485209 0 -0.25058635712221711 -0.2189374614689433 0 -0.23411881780064081 -0.26067207465961989 0 -0.22672497109612619 -0.23623414455485209 0 -0.25346419334368148 -0.24821555279875021 0 -0.22672497109612619 -0.23623414455485209 0 -0.25346419334368148 -0.24821555279875021 0 -0.25058635712221711 -0.2189374614689433 0 -0.21930230117124799 -0.25295044087590401 0 -0.23411881780064081 -0.26067207465961989 0 -0.22672497109612619 -0.23623414455485209 0 -0.21607095680350999 -0.14434609997719239 0 -0.20046662441571661 -0.14657930116866469 0 -0.21337044663761509 -0.1571064476685694 0 -0.21607095680350999 -0.14434609997719239 0 -0.21048048439836151 -0.1303445953140262 0 -0.2253312149575965 -0.13416461095830989 0 -0.21607095680350999 -0.14434609997719239 0 -0.21048048439836151 -0.1303445953140262 0 -0.20046662441571661 -0.14657930116866469 0 -0.17951018254850981 -0.1396491989681411 0 -0.20046662441571661 -0.14657930116866469 0 -0.19304281467934639 -0.1243044362031622 0 -0.21048048439836151 -0.1303445953140262 0 -0.20046662441571661 -0.14657930116866469 0 -0.19304281467934639 -0.1243044362031622 0 -0.1773842602197058 -0.16147342872486159 0 -0.20046662441571661 -0.14657930116866469 0 -0.20136436571209609 -0.1698515596453751 0 -0.18488705326963789 -0.18618750428614089 0 -0.1773842602197058 -0.16147342872486159 0 -0.20136436571209609 -0.1698515596453751 0 -0.18488705326963789 -0.18618750428614089 0 -0.20907371647745951 -0.1920646474351001 0 -0.20136436571209609 -0.1698515596453751 0 -0.20907371647745951 -0.1920646474351001 0 -0.20136436571209609 -0.1698515596453751 0 -0.2206241829504671 -0.17345888068206861 0 -0.20136436571209609 -0.1698515596453751 0 -0.21337044663761509 -0.1571064476685694 0 -0.2206241829504671 -0.17345888068206861 0 -0.20046662441571661 -0.14657930116866469 0 -0.20136436571209609 -0.1698515596453751 0 -0.21337044663761509 -0.1571064476685694 0 -0.2206241829504671 -0.17345888068206861 0 -0.24286947140217 -0.1702673360026199 0 -0.22832610330628539 -0.1512963968695463 0 -0.2206241829504671 -0.17345888068206861 0 -0.22832610330628539 -0.1512963968695463 0 -0.21337044663761509 -0.1571064476685694 0 -0.2206241829504671 -0.17345888068206861 0 -0.22832610330628539 -0.1512963968695463 0 -0.20907371647745951 -0.1920646474351001 0 -0.23070678941040901 -0.1866295773046984 0 -0.2206241829504671 -0.17345888068206861 0 -0.23070678941040901 -0.1866295773046984 0 -0.2206241829504671 -0.17345888068206861 0 -0.24286947140217 -0.1702673360026199 0 -0.23070678941040901 -0.1866295773046984 0 -0.24286947140217 -0.1702673360026199 0 -0.25209658637131283 -0.19166369008343151 0 -0.24286947140217 -0.1702673360026199 0 -0.2459939955575822 -0.15311321343151971 0 -0.22832610330628539 -0.1512963968695463 0 -0.2459939955575822 -0.15311321343151971 0 -0.24175861083520159 -0.14098927652468499 0 -0.22832610330628539 -0.1512963968695463 0 -0.2459939955575822 -0.15311321343151971 0 -0.24175861083520159 -0.14098927652468499 0 -0.25055362556030181 -0.14063164118122709 0 -0.21607095680350999 -0.14434609997719239 0 -0.22832610330628539 -0.1512963968695463 0 -0.2253312149575965 -0.13416461095830989 0 -0.21607095680350999 -0.14434609997719239 0 -0.21337044663761509 -0.1571064476685694 0 -0.22832610330628539 -0.1512963968695463 0 -0.22832610330628539 -0.1512963968695463 0 -0.2253312149575965 -0.13416461095830989 0 -0.23602802366210371 -0.12913391305702401 0 -0.22832610330628539 -0.1512963968695463 0 -0.23602802366210371 -0.12913391305702401 0 -0.21048048439836151 -0.1303445953140262 0 -0.2253312149575965 -0.13416461095830989 0 -0.22224905467747841 -0.122704346423952 0 -0.2253312149575965 -0.13416461095830989 0 -0.23453057948775929 -0.1205680201014058 0 -0.2253312149575965 -0.13416461095830989 0 -0.23602802366210371 -0.12913391305702401 0 -0.23453057948775929 -0.1205680201014058 0 -0.2253312149575965 -0.13416461095830989 0 -0.23453057948775929 -0.1205680201014058 0 -0.22224905467747841 -0.122704346423952 0 -0.24175861083520159 -0.14098927652468499 0 -0.22832610330628539 -0.1512963968695463 0 -0.23602802366210371 -0.12913391305702401 0 -0.24175861083520159 -0.14098927652468499 0 -0.23602802366210371 -0.12913391305702401 0 -0.2478913060897347 -0.13077121808410791 0 -0.24175861083520159 -0.14098927652468499 0 -0.2478913060897347 -0.13077121808410791 0 -0.25055362556030181 -0.14063164118122709 0 -0.23602802366210371 -0.12913391305702401 0 -0.2478913060897347 -0.13077121808410791 0 -0.24700144371182431 -0.1205517999847413 0 -0.23602802366210371 -0.12913391305702401 0 -0.23453057948775929 -0.1205680201014058 0 -0.24372994401792211 -0.1069714292445017 0 -0.23602802366210371 -0.12913391305702401 0 -0.24372994401792211 -0.1069714292445017 0 -0.23602802366210371 -0.12913391305702401 0 -0.24700144371182431 -0.1205517999847413 0 -0.24372994401792211 -0.1069714292445017 0 -0.23453057948775929 -0.1205680201014058 0 -0.24372994401792211 -0.1069714292445017 0 -0.23453057948775929 -0.1205680201014058 0 -0.234867534392318 -0.1112912468584057 0 -0.24372994401792211 -0.1069714292445017 0 -0.24700144371182431 -0.1205517999847413 0 -0.24372994401792211 -0.1069714292445017 0 -0.25512470820440092 -0.11284709536980329 0 -0.24372994401792211 -0.1069714292445017 0 -0.24724085371486371 -0.096868691780212762 0 -0.23365605371917891 -0.1026665008865574 0 -0.24208940322989869 -0.093288509277156484 0 -0.25396267323909438 -0.091847533228253647 0 -0.23365605371917891 -0.1026665008865574 0 -0.25396267323909438 -0.091847533228253647 0 -0.24724085371486371 -0.096868691780212762 0 -0.23365605371917891 -0.1026665008865574 0 -0.25396267323909438 -0.091847533228253647 0 -0.24372994401792211 -0.1069714292445017 0 -0.25396267323909438 -0.091847533228253647 0 -0.24372994401792211 -0.1069714292445017 0 -0.24724085371486371 -0.096868691780212762 0 -0.25396267323909438 -0.091847533228253647 0 -0.23695106785883149 -0.093887156951559886 0 -0.23365605371917891 -0.1026665008865574 0 -0.24208940322989869 -0.093288509277156484 0 -0.24372994401792211 -0.1069714292445017 0 -0.24724085371486371 -0.096868691780212762 0 -0.23365605371917891 -0.1026665008865574 0 -0.234867534392318 -0.1112912468584057 0 -0.24372994401792211 -0.1069714292445017 0 -0.23365605371917891 -0.1026665008865574 0 -0.23365605371917891 -0.1026665008865574 0 -0.21958709952781361 -0.089666335046522772 0 -0.21334943419926261 -0.1134854685448598 0 -0.23365605371917891 -0.1026665008865574 0 -0.21334943419926261 -0.1134854685448598 0 -0.23695106785883149 -0.093887156951559886 0 -0.23365605371917891 -0.1026665008865574 0 -0.2322263005588189 -0.090713657606851197 0 -0.23365605371917891 -0.1026665008865574 0 -0.2322263005588189 -0.090713657606851197 0 -0.21958709952781361 -0.089666335046522772 0 -0.22224905467747841 -0.122704346423952 0 -0.22755356034441149 -0.11495903720115799 0 -0.21334943419926261 -0.1134854685448598 0 -0.23365605371917891 -0.1026665008865574 0 -0.22755356034441149 -0.11495903720115799 0 -0.21334943419926261 -0.1134854685448598 0 -0.23453057948775929 -0.1205680201014058 0 -0.22224905467747841 -0.122704346423952 0 -0.22755356034441149 -0.11495903720115799 0 -0.23453057948775929 -0.1205680201014058 0 -0.234867534392318 -0.1112912468584057 0 -0.22755356034441149 -0.11495903720115799 0 -0.234867534392318 -0.1112912468584057 0 -0.23365605371917891 -0.1026665008865574 0 -0.22755356034441149 -0.11495903720115799 0 -0.24117365102844129 -0.071048865850714751 0 -0.23893376461108021 -0.054234459717009527 0 -0.24117365102844129 -0.071048865850714751 0 -0.23078616057516951 -0.063946591692023033 0 -0.23893376461108021 -0.054234459717009527 0 -0.24117365102844129 -0.071048865850714751 0 -0.24121532486973199 -0.073531373669831979 0 -0.23078616057516951 -0.063946591692023033 0 -0.24720656655496381 -0.068274509552894186 0 -0.24117365102844129 -0.071048865850714751 0 -0.24652884175494191 -0.06211859860982015 0 -0.24720656655496381 -0.068274509552894186 0 -0.24121532486973199 -0.073531373669831979 0 -0.25410679719507839 -0.067894430157233496 0 -0.24720656655496381 -0.068274509552894186 0 -0.24652884175494191 -0.06211859860982015 0 -0.25024480965728291 -0.064690907136105272 0 -0.24121532486973199 -0.073531373669831979 0 -0.2464857450906428 -0.078799841592908801 0 -0.25533347010654661 -0.080097302684604632 0 -0.24720656655496381 -0.068274509552894186 0 -0.24117365102844129 -0.071048865850714751 0 -0.24121532486973199 -0.073531373669831979 0 -0.24121532486973199 -0.073531373669831979 0 -0.24162992986563961 -0.078488051119227339 0 -0.2464857450906428 -0.078799841592908801 0 -0.24121532486973199 -0.073531373669831979 0 -0.24162992986563961 -0.078488051119227339 0 -0.23393874903104489 -0.078989542230348569 0 -0.23519550329772351 -0.084791917388262777 0 -0.24021816786555131 -0.082505281418027113 0 -0.23393874903104489 -0.078989542230348569 0 -0.24021816786555131 -0.082505281418027113 0 -0.24482756637949679 -0.085122979071469346 0 -0.23956216737141389 -0.088864700009041037 0 -0.23519550329772351 -0.084791917388262777 0 -0.24021816786555131 -0.082505281418027113 0 -0.23956216737141389 -0.088864700009041037 0 -0.24021816786555131 -0.082505281418027113 0 -0.24162992986563961 -0.078488051119227339 0 -0.24430434982773749 -0.081413756563901665 0 -0.24021816786555131 -0.082505281418027113 0 -0.24162992986563961 -0.078488051119227339 0 -0.23393874903104489 -0.078989542230348569 0 -0.24162992986563961 -0.078488051119227339 0 -0.24430434982773749 -0.081413756563901665 0 -0.2464857450906428 -0.078799841592908801 0 -0.24430434982773749 -0.081413756563901665 0 -0.2464857450906428 -0.078799841592908801 0 -0.24836033993735729 -0.0821526296178757 0 -0.24836033993735729 -0.0821526296178757 0 -0.24482756637949679 -0.085122979071469346 0 -0.25080385271298261 -0.086164853568068411 0 -0.24430434982773749 -0.081413756563901665 0 -0.24836033993735729 -0.0821526296178757 0 -0.24482756637949679 -0.085122979071469346 0 -0.24021816786555131 -0.082505281418027113 0 -0.24430434982773749 -0.081413756563901665 0 -0.24482756637949679 -0.085122979071469346 0 -0.24631505396097481 -0.089176655310370542 0 -0.24208940322989869 -0.093288509277156484 0 -0.25396267323909438 -0.091847533228253647 0 -0.24482756637949679 -0.085122979071469346 0 -0.24631505396097481 -0.089176655310370542 0 -0.23956216737141389 -0.088864700009041037 0 -0.24482756637949679 -0.085122979071469346 0 -0.24631505396097481 -0.089176655310370542 0 -0.25080385271298261 -0.086164853568068411 0 -0.24631505396097481 -0.089176655310370542 0 -0.24208940322989869 -0.093288509277156484 0 -0.23956216737141389 -0.088864700009041037 0 -0.23695106785883149 -0.093887156951559886 0 -0.24208940322989869 -0.093288509277156484 0 -0.23956216737141389 -0.088864700009041037 0 -0.23519550329772351 -0.084791917388262777 0 -0.23956216737141389 -0.088864700009041037 0 -0.2322263005588189 -0.090713657606851197 0 -0.23695106785883149 -0.093887156951559886 0 -0.23956216737141389 -0.088864700009041037 0 -0.2322263005588189 -0.090713657606851197 0 -0.21958709952781361 -0.089666335046522772 0 -0.22779651611747229 -0.083308712290444731 0 -0.217577052170151 -0.071311917496297492 0 -0.23519550329772351 -0.084791917388262777 0 -0.2322263005588189 -0.090713657606851197 0 -0.22779651611747229 -0.083308712290444731 0 -0.2322263005588189 -0.090713657606851197 0 -0.21958709952781361 -0.089666335046522772 0 -0.22779651611747229 -0.083308712290444731 0 -0.23519550329772351 -0.084791917388262777 0 -0.22779651611747229 -0.083308712290444731 0 -0.23393874903104489 -0.078989542230348569 0 -0.22779651611747229 -0.083308712290444731 0 -0.23393874903104489 -0.078989542230348569 0 -0.217577052170151 -0.071311917496297492 0 -0.24121532486973199 -0.073531373669831979 0 -0.23393874903104489 -0.078989542230348569 0 -0.217577052170151 -0.071311917496297492 0 -0.24121532486973199 -0.073531373669831979 0 -0.217577052170151 -0.071311917496297492 0 -0.24121532486973199 -0.073531373669831979 0 -0.23078616057516951 -0.063946591692023033 0 -0.217577052170151 -0.071311917496297492 0 -0.21958709952781361 -0.089666335046522772 0 -0.217577052170151 -0.071311917496297492 0 -0.20282934745621081 -0.073274435803878213 0 -0.217577052170151 -0.071311917496297492 0 -0.20282934745621081 -0.073274435803878213 0 -0.2150310101964428 -0.049606341726261438 0 -0.21958709952781361 -0.089666335046522772 0 -0.19567118775350789 -0.087103601448553072 0 -0.20282934745621081 -0.073274435803878213 0 -0.21958709952781361 -0.089666335046522772 0 -0.19567118775350789 -0.087103601448553072 0 -0.20150664123959131 -0.1034968062963266 0 -0.19567118775350789 -0.087103601448553072 0 -0.20282934745621081 -0.073274435803878213 0 -0.1871336000353129 -0.074477296896217432 0 -0.20282934745621081 -0.073274435803878213 0 -0.1871336000353129 -0.074477296896217432 0 -0.19336814219916421 -0.061792629869218213 0 -0.21334943419926261 -0.1134854685448598 0 -0.19304281467934639 -0.1243044362031622 0 -0.21048048439836151 -0.1303445953140262 0 -0.21334943419926261 -0.1134854685448598 0 -0.19304281467934639 -0.1243044362031622 0 -0.21048048439836151 -0.1303445953140262 0 -0.22224905467747841 -0.122704346423952 0 -0.21334943419926261 -0.1134854685448598 0 -0.21958709952781361 -0.089666335046522772 0 -0.21334943419926261 -0.1134854685448598 0 -0.20150664123959131 -0.1034968062963266 0 -0.19567118775350789 -0.087103601448553072 0 -0.20150664123959131 -0.1034968062963266 0 -0.1858826700380258 -0.1029241902385352 0 -0.21334943419926261 -0.1134854685448598 0 -0.20150664123959131 -0.1034968062963266 0 -0.19304281467934639 -0.1243044362031622 0 -0.20150664123959131 -0.1034968062963266 0 -0.19304281467934639 -0.1243044362031622 0 -0.1858826700380258 -0.1029241902385352 0 -0.19304281467934639 -0.1243044362031622 0 -0.16512968858708049 -0.1138758245794506 0 -0.1858826700380258 -0.1029241902385352 0 -0.16512968858708049 -0.1138758245794506 0 -0.17120069710434491 -0.087528060892443083 0 -0.16512968858708049 -0.1138758245794506 0 -0.17120069710434491 -0.087528060892443083 0 -0.1468530566993658 -0.096484912393901293 0 -0.16512968858708049 -0.1138758245794506 0 -0.1858826700380258 -0.1029241902385352 0 -0.17120069710434491 -0.087528060892443083 0 -0.19567118775350789 -0.087103601448553072 0 -0.1858826700380258 -0.1029241902385352 0 -0.17120069710434491 -0.087528060892443083 0 -0.19567118775350789 -0.087103601448553072 0 -0.1871336000353129 -0.074477296896217432 0 -0.17120069710434491 -0.087528060892443083 0 -0.17120069710434491 -0.087528060892443083 0 -0.13994822908535109 -0.070361261062693692 0 -0.15970142564849071 -0.062475865951303937 0 -0.17120069710434491 -0.087528060892443083 0 -0.17727170562160929 -0.061180297205435732 0 -0.1871336000353129 -0.074477296896217432 0 -0.17727170562160929 -0.061180297205435732 0 -0.19336814219916421 -0.061792629869218213 0 -0.1871336000353129 -0.074477296896217432 0 -0.17120069710434491 -0.087528060892443083 0 -0.17727170562160929 -0.061180297205435732 0 -0.17120069710434491 -0.087528060892443083 0 -0.15970142564849071 -0.062475865951303937 0 -0.17727170562160929 -0.061180297205435732 0 -0.17120069710434491 -0.087528060892443083 0 -0.13994822908535109 -0.070361261062693692 0 -0.1468530566993658 -0.096484912393901293 0 -0.13994822908535109 -0.070361261062693692 0 -0.12767639917558171 -0.095214282378036696 0 -0.1468530566993658 -0.096484912393901293 0 -0.1132605409186659 -0.080905517023447962 0 -0.13994822908535109 -0.070361261062693692 0 -0.12767639917558171 -0.095214282378036696 0 -0.12767639917558171 -0.095214282378036696 0 -0.14238347132438051 -0.11563086419790421 0 -0.1468530566993658 -0.096484912393901293 0 -0.12161011897544639 -0.1143980493063277 0 -0.12767639917558171 -0.095214282378036696 0 -0.14238347132438051 -0.11563086419790421 0 -0.12161011897544639 -0.1143980493063277 0 -0.13397288443899269 -0.1335885282632506 0 -0.14238347132438051 -0.11563086419790421 0 -0.15905868006981611 -0.14022358826645809 0 -0.16512968858708049 -0.1138758245794506 0 -0.14238347132438051 -0.11563086419790421 0 -0.16512968858708049 -0.1138758245794506 0 -0.14238347132438051 -0.11563086419790421 0 -0.1468530566993658 -0.096484912393901293 0 -0.14222019587267981 -0.02846549158252842 0 -0.15716088152878491 -0.02973392966550583 0 -0.15718115217602721 -0.011749852868622681 0 -0.14222019587267981 -0.02846549158252842 0 -0.15718115217602721 -0.011749852868622681 0 -0.14222019587267981 -0.02846549158252842 0 -0.1308871796528614 -0.016470598670949719 0 -0.15718115217602721 -0.011749852868622681 0 -0.13334388803410099 -0.0001525321026195833 0 -0.15718115217602721 -0.011749852868622681 0 -0.15201470086044461 0.0079273161326678838 0 -0.13334388803410099 -0.0001525321026195833 0 -0.1308871796528614 -0.016470598670949719 0 -0.15718115217602721 -0.011749852868622681 0 -0.1203328952813548 -0.0044339126386656706 0 -0.13334388803410099 -0.0001525321026195833 0 -0.1308871796528614 -0.016470598670949719 0 -0.14222019587267981 -0.02846549158252842 0 -0.1308871796528614 -0.016470598670949719 0 -0.12725923956933161 -0.045181130296433343 0 -0.14222019587267981 -0.02846549158252842 0 -0.12725923956933161 -0.045181130296433343 0 -0.14222019587267981 -0.02846549158252842 0 -0.12725923956933161 -0.045181130296433343 0 -0.14857060993045371 -0.046612040670519127 0 -0.13994822908535109 -0.070361261062693692 0 -0.12725923956933161 -0.045181130296433343 0 -0.1118173875218271 -0.062434066182754072 0 -0.13994822908535109 -0.070361261062693692 0 -0.12725923956933161 -0.045181130296433343 0 -0.13994822908535109 -0.070361261062693692 0 -0.12725923956933161 -0.045181130296433343 0 -0.14857060993045371 -0.046612040670519127 0 -0.13994822908535109 -0.070361261062693692 0 -0.14857060993045371 -0.046612040670519127 0 -0.15970142564849071 -0.062475865951303937 0 -0.14222019587267981 -0.02846549158252842 0 -0.14857060993045371 -0.046612040670519127 0 -0.15716088152878491 -0.02973392966550583 0 -0.14857060993045371 -0.046612040670519127 0 -0.16513368787808391 -0.043454565464649611 0 -0.15716088152878491 -0.02973392966550583 0 -0.16513368787808391 -0.043454565464649611 0 -0.17019292326150709 -0.022317804577464288 0 -0.15716088152878491 -0.02973392966550583 0 -0.16513368787808391 -0.043454565464649611 0 -0.15970142564849071 -0.062475865951303937 0 -0.17727170562160929 -0.061180297205435732 0 -0.14857060993045371 -0.046612040670519127 0 -0.16513368787808391 -0.043454565464649611 0 -0.15970142564849071 -0.062475865951303937 0 -0.17727170562160929 -0.061180297205435732 0 -0.18334271413887371 -0.034832533518428369 0 -0.17727170562160929 -0.061180297205435732 0 -0.18334271413887371 -0.034832533518428369 0 -0.19564859033806201 -0.046446360384608538 0 -0.16513368787808391 -0.043454565464649611 0 -0.18334271413887371 -0.034832533518428369 0 -0.17019292326150709 -0.022317804577464288 0 -0.16513368787808391 -0.043454565464649611 0 -0.17727170562160929 -0.061180297205435732 0 -0.18334271413887371 -0.034832533518428369 0 -0.18334271413887371 -0.034832533518428369 0 -0.18233154612736821 -0.01182615749080209 0 -0.19295790804361559 -0.02051320971132567 0 -0.18334271413887371 -0.034832533518428369 0 -0.17019292326150709 -0.022317804577464288 0 -0.18233154612736821 -0.01182615749080209 0 -0.17019292326150709 -0.022317804577464288 0 -0.15716088152878491 -0.02973392966550583 0 -0.15718115217602721 -0.011749852868622681 0 -0.17019292326150709 -0.022317804577464288 0 -0.172142108479374 0.0049657858452834486 0 -0.15718115217602721 -0.011749852868622681 0 -0.1610711125221512 0.0045908812410209391 0 -0.172142108479374 0.0049657858452834486 0 -0.17019292326150709 -0.022317804577464288 0 -0.15718115217602721 -0.011749852868622681 0 -0.172142108479374 0.0049657858452834486 0 -0.15718115217602721 -0.011749852868622681 0 -0.172142108479374 0.0049657858452834486 0 -0.17019292326150709 -0.022317804577464288 0 -0.18233154612736821 -0.01182615749080209 0 -0.172142108479374 0.0049657858452834486 0 -0.18233154612736821 -0.01182615749080209 0 -0.1810383977361181 0.001838255785446235 0 -0.172142108479374 0.0049657858452834486 0 -0.18233154612736821 -0.01182615749080209 0 -0.18768795508738781 -0.002083437595672367 0 -0.1810383977361181 0.001838255785446235 0 -0.18768795508738781 -0.002083437595672367 0 -0.19293596815609701 -0.0093128882042926766 0 -0.19736635287963419 0.0018705876172133949 0 -0.18233154612736821 -0.01182615749080209 0 -0.18768795508738781 -0.002083437595672367 0 -0.19293596815609701 -0.0093128882042926766 0 -0.19293596815609701 -0.0093128882042926766 0 -0.20822551237540271 -0.01030358335887274 0 -0.19736635287963419 0.0018705876172133949 0 -0.19293596815609701 -0.0093128882042926766 0 -0.19295790804361559 -0.02051320971132567 0 -0.20822551237540271 -0.01030358335887274 0 -0.18233154612736821 -0.01182615749080209 0 -0.19293596815609701 -0.0093128882042926766 0 -0.19295790804361559 -0.02051320971132567 0 -0.18334271413887371 -0.034832533518428369 0 -0.19295790804361559 -0.02051320971132567 0 -0.20157824881075759 -0.031725129937917047 0 -0.19295790804361559 -0.02051320971132567 0 -0.20822551237540271 -0.01030358335887274 0 -0.20157824881075759 -0.031725129937917047 0 -0.2144819968999721 -0.02780444172447671 0 -0.20822551237540271 -0.01030358335887274 0 -0.20157824881075759 -0.031725129937917047 0 -0.2144819968999721 -0.02780444172447671 0 -0.20822551237540271 -0.01030358335887274 0 -0.2204132420584354 -0.017896050987631949 0 -0.20822551237540271 -0.01030358335887274 0 -0.22185675074697531 -0.0057896427325692494 0 -0.208897403785512 0.011744623124039909 0 -0.20822551237540271 -0.01030358335887274 0 -0.22185675074697531 -0.0057896427325692494 0 -0.2204132420584354 -0.017896050987631949 0 -0.17727170562160929 -0.061180297205435732 0 -0.19336814219916421 -0.061792629869218213 0 -0.19564859033806201 -0.046446360384608538 0 -0.19336814219916421 -0.061792629869218213 0 -0.19564859033806201 -0.046446360384608538 0 -0.2150310101964428 -0.049606341726261438 0 -0.18334271413887371 -0.034832533518428369 0 -0.20157824881075759 -0.031725129937917047 0 -0.19564859033806201 -0.046446360384608538 0 -0.20157824881075759 -0.031725129937917047 0 -0.19564859033806201 -0.046446360384608538 0 -0.2150310101964428 -0.049606341726261438 0 -0.2144819968999721 -0.02780444172447671 0 -0.20157824881075759 -0.031725129937917047 0 -0.2150310101964428 -0.049606341726261438 0 -0.2144819968999721 -0.02780444172447671 0 -0.2150310101964428 -0.049606341726261438 0 -0.2253044080319567 -0.034751588418723223 0 -0.20282934745621081 -0.073274435803878213 0 -0.19336814219916421 -0.061792629869218213 0 -0.2150310101964428 -0.049606341726261438 0 -0.19336814219916421 -0.061792629869218213 0 -0.2150310101964428 -0.049606341726261438 0 -0.23078616057516951 -0.063946591692023033 0 -0.2150310101964428 -0.049606341726261438 0 -0.23893376461108021 -0.054234459717009527 0 -0.23078616057516951 -0.063946591692023033 0 -0.217577052170151 -0.071311917496297492 0 -0.2150310101964428 -0.049606341726261438 0 -0.2150310101964428 -0.049606341726261438 0 -0.23669387819372101 -0.03742005358330408 0 -0.23893376461108021 -0.054234459717009527 0 -0.2150310101964428 -0.049606341726261438 0 -0.23669387819372101 -0.03742005358330408 0 -0.2150310101964428 -0.049606341726261438 0 -0.2253044080319567 -0.034751588418723223 0 -0.23669387819372101 -0.03742005358330408 0 -0.2253044080319567 -0.034751588418723223 0 -0.23596448489160221 -0.031944635223712062 0 -0.2240410329704913 -0.02809917908863601 0 -0.2253044080319567 -0.034751588418723223 0 -0.23596448489160221 -0.031944635223712062 0 -0.23669387819372101 -0.03742005358330408 0 -0.23669387819372101 -0.03742005358330408 0 -0.2430756493628411 -0.044920035937042198 0 -0.23893376461108021 -0.054234459717009527 0 -0.23669387819372101 -0.03742005358330408 0 -0.23893376461108021 -0.054234459717009527 0 -0.23596448489160221 -0.031944635223712062 0 -0.23669387819372101 -0.03742005358330408 0 -0.23596448489160221 -0.031944635223712062 0 -0.23669387819372101 -0.03742005358330408 0 -0.23997953863919741 -0.03557172930170166 0 -0.23596448489160221 -0.031944635223712062 0 -0.23997953863919741 -0.03557172930170166 0 -0.23669387819372101 -0.03742005358330408 0 -0.23997953863919741 -0.03557172930170166 0 -0.23997953863919741 -0.03557172930170166 0 -0.24272629061635889 -0.034026564042185507 0 -0.23596448489160221 -0.031944635223712062 0 -0.23997953863919741 -0.03557172930170166 0 -0.24272629061635889 -0.034026564042185507 0 -0.24272629061635889 -0.034026564042185507 0 -0.24455394929324889 -0.036499424228045682 0 -0.25759444059757519 -0.034859945494417358 0 -0.23997953863919741 -0.03557172930170166 0 -0.24272629061635889 -0.034026564042185507 0 -0.24455394929324889 -0.036499424228045682 0 -0.24272629061635889 -0.034026564042185507 0 -0.24455394929324889 -0.036499424228045682 0 -0.23997953863919741 -0.03557172930170166 0 -0.25268944054759868 -0.047053520789873612 0 -0.23997953863919741 -0.03557172930170166 0 -0.2430756493628411 -0.044920035937042198 0 -0.25268944054759868 -0.047053520789873612 0 -0.23997953863919741 -0.03557172930170166 0 -0.24455394929324889 -0.036499424228045682 0 -0.25268944054759868 -0.047053520789873612 0 -0.23669387819372101 -0.03742005358330408 0 -0.23997953863919741 -0.03557172930170166 0 -0.2430756493628411 -0.044920035937042198 0 -0.24117365102844129 -0.071048865850714751 0 -0.23893376461108021 -0.054234459717009527 0 -0.24652884175494191 -0.06211859860982015 0 -0.2430756493628411 -0.044920035937042198 0 -0.24846099788831619 -0.053977821433680247 0 -0.25268944054759868 -0.047053520789873612 0 -0.2430756493628411 -0.044920035937042198 0 -0.23893376461108021 -0.054234459717009527 0 -0.24846099788831619 -0.053977821433680247 0 -0.23893376461108021 -0.054234459717009527 0 -0.24846099788831619 -0.053977821433680247 0 -0.24652884175494191 -0.06211859860982015 0 -0.24846099788831619 -0.053977821433680247 0 -0.24652884175494191 -0.06211859860982015 0 -0.2531370331241472 -0.060476090224473228 0 -0.24652884175494191 -0.06211859860982015 0 -0.2531370331241472 -0.060476090224473228 0 -0.25024480965728291 -0.064690907136105272 0 -0.22185675074697531 -0.0057896427325692494 0 -0.2348160977084375 -0.02332390858917922 0 -0.23668738209484411 -0.018348833574703481 0 -0.2348160977084375 -0.02332390858917922 0 -0.2313270265146895 0.002867892756796941 0 -0.2348160977084375 -0.02332390858917922 0 -0.2313270265146895 0.002867892756796941 0 -0.22185675074697531 -0.0057896427325692494 0 -0.2348160977084375 -0.02332390858917922 0 -0.2313270265146895 0.002867892756796941 0 -0.22185675074697531 -0.0057896427325692494 0 -0.2204132420584354 -0.017896050987631949 0 -0.2348160977084375 -0.02332390858917922 0 -0.2144819968999721 -0.02780444172447671 0 -0.2204132420584354 -0.017896050987631949 0 -0.2240410329704913 -0.02809917908863601 0 -0.2144819968999721 -0.02780444172447671 0 -0.2253044080319567 -0.034751588418723223 0 -0.2240410329704913 -0.02809917908863601 0 -0.23596448489160221 -0.031944635223712062 0 -0.2204132420584354 -0.017896050987631949 0 -0.23596448489160221 -0.031944635223712062 0 -0.2204132420584354 -0.017896050987631949 0 -0.2348160977084375 -0.02332390858917922 0 -0.23596448489160221 -0.031944635223712062 0 -0.2204132420584354 -0.017896050987631949 0 -0.2240410329704913 -0.02809917908863601 0 -0.23668738209484411 -0.018348833574703481 0 -0.2348160977084375 -0.02332390858917922 0 -0.24530362311450379 -0.02162835477438706 0 -0.24272629061635889 -0.034026564042185507 0 -0.2348160977084375 -0.02332390858917922 0 -0.24530362311450379 -0.02162835477438706 0 -0.23596448489160221 -0.031944635223712062 0 -0.2348160977084375 -0.02332390858917922 0 -0.23596448489160221 -0.031944635223712062 0 -0.24272629061635889 -0.034026564042185507 0 -0.2348160977084375 -0.02332390858917922 0 -0.24272629061635889 -0.034026564042185507 0 -0.2348160977084375 -0.02332390858917922 0 -0.23668738209484411 -0.018348833574703481 0 -0.24530362311450379 -0.02162835477438706 0 -0.2489231760662057 -0.01002615393856717 0 -0.23668738209484411 -0.018348833574703481 0 -0.2489231760662057 -0.01002615393856717 0 -0.24106058317087861 0.0025102444037685551 0 -0.23668738209484411 -0.018348833574703481 0 -0.2313270265146895 0.002867892756796941 0 -0.24106058317087861 0.0025102444037685551 0 -0.23668738209484411 -0.018348833574703481 0 -0.24106058317087861 0.0025102444037685551 0 -0.2489231760662057 -0.01002615393856717 0 -0.25283005323772689 0.00055530769458268315 0 -0.24106058317087861 0.0025102444037685551 0 -0.2489231760662057 -0.01002615393856717 0 -0.26451735172234209 -0.0056585011065514454 0 -0.26336516908667401 -0.02241631372729987 0 -0.2489231760662057 -0.01002615393856717 0 -0.26451735172234209 -0.0056585011065514454 0 -0.25283005323772689 0.00055530769458268315 0 -0.24272629061635889 -0.034026564042185507 0 -0.26336516908667401 -0.02241631372729987 0 -0.25759444059757519 -0.034859945494417358 0 -0.24272629061635889 -0.034026564042185507 0 -0.24530362311450379 -0.02162835477438706 0 -0.26336516908667401 -0.02241631372729987 0 -0.24272629061635889 -0.034026564042185507 0 -0.26336516908667401 -0.02241631372729987 0 -0.24530362311450379 -0.02162835477438706 0 -0.2489231760662057 -0.01002615393856717 0 -0.26336516908667401 -0.02241631372729987 0 -0.26336516908667401 -0.02241631372729987 0 -0.27993537768371551 -0.029277082582652981 0 -0.26881319335380088 -0.03994996050952232 0 -0.26336516908667401 -0.02241631372729987 0 -0.28400404755698899 -0.01080606341241439 0 -0.26336516908667401 -0.02241631372729987 0 -0.27993537768371551 -0.029277082582652981 0 -0.28400404755698899 -0.01080606341241439 0 -0.26451735172234209 -0.0056585011065514454 0 -0.28400404755698899 -0.01080606341241439 0 -0.27596627589349532 0.0018974693142803909 0 -0.26451735172234209 -0.0056585011065514454 0 -0.26336516908667401 -0.02241631372729987 0 -0.28400404755698899 -0.01080606341241439 0 -0.28400404755698899 -0.01080606341241439 0 -0.29744749907900719 -0.011313064093400131 0 -0.30464292602730408 0.00080418690247109799 0 -0.28400404755698899 -0.01080606341241439 0 -0.29074293809310919 0.0040245865018172684 0 -0.30464292602730408 0.00080418690247109799 0 -0.28400404755698899 -0.01080606341241439 0 -0.30464292602730408 0.00080418690247109799 0 -0.28400404755698899 -0.01080606341241439 0 -0.27596627589349532 0.0018974693142803909 0 -0.29074293809310919 0.0040245865018172684 0 -0.28400404755698899 -0.01080606341241439 0 -0.29175222203181977 -0.022803280208201122 0 -0.29744749907900719 -0.011313064093400131 0 -0.27993537768371551 -0.029277082582652981 0 -0.28400404755698899 -0.01080606341241439 0 -0.29175222203181977 -0.022803280208201122 0 -0.27993537768371551 -0.029277082582652981 0 -0.29175222203181977 -0.022803280208201122 0 -0.29035697168298702 -0.036300130378090427 0 -0.29175222203181977 -0.022803280208201122 0 -0.29827687385039819 -0.030032388228296999 0 -0.29035697168298702 -0.036300130378090427 0 -0.29175222203181977 -0.022803280208201122 0 -0.30417398276235003 -0.019218574984577921 0 -0.29744749907900719 -0.011313064093400131 0 -0.30417398276235003 -0.019218574984577921 0 -0.29827687385039819 -0.030032388228296999 0 -0.30868008975053679 -0.02971665335758325 0 -0.29175222203181977 -0.022803280208201122 0 -0.30417398276235003 -0.019218574984577921 0 -0.29827687385039819 -0.030032388228296999 0 -0.30417398276235003 -0.019218574984577921 0 -0.30868008975053679 -0.02971665335758325 0 -0.31720209072894218 -0.024058493162663279 0 -0.30417398276235003 -0.019218574984577921 0 -0.31350486428597168 -0.010952588748162181 0 -0.31720209072894218 -0.024058493162663279 0 -0.30417398276235003 -0.019218574984577921 0 -0.30585971326432582 -0.0083758810737886834 0 -0.31350486428597168 -0.010952588748162181 0 -0.30585971326432582 -0.0083758810737886834 0 -0.31050293175726001 -0.0045374794725471269 0 -0.31350486428597168 -0.010952588748162181 0 -0.31050293175726001 -0.0045374794725471269 0 -0.30464292602730408 0.00080418690247109799 0 -0.31800422345143847 0.00037436502929125799 0 -0.30585971326432582 -0.0083758810737886834 0 -0.31050293175726001 -0.0045374794725471269 0 -0.30464292602730408 0.00080418690247109799 0 -0.30585971326432582 -0.0083758810737886834 0 -0.29744749907900719 -0.011313064093400131 0 -0.30464292602730408 0.00080418690247109799 0 -0.30417398276235003 -0.019218574984577921 0 -0.30585971326432582 -0.0083758810737886834 0 -0.29744749907900719 -0.011313064093400131 0 -0.30203877052231032 -0.052792781657539548 0 -0.30761843971034131 -0.04586492845381928 0 -0.29685337539963719 -0.045768237922710488 0 -0.29818611099959719 -0.060617270195454057 0 -0.30808078837497432 -0.060349139806054608 0 -0.30199290267118939 -0.066358187361428178 0 -0.30203877052231032 -0.052792781657539548 0 -0.29818611099959719 -0.060617270195454057 0 -0.2913986854121155 -0.054193039556278827 0 -0.30203877052231032 -0.052792781657539548 0 -0.29818611099959719 -0.060617270195454057 0 -0.30808078837497432 -0.060349139806054608 0 -0.30203877052231032 -0.052792781657539548 0 -0.30808078837497432 -0.060349139806054608 0 -0.31512163107114982 -0.051022841404941371 0 -0.30203877052231032 -0.052792781657539548 0 -0.30761843971034131 -0.04586492845381928 0 -0.31512163107114982 -0.051022841404941371 0 -0.30761843971034131 -0.04586492845381928 0 -0.30313275672741369 -0.037790063925319813 0 -0.31646027977837021 -0.037986693334049672 0 -0.30868008975053679 -0.02971665335758325 0 -0.30313275672741369 -0.037790063925319813 0 -0.31646027977837021 -0.037986693334049672 0 -0.29827687385039819 -0.030032388228296999 0 -0.30868008975053679 -0.02971665335758325 0 -0.30313275672741369 -0.037790063925319813 0 -0.29827687385039819 -0.030032388228296999 0 -0.30313275672741369 -0.037790063925319813 0 -0.29035697168298702 -0.036300130378090427 0 -0.30761843971034131 -0.04586492845381928 0 -0.30313275672741369 -0.037790063925319813 0 -0.29685337539963719 -0.045768237922710488 0 -0.29685337539963719 -0.045768237922710488 0 -0.29035697168298702 -0.036300130378090427 0 -0.28767750391676311 -0.046215418839919711 0 -0.30313275672741369 -0.037790063925319813 0 -0.29685337539963719 -0.045768237922710488 0 -0.29035697168298702 -0.036300130378090427 0 -0.27993537768371551 -0.029277082582652981 0 -0.29035697168298702 -0.036300130378090427 0 -0.27972275563510052 -0.041533494838674252 0 -0.29035697168298702 -0.036300130378090427 0 -0.28767750391676311 -0.046215418839919711 0 -0.27972275563510052 -0.041533494838674252 0 -0.28767750391676311 -0.046215418839919711 0 -0.28005573145397539 -0.053282191503844577 0 -0.27972275563510052 -0.041533494838674252 0 -0.28767750391676311 -0.046215418839919711 0 -0.2913986854121155 -0.054193039556278827 0 -0.28005573145397539 -0.053282191503844577 0 -0.29685337539963719 -0.045768237922710488 0 -0.28767750391676311 -0.046215418839919711 0 -0.2913986854121155 -0.054193039556278827 0 -0.30203877052231032 -0.052792781657539548 0 -0.29685337539963719 -0.045768237922710488 0 -0.2913986854121155 -0.054193039556278827 0 -0.29818611099959719 -0.060617270195454057 0 -0.29159658297350788 -0.061067110867911209 0 -0.29539746243910842 -0.065275827002812772 0 -0.29818611099959719 -0.060617270195454057 0 -0.2913986854121155 -0.054193039556278827 0 -0.29159658297350788 -0.061067110867911209 0 -0.2913986854121155 -0.054193039556278827 0 -0.29159658297350788 -0.061067110867911209 0 -0.28647732448149699 -0.058625134718300047 0 -0.28647732448149699 -0.058625134718300047 0 -0.2819697568258851 -0.059917839522372243 0 -0.28736586574200079 -0.064665492141093406 0 -0.2913986854121155 -0.054193039556278827 0 -0.28647732448149699 -0.058625134718300047 0 -0.28005573145397539 -0.053282191503844577 0 -0.29159658297350788 -0.061067110867911209 0 -0.28647732448149699 -0.058625134718300047 0 -0.28736586574200079 -0.064665492141093406 0 -0.28647732448149699 -0.058625134718300047 0 -0.2819697568258851 -0.059917839522372243 0 -0.28005573145397539 -0.053282191503844577 0 -0.27383807409101479 -0.062471841829739853 0 -0.28005573145397539 -0.053282191503844577 0 -0.2819697568258851 -0.059917839522372243 0 -0.27383807409101479 -0.062471841829739853 0 -0.28736586574200079 -0.064665492141093406 0 -0.2819697568258851 -0.059917839522372243 0 -0.27383807409101479 -0.062471841829739853 0 -0.28005573145397539 -0.053282191503844577 0 -0.27383807409101479 -0.062471841829739853 0 -0.28005573145397539 -0.053282191503844577 0 -0.27159008933200868 -0.050935816401840611 0 -0.28005573145397539 -0.053282191503844577 0 -0.27159008933200868 -0.050935816401840611 0 -0.27972275563510052 -0.041533494838674252 0 -0.27159008933200868 -0.050935816401840611 0 -0.26321730125739567 -0.046266911094741008 0 -0.26539934245599561 -0.058535312278050318 0 -0.27383807409101479 -0.062471841829739853 0 -0.26539934245599561 -0.058535312278050318 0 -0.27228988758059142 -0.064760049725333405 0 -0.27383807409101479 -0.062471841829739853 0 -0.26539934245599561 -0.058535312278050318 0 -0.27383807409101479 -0.062471841829739853 0 -0.27159008933200868 -0.050935816401840611 0 -0.26539934245599561 -0.058535312278050318 0 -0.26539934245599561 -0.058535312278050318 0 -0.27228988758059142 -0.064760049725333405 0 -0.27993537768371551 -0.029277082582652981 0 -0.27972275563510052 -0.041533494838674252 0 -0.26881319335380088 -0.03994996050952232 0 -0.27159008933200868 -0.050935816401840611 0 -0.26881319335380088 -0.03994996050952232 0 -0.26321730125739567 -0.046266911094741008 0 -0.27159008933200868 -0.050935816401840611 0 -0.27972275563510052 -0.041533494838674252 0 -0.26881319335380088 -0.03994996050952232 0 -0.26336516908667401 -0.02241631372729987 0 -0.26881319335380088 -0.03994996050952232 0 -0.25759444059757519 -0.034859945494417358 0 -0.26881319335380088 -0.03994996050952232 0 -0.26321730125739567 -0.046266911094741008 0 -0.25759444059757519 -0.034859945494417358 0 -0.26321730125739567 -0.046266911094741008 0 -0.25759444059757519 -0.034859945494417358 0 -0.25268944054759868 -0.047053520789873612 0 -0.24455394929324889 -0.036499424228045682 0 -0.25759444059757519 -0.034859945494417358 0 -0.25268944054759868 -0.047053520789873612 0 -0.25883862165671823 -0.061868545190702652 0 -0.26539934245599561 -0.058535312278050318 0 -0.26295157035783617 -0.067074125101857313 0 -0.25859836515053419 -0.055362768191897997 0 -0.25883862165671823 -0.061868545190702652 0 -0.26539934245599561 -0.058535312278050318 0 -0.25859836515053419 -0.055362768191897997 0 -0.26539934245599561 -0.058535312278050318 0 -0.25859836515053419 -0.055362768191897997 0 -0.26539934245599561 -0.058535312278050318 0 -0.25268944054759868 -0.047053520789873612 0 -0.26539934245599561 -0.058535312278050318 0 -0.25268944054759868 -0.047053520789873612 0 -0.26321730125739567 -0.046266911094741008 0 -0.26539934245599561 -0.058535312278050318 0 -0.25268944054759868 -0.047053520789873612 0 -0.24846099788831619 -0.053977821433680247 0 -0.25859836515053419 -0.055362768191897997 0 -0.25268944054759868 -0.047053520789873612 0 -0.24846099788831619 -0.053977821433680247 0 -0.25859836515053419 -0.055362768191897997 0 -0.2531370331241472 -0.060476090224473228 0 -0.25859836515053419 -0.055362768191897997 0 -0.25883862165671823 -0.061868545190702652 0 -0.2531370331241472 -0.060476090224473228 0 -0.2531370331241472 -0.060476090224473228 0 -0.25024480965728291 -0.064690907136105272 0 -0.25410679719507839 -0.067894430157233496 0 -0.24121532486973199 -0.073531373669831979 0 -0.26485359756931298 -0.075750829843365924 0 -0.25533347010654661 -0.080097302684604632 0 -0.24121532486973199 -0.073531373669831979 0 -0.25410679719507839 -0.067894430157233496 0 -0.26485359756931298 -0.075750829843365924 0 -0.24121532486973199 -0.073531373669831979 0 -0.26485359756931298 -0.075750829843365924 0 -0.24720656655496381 -0.068274509552894186 0 -0.25024480965728291 -0.064690907136105272 0 -0.25410679719507839 -0.067894430157233496 0 -0.25883862165671823 -0.061868545190702652 0 -0.2531370331241472 -0.060476090224473228 0 -0.25410679719507839 -0.067894430157233496 0 -0.25883862165671823 -0.061868545190702652 0 -0.25410679719507839 -0.067894430157233496 0 -0.26295157035783617 -0.067074125101857313 0 -0.25410679719507839 -0.067894430157233496 0 -0.26295157035783617 -0.067074125101857313 0 -0.26485359756931298 -0.075750829843365924 0 -0.26485359756931298 -0.075750829843365924 0 -0.25396267323909438 -0.091847533228253647 0 -0.2464857450906428 -0.078799841592908801 0 -0.24836033993735729 -0.0821526296178757 0 -0.25533347010654661 -0.080097302684604632 0 -0.26485359756931298 -0.075750829843365924 0 -0.25533347010654661 -0.080097302684604632 0 -0.25396267323909438 -0.091847533228253647 0 -0.25396267323909438 -0.091847533228253647 0 -0.27054623600833061 -0.083012137012561882 0 -0.25396267323909438 -0.091847533228253647 0 -0.27054623600833061 -0.083012137012561882 0 -0.26662136533568409 -0.095626291298684316 0 -0.26485359756931298 -0.075750829843365924 0 -0.25396267323909438 -0.091847533228253647 0 -0.27054623600833061 -0.083012137012561882 0 -0.24836033993735729 -0.0821526296178757 0 -0.25533347010654661 -0.080097302684604632 0 -0.25080385271298261 -0.086164853568068411 0 -0.25533347010654661 -0.080097302684604632 0 -0.25080385271298261 -0.086164853568068411 0 -0.25396267323909438 -0.091847533228253647 0 -0.24631505396097481 -0.089176655310370542 0 -0.25080385271298261 -0.086164853568068411 0 -0.25396267323909438 -0.091847533228253647 0 -0.27054623600833061 -0.083012137012561882 0 -0.2867299897500501 -0.07780485867606865 0 -0.28126877342018158 -0.087679243180768904 0 -0.26485359756931298 -0.075750829843365924 0 -0.27054623600833061 -0.083012137012561882 0 -0.2867299897500501 -0.07780485867606865 0 -0.27054623600833061 -0.083012137012561882 0 -0.27528599811465881 -0.093357797899983191 0 -0.26662136533568409 -0.095626291298684316 0 -0.27054623600833061 -0.083012137012561882 0 -0.27528599811465881 -0.093357797899983191 0 -0.28126877342018158 -0.087679243180768904 0 -0.27528599811465881 -0.093357797899983191 0 -0.2837143810928735 -0.096185083881864308 0 -0.28126877342018158 -0.087679243180768904 0 -0.26485359756931298 -0.075750829843365924 0 -0.27228988758059142 -0.064760049725333405 0 -0.2867299897500501 -0.07780485867606865 0 -0.27228988758059142 -0.064760049725333405 0 -0.2867299897500501 -0.07780485867606865 0 -0.26485359756931298 -0.075750829843365924 0 -0.2867299897500501 -0.07780485867606865 0 -0.27383807409101479 -0.062471841829739853 0 -0.27228988758059142 -0.064760049725333405 0 -0.2867299897500501 -0.07780485867606865 0 -0.26539934245599561 -0.058535312278050318 0 -0.26295157035783617 -0.067074125101857313 0 -0.27228988758059142 -0.064760049725333405 0 -0.26295157035783617 -0.067074125101857313 0 -0.26485359756931298 -0.075750829843365924 0 -0.27228988758059142 -0.064760049725333405 0 -0.26485359756931298 -0.075750829843365924 0 -0.27228988758059142 -0.064760049725333405 0 -0.27383807409101479 -0.062471841829739853 0 -0.27228988758059142 -0.064760049725333405 0 -0.2572974049490574 -0.1243517742112923 0 -0.2670639227585056 -0.1163347544349653 0 -0.27199264417346192 -0.13361772844391509 0 -0.2572974049490574 -0.1243517742112923 0 -0.25512470820440092 -0.11284709536980329 0 -0.2670639227585056 -0.1163347544349653 0 -0.24700144371182431 -0.1205517999847413 0 -0.2572974049490574 -0.1243517742112923 0 -0.25512470820440092 -0.11284709536980329 0 -0.25512470820440092 -0.11284709536980329 0 -0.26194314538610802 -0.10503393639020631 0 -0.2670639227585056 -0.1163347544349653 0 -0.26194314538610802 -0.10503393639020631 0 -0.25416101504085692 -0.1028446311457844 0 -0.25917204975043578 -0.098838098015732151 0 -0.25512470820440092 -0.11284709536980329 0 -0.26194314538610802 -0.10503393639020631 0 -0.25416101504085692 -0.1028446311457844 0 -0.24372994401792211 -0.1069714292445017 0 -0.25512470820440092 -0.11284709536980329 0 -0.25416101504085692 -0.1028446311457844 0 -0.25396267323909438 -0.091847533228253647 0 -0.25416101504085692 -0.1028446311457844 0 -0.25917204975043578 -0.098838098015732151 0 -0.24372994401792211 -0.1069714292445017 0 -0.25396267323909438 -0.091847533228253647 0 -0.25416101504085692 -0.1028446311457844 0 -0.26194314538610802 -0.10503393639020631 0 -0.25917204975043578 -0.098838098015732151 0 -0.26662136533568409 -0.095626291298684316 0 -0.25396267323909438 -0.091847533228253647 0 -0.25917204975043578 -0.098838098015732151 0 -0.26662136533568409 -0.095626291298684316 0 -0.27528599811465881 -0.093357797899983191 0 -0.26662136533568409 -0.095626291298684316 0 -0.27427923471622417 -0.1042862341260366 0 -0.27528599811465881 -0.093357797899983191 0 -0.27427923471622417 -0.1042862341260366 0 -0.2837143810928735 -0.096185083881864308 0 -0.26194314538610802 -0.10503393639020631 0 -0.26662136533568409 -0.095626291298684316 0 -0.27427923471622417 -0.1042862341260366 0 -0.26194314538610802 -0.10503393639020631 0 -0.27427923471622417 -0.1042862341260366 0 -0.2670639227585056 -0.1163347544349653 0 -0.2670639227585056 -0.1163347544349653 0 -0.28174639912178151 -0.1178717580685382 0 -0.27199264417346192 -0.13361772844391509 0 -0.27427923471622417 -0.1042862341260366 0 -0.28174639912178151 -0.1178717580685382 0 -0.28673655320141811 -0.10659246814687739 0 -0.27427923471622417 -0.1042862341260366 0 -0.2670639227585056 -0.1163347544349653 0 -0.28174639912178151 -0.1178717580685382 0 -0.28174639912178151 -0.1178717580685382 0 -0.29770805701214381 -0.1139602483082842 0 -0.29281587701708961 -0.1343833721279174 0 -0.28174639912178151 -0.1178717580685382 0 -0.28673655320141811 -0.10659246814687739 0 -0.29770805701214381 -0.1139602483082842 0 -0.28673655320141811 -0.10659246814687739 0 -0.29623469406406738 -0.1006590163496635 0 -0.29770805701214381 -0.1139602483082842 0 -0.27427923471622417 -0.1042862341260366 0 -0.28673655320141811 -0.10659246814687739 0 -0.2837143810928735 -0.096185083881864308 0 -0.28673655320141811 -0.10659246814687739 0 -0.2837143810928735 -0.096185083881864308 0 -0.29623469406406738 -0.1006590163496635 0 -0.2837143810928735 -0.096185083881864308 0 -0.29623469406406738 -0.1006590163496635 0 -0.28992851158577021 -0.090730360916199571 0 -0.29623469406406738 -0.1006590163496635 0 -0.28992851158577021 -0.090730360916199571 0 -0.30169471960167799 -0.091323602492633174 0 -0.29623469406406738 -0.1006590163496635 0 -0.30169471960167799 -0.091323602492633174 0 -0.31665944945330649 -0.104842346309197 0 -0.29623469406406738 -0.1006590163496635 0 -0.29770805701214381 -0.1139602483082842 0 -0.31665944945330649 -0.104842346309197 0 -0.30169471960167799 -0.091323602492633174 0 -0.31665944945330649 -0.104842346309197 0 -0.31020590029444078 -0.1223007067826585 0 -0.29770805701214381 -0.1139602483082842 0 -0.29281587701708961 -0.1343833721279174 0 -0.31020590029444078 -0.1223007067826585 0 -0.29770805701214381 -0.1139602483082842 0 -0.31665944945330649 -0.104842346309197 0 -0.27383807409101479 -0.062471841829739853 0 -0.28736586574200079 -0.064665492141093406 0 -0.29784584980924628 -0.073671074448177026 0 -0.27383807409101479 -0.062471841829739853 0 -0.2867299897500501 -0.07780485867606865 0 -0.29784584980924628 -0.073671074448177026 0 -0.27383807409101479 -0.062471841829739853 0 -0.29784584980924628 -0.073671074448177026 0 -0.2867299897500501 -0.07780485867606865 0 -0.30115444169810379 -0.079159206319520128 0 -0.29784584980924628 -0.073671074448177026 0 -0.29159658297350788 -0.061067110867911209 0 -0.29539746243910842 -0.065275827002812772 0 -0.28736586574200079 -0.064665492141093406 0 -0.29539746243910842 -0.065275827002812772 0 -0.28736586574200079 -0.064665492141093406 0 -0.29784584980924628 -0.073671074448177026 0 -0.2867299897500501 -0.07780485867606865 0 -0.28126877342018158 -0.087679243180768904 0 -0.28992851158577021 -0.090730360916199571 0 -0.2837143810928735 -0.096185083881864308 0 -0.28126877342018158 -0.087679243180768904 0 -0.28992851158577021 -0.090730360916199571 0 -0.2867299897500501 -0.07780485867606865 0 -0.28992851158577021 -0.090730360916199571 0 -0.30169471960167799 -0.091323602492633174 0 -0.2867299897500501 -0.07780485867606865 0 -0.30115444169810379 -0.079159206319520128 0 -0.30169471960167799 -0.091323602492633174 0 -0.2867299897500501 -0.07780485867606865 0 -0.30169471960167799 -0.091323602492633174 0 -0.2867299897500501 -0.07780485867606865 0 -0.30115444169810379 -0.079159206319520128 0 -0.30115444169810379 -0.079159206319520128 0 -0.29784584980924628 -0.073671074448177026 0 -0.32185362552747793 -0.084870307066613804 0 -0.29784584980924628 -0.073671074448177026 0 -0.32185362552747793 -0.084870307066613804 0 -0.30115444169810379 -0.079159206319520128 0 -0.30169471960167799 -0.091323602492633174 0 -0.32185362552747793 -0.084870307066613804 0 -0.29784584980924628 -0.073671074448177026 0 -0.3124367732289281 -0.069998114348299029 0 -0.32185362552747793 -0.084870307066613804 0 -0.29539746243910842 -0.065275827002812772 0 -0.29784584980924628 -0.073671074448177026 0 -0.30199290267118939 -0.066358187361428178 0 -0.29784584980924628 -0.073671074448177026 0 -0.30199290267118939 -0.066358187361428178 0 -0.3124367732289281 -0.069998114348299029 0 -0.29818611099959719 -0.060617270195454057 0 -0.29539746243910842 -0.065275827002812772 0 -0.30199290267118939 -0.066358187361428178 0 -0.30808078837497432 -0.060349139806054608 0 -0.30199290267118939 -0.066358187361428178 0 -0.3124367732289281 -0.069998114348299029 0 -0.30808078837497432 -0.060349139806054608 0 -0.3124367732289281 -0.069998114348299029 0 -0.32230233763581151 -0.061182055278555608 0 -0.3124367732289281 -0.069998114348299029 0 -0.32243368884480261 -0.071633178708387035 0 -0.32230233763581151 -0.061182055278555608 0 -0.32243368884480261 -0.071633178708387035 0 -0.33314201898699308 -0.0704822381400797 0 -0.32230233763581151 -0.061182055278555608 0 -0.32243368884480261 -0.071633178708387035 0 -0.32185362552747793 -0.084870307066613804 0 -0.33314201898699308 -0.0704822381400797 0 -0.3124367732289281 -0.069998114348299029 0 -0.32243368884480261 -0.071633178708387035 0 -0.32185362552747793 -0.084870307066613804 0 -0.30169471960167799 -0.091323602492633174 0 -0.32185362552747793 -0.084870307066613804 0 -0.31665944945330649 -0.104842346309197 0 -0.32185362552747793 -0.084870307066613804 0 -0.34586140124570952 -0.096069539685050553 0 -0.32185362552747793 -0.084870307066613804 0 -0.34143269263996479 -0.080437270276784961 0 -0.34586140124570952 -0.096069539685050553 0 -0.32185362552747793 -0.084870307066613804 0 -0.34143269263996479 -0.080437270276784961 0 -0.33314201898699308 -0.0704822381400797 0 -0.32185362552747793 -0.084870307066613804 0 -0.33155619401235698 -0.098997268578744482 0 -0.34586140124570952 -0.096069539685050553 0 -0.33314201898699308 -0.0704822381400797 0 -0.32230233763581151 -0.061182055278555608 0 -0.3392446953782865 -0.056720499856252063 0 -0.33314201898699308 -0.0704822381400797 0 -0.35215004413143192 -0.067750125511625986 0 -0.3392446953782865 -0.056720499856252063 0 -0.34143269263996479 -0.080437270276784961 0 -0.33314201898699308 -0.0704822381400797 0 -0.35215004413143192 -0.067750125511625986 0 -0.31020590029444078 -0.1223007067826585 0 -0.31665944945330649 -0.104842346309197 0 -0.33162417930493571 -0.1183610901257599 0 -0.31665944945330649 -0.104842346309197 0 -0.33200868846753701 -0.1075592436300198 0 -0.33162417930493571 -0.1183610901257599 0 -0.31665944945330649 -0.104842346309197 0 -0.33162417930493571 -0.1183610901257599 0 -0.32185362552747793 -0.084870307066613804 0 -0.31665944945330649 -0.104842346309197 0 -0.33155619401235698 -0.098997268578744482 0 -0.31665944945330649 -0.104842346309197 0 -0.33155619401235698 -0.098997268578744482 0 -0.33200868846753701 -0.1075592436300198 0 -0.33155619401235698 -0.098997268578744482 0 -0.34270786814959109 -0.1060245484991322 0 -0.34586140124570952 -0.096069539685050553 0 -0.33155619401235698 -0.098997268578744482 0 -0.34270786814959109 -0.1060245484991322 0 -0.33200868846753701 -0.1075592436300198 0 -0.34270786814959109 -0.1060245484991322 0 -0.33200868846753701 -0.1075592436300198 0 -0.33162417930493571 -0.1183610901257599 0 -0.34270786814959109 -0.1060245484991322 0 -0.33162417930493571 -0.1183610901257599 0 -0.34270786814959109 -0.1060245484991322 0 -0.3418966595306776 -0.1166261352256648 0 -0.33162417930493571 -0.1183610901257599 0 -0.3418966595306776 -0.1166261352256648 0 -0.33868769426367401 -0.1247420839771979 0 -0.33162417930493571 -0.1183610901257599 0 -0.3418966595306776 -0.1166261352256648 0 -0.33868769426367401 -0.1247420839771979 0 -0.3472223384570407 -0.12170132815957579 0 -0.33868769426367401 -0.1247420839771979 0 -0.33162417930493571 -0.1183610901257599 0 -0.3472223384570407 -0.12170132815957579 0 -0.35988166893383672 -0.12163115697077059 0 -0.35114797256527192 -0.12989338382384899 0 -0.3472223384570407 -0.12170132815957579 0 -0.3512398522134661 -0.11155358014061351 0 -0.35988166893383672 -0.12163115697077059 0 -0.34270786814959109 -0.1060245484991322 0 -0.3418966595306776 -0.1166261352256648 0 -0.3512398522134661 -0.11155358014061351 0 -0.3418966595306776 -0.1166261352256648 0 -0.3472223384570407 -0.12170132815957579 0 -0.3512398522134661 -0.11155358014061351 0 -0.34586140124570952 -0.096069539685050553 0 -0.36986917696394112 -0.1072687723034873 0 -0.36223469653247059 -0.093075199474969075 0 -0.3512398522134661 -0.11155358014061351 0 -0.34586140124570952 -0.096069539685050553 0 -0.36986917696394112 -0.1072687723034873 0 -0.34586140124570952 -0.096069539685050553 0 -0.36986917696394112 -0.1072687723034873 0 -0.34270786814959109 -0.1060245484991322 0 -0.3512398522134661 -0.11155358014061351 0 -0.34586140124570952 -0.096069539685050553 0 -0.37254702165361481 -0.094453154848385179 0 -0.36986917696394112 -0.1072687723034873 0 -0.36223469653247059 -0.093075199474969075 0 -0.3512398522134661 -0.11155358014061351 0 -0.36986917696394112 -0.1072687723034873 0 -0.35988166893383672 -0.12163115697077059 0 -0.36986917696394112 -0.1072687723034873 0 -0.37469506225613652 -0.1239532177657803 0 -0.35988166893383672 -0.12163115697077059 0 -0.35215004413143192 -0.067750125511625986 0 -0.35455639799272048 -0.083296656057509216 0 -0.36264949359775428 -0.077552613846828461 0 -0.34143269263996479 -0.080437270276784961 0 -0.35215004413143192 -0.067750125511625986 0 -0.35455639799272048 -0.083296656057509216 0 -0.34143269263996479 -0.080437270276784961 0 -0.34586140124570952 -0.096069539685050553 0 -0.35455639799272048 -0.083296656057509216 0 -0.34586140124570952 -0.096069539685050553 0 -0.35455639799272048 -0.083296656057509216 0 -0.36223469653247059 -0.093075199474969075 0 -0.35455639799272048 -0.083296656057509216 0 -0.36983989846659687 -0.084117297864896134 0 -0.36264949359775428 -0.077552613846828461 0 -0.35455639799272048 -0.083296656057509216 0 -0.36223469653247059 -0.093075199474969075 0 -0.36983989846659687 -0.084117297864896134 0 -0.37254702165361481 -0.094453154848385179 0 -0.36223469653247059 -0.093075199474969075 0 -0.36983989846659687 -0.084117297864896134 0 -0.37254702165361481 -0.094453154848385179 0 -0.36983989846659687 -0.084117297864896134 0 -0.3803385567372764 -0.088319055883598105 0 -0.36983989846659687 -0.084117297864896134 0 -0.37367540951124961 -0.07241881559753717 0 -0.38026999091325903 -0.078935168810278067 0 -0.36983989846659687 -0.084117297864896134 0 -0.37367540951124961 -0.07241881559753717 0 -0.36264949359775428 -0.077552613846828461 0 -0.37367540951124961 -0.07241881559753717 0 -0.36264949359775428 -0.077552613846828461 0 -0.36652885076777458 -0.06855489602988582 0 -0.35215004413143192 -0.067750125511625986 0 -0.36264949359775428 -0.077552613846828461 0 -0.36652885076777458 -0.06855489602988582 0 -0.36652885076777458 -0.06855489602988582 0 -0.37113265406072049 -0.064552487381263846 0 -0.36246790775047161 -0.0606933403211527 0 -0.35215004413143192 -0.067750125511625986 0 -0.36652885076777458 -0.06855489602988582 0 -0.36246790775047161 -0.0606933403211527 0 -0.37367540951124961 -0.07241881559753717 0 -0.36652885076777458 -0.06855489602988582 0 -0.37113265406072049 -0.064552487381263846 0 -0.371219239290419 -0.056883170543900408 0 -0.37139958221676461 -0.044031696238546428 0 -0.38214055169650618 -0.064642048278483313 0 -0.37113265406072049 -0.064552487381263846 0 -0.371219239290419 -0.056883170543900408 0 -0.38214055169650618 -0.064642048278483313 0 -0.37113265406072049 -0.064552487381263846 0 -0.371219239290419 -0.056883170543900408 0 -0.36246790775047161 -0.0606933403211527 0 -0.371219239290419 -0.056883170543900408 0 -0.35654707973373673 -0.051833101687894942 0 -0.37139958221676461 -0.044031696238546428 0 -0.371219239290419 -0.056883170543900408 0 -0.36246790775047161 -0.0606933403211527 0 -0.35654707973373673 -0.051833101687894942 0 -0.35654707973373673 -0.051833101687894942 0 -0.3392446953782865 -0.056720499856252063 0 -0.3431108456539691 -0.042057072858378931 0 -0.35215004413143192 -0.067750125511625986 0 -0.35654707973373673 -0.051833101687894942 0 -0.3392446953782865 -0.056720499856252063 0 -0.35215004413143192 -0.067750125511625986 0 -0.36246790775047161 -0.0606933403211527 0 -0.35654707973373673 -0.051833101687894942 0 -0.35552839478311288 -0.037869977414133449 0 -0.346671348231194 -0.029669028949958889 0 -0.3431108456539691 -0.042057072858378931 0 -0.35654707973373673 -0.051833101687894942 0 -0.35552839478311288 -0.037869977414133449 0 -0.3431108456539691 -0.042057072858378931 0 -0.37139958221676461 -0.044031696238546428 0 -0.3606586127370231 -0.023421344198609442 0 -0.35654707973373673 -0.051833101687894942 0 -0.35552839478311288 -0.037869977414133449 0 -0.37139958221676461 -0.044031696238546428 0 -0.35552839478311288 -0.037869977414133449 0 -0.37139958221676461 -0.044031696238546428 0 -0.3606586127370231 -0.023421344198609442 0 -0.3606586127370231 -0.023421344198609442 0 -0.36848648692226638 -0.011058815079748549 0 -0.3783112042546668 -0.02240315150685588 0 -0.37139958221676461 -0.044031696238546428 0 -0.3606586127370231 -0.023421344198609442 0 -0.3783112042546668 -0.02240315150685588 0 -0.3606586127370231 -0.023421344198609442 0 -0.36848648692226638 -0.011058815079748549 0 -0.35431291256067188 -0.0070001533375129051 0 -0.36848648692226638 -0.011058815079748549 0 -0.3808204899099874 -0.0031860702741812281 0 -0.36457784417838562 0.001044263584331449 0 -0.36848648692226638 -0.011058815079748549 0 -0.35431291256067188 -0.0070001533375129051 0 -0.36457784417838562 0.001044263584331449 0 -0.3606586127370231 -0.023421344198609442 0 -0.35431291256067188 -0.0070001533375129051 0 -0.34179635408094527 -0.01541701315804698 0 -0.35431291256067188 -0.0070001533375129051 0 -0.34179635408094527 -0.01541701315804698 0 -0.34222897702701371 0.0021564326969536521 0 -0.35431291256067188 -0.0070001533375129051 0 -0.3547260469056448 0.0055725142601272823 0 -0.36457784417838562 0.001044263584331449 0 -0.3606586127370231 -0.023421344198609442 0 -0.346671348231194 -0.029669028949958889 0 -0.34179635408094527 -0.01541701315804698 0 -0.35552839478311288 -0.037869977414133449 0 -0.3606586127370231 -0.023421344198609442 0 -0.346671348231194 -0.029669028949958889 0 -0.346671348231194 -0.029669028949958889 0 -0.33226253390091959 -0.02957973712062564 0 -0.34179635408094527 -0.01541701315804698 0 -0.33226253390091959 -0.02957973712062564 0 -0.34179635408094527 -0.01541701315804698 0 -0.32548678213511312 -0.01335665344170686 0 -0.34179635408094527 -0.01541701315804698 0 -0.32994479933062693 -0.001554818251230301 0 -0.34222897702701371 0.0021564326969536521 0 -0.34179635408094527 -0.01541701315804698 0 -0.32994479933062693 -0.001554818251230301 0 -0.32548678213511312 -0.01335665344170686 0 -0.32994479933062693 -0.001554818251230301 0 -0.32548678213511312 -0.01335665344170686 0 -0.31800422345143847 0.00037436502929125799 0 -0.32548678213511312 -0.01335665344170686 0 -0.31350486428597168 -0.010952588748162181 0 -0.31800422345143847 0.00037436502929125799 0 -0.31050293175726001 -0.0045374794725471269 0 -0.31350486428597168 -0.010952588748162181 0 -0.31800422345143847 0.00037436502929125799 0 -0.33226253390091959 -0.02957973712062564 0 -0.32548678213511312 -0.01335665344170686 0 -0.31720209072894218 -0.024058493162663279 0 -0.33226253390091959 -0.02957973712062564 0 -0.31720209072894218 -0.024058493162663279 0 -0.31646027977837021 -0.037986693334049672 0 -0.32548678213511312 -0.01335665344170686 0 -0.31350486428597168 -0.010952588748162181 0 -0.31720209072894218 -0.024058493162663279 0 -0.30868008975053679 -0.02971665335758325 0 -0.31720209072894218 -0.024058493162663279 0 -0.31646027977837021 -0.037986693334049672 0 -0.33226253390091959 -0.02957973712062564 0 -0.31646027977837021 -0.037986693334049672 0 -0.32861587081228533 -0.047300920737931587 0 -0.31646027977837021 -0.037986693334049672 0 -0.31512163107114982 -0.051022841404941371 0 -0.32861587081228533 -0.047300920737931587 0 -0.30761843971034131 -0.04586492845381928 0 -0.31646027977837021 -0.037986693334049672 0 -0.31512163107114982 -0.051022841404941371 0 -0.30808078837497432 -0.060349139806054608 0 -0.31512163107114982 -0.051022841404941371 0 -0.32230233763581151 -0.061182055278555608 0 -0.31512163107114982 -0.051022841404941371 0 -0.32230233763581151 -0.061182055278555608 0 -0.32861587081228533 -0.047300920737931587 0 -0.32230233763581151 -0.061182055278555608 0 -0.32861587081228533 -0.047300920737931587 0 -0.3392446953782865 -0.056720499856252063 0 -0.32861587081228533 -0.047300920737931587 0 -0.3392446953782865 -0.056720499856252063 0 -0.3431108456539691 -0.042057072858378931 0 -0.33226253390091959 -0.02957973712062564 0 -0.32861587081228533 -0.047300920737931587 0 -0.3431108456539691 -0.042057072858378931 0 -0.346671348231194 -0.029669028949958889 0 -0.33226253390091959 -0.02957973712062564 0 -0.3431108456539691 -0.042057072858378931 0 -0.30403873960416522 -0.25992880783821931 0 -0.31184112631499722 -0.23694051566600499 0 -0.29302185169161937 -0.23374666861530821 0 -0.31184112631499722 -0.23694051566600499 0 -0.29302185169161937 -0.23374666861530821 0 -0.31186134660433679 -0.21688289558255069 0 -0.29302185169161937 -0.23374666861530821 0 -0.29350965049235328 -0.21221574172016119 0 -0.31186134660433679 -0.21688289558255069 0 -0.29302185169161937 -0.23374666861530821 0 -0.27318185143058332 -0.2274452532761472 0 -0.29350965049235328 -0.21221574172016119 0 -0.30403873960416522 -0.25992880783821931 0 -0.29302185169161937 -0.23374666861530821 0 -0.28191573780031948 -0.24961119708936949 0 -0.29302185169161937 -0.23374666861530821 0 -0.28191573780031948 -0.24961119708936949 0 -0.27318185143058332 -0.2274452532761472 0 -0.28191573780031948 -0.24961119708936949 0 -0.25346419334368148 -0.24821555279875021 0 -0.27318185143058332 -0.2274452532761472 0 -0.25346419334368148 -0.24821555279875021 0 -0.25058635712221711 -0.2189374614689433 0 -0.27318185143058332 -0.2274452532761472 0 -0.25058635712221711 -0.2189374614689433 0 -0.27318185143058332 -0.2274452532761472 0 -0.27324518785734098 -0.20482918950366599 0 -0.27318185143058332 -0.2274452532761472 0 -0.27324518785734098 -0.20482918950366599 0 -0.29350965049235328 -0.21221574172016119 0 -0.25058635712221711 -0.2189374614689433 0 -0.27324518785734098 -0.20482918950366599 0 -0.25209658637131283 -0.19166369008343151 0 -0.27324518785734098 -0.20482918950366599 0 -0.29558910481668321 -0.19010105587476539 0 -0.27341745744431373 -0.18314725087488259 0 -0.27324518785734098 -0.20482918950366599 0 -0.25209658637131283 -0.19166369008343151 0 -0.27341745744431373 -0.18314725087488259 0 -0.27324518785734098 -0.20482918950366599 0 -0.29558910481668321 -0.19010105587476539 0 -0.29350965049235328 -0.21221574172016119 0 -0.29350965049235328 -0.21221574172016119 0 -0.31186134660433679 -0.21688289558255069 0 -0.31403177662214671 -0.19671907299209959 0 -0.29558910481668321 -0.19010105587476539 0 -0.3182740058051915 -0.17780905465393079 0 -0.31403177662214671 -0.19671907299209959 0 -0.29558910481668321 -0.19010105587476539 0 -0.29350965049235328 -0.21221574172016119 0 -0.31403177662214671 -0.19671907299209959 0 -0.29558910481668321 -0.19010105587476539 0 -0.29281969806452102 -0.1615518639585084 0 -0.3182740058051915 -0.17780905465393079 0 -0.29281969806452102 -0.1615518639585084 0 -0.32366132924779578 -0.15737329769446351 0 -0.3182740058051915 -0.17780905465393079 0 -0.29558910481668321 -0.19010105587476539 0 -0.29281969806452102 -0.1615518639585084 0 -0.27341745744431373 -0.18314725087488259 0 -0.29281969806452102 -0.1615518639585084 0 -0.27341745744431373 -0.18314725087488259 0 -0.24286947140217 -0.1702673360026199 0 -0.25209658637131283 -0.19166369008343151 0 -0.26369810320412501 -0.16521967912572971 0 -0.25209658637131283 -0.19166369008343151 0 -0.27341745744431373 -0.18314725087488259 0 -0.26369810320412501 -0.16521967912572971 0 -0.24286947140217 -0.1702673360026199 0 -0.2459939955575822 -0.15311321343151971 0 -0.26369810320412501 -0.16521967912572971 0 -0.29281969806452102 -0.1615518639585084 0 -0.27341745744431373 -0.18314725087488259 0 -0.26369810320412501 -0.16521967912572971 0 -0.29281969806452102 -0.1615518639585084 0 -0.26369810320412501 -0.16521967912572971 0 -0.27716382579177168 -0.14966204650320339 0 -0.26369810320412501 -0.16521967912572971 0 -0.27716382579177168 -0.14966204650320339 0 -0.2615256877972042 -0.14713235302594219 0 -0.27716382579177168 -0.14966204650320339 0 -0.2615256877972042 -0.14713235302594219 0 -0.27199264417346192 -0.13361772844391509 0 -0.2459939955575822 -0.15311321343151971 0 -0.26369810320412501 -0.16521967912572971 0 -0.2615256877972042 -0.14713235302594219 0 -0.2615256877972042 -0.14713235302594219 0 -0.25055362556030181 -0.14063164118122709 0 -0.26003541848970052 -0.135352235462988 0 -0.2459939955575822 -0.15311321343151971 0 -0.2615256877972042 -0.14713235302594219 0 -0.25055362556030181 -0.14063164118122709 0 -0.2478913060897347 -0.13077121808410791 0 -0.2572974049490574 -0.1243517742112923 0 -0.26003541848970052 -0.135352235462988 0 -0.2478913060897347 -0.13077121808410791 0 -0.24700144371182431 -0.1205517999847413 0 -0.2572974049490574 -0.1243517742112923 0 -0.2478913060897347 -0.13077121808410791 0 -0.25055362556030181 -0.14063164118122709 0 -0.26003541848970052 -0.135352235462988 0 -0.2615256877972042 -0.14713235302594219 0 -0.26003541848970052 -0.135352235462988 0 -0.27199264417346192 -0.13361772844391509 0 -0.2572974049490574 -0.1243517742112923 0 -0.26003541848970052 -0.135352235462988 0 -0.27199264417346192 -0.13361772844391509 0 -0.27716382579177168 -0.14966204650320339 0 -0.27199264417346192 -0.13361772844391509 0 -0.29281587701708961 -0.1343833721279174 0 -0.28174639912178151 -0.1178717580685382 0 -0.27199264417346192 -0.13361772844391509 0 -0.29281587701708961 -0.1343833721279174 0 -0.29281969806452102 -0.1615518639585084 0 -0.27716382579177168 -0.14966204650320339 0 -0.29281587701708961 -0.1343833721279174 0 -0.29281969806452102 -0.1615518639585084 0 -0.31222193868472842 -0.13995647704213421 0 -0.32366132924779578 -0.15737329769446351 0 -0.29281969806452102 -0.1615518639585084 0 -0.31222193868472842 -0.13995647704213421 0 -0.29281969806452102 -0.1615518639585084 0 -0.29281587701708961 -0.1343833721279174 0 -0.31222193868472842 -0.13995647704213421 0 -0.31020590029444078 -0.1223007067826585 0 -0.29281587701708961 -0.1343833721279174 0 -0.31222193868472842 -0.13995647704213421 0 -0.33162417930493571 -0.1183610901257599 0 -0.31222193868472842 -0.13995647704213421 0 -0.31020590029444078 -0.1223007067826585 0 -0.33162417930493571 -0.1183610901257599 0 -0.31222193868472842 -0.13995647704213421 0 -0.33162417930493571 -0.1183610901257599 0 -0.31222193868472842 -0.13995647704213421 0 -0.33049409831663012 -0.13716732274640869 0 -0.31222193868472842 -0.13995647704213421 0 -0.33049409831663012 -0.13716732274640869 0 -0.32366132924779578 -0.15737329769446351 0 -0.33049409831663012 -0.13716732274640869 0 -0.34643986336936822 -0.14361145539454839 0 -0.32366132924779578 -0.15737329769446351 0 -0.34643986336936822 -0.14361145539454839 0 -0.34343983828518188 -0.16538993218481021 0 -0.32366132924779578 -0.15737329769446351 0 -0.33868769426367401 -0.1247420839771979 0 -0.33162417930493571 -0.1183610901257599 0 -0.33049409831663012 -0.13716732274640869 0 -0.33868769426367401 -0.1247420839771979 0 -0.33049409831663012 -0.13716732274640869 0 -0.34643986336936822 -0.14361145539454839 0 -0.33868769426367401 -0.1247420839771979 0 -0.35114797256527192 -0.12989338382384899 0 -0.34643986336936822 -0.14361145539454839 0 -0.35114797256527192 -0.12989338382384899 0 -0.36474538649336802 -0.1357592334688783 0 -0.34643986336936822 -0.14361145539454839 0 -0.33868769426367401 -0.1247420839771979 0 -0.3472223384570407 -0.12170132815957579 0 -0.35114797256527192 -0.12989338382384899 0 -0.35988166893383672 -0.12163115697077059 0 -0.35114797256527192 -0.12989338382384899 0 -0.36474538649336802 -0.1357592334688783 0 -0.36474538649336802 -0.1357592334688783 0 -0.37405041125331279 -0.14592149214871461 0 -0.38510212620736378 -0.1366389211638413 0 -0.37469506225613652 -0.1239532177657803 0 -0.35988166893383672 -0.12163115697077059 0 -0.36474538649336802 -0.1357592334688783 0 -0.37469506225613652 -0.1239532177657803 0 -0.36474538649336802 -0.1357592334688783 0 -0.38510212620736378 -0.1366389211638413 0 -0.36307082326667039 -0.15449020045514411 0 -0.37405041125331279 -0.14592149214871461 0 -0.38237154529337442 -0.15738528485430511 0 -0.36474538649336802 -0.1357592334688783 0 -0.36307082326667039 -0.15449020045514411 0 -0.37405041125331279 -0.14592149214871461 0 -0.36474538649336802 -0.1357592334688783 0 -0.36307082326667039 -0.15449020045514411 0 -0.34643986336936822 -0.14361145539454839 0 -0.36307082326667039 -0.15449020045514411 0 -0.34643986336936822 -0.14361145539454839 0 -0.34343983828518188 -0.16538993218481021 0 -0.36307082326667039 -0.15449020045514411 0 -0.36885121174972613 -0.17749894001734251 0 -0.34343983828518188 -0.16538993218481021 0 -0.36307082326667039 -0.15449020045514411 0 -0.36885121174972613 -0.17749894001734251 0 -0.38237154529337442 -0.15738528485430511 0 -0.36885121174972613 -0.17749894001734251 0 -0.34343983828518188 -0.16538993218481021 0 -0.34016904823848892 -0.19261869466410569 0 -0.34343983828518188 -0.16538993218481021 0 -0.3182740058051915 -0.17780905465393079 0 -0.34016904823848892 -0.19261869466410569 0 -0.34343983828518188 -0.16538993218481021 0 -0.32366132924779578 -0.15737329769446351 0 -0.3182740058051915 -0.17780905465393079 0 -0.3182740058051915 -0.17780905465393079 0 -0.31403177662214671 -0.19671907299209959 0 -0.34016904823848892 -0.19261869466410569 0 -0.31403177662214671 -0.19671907299209959 0 -0.32863294715577729 -0.20807964377321589 0 -0.34016904823848892 -0.19261869466410569 0 -0.31186134660433679 -0.21688289558255069 0 -0.31403177662214671 -0.19671907299209959 0 -0.32863294715577729 -0.20807964377321589 0 -0.31186134660433679 -0.21688289558255069 0 -0.32863294715577729 -0.20807964377321589 0 -0.32693424484022621 -0.22763211303290659 0 -0.32863294715577729 -0.20807964377321589 0 -0.34409507035060649 -0.21596673863278029 0 -0.32693424484022621 -0.22763211303290659 0 -0.32863294715577729 -0.20807964377321589 0 -0.34016904823848892 -0.19261869466410569 0 -0.34409507035060649 -0.21596673863278029 0 -0.36885121174972613 -0.17749894001734251 0 -0.34016904823848892 -0.19261869466410569 0 -0.36433487583290369 -0.203673522352285 0 -0.36433487583290369 -0.203673522352285 0 -0.36239414019208011 -0.22812537861052881 0 -0.37999800554071961 -0.21506646510205929 0 -0.34016904823848892 -0.19261869466410569 0 -0.36433487583290369 -0.203673522352285 0 -0.34409507035060649 -0.21596673863278029 0 -0.36433487583290369 -0.203673522352285 0 -0.34409507035060649 -0.21596673863278029 0 -0.36239414019208011 -0.22812537861052881 0 -0.34409507035060649 -0.21596673863278029 0 -0.36239414019208011 -0.22812537861052881 0 -0.34163111826847081 -0.23802455308120049 0 -0.36239414019208011 -0.22812537861052881 0 -0.38243464749489292 -0.22982431047056739 0 -0.37999800554071961 -0.21506646510205929 0 -0.36239414019208011 -0.22812537861052881 0 -0.37105134606721413 -0.24673755009235079 0 -0.35537346118664881 -0.2470184445464203 0 -0.36239414019208011 -0.22812537861052881 0 -0.37105134606721413 -0.24673755009235079 0 -0.38243464749489292 -0.22982431047056739 0 -0.34212265676594322 -0.25855395123388702 0 -0.35537346118664881 -0.2470184445464203 0 -0.34163111826847081 -0.23802455308120049 0 -0.36239414019208011 -0.22812537861052881 0 -0.35537346118664881 -0.2470184445464203 0 -0.34163111826847081 -0.23802455308120049 0 -0.34163111826847081 -0.23802455308120049 0 -0.32693424484022621 -0.22763211303290659 0 -0.3235438603471687 -0.24989833146168711 0 -0.34212265676594322 -0.25855395123388702 0 -0.34163111826847081 -0.23802455308120049 0 -0.3235438603471687 -0.24989833146168711 0 -0.34409507035060649 -0.21596673863278029 0 -0.34163111826847081 -0.23802455308120049 0 -0.32693424484022621 -0.22763211303290659 0 -0.31184112631499722 -0.23694051566600499 0 -0.31186134660433679 -0.21688289558255069 0 -0.32693424484022621 -0.22763211303290659 0 -0.30403873960416522 -0.25992880783821931 0 -0.31184112631499722 -0.23694051566600499 0 -0.3235438603471687 -0.24989833146168711 0 -0.31184112631499722 -0.23694051566600499 0 -0.32693424484022621 -0.22763211303290659 0 -0.3235438603471687 -0.24989833146168711 0 -0.43146755196554731 -0.23562370164918961 0 -0.42450417649405608 -0.22936607216044669 0 -0.42127657638668742 -0.2452010714524766 0 -0.43527656859499569 -0.2429182587076664 0 -0.43146755196554731 -0.23562370164918961 0 -0.42127657638668742 -0.2452010714524766 0 -0.42875470656841969 -0.25725464290850703 0 -0.43527656859499569 -0.2429182587076664 0 -0.42127657638668742 -0.2452010714524766 0 -0.42875470656841969 -0.25725464290850703 0 -0.43527656859499569 -0.2429182587076664 0 -0.44175431771453882 -0.2496538524987241 0 -0.43527656859499569 -0.2429182587076664 0 -0.43146755196554731 -0.23562370164918961 0 -0.44179843062157148 -0.22858187450682591 0 -0.43146755196554731 -0.23562370164918961 0 -0.42450417649405608 -0.22936607216044669 0 -0.44179843062157148 -0.22858187450682591 0 -0.41721905222507999 -0.21366151370843611 0 -0.44179843062157148 -0.22858187450682591 0 -0.42450417649405608 -0.22936607216044669 0 -0.41721905222507999 -0.21366151370843611 0 -0.44179843062157148 -0.22858187450682591 0 -0.42450417649405608 -0.22936607216044669 0 -0.39998115203644719 -0.22207499009776699 0 -0.41721905222507999 -0.21366151370843611 0 -0.42450417649405608 -0.22936607216044669 0 -0.40677663811025228 -0.2389351936723724 0 -0.39998115203644719 -0.22207499009776699 0 -0.42450417649405608 -0.22936607216044669 0 -0.40677663811025228 -0.2389351936723724 0 -0.42127657638668742 -0.2452010714524766 0 -0.40567112408393652 -0.25303076231511862 0 -0.40677663811025228 -0.2389351936723724 0 -0.42127657638668742 -0.2452010714524766 0 -0.40677663811025228 -0.2389351936723724 0 -0.39061584230541252 -0.2487733851209307 0 -0.38243464749489292 -0.22982431047056739 0 -0.40567112408393652 -0.25303076231511862 0 -0.40677663811025228 -0.2389351936723724 0 -0.39061584230541252 -0.2487733851209307 0 -0.37105134606721413 -0.24673755009235079 0 -0.38243464749489292 -0.22982431047056739 0 -0.37105134606721413 -0.24673755009235079 0 -0.39061584230541252 -0.2487733851209307 0 -0.38243464749489292 -0.22982431047056739 0 -0.38243464749489292 -0.22982431047056739 0 -0.39998115203644719 -0.22207499009776699 0 -0.37999800554071961 -0.21506646510205929 0 -0.40677663811025228 -0.2389351936723724 0 -0.38243464749489292 -0.22982431047056739 0 -0.39998115203644719 -0.22207499009776699 0 -0.39998115203644719 -0.22207499009776699 0 -0.3926396738285895 -0.19874115291004499 0 -0.41721905222507999 -0.21366151370843611 0 -0.39998115203644719 -0.22207499009776699 0 -0.37999800554071961 -0.21506646510205929 0 -0.3926396738285895 -0.19874115291004499 0 -0.3926396738285895 -0.19874115291004499 0 -0.41721905222507999 -0.21366151370843611 0 -0.36433487583290369 -0.203673522352285 0 -0.37999800554071961 -0.21506646510205929 0 -0.3926396738285895 -0.19874115291004499 0 -0.36885121174972613 -0.17749894001734251 0 -0.36433487583290369 -0.203673522352285 0 -0.3926396738285895 -0.19874115291004499 0 -0.3926396738285895 -0.19874115291004499 0 -0.41821609146359678 -0.19681668643615091 0 -0.41270564608465438 -0.17838793744081949 0 -0.3926396738285895 -0.19874115291004499 0 -0.41821609146359678 -0.19681668643615091 0 -0.41721905222507999 -0.21366151370843611 0 -0.41721905222507999 -0.21366151370843611 0 -0.43068458717960639 -0.21022516324002891 0 -0.44179843062157148 -0.22858187450682591 0 -0.41821609146359678 -0.19681668643615091 0 -0.41721905222507999 -0.21366151370843611 0 -0.43068458717960639 -0.21022516324002891 0 -0.43068458717960639 -0.21022516324002891 0 -0.43143400921581587 -0.19687757513501741 0 -0.43827755019902609 -0.20455875835003909 0 -0.43068458717960639 -0.21022516324002891 0 -0.43827755019902609 -0.20455875835003909 0 -0.44076121638623078 -0.2156722515839308 0 -0.43143400921581587 -0.19687757513501741 0 -0.44107688052996719 -0.19546493851823801 0 -0.43827755019902609 -0.20455875835003909 0 -0.43143400921581587 -0.19687757513501741 0 -0.43583672049460848 -0.1878910863533732 0 -0.42601173669212422 -0.1841495180290354 0 -0.43143400921581587 -0.19687757513501741 0 -0.43583672049460848 -0.1878910863533732 0 -0.44107688052996719 -0.19546493851823801 0 -0.41821609146359678 -0.19681668643615091 0 -0.43143400921581587 -0.19687757513501741 0 -0.42601173669212422 -0.1841495180290354 0 -0.41821609146359678 -0.19681668643615091 0 -0.43068458717960639 -0.21022516324002891 0 -0.43143400921581587 -0.19687757513501741 0 -0.42601173669212422 -0.1841495180290354 0 -0.43562394795004622 -0.17462510786305471 0 -0.42121321096122383 -0.1702771219102393 0 -0.43583672049460848 -0.1878910863533732 0 -0.42601173669212422 -0.1841495180290354 0 -0.43562394795004622 -0.17462510786305471 0 -0.43562394795004622 -0.17462510786305471 0 -0.42809730124638612 -0.1617337251371091 0 -0.44009447015904518 -0.15646164970920909 0 -0.42809730124638612 -0.1617337251371091 0 -0.42121321096122383 -0.1702771219102393 0 -0.41764364455353831 -0.15641260604608581 0 -0.43562394795004622 -0.17462510786305471 0 -0.42809730124638612 -0.1617337251371091 0 -0.42121321096122383 -0.1702771219102393 0 -0.42121321096122383 -0.1702771219102393 0 -0.40769946045162059 -0.162456385585559 0 -0.41270564608465438 -0.17838793744081949 0 -0.40769946045162059 -0.162456385585559 0 -0.41270564608465438 -0.17838793744081949 0 -0.42121321096122383 -0.1702771219102393 0 -0.41764364455353831 -0.15641260604608581 0 -0.40769946045162059 -0.162456385585559 0 -0.41821609146359678 -0.19681668643615091 0 -0.42601173669212422 -0.1841495180290354 0 -0.41270564608465438 -0.17838793744081949 0 -0.42601173669212422 -0.1841495180290354 0 -0.42121321096122383 -0.1702771219102393 0 -0.41270564608465438 -0.17838793744081949 0 -0.3926396738285895 -0.19874115291004499 0 -0.41270564608465438 -0.17838793744081949 0 -0.39223133042252067 -0.1748844990303329 0 -0.40769946045162059 -0.162456385585559 0 -0.41270564608465438 -0.17838793744081949 0 -0.39223133042252067 -0.1748844990303329 0 -0.36885121174972613 -0.17749894001734251 0 -0.3926396738285895 -0.19874115291004499 0 -0.39223133042252067 -0.1748844990303329 0 -0.36885121174972613 -0.17749894001734251 0 -0.39223133042252067 -0.1748844990303329 0 -0.38237154529337442 -0.15738528485430511 0 -0.40769946045162059 -0.162456385585559 0 -0.39223133042252067 -0.1748844990303329 0 -0.38237154529337442 -0.15738528485430511 0 -0.40769946045162059 -0.162456385585559 0 -0.40269327481858691 -0.14652483373029859 0 -0.40769946045162059 -0.162456385585559 0 -0.38237154529337442 -0.15738528485430511 0 -0.40269327481858691 -0.14652483373029859 0 -0.38237154529337442 -0.15738528485430511 0 -0.40269327481858691 -0.14652483373029859 0 -0.38237154529337442 -0.15738528485430511 0 -0.40269327481858691 -0.14652483373029859 0 -0.38510212620736378 -0.1366389211638413 0 -0.37405041125331279 -0.14592149214871461 0 -0.38237154529337442 -0.15738528485430511 0 -0.38510212620736378 -0.1366389211638413 0 -0.37469506225613652 -0.1239532177657803 0 -0.38510212620736378 -0.1366389211638413 0 -0.39387695268217249 -0.1184680049219243 0 -0.40269327481858691 -0.14652483373029859 0 -0.38510212620736378 -0.1366389211638413 0 -0.39387695268217249 -0.1184680049219243 0 -0.40269327481858691 -0.14652483373029859 0 -0.4059945249364828 -0.12412065313221519 0 -0.39387695268217249 -0.1184680049219243 0 -0.40269327481858691 -0.14652483373029859 0 -0.39387695268217249 -0.1184680049219243 0 -0.40269327481858691 -0.14652483373029859 0 -0.42570040537270659 -0.13422923573128689 0 -0.40269327481858691 -0.14652483373029859 0 -0.4059945249364828 -0.12412065313221519 0 -0.41811544243225762 -0.12475370251898341 0 -0.40269327481858691 -0.14652483373029859 0 -0.42570040537270659 -0.13422923573128689 0 -0.41811544243225762 -0.12475370251898341 0 -0.41658942629163143 -0.14521779890273431 0 -0.42570040537270659 -0.13422923573128689 0 -0.40269327481858691 -0.14652483373029859 0 -0.41658942629163143 -0.14521779890273431 0 -0.42570040537270659 -0.13422923573128689 0 -0.41764364455353831 -0.15641260604608581 0 -0.40769946045162059 -0.162456385585559 0 -0.40269327481858691 -0.14652483373029859 0 -0.41764364455353831 -0.15641260604608581 0 -0.40269327481858691 -0.14652483373029859 0 -0.41658942629163143 -0.14521779890273431 0 -0.41764364455353831 -0.15641260604608581 0 -0.41658942629163143 -0.14521779890273431 0 -0.4308310512063942 -0.14775461068145809 0 -0.41658942629163143 -0.14521779890273431 0 -0.4308310512063942 -0.14775461068145809 0 -0.42570040537270659 -0.13422923573128689 0 -0.42809730124638612 -0.1617337251371091 0 -0.41764364455353831 -0.15641260604608581 0 -0.4308310512063942 -0.14775461068145809 0 -0.42809730124638612 -0.1617337251371091 0 -0.4308310512063942 -0.14775461068145809 0 -0.44009447015904518 -0.15646164970920909 0 -0.42570040537270659 -0.13422923573128689 0 -0.44730960769294759 -0.1226807262731434 0 -0.4308310512063942 -0.14775461068145809 0 -0.42570040537270659 -0.13422923573128689 0 -0.44006857659304799 -0.1366010333528887 0 -0.42570040537270659 -0.13422923573128689 0 -0.41811544243225762 -0.12475370251898341 0 -0.42537881517662562 -0.1221950856713504 0 -0.42570040537270659 -0.13422923573128689 0 -0.44006857659304799 -0.1366010333528887 0 -0.44730960769294759 -0.1226807262731434 0 -0.45034416210474532 -0.1333937736039994 0 -0.44579364834569091 -0.1444057743396408 0 -0.46100268830493479 -0.1375517243469925 0 -0.45034416210474532 -0.1333937736039994 0 -0.44006857659304799 -0.1366010333528887 0 -0.44579364834569091 -0.1444057743396408 0 -0.45034416210474532 -0.1333937736039994 0 -0.45977610207809011 -0.1258957236936003 0 -0.44730960769294759 -0.1226807262731434 0 -0.45034416210474532 -0.1333937736039994 0 -0.44006857659304799 -0.1366010333528887 0 -0.44730960769294759 -0.1226807262731434 0 -0.44579364834569091 -0.1444057743396408 0 -0.45871855903335229 -0.154696835264481 0 -0.44009447015904518 -0.15646164970920909 0 -0.4308310512063942 -0.14775461068145809 0 -0.44006857659304799 -0.1366010333528887 0 -0.44579364834569091 -0.1444057743396408 0 -0.4308310512063942 -0.14775461068145809 0 -0.44579364834569091 -0.1444057743396408 0 -0.44009447015904518 -0.15646164970920909 0 -0.45871855903335229 -0.154696835264481 0 -0.46100268830493479 -0.1375517243469925 0 -0.47990716401105749 -0.1441126071139337 0 -0.44579364834569091 -0.1444057743396408 0 -0.45871855903335229 -0.154696835264481 0 -0.46100268830493479 -0.1375517243469925 0 -0.45034416210474532 -0.1333937736039994 0 -0.46100268830493479 -0.1375517243469925 0 -0.45977610207809011 -0.1258957236936003 0 -0.46100268830493479 -0.1375517243469925 0 -0.45977610207809011 -0.1258957236936003 0 -0.47122068558364671 -0.12595589849173211 0 -0.46100268830493479 -0.1375517243469925 0 -0.47122068558364671 -0.12595589849173211 0 -0.47990716401105749 -0.1441126071139337 0 -0.47122068558364671 -0.12595589849173211 0 -0.47990716401105749 -0.1441126071139337 0 -0.4857613291655562 -0.1218627081573231 0 -0.5 -0.13586535607526701 0 -0.47990716401105749 -0.1441126071139337 0 -0.4857613291655562 -0.1218627081573231 0 -0.5 -0.13586535607526701 0 -0.47990716401105749 -0.1441126071139337 0 -0.5 -0.1638706519111548 0 -0.47990716401105749 -0.1441126071139337 0 -0.47148216207405702 -0.16589897848594301 0 -0.45871855903335229 -0.154696835264481 0 -0.47990716401105749 -0.1441126071139337 0 -0.47148216207405702 -0.16589897848594301 0 -0.47990716401105749 -0.1441126071139337 0 -0.47148216207405702 -0.16589897848594301 0 -0.5 -0.1638706519111548 0 -0.47148216207405702 -0.16589897848594301 0 -0.5 -0.1638706519111548 0 -0.47434869799738222 -0.17952969666450211 0 -0.5 -0.1638706519111548 0 -0.48724032014436219 -0.1855657566488067 0 -0.5 -0.1918759477470425 0 -0.5 -0.1638706519111548 0 -0.48724032014436219 -0.1855657566488067 0 -0.47434869799738222 -0.17952969666450211 0 -0.47148216207405702 -0.16589897848594301 0 -0.47434869799738222 -0.17952969666450211 0 -0.46305716013705661 -0.18768534985795229 0 -0.48724032014436219 -0.1855657566488067 0 -0.47434869799738222 -0.17952969666450211 0 -0.47556546047432252 -0.1935568351269453 0 -0.47434869799738222 -0.17952969666450211 0 -0.46305716013705661 -0.18768534985795229 0 -0.46943996725677051 -0.1898771463308021 0 -0.47148216207405702 -0.16589897848594301 0 -0.46305716013705661 -0.18768534985795229 0 -0.47148216207405702 -0.16589897848594301 0 -0.45931722536473191 -0.17360005725673319 0 -0.46305716013705661 -0.18768534985795229 0 -0.46055034876651618 -0.18736133013879711 0 -0.45657040503261798 -0.1821876160500929 0 -0.46305716013705661 -0.18768534985795229 0 -0.45657040503261798 -0.1821876160500929 0 -0.45931722536473191 -0.17360005725673319 0 -0.46305716013705661 -0.18768534985795229 0 -0.46055034876651618 -0.18736133013879711 0 -0.45657040503261798 -0.1821876160500929 0 -0.45193583157801048 -0.1858879369240507 0 -0.45657040503261798 -0.1821876160500929 0 -0.45931722536473191 -0.17360005725673319 0 -0.4481600319835059 -0.1791993718094716 0 -0.45871855903335229 -0.154696835264481 0 -0.45931722536473191 -0.17360005725673319 0 -0.44772879752919748 -0.16725759263030951 0 -0.45871855903335229 -0.154696835264481 0 -0.47148216207405702 -0.16589897848594301 0 -0.45931722536473191 -0.17360005725673319 0 -0.43562394795004622 -0.17462510786305471 0 -0.44772879752919748 -0.16725759263030951 0 -0.44009447015904518 -0.15646164970920909 0 -0.45871855903335229 -0.154696835264481 0 -0.44772879752919748 -0.16725759263030951 0 -0.44009447015904518 -0.15646164970920909 0 -0.43562394795004622 -0.17462510786305471 0 -0.44113899445797178 -0.18244065401958379 0 -0.4481600319835059 -0.1791993718094716 0 -0.43562394795004622 -0.17462510786305471 0 -0.44772879752919748 -0.16725759263030951 0 -0.4481600319835059 -0.1791993718094716 0 -0.44113899445797178 -0.18244065401958379 0 -0.4481600319835059 -0.1791993718094716 0 -0.44493527740372629 -0.18804705005243549 0 -0.43583672049460848 -0.1878910863533732 0 -0.44113899445797178 -0.18244065401958379 0 -0.44493527740372629 -0.18804705005243549 0 -0.43583672049460848 -0.1878910863533732 0 -0.43562394795004622 -0.17462510786305471 0 -0.44113899445797178 -0.18244065401958379 0 -0.45657040503261798 -0.1821876160500929 0 -0.45193583157801048 -0.1858879369240507 0 -0.4481600319835059 -0.1791993718094716 0 -0.45193583157801048 -0.1858879369240507 0 -0.4481600319835059 -0.1791993718094716 0 -0.44493527740372629 -0.18804705005243549 0 -0.45931722536473191 -0.17360005725673319 0 -0.44772879752919748 -0.16725759263030951 0 -0.4481600319835059 -0.1791993718094716 0 -0.45111772285957019 -0.19905002629426871 0 -0.44937160267098081 -0.19382967089283021 0 -0.44530231626152911 -0.20202790960635009 0 -0.45111772285957019 -0.19905002629426871 0 -0.44530231626152911 -0.20202790960635009 0 -0.4481338786760663 -0.20397689157454191 0 -0.45193583157801048 -0.1858879369240507 0 -0.44937160267098081 -0.19382967089283021 0 -0.44493527740372629 -0.18804705005243549 0 -0.44937160267098081 -0.19382967089283021 0 -0.44493527740372629 -0.18804705005243549 0 -0.44107688052996719 -0.19546493851823801 0 -0.43583672049460848 -0.1878910863533732 0 -0.44493527740372629 -0.18804705005243549 0 -0.44107688052996719 -0.19546493851823801 0 -0.44937160267098081 -0.19382967089283021 0 -0.44107688052996719 -0.19546493851823801 0 -0.44530231626152911 -0.20202790960635009 0 -0.44107688052996719 -0.19546493851823801 0 -0.44530231626152911 -0.20202790960635009 0 -0.43827755019902609 -0.20455875835003909 0 -0.45117438969404389 -0.20797160232281151 0 -0.44179843062157148 -0.22858187450682591 0 -0.44076121638623078 -0.2156722515839308 0 -0.45117438969404389 -0.20797160232281151 0 -0.44179843062157148 -0.22858187450682591 0 -0.45117438969404389 -0.20797160232281151 0 -0.44841897060212849 -0.2192321345487078 0 -0.44179843062157148 -0.22858187450682591 0 -0.43827755019902609 -0.20455875835003909 0 -0.44494108588912212 -0.20685802807473719 0 -0.44076121638623078 -0.2156722515839308 0 -0.43068458717960639 -0.21022516324002891 0 -0.44076121638623078 -0.2156722515839308 0 -0.44179843062157148 -0.22858187450682591 0 -0.44530231626152911 -0.20202790960635009 0 -0.43827755019902609 -0.20455875835003909 0 -0.44494108588912212 -0.20685802807473719 0 -0.45117438969404389 -0.20797160232281151 0 -0.45463215820005598 -0.20947172122996169 0 -0.44841897060212849 -0.2192321345487078 0 -0.44494108588912212 -0.20685802807473719 0 -0.44076121638623078 -0.2156722515839308 0 -0.45117438969404389 -0.20797160232281151 0 -0.45111772285957019 -0.19905002629426871 0 -0.4481338786760663 -0.20397689157454191 0 -0.45117438969404389 -0.20797160232281151 0 -0.44530231626152911 -0.20202790960635009 0 -0.44494108588912212 -0.20685802807473719 0 -0.4481338786760663 -0.20397689157454191 0 -0.44494108588912212 -0.20685802807473719 0 -0.4481338786760663 -0.20397689157454191 0 -0.45117438969404389 -0.20797160232281151 0 -0.45463215820005598 -0.20947172122996169 0 -0.45983693974007323 -0.20791524365630751 0 -0.46142102066612051 -0.2009429348364811 0 -0.45117438969404389 -0.20797160232281151 0 -0.45463215820005598 -0.20947172122996169 0 -0.45735351419941822 -0.19812250088738059 0 -0.45983693974007323 -0.20791524365630751 0 -0.45844100877002369 -0.2128373321894432 0 -0.46139771475499969 -0.21103587805160029 0 -0.45463215820005598 -0.20947172122996169 0 -0.45983693974007323 -0.20791524365630751 0 -0.45844100877002369 -0.2128373321894432 0 -0.45463215820005598 -0.20947172122996169 0 -0.45844100877002369 -0.2128373321894432 0 -0.45614462377500092 -0.21899725435058329 0 -0.45844100877002369 -0.2128373321894432 0 -0.4601936073799886 -0.2167665636587631 0 -0.46139771475499969 -0.21103587805160029 0 -0.45844100877002369 -0.2128373321894432 0 -0.4601936073799886 -0.2167665636587631 0 -0.45614462377500092 -0.21899725435058329 0 -0.4601936073799886 -0.2167665636587631 0 -0.46750509685054731 -0.21274001098665701 0 -0.46193536290467729 -0.22537150403817691 0 -0.4601936073799886 -0.2167665636587631 0 -0.46139771475499969 -0.21103587805160029 0 -0.46750509685054731 -0.21274001098665701 0 -0.46750509685054731 -0.21274001098665701 0 -0.46397897095196272 -0.2060072939394508 0 -0.47144014244871218 -0.20358161553063989 0 -0.45983693974007323 -0.20791524365630751 0 -0.46397897095196272 -0.2060072939394508 0 -0.46142102066612051 -0.2009429348364811 0 -0.45983693974007323 -0.20791524365630751 0 -0.46139771475499969 -0.21103587805160029 0 -0.46397897095196272 -0.2060072939394508 0 -0.46139771475499969 -0.21103587805160029 0 -0.46750509685054731 -0.21274001098665701 0 -0.46397897095196272 -0.2060072939394508 0 -0.46397897095196272 -0.2060072939394508 0 -0.46537619097907551 -0.200891079008888 0 -0.47144014244871218 -0.20358161553063989 0 -0.45463215820005598 -0.20947172122996169 0 -0.46142102066612051 -0.2009429348364811 0 -0.46305716013705661 -0.18768534985795229 0 -0.45463215820005598 -0.20947172122996169 0 -0.45735351419941822 -0.19812250088738059 0 -0.46305716013705661 -0.18768534985795229 0 -0.45463215820005598 -0.20947172122996169 0 -0.46305716013705661 -0.18768534985795229 0 -0.46055034876651618 -0.18736133013879711 0 -0.45117438969404389 -0.20797160232281151 0 -0.45735351419941822 -0.19812250088738059 0 -0.46055034876651618 -0.18736133013879711 0 -0.45117438969404389 -0.20797160232281151 0 -0.46055034876651618 -0.18736133013879711 0 -0.45111772285957019 -0.19905002629426871 0 -0.45117438969404389 -0.20797160232281151 0 -0.46537619097907551 -0.200891079008888 0 -0.46856107499223321 -0.19545397476782819 0 -0.47144014244871218 -0.20358161553063989 0 -0.46537619097907551 -0.200891079008888 0 -0.46856107499223321 -0.19545397476782819 0 -0.46480617938422331 -0.19511078817813529 0 -0.46537619097907551 -0.200891079008888 0 -0.46142102066612051 -0.2009429348364811 0 -0.46480617938422331 -0.19511078817813529 0 -0.46397897095196272 -0.2060072939394508 0 -0.46537619097907551 -0.200891079008888 0 -0.46142102066612051 -0.2009429348364811 0 -0.46055034876651618 -0.18736133013879711 0 -0.45735351419941822 -0.19812250088738059 0 -0.46305716013705661 -0.18768534985795229 0 -0.46055034876651618 -0.18736133013879711 0 -0.45193583157801048 -0.1858879369240507 0 -0.44937160267098081 -0.19382967089283021 0 -0.46055034876651618 -0.18736133013879711 0 -0.45111772285957019 -0.19905002629426871 0 -0.44937160267098081 -0.19382967089283021 0 -0.46305716013705661 -0.18768534985795229 0 -0.46480617938422331 -0.19511078817813529 0 -0.46583688009663587 -0.19095836490498941 0 -0.46142102066612051 -0.2009429348364811 0 -0.46305716013705661 -0.18768534985795229 0 -0.46480617938422331 -0.19511078817813529 0 -0.46856107499223321 -0.19545397476782819 0 -0.46480617938422331 -0.19511078817813529 0 -0.46583688009663587 -0.19095836490498941 0 -0.46856107499223321 -0.19545397476782819 0 -0.46583688009663587 -0.19095836490498941 0 -0.46943996725677051 -0.1898771463308021 0 -0.46305716013705661 -0.18768534985795229 0 -0.46583688009663587 -0.19095836490498941 0 -0.46943996725677051 -0.1898771463308021 0 -0.47434869799738222 -0.17952969666450211 0 -0.46943996725677051 -0.1898771463308021 0 -0.47556546047432252 -0.1935568351269453 0 -0.48724032014436219 -0.1855657566488067 0 -0.47556546047432252 -0.1935568351269453 0 -0.48129969818339458 -0.20556736859699151 0 -0.46856107499223321 -0.19545397476782819 0 -0.46943996725677051 -0.1898771463308021 0 -0.47556546047432252 -0.1935568351269453 0 -0.47556546047432252 -0.1935568351269453 0 -0.48129969818339458 -0.20556736859699151 0 -0.47144014244871218 -0.20358161553063989 0 -0.46856107499223321 -0.19545397476782819 0 -0.47556546047432252 -0.1935568351269453 0 -0.47144014244871218 -0.20358161553063989 0 -0.48724032014436219 -0.1855657566488067 0 -0.5 -0.1918759477470425 0 -0.48129969818339458 -0.20556736859699151 0 -0.48129969818339458 -0.20556736859699151 0 -0.47841258125720088 -0.2246937046510378 0 -0.5 -0.2198812435829304 0 -0.5 -0.1918759477470425 0 -0.48129969818339458 -0.20556736859699151 0 -0.5 -0.2198812435829304 0 -0.46750509685054731 -0.21274001098665701 0 -0.48129969818339458 -0.20556736859699151 0 -0.47841258125720088 -0.2246937046510378 0 -0.46750509685054731 -0.21274001098665701 0 -0.48129969818339458 -0.20556736859699151 0 -0.47144014244871218 -0.20358161553063989 0 -0.46750509685054731 -0.21274001098665701 0 -0.47841258125720088 -0.2246937046510378 0 -0.46193536290467729 -0.22537150403817691 0 -0.47841258125720088 -0.2246937046510378 0 -0.5 -0.2198812435829304 0 -0.48576833619632481 -0.2380649924091536 0 -0.48209271406877591 -0.25304161622392368 0 -0.48576833619632481 -0.2380649924091536 0 -0.5 -0.24788653941881841 0 -0.5 -0.2198812435829304 0 -0.48576833619632481 -0.2380649924091536 0 -0.5 -0.24788653941881841 0 -0.48209271406877591 -0.25304161622392368 0 -0.46414993516591568 -0.24214985441294731 0 -0.47841258125720088 -0.2246937046510378 0 -0.48576833619632481 -0.2380649924091536 0 -0.46414993516591568 -0.24214985441294731 0 -0.48209271406877591 -0.25304161622392368 0 -0.48576833619632481 -0.2380649924091536 0 -0.46414993516591568 -0.24214985441294731 0 -0.46414993516591568 -0.24214985441294731 0 -0.44620715626305552 -0.23125809260197111 0 -0.46414993516591568 -0.24214985441294731 0 -0.44620715626305552 -0.23125809260197111 0 -0.45276775536329861 -0.243963550497031 0 -0.46375679365384959 -0.25548994440738781 0 -0.46414993516591568 -0.24214985441294731 0 -0.45276775536329861 -0.243963550497031 0 -0.47841258125720088 -0.2246937046510378 0 -0.46414993516591568 -0.24214985441294731 0 -0.46193536290467729 -0.22537150403817691 0 -0.46414993516591568 -0.24214985441294731 0 -0.46193536290467729 -0.22537150403817691 0 -0.44620715626305552 -0.23125809260197111 0 -0.46193536290467729 -0.22537150403817691 0 -0.45614462377500092 -0.21899725435058329 0 -0.44620715626305552 -0.23125809260197111 0 -0.4601936073799886 -0.2167665636587631 0 -0.46193536290467729 -0.22537150403817691 0 -0.45614462377500092 -0.21899725435058329 0 -0.45463215820005598 -0.20947172122996169 0 -0.44620715626305552 -0.23125809260197111 0 -0.45463215820005598 -0.20947172122996169 0 -0.45614462377500092 -0.21899725435058329 0 -0.44620715626305552 -0.23125809260197111 0 -0.45463215820005598 -0.20947172122996169 0 -0.44620715626305552 -0.23125809260197111 0 -0.44841897060212849 -0.2192321345487078 0 -0.44620715626305552 -0.23125809260197111 0 -0.44841897060212849 -0.2192321345487078 0 -0.44179843062157148 -0.22858187450682591 0 -0.44620715626305552 -0.23125809260197111 0 -0.44179843062157148 -0.22858187450682591 0 -0.44348852972133451 -0.23828824023904371 0 -0.44620715626305552 -0.23125809260197111 0 -0.44179843062157148 -0.22858187450682591 0 -0.43527656859499569 -0.2429182587076664 0 -0.44179843062157148 -0.22858187450682591 0 -0.44348852972133451 -0.23828824023904371 0 -0.43527656859499569 -0.2429182587076664 0 -0.44179843062157148 -0.22858187450682591 0 -0.44620715626305552 -0.23125809260197111 0 -0.44348852972133451 -0.23828824023904371 0 -0.43527656859499569 -0.2429182587076664 0 -0.44348852972133451 -0.23828824023904371 0 -0.44175431771453882 -0.2496538524987241 0 -0.44348852972133451 -0.23828824023904371 0 -0.44175431771453882 -0.2496538524987241 0 -0.45276775536329861 -0.243963550497031 0 -0.4509344030745589 -0.25461266143952521 0 -0.44175431771453882 -0.2496538524987241 0 -0.45276775536329861 -0.243963550497031 0 -0.44620715626305552 -0.23125809260197111 0 -0.44348852972133451 -0.23828824023904371 0 -0.45276775536329861 -0.243963550497031 0 -0.41173360181563839 -0.037923017088027658 0 -0.42603470156772177 -0.040288704506370843 0 -0.42463445473125472 -0.022148372836748531 0 -0.41173360181563839 -0.037923017088027658 0 -0.41811106382493418 -0.051758945286922473 0 -0.42603470156772177 -0.040288704506370843 0 -0.41173360181563839 -0.037923017088027658 0 -0.41811106382493418 -0.051758945286922473 0 -0.4043995793998677 -0.051973564372110197 0 -0.41271643318969248 -0.061666836078869157 0 -0.40172799277378751 -0.060387178924856288 0 -0.4043995793998677 -0.051973564372110197 0 -0.41271643318969248 -0.061666836078869157 0 -0.41811106382493418 -0.051758945286922473 0 -0.4043995793998677 -0.051973564372110197 0 -0.41271643318969248 -0.061666836078869157 0 -0.41811106382493418 -0.051758945286922473 0 -0.42538680970179449 -0.064150627517658487 0 -0.43356583324580461 -0.051833276095337007 0 -0.42538680970179449 -0.064150627517658487 0 -0.44430751365430032 -0.064913749074256955 0 -0.41811106382493418 -0.051758945286922473 0 -0.43356583324580461 -0.051833276095337007 0 -0.42603470156772177 -0.040288704506370843 0 -0.41811106382493418 -0.051758945286922473 0 -0.43356583324580461 -0.051833276095337007 0 -0.42538680970179449 -0.064150627517658487 0 -0.43356583324580461 -0.051833276095337007 0 -0.42603470156772177 -0.040288704506370843 0 -0.43912687294723352 -0.039603514203383837 0 -0.42603470156772177 -0.040288704506370843 0 -0.43430026667755778 -0.030562529431060661 0 -0.43912687294723352 -0.039603514203383837 0 -0.43430026667755778 -0.030562529431060661 0 -0.43729812505268678 -0.02051125811870905 0 -0.42463445473125472 -0.022148372836748531 0 -0.42603470156772177 -0.040288704506370843 0 -0.43430026667755778 -0.030562529431060661 0 -0.42463445473125472 -0.022148372836748531 0 -0.43729812505268678 -0.02051125811870905 0 -0.42463445473125472 -0.022148372836748531 0 -0.43568559632565718 -0.0083090682592150619 0 -0.42463445473125472 -0.022148372836748531 0 -0.43568559632565718 -0.0083090682592150619 0 -0.42212331415545967 0.001715983753312897 0 -0.43568559632565718 -0.0083090682592150619 0 -0.43761352241791091 0.0061702165628683527 0 -0.42212331415545967 0.001715983753312897 0 -0.43568559632565718 -0.0083090682592150619 0 -0.42212331415545967 0.001715983753312897 0 -0.40867058683781321 -0.018895612101621499 0 -0.42212331415545967 0.001715983753312897 0 -0.40867058683781321 -0.018895612101621499 0 -0.40172918260307472 -0.00048808184188671628 0 -0.42212331415545967 0.001715983753312897 0 -0.42463445473125472 -0.022148372836748531 0 -0.40867058683781321 -0.018895612101621499 0 -0.42212331415545967 0.001715983753312897 0 -0.41173360181563839 -0.037923017088027658 0 -0.42463445473125472 -0.022148372836748531 0 -0.40867058683781321 -0.018895612101621499 0 -0.40867058683781321 -0.018895612101621499 0 -0.39294986462514181 -0.01689602473622024 0 -0.39521785952016658 -0.039507207956555858 0 -0.40867058683781321 -0.018895612101621499 0 -0.39521785952016658 -0.039507207956555858 0 -0.40867058683781321 -0.018895612101621499 0 -0.39294986462514181 -0.01689602473622024 0 -0.40172918260307472 -0.00048808184188671628 0 -0.39294986462514181 -0.01689602473622024 0 -0.40172918260307472 -0.00048808184188671628 0 -0.3808204899099874 -0.0031860702741812281 0 -0.36848648692226638 -0.011058815079748549 0 -0.3808204899099874 -0.0031860702741812281 0 -0.3783112042546668 -0.02240315150685588 0 -0.39294986462514181 -0.01689602473622024 0 -0.3808204899099874 -0.0031860702741812281 0 -0.3783112042546668 -0.02240315150685588 0 -0.39294986462514181 -0.01689602473622024 0 -0.3783112042546668 -0.02240315150685588 0 -0.39521785952016658 -0.039507207956555858 0 -0.37139958221676461 -0.044031696238546428 0 -0.3783112042546668 -0.02240315150685588 0 -0.39521785952016658 -0.039507207956555858 0 -0.41173360181563839 -0.037923017088027658 0 -0.39521785952016658 -0.039507207956555858 0 -0.4043995793998677 -0.051973564372110197 0 -0.41173360181563839 -0.037923017088027658 0 -0.40867058683781321 -0.018895612101621499 0 -0.39521785952016658 -0.039507207956555858 0 -0.39521785952016658 -0.039507207956555858 0 -0.4043995793998677 -0.051973564372110197 0 -0.39401696803769831 -0.058471129046523559 0 -0.40172799277378751 -0.060387178924856288 0 -0.4043995793998677 -0.051973564372110197 0 -0.39401696803769831 -0.058471129046523559 0 -0.40172799277378751 -0.060387178924856288 0 -0.39401696803769831 -0.058471129046523559 0 -0.39920674831949399 -0.067039336454921883 0 -0.37139958221676461 -0.044031696238546428 0 -0.38176513220252012 -0.060118803811490228 0 -0.38214055169650618 -0.064642048278483313 0 -0.39401696803769831 -0.058471129046523559 0 -0.38176513220252012 -0.060118803811490228 0 -0.38731726841149439 -0.062943980321670201 0 -0.39521785952016658 -0.039507207956555858 0 -0.39401696803769831 -0.058471129046523559 0 -0.38176513220252012 -0.060118803811490228 0 -0.37139958221676461 -0.044031696238546428 0 -0.39521785952016658 -0.039507207956555858 0 -0.38176513220252012 -0.060118803811490228 0 -0.37139958221676461 -0.044031696238546428 0 -0.38214055169650618 -0.064642048278483313 0 -0.39521785952016658 -0.039507207956555858 0 -0.38176513220252012 -0.060118803811490228 0 -0.38214055169650618 -0.064642048278483313 0 -0.38026999091325903 -0.078935168810278067 0 -0.39288152117624758 -0.085252400318420116 0 -0.37367540951124961 -0.07241881559753717 0 -0.37113265406072049 -0.064552487381263846 0 -0.38214055169650618 -0.064642048278483313 0 -0.38214055169650618 -0.064642048278483313 0 -0.39288152117624758 -0.085252400318420116 0 -0.38214055169650618 -0.064642048278483313 0 -0.39288152117624758 -0.085252400318420116 0 -0.39134642170925288 -0.068543940150183738 0 -0.38214055169650618 -0.064642048278483313 0 -0.38731726841149439 -0.062943980321670201 0 -0.39134642170925288 -0.068543940150183738 0 -0.38176513220252012 -0.060118803811490228 0 -0.38214055169650618 -0.064642048278483313 0 -0.38731726841149439 -0.062943980321670201 0 -0.37367540951124961 -0.07241881559753717 0 -0.38214055169650618 -0.064642048278483313 0 -0.38026999091325903 -0.078935168810278067 0 -0.36983989846659687 -0.084117297864896134 0 -0.38026999091325903 -0.078935168810278067 0 -0.3803385567372764 -0.088319055883598105 0 -0.3803385567372764 -0.088319055883598105 0 -0.39288152117624758 -0.085252400318420116 0 -0.38765476513689368 -0.098666680960494108 0 -0.38026999091325903 -0.078935168810278067 0 -0.3803385567372764 -0.088319055883598105 0 -0.39288152117624758 -0.085252400318420116 0 -0.39288152117624758 -0.085252400318420116 0 -0.41080426818389698 -0.082831180102711496 0 -0.40833045692488029 -0.093418786452780594 0 -0.39288152117624758 -0.085252400318420116 0 -0.40561087364088988 -0.074942349762109575 0 -0.41080426818389698 -0.082831180102711496 0 -0.39288152117624758 -0.085252400318420116 0 -0.39134642170925288 -0.068543940150183738 0 -0.3966822045221714 -0.073853055307182489 0 -0.40561087364088988 -0.074942349762109575 0 -0.39920674831949399 -0.067039336454921883 0 -0.3966822045221714 -0.073853055307182489 0 -0.40561087364088988 -0.074942349762109575 0 -0.39920674831949399 -0.067039336454921883 0 -0.40653724149829962 -0.066405122767471486 0 -0.40172799277378751 -0.060387178924856288 0 -0.39920674831949399 -0.067039336454921883 0 -0.40653724149829962 -0.066405122767471486 0 -0.39401696803769831 -0.058471129046523559 0 -0.39920674831949399 -0.067039336454921883 0 -0.39134642170925288 -0.068543940150183738 0 -0.39401696803769831 -0.058471129046523559 0 -0.38731726841149439 -0.062943980321670201 0 -0.39134642170925288 -0.068543940150183738 0 -0.39920674831949399 -0.067039336454921883 0 -0.39134642170925288 -0.068543940150183738 0 -0.3966822045221714 -0.073853055307182489 0 -0.39288152117624758 -0.085252400318420116 0 -0.40561087364088988 -0.074942349762109575 0 -0.3966822045221714 -0.073853055307182489 0 -0.36986917696394112 -0.1072687723034873 0 -0.37469506225613652 -0.1239532177657803 0 -0.39387695268217249 -0.1184680049219243 0 -0.36986917696394112 -0.1072687723034873 0 -0.39387695268217249 -0.1184680049219243 0 -0.36986917696394112 -0.1072687723034873 0 -0.38765476513689368 -0.098666680960494108 0 -0.39387695268217249 -0.1184680049219243 0 -0.37254702165361481 -0.094453154848385179 0 -0.36986917696394112 -0.1072687723034873 0 -0.38765476513689368 -0.098666680960494108 0 -0.37254702165361481 -0.094453154848385179 0 -0.3803385567372764 -0.088319055883598105 0 -0.38765476513689368 -0.098666680960494108 0 -0.39288152117624758 -0.085252400318420116 0 -0.40362249065598899 -0.1058627523583569 0 -0.40833045692488029 -0.093418786452780594 0 -0.39288152117624758 -0.085252400318420116 0 -0.38765476513689368 -0.098666680960494108 0 -0.40362249065598899 -0.1058627523583569 0 -0.38765476513689368 -0.098666680960494108 0 -0.40362249065598899 -0.1058627523583569 0 -0.39387695268217249 -0.1184680049219243 0 -0.38765476513689368 -0.098666680960494108 0 -0.39387695268217249 -0.1184680049219243 0 -0.39288152117624758 -0.085252400318420116 0 -0.40362249065598899 -0.1058627523583569 0 -0.40362249065598899 -0.1058627523583569 0 -0.4059945249364828 -0.12412065313221519 0 -0.39387695268217249 -0.1184680049219243 0 -0.4059945249364828 -0.12412065313221519 0 -0.39387695268217249 -0.1184680049219243 0 -0.40362249065598899 -0.1058627523583569 0 -0.4059945249364828 -0.12412065313221519 0 -0.41381834209002433 -0.11420018296885399 0 -0.41811544243225762 -0.12475370251898341 0 -0.41381834209002433 -0.11420018296885399 0 -0.42365526025169509 -0.11395426683961089 0 -0.4059945249364828 -0.12412065313221519 0 -0.41811544243225762 -0.12475370251898341 0 -0.41381834209002433 -0.11420018296885399 0 -0.41381834209002433 -0.11420018296885399 0 -0.41770399217369669 -0.1023095399951036 0 -0.42365526025169509 -0.11395426683961089 0 -0.40362249065598899 -0.1058627523583569 0 -0.41381834209002433 -0.11420018296885399 0 -0.41770399217369669 -0.1023095399951036 0 -0.40362249065598899 -0.1058627523583569 0 -0.41770399217369669 -0.1023095399951036 0 -0.40833045692488029 -0.093418786452780594 0 -0.41770399217369669 -0.1023095399951036 0 -0.40833045692488029 -0.093418786452780594 0 -0.41854289227862579 -0.089729161088452067 0 -0.41770399217369669 -0.1023095399951036 0 -0.41854289227862579 -0.089729161088452067 0 -0.42918214267482652 -0.092038227554770813 0 -0.41770399217369669 -0.1023095399951036 0 -0.43313973039924952 -0.1053227317865474 0 -0.42918214267482652 -0.092038227554770813 0 -0.43313973039924952 -0.1053227317865474 0 -0.42918214267482652 -0.092038227554770813 0 -0.44247093635469331 -0.095963052907745774 0 -0.41770399217369669 -0.1023095399951036 0 -0.43313973039924952 -0.1053227317865474 0 -0.42365526025169509 -0.11395426683961089 0 -0.42570040537270659 -0.13422923573128689 0 -0.43404415264984331 -0.1158431375955203 0 -0.44395822837384419 -0.11220885354888931 0 -0.42570040537270659 -0.13422923573128689 0 -0.43404415264984331 -0.1158431375955203 0 -0.42537881517662562 -0.1221950856713504 0 -0.42570040537270659 -0.13422923573128689 0 -0.44395822837384419 -0.11220885354888931 0 -0.43313973039924952 -0.1053227317865474 0 -0.42365526025169509 -0.11395426683961089 0 -0.43404415264984331 -0.1158431375955203 0 -0.43313973039924952 -0.1053227317865474 0 -0.43404415264984331 -0.1158431375955203 0 -0.44395822837384419 -0.11220885354888931 0 -0.41811544243225762 -0.12475370251898341 0 -0.42365526025169509 -0.11395426683961089 0 -0.42537881517662562 -0.1221950856713504 0 -0.42365526025169509 -0.11395426683961089 0 -0.43404415264984331 -0.1158431375955203 0 -0.42537881517662562 -0.1221950856713504 0 -0.41667593445084911 -0.071507675337518284 0 -0.41080426818389698 -0.082831180102711496 0 -0.42669360143582891 -0.07804807133689376 0 -0.41271643318969248 -0.061666836078869157 0 -0.41667593445084911 -0.071507675337518284 0 -0.42538680970179449 -0.064150627517658487 0 -0.41271643318969248 -0.061666836078869157 0 -0.40172799277378751 -0.060387178924856288 0 -0.40653724149829962 -0.066405122767471486 0 -0.41271643318969248 -0.061666836078869157 0 -0.41667593445084911 -0.071507675337518284 0 -0.40653724149829962 -0.066405122767471486 0 -0.40561087364088988 -0.074942349762109575 0 -0.41667593445084911 -0.071507675337518284 0 -0.40653724149829962 -0.066405122767471486 0 -0.40561087364088988 -0.074942349762109575 0 -0.41667593445084911 -0.071507675337518284 0 -0.41080426818389698 -0.082831180102711496 0 -0.41080426818389698 -0.082831180102711496 0 -0.41854289227862579 -0.089729161088452067 0 -0.42669360143582891 -0.07804807133689376 0 -0.41080426818389698 -0.082831180102711496 0 -0.40833045692488029 -0.093418786452780594 0 -0.41854289227862579 -0.089729161088452067 0 -0.42918214267482652 -0.092038227554770813 0 -0.42669360143582891 -0.07804807133689376 0 -0.44385852895056421 -0.080056980282029552 0 -0.41854289227862579 -0.089729161088452067 0 -0.42918214267482652 -0.092038227554770813 0 -0.42669360143582891 -0.07804807133689376 0 -0.42669360143582891 -0.07804807133689376 0 -0.42538680970179449 -0.064150627517658487 0 -0.44430751365430032 -0.064913749074256955 0 -0.41667593445084911 -0.071507675337518284 0 -0.42669360143582891 -0.07804807133689376 0 -0.42538680970179449 -0.064150627517658487 0 -0.44430751365430032 -0.064913749074256955 0 -0.44385852895056421 -0.080056980282029552 0 -0.46097649489324782 -0.07044848196453371 0 -0.42669360143582891 -0.07804807133689376 0 -0.44430751365430032 -0.064913749074256955 0 -0.44385852895056421 -0.080056980282029552 0 -0.42918214267482652 -0.092038227554770813 0 -0.44385852895056421 -0.080056980282029552 0 -0.44247093635469331 -0.095963052907745774 0 -0.44385852895056421 -0.080056980282029552 0 -0.4622160513749819 -0.09018847136649169 0 -0.44247093635469331 -0.095963052907745774 0 -0.44385852895056421 -0.080056980282029552 0 -0.4622160513749819 -0.09018847136649169 0 -0.46097649489324782 -0.07044848196453371 0 -0.44430751365430032 -0.064913749074256955 0 -0.46097649489324782 -0.07044848196453371 0 -0.45936769603157518 -0.057046051154632238 0 -0.4622160513749819 -0.09018847136649169 0 -0.46097649489324782 -0.07044848196453371 0 -0.48047387437611949 -0.068168089184094172 0 -0.46097649489324782 -0.07044848196453371 0 -0.47058099744727838 -0.061108768102882037 0 -0.45936769603157518 -0.057046051154632238 0 -0.42570040537270659 -0.13422923573128689 0 -0.44730960769294759 -0.1226807262731434 0 -0.44395822837384419 -0.11220885354888931 0 -0.43313973039924952 -0.1053227317865474 0 -0.44395822837384419 -0.11220885354888931 0 -0.44247093635469331 -0.095963052907745774 0 -0.4622160513749819 -0.09018847136649169 0 -0.44395822837384419 -0.11220885354888931 0 -0.44247093635469331 -0.095963052907745774 0 -0.4622160513749819 -0.09018847136649169 0 -0.44395822837384419 -0.11220885354888931 0 -0.4622160513749819 -0.09018847136649169 0 -0.44395822837384419 -0.11220885354888931 0 -0.46891881001318869 -0.111132216815 0 -0.44730960769294759 -0.1226807262731434 0 -0.46891881001318869 -0.111132216815 0 -0.45977610207809011 -0.1258957236936003 0 -0.44730960769294759 -0.1226807262731434 0 -0.46891881001318869 -0.111132216815 0 -0.44730960769294759 -0.1226807262731434 0 -0.44395822837384419 -0.11220885354888931 0 -0.46891881001318869 -0.111132216815 0 -0.45977610207809011 -0.1258957236936003 0 -0.47122068558364671 -0.12595589849173211 0 -0.46891881001318869 -0.111132216815 0 -0.47122068558364671 -0.12595589849173211 0 -0.46891881001318869 -0.111132216815 0 -0.4857613291655562 -0.1218627081573231 0 -0.46891881001318869 -0.111132216815 0 -0.48156058679024139 -0.10147478841369451 0 -0.4857613291655562 -0.1218627081573231 0 -0.4622160513749819 -0.09018847136649169 0 -0.46891881001318869 -0.111132216815 0 -0.48156058679024139 -0.10147478841369451 0 -0.48156058679024139 -0.10147478841369451 0 -0.5 -0.1078600602393792 0 -0.49360385857856659 -0.091568414897693712 0 -0.48156058679024139 -0.10147478841369451 0 -0.5 -0.1078600602393792 0 -0.4857613291655562 -0.1218627081573231 0 -0.5 -0.13586535607526701 0 -0.5 -0.1078600602393792 0 -0.4857613291655562 -0.1218627081573231 0 -0.46097649489324782 -0.07044848196453371 0 -0.48047387437611949 -0.068168089184094172 0 -0.47058099744727838 -0.061108768102882037 0 -0.4622160513749819 -0.09018847136649169 0 -0.48047387437611949 -0.068168089184094172 0 -0.47886347160915488 -0.086236859006279074 0 -0.48047387437611949 -0.068168089184094172 0 -0.47886347160915488 -0.086236859006279074 0 -0.49360385857856659 -0.091568414897693712 0 -0.4622160513749819 -0.09018847136649169 0 -0.48156058679024139 -0.10147478841369451 0 -0.47886347160915488 -0.086236859006279074 0 -0.4622160513749819 -0.09018847136649169 0 -0.48047387437611949 -0.068168089184094172 0 -0.5 -0.079854764403491485 0 -0.49360385857856659 -0.091568414897693712 0 -0.49359139791625478 -0.064210569776902676 0 -0.5 -0.1078600602393792 0 -0.5 -0.079854764403491485 0 -0.49360385857856659 -0.091568414897693712 0 -0.48156058679024139 -0.10147478841369451 0 -0.47886347160915488 -0.086236859006279074 0 -0.49360385857856659 -0.091568414897693712 0 -0.49360385857856659 -0.091568414897693712 0 -0.49359139791625478 -0.064210569776902676 0 -0.5 -0.079854764403491485 0 -0.49359139791625478 -0.064210569776902676 0 -0.5 -0.05184946856760364 0 -0.48047387437611949 -0.068168089184094172 0 -0.49360385857856659 -0.091568414897693712 0 -0.49359139791625478 -0.064210569776902676 0 -0.48047387437611949 -0.068168089184094172 0 -0.49359139791625478 -0.064210569776902676 0 -0.48067741220846211 -0.057535800900026447 0 -0.49359139791625478 -0.064210569776902676 0 -0.49357893725394247 -0.036852724656111703 0 -0.49359139791625478 -0.064210569776902676 0 -0.49357893725394247 -0.036852724656111703 0 -0.4873244867123282 -0.046479824146674772 0 -0.49359139791625478 -0.064210569776902676 0 -0.5 -0.05184946856760364 0 -0.49509650704673719 -0.04341862954378381 0 -0.49359139791625478 -0.064210569776902676 0 -0.49357893725394247 -0.036852724656111703 0 -0.49509650704673719 -0.04341862954378381 0 -0.49359139791625478 -0.064210569776902676 0 -0.4873244867123282 -0.046479824146674772 0 -0.48067741220846211 -0.057535800900026447 0 -0.5 -0.05184946856760364 0 -0.49509650704673719 -0.04341862954378381 0 -0.5 -0.02384417273171591 0 -0.49357893725394247 -0.036852724656111703 0 -0.49509650704673719 -0.04341862954378381 0 -0.5 -0.02384417273171591 0 -0.49357893725394247 -0.036852724656111703 0 -0.49509650704673719 -0.04341862954378381 0 -0.49357893725394247 -0.036852724656111703 0 -0.4873244867123282 -0.046479824146674772 0 -0.48322421712051999 -0.031288481025724672 0 -0.4873244867123282 -0.046479824146674772 0 -0.4711542563385569 -0.050515812886882339 0 -0.46828618260409222 -0.032406972209207942 0 -0.4873244867123282 -0.046479824146674772 0 -0.46828618260409222 -0.032406972209207942 0 -0.4873244867123282 -0.046479824146674772 0 -0.48322421712051999 -0.031288481025724672 0 -0.46828618260409222 -0.032406972209207942 0 -0.4873244867123282 -0.046479824146674772 0 -0.48067741220846211 -0.057535800900026447 0 -0.4711542563385569 -0.050515812886882339 0 -0.48047387437611949 -0.068168089184094172 0 -0.48067741220846211 -0.057535800900026447 0 -0.47058099744727838 -0.061108768102882037 0 -0.48067741220846211 -0.057535800900026447 0 -0.4711542563385569 -0.050515812886882339 0 -0.47058099744727838 -0.061108768102882037 0 -0.4711542563385569 -0.050515812886882339 0 -0.47058099744727838 -0.061108768102882037 0 -0.45936769603157518 -0.057046051154632238 0 -0.45936769603157518 -0.057046051154632238 0 -0.459779332424822 -0.045118304979021973 0 -0.44842803777884321 -0.050284115983429543 0 -0.4711542563385569 -0.050515812886882339 0 -0.45936769603157518 -0.057046051154632238 0 -0.459779332424822 -0.045118304979021973 0 -0.46828618260409222 -0.032406972209207942 0 -0.459779332424822 -0.045118304979021973 0 -0.45166048937104231 -0.035338572660957773 0 -0.4711542563385569 -0.050515812886882339 0 -0.46828618260409222 -0.032406972209207942 0 -0.459779332424822 -0.045118304979021973 0 -0.459779332424822 -0.045118304979021973 0 -0.45166048937104231 -0.035338572660957773 0 -0.44842803777884321 -0.050284115983429543 0 -0.45166048937104231 -0.035338572660957773 0 -0.43912687294723352 -0.039603514203383837 0 -0.44842803777884321 -0.050284115983429543 0 -0.43430026667755778 -0.030562529431060661 0 -0.43912687294723352 -0.039603514203383837 0 -0.44411508832300522 -0.02639733438217395 0 -0.45166048937104231 -0.035338572660957773 0 -0.43912687294723352 -0.039603514203383837 0 -0.44411508832300522 -0.02639733438217395 0 -0.43356583324580461 -0.051833276095337007 0 -0.43912687294723352 -0.039603514203383837 0 -0.44842803777884321 -0.050284115983429543 0 -0.43356583324580461 -0.051833276095337007 0 -0.44430751365430032 -0.064913749074256955 0 -0.44842803777884321 -0.050284115983429543 0 -0.44430751365430032 -0.064913749074256955 0 -0.45936769603157518 -0.057046051154632238 0 -0.44842803777884321 -0.050284115983429543 0 -0.43568559632565718 -0.0083090682592150619 0 -0.44924787849585501 -0.01833412027174262 0 -0.44729247784565462 0.0013143787143561261 0 -0.43568559632565718 -0.0083090682592150619 0 -0.44729247784565462 0.0013143787143561261 0 -0.43761352241791091 0.0061702165628683527 0 -0.43568559632565718 -0.0083090682592150619 0 -0.44924787849585501 -0.01833412027174262 0 -0.43729812505268678 -0.02051125811870905 0 -0.44411508832300522 -0.02639733438217395 0 -0.44924787849585501 -0.01833412027174262 0 -0.45166048937104231 -0.035338572660957773 0 -0.44411508832300522 -0.02639733438217395 0 -0.44924787849585501 -0.01833412027174262 0 -0.43729812505268678 -0.02051125811870905 0 -0.43568559632565718 -0.0083090682592150619 0 -0.44924787849585501 -0.01833412027174262 0 -0.43430026667755778 -0.030562529431060661 0 -0.43729812505268678 -0.02051125811870905 0 -0.44411508832300522 -0.02639733438217395 0 -0.44411508832300522 -0.02639733438217395 0 -0.44924787849585501 -0.01833412027174262 0 -0.46828618260409222 -0.032406972209207942 0 -0.45166048937104231 -0.035338572660957773 0 -0.44924787849585501 -0.01833412027174262 0 -0.46828618260409222 -0.032406972209207942 0 -0.44924787849585501 -0.01833412027174262 0 -0.46828618260409222 -0.032406972209207942 0 -0.44924787849585501 -0.01833412027174262 0 -0.46656961061874708 -0.01471248131809803 0 -0.44924787849585501 -0.01833412027174262 0 -0.46449651081669702 0.0056202949982542584 0 -0.46461560415421449 0.00017785565835271019 0 -0.44924787849585501 -0.01833412027174262 0 -0.46449651081669702 0.0056202949982542584 0 -0.44924787849585501 -0.01833412027174262 0 -0.46656961061874708 -0.01471248131809803 0 -0.46461560415421449 0.00017785565835271019 0 -0.44924787849585501 -0.01833412027174262 0 -0.46449651081669702 0.0056202949982542584 0 -0.44729247784565462 0.0013143787143561261 0 -0.46656961061874708 -0.01471248131809803 0 -0.47110656074802659 -0.0075167777090209926 0 -0.46461560415421449 0.00017785565835271019 0 -0.47979885681537682 -0.0042903443931472376 0 -0.48875788964126671 -0.015994020012639842 0 -0.48393684202859111 0.004864684630832089 0 -0.47979885681537682 -0.0042903443931472376 0 -0.4771785685629889 -0.018100149072212732 0 -0.4902583530808618 -0.022485912694336741 0 -0.47110656074802659 -0.0075167777090209926 0 -0.47979885681537682 -0.0042903443931472376 0 -0.46461560415421449 0.00017785565835271019 0 -0.46656961061874708 -0.01471248131809803 0 -0.47110656074802659 -0.0075167777090209926 0 -0.4771785685629889 -0.018100149072212732 0 -0.47110656074802659 -0.0075167777090209926 0 -0.47979885681537682 -0.0042903443931472376 0 -0.4771785685629889 -0.018100149072212732 0 -0.46828618260409222 -0.032406972209207942 0 -0.46656961061874708 -0.01471248131809803 0 -0.4771785685629889 -0.018100149072212732 0 -0.48322421712051999 -0.031288481025724672 0 -0.46828618260409222 -0.032406972209207942 0 -0.4771785685629889 -0.018100149072212732 0 -0.48322421712051999 -0.031288481025724672 0 -0.4771785685629889 -0.018100149072212732 0 -0.4902583530808618 -0.022485912694336741 0 -0.49357893725394247 -0.036852724656111703 0 -0.5 -0.02384417273171591 0 -0.49356695749776619 -0.01055072674754323 0 -0.49357893725394247 -0.036852724656111703 0 -0.4902583530808618 -0.022485912694336741 0 -0.49356695749776619 -0.01055072674754323 0 -0.49357893725394247 -0.036852724656111703 0 -0.49356695749776619 -0.01055072674754323 0 -0.49357893725394247 -0.036852724656111703 0 -0.4902583530808618 -0.022485912694336741 0 -0.49357893725394247 -0.036852724656111703 0 -0.48322421712051999 -0.031288481025724672 0 -0.4902583530808618 -0.022485912694336741 0 -0.4902583530808618 -0.022485912694336741 0 -0.48875788964126671 -0.015994020012639842 0 -0.49356695749776619 -0.01055072674754323 0 -0.4902583530808618 -0.022485912694336741 0 -0.48875788964126671 -0.015994020012639842 0 -0.5 -0.02384417273171591 0 -0.49356695749776619 -0.01055072674754323 0 -0.5 0.0041611231041719376 0 -0.48875788964126671 -0.015994020012639842 0 -0.48393684202859111 0.004864684630832089 0 -0.47979885681537682 -0.0042903443931472376 0 -0.4902583530808618 -0.022485912694336741 0 -0.47979885681537682 -0.0042903443931472376 0 -0.4902583530808618 -0.022485912694336741 0 -0.48875788964126671 -0.015994020012639842 0 -0.48875788964126671 -0.015994020012639842 0 -0.49168994828176821 -0.001598317885440321 0 -0.48393684202859111 0.004864684630832089 0 -0.48875788964126671 -0.015994020012639842 0 -0.49168994828176821 -0.001598317885440321 0 -0.49356695749776619 -0.01055072674754323 0 -0.49168994828176821 -0.001598317885440321 0 -0.49356695749776619 -0.01055072674754323 0 -0.5 0.0041611231041719376 0 -0.49168994828176821 -0.001598317885440321 0 -0.5 0.0041611231041719376 0 -0.4915267476286298 0.008434900002199 0 -0.49168994828176821 -0.001598317885440321 0 -0.4915267476286298 0.008434900002199 0 -0.48393684202859111 0.004864684630832089 0 -0.4915267476286298 0.008434900002199 0 -0.49616371311515328 0.018368740738610379 0 -0.48584323471763607 0.016378269422820911 0 -0.4915267476286298 0.008434900002199 0 -0.48584323471763607 0.016378269422820911 0 -0.48393684202859111 0.004864684630832089 0 -0.5 0.0041611231041719376 0 -0.4915267476286298 0.008434900002199 0 -0.49616371311515328 0.018368740738610379 0 -0.5 0.0041611231041719376 0 -0.49616371311515328 0.018368740738610379 0 -0.50000000000000067 0.032166418940059727 0 -0.48307654654332038 0.026945329144259879 0 -0.50000000000000067 0.032166418940059727 0 -0.48861276800719528 0.033837689076008662 0 -0.48307654654332038 0.026945329144259879 0 -0.50000000000000067 0.032166418940059727 0 -0.49616371311515328 0.018368740738610379 0 -0.48307654654332038 0.026945329144259879 0 -0.50000000000000067 0.032166418940059727 0 -0.49616371311515328 0.018368740738610379 0 -0.48584323471763607 0.016378269422820911 0 -0.48307654654332038 0.026945329144259879 0 -0.49616371311515328 0.018368740738610379 0 -0.48307654654332038 0.026945329144259879 0 -0.47684817708539751 0.025023801939162999 0 -0.47911579441591667 0.025723389274304231 0 -0.48393684202859111 0.004864684630832089 0 -0.48584323471763607 0.016378269422820911 0 -0.48307654654332038 0.026945329144259879 0 -0.47911579441591667 0.025723389274304231 0 -0.48584323471763607 0.016378269422820911 0 -0.47911579441591667 0.025723389274304231 0 -0.48393684202859111 0.004864684630832089 0 -0.48307654654332038 0.026945329144259879 0 -0.47954473226078242 0.029259880369708981 0 -0.48861276800719528 0.033837689076008662 0 -0.48307654654332038 0.026945329144259879 0 -0.47954473226078242 0.029259880369708981 0 -0.48307654654332038 0.026945329144259879 0 -0.47911579441591667 0.025723389274304231 0 -0.48307654654332038 0.026945329144259879 0 -0.47911579441591667 0.025723389274304231 0 -0.47863039274649638 0.027823524114136019 0 -0.47684817708539751 0.025023801939162999 0 -0.47911579441591667 0.025723389274304231 0 -0.47684817708539751 0.025023801939162999 0 -0.47911579441591667 0.025723389274304231 0 -0.47863039274649638 0.027823524114136019 0 -0.47684817708539751 0.025023801939162999 0 -0.47863039274649638 0.027823524114136019 0 -0.47911579441591667 0.025723389274304231 0 -0.47863039274649638 0.027823524114136019 0 -0.47684817708539751 0.025023801939162999 0 -0.47863039274649638 0.027823524114136019 0 -0.47807593211959609 0.030222448867022311 0 -0.48307654654332038 0.026945329144259879 0 -0.47954473226078242 0.029259880369708981 0 -0.47863039274649638 0.027823524114136019 0 -0.47954473226078242 0.029259880369708981 0 -0.47863039274649638 0.027823524114136019 0 -0.47807593211959609 0.030222448867022311 0 -0.47954473226078242 0.029259880369708981 0 -0.47863039274649638 0.027823524114136019 0 -0.47863039274649638 0.027823524114136019 0 -0.47807593211959609 0.030222448867022311 0 -0.47954473226078242 0.029259880369708981 0 -0.47807593211959609 0.030222448867022311 0 -0.47684817708539751 0.025023801939162999 0 -0.47807593211959609 0.030222448867022311 0 -0.46969733817023118 0.028215028799780949 0 -0.47684817708539751 0.025023801939162999 0 -0.46969733817023118 0.028215028799780949 0 -0.46572921132987533 0.0215934667067827 0 -0.47684817708539751 0.025023801939162999 0 -0.46572921132987533 0.0215934667067827 0 -0.47684817708539751 0.025023801939162999 0 -0.46984480316150562 0.014022046258122031 0 -0.47684817708539751 0.025023801939162999 0 -0.46984480316150562 0.014022046258122031 0 -0.46572921132987533 0.0215934667067827 0 -0.47979885681537682 -0.0042903443931472376 0 -0.46984480316150562 0.014022046258122031 0 -0.47979885681537682 -0.0042903443931472376 0 -0.46984480316150562 0.014022046258122031 0 -0.46449651081669702 0.0056202949982542584 0 -0.47979885681537682 -0.0042903443931472376 0 -0.46984480316150562 0.014022046258122031 0 -0.48393684202859111 0.004864684630832089 0 -0.47911579441591667 0.025723389274304231 0 -0.48393684202859111 0.004864684630832089 0 -0.47684817708539751 0.025023801939162999 0 -0.46984480316150562 0.014022046258122031 0 -0.48393684202859111 0.004864684630832089 0 -0.47979885681537682 -0.0042903443931472376 0 -0.46449651081669702 0.0056202949982542584 0 -0.46461560415421449 0.00017785565835271019 0 -0.4875931477811859 0.058240393085406787 0 -0.50000000000000222 0.061393514886853962 0 -0.48977236613039321 0.045326697628280947 0 -0.50000000000000222 0.061393514886853962 0 -0.48977236613039321 0.045326697628280947 0 -0.4875931477811859 0.058240393085406787 0 -0.50000000000000222 0.061393514886853962 0 -0.49451204366162488 0.067743398203061855 0 -0.50000000000000222 0.061393514886853962 0 -0.48977236613039321 0.045326697628280947 0 -0.50000000000000067 0.032166418940059727 0 -0.47954473226078242 0.029259880369708981 0 -0.48977236613039321 0.045326697628280947 0 -0.48861276800719528 0.033837689076008662 0 -0.47954473226078242 0.029259880369708981 0 -0.48977236613039321 0.045326697628280947 0 -0.48977236613039321 0.045326697628280947 0 -0.50000000000000067 0.032166418940059727 0 -0.48861276800719528 0.033837689076008662 0 -0.47807593211959609 0.030222448867022311 0 -0.48977236613039321 0.045326697628280947 0 -0.47319251685162328 0.05135099289100168 0 -0.47807593211959609 0.030222448867022311 0 -0.47319251685162328 0.05135099289100168 0 -0.47807593211959609 0.030222448867022311 0 -0.47319251685162328 0.05135099289100168 0 -0.46375275720087838 0.039609047201021069 0 -0.47954473226078242 0.029259880369708981 0 -0.47807593211959609 0.030222448867022311 0 -0.48977236613039321 0.045326697628280947 0 -0.47807593211959609 0.030222448867022311 0 -0.46375275720087838 0.039609047201021069 0 -0.47807593211959609 0.030222448867022311 0 -0.46969733817023118 0.028215028799780949 0 -0.46375275720087838 0.039609047201021069 0 -0.47319251685162328 0.05135099289100168 0 -0.46830910158364769 0.072479536914980491 0 -0.4875931477811859 0.058240393085406787 0 -0.48977236613039321 0.045326697628280947 0 -0.47319251685162328 0.05135099289100168 0 -0.4875931477811859 0.058240393085406787 0 -0.47319251685162328 0.05135099289100168 0 -0.48029426368036943 0.066915525783382807 0 -0.46375275720087838 0.039609047201021069 0 -0.45181002566261119 0.047200478116382699 0 -0.46320461218593789 0.064658693599934661 0 -0.45181002566261119 0.047200478116382699 0 -0.46320461218593789 0.064658693599934661 0 -0.47319251685162328 0.05135099289100168 0 -0.46375275720087838 0.039609047201021069 0 -0.46320461218593789 0.064658693599934661 0 -0.46375275720087838 0.039609047201021069 0 -0.46320461218593789 0.064658693599934661 0 -0.45181002566261119 0.047200478116382699 0 -0.45214573084209592 0.060815117056526528 0 -0.46320461218593789 0.064658693599934661 0 -0.46375275720087838 0.039609047201021069 0 -0.45181002566261119 0.047200478116382699 0 -0.46408061311540999 0.024626379284918409 0 -0.45181002566261119 0.047200478116382699 0 -0.46408061311540999 0.024626379284918409 0 -0.46375275720087838 0.039609047201021069 0 -0.45181002566261119 0.047200478116382699 0 -0.46375275720087838 0.039609047201021069 0 -0.46408061311540999 0.024626379284918409 0 -0.45181002566261119 0.047200478116382699 0 -0.43696666990903499 0.02445823093484804 0 -0.45181002566261119 0.047200478116382699 0 -0.43696666990903499 0.02445823093484804 0 -0.43474155658954777 0.042062898528228233 0 -0.45181002566261119 0.047200478116382699 0 -0.4330540984346874 0.059727211006599723 0 -0.45181002566261119 0.047200478116382699 0 -0.44724598738403032 0.055596901805763127 0 -0.4330540984346874 0.059727211006599723 0 -0.45181002566261119 0.047200478116382699 0 -0.43474155658954777 0.042062898528228233 0 -0.4330540984346874 0.059727211006599723 0 -0.45181002566261119 0.047200478116382699 0 -0.45214573084209592 0.060815117056526528 0 -0.44724598738403032 0.055596901805763127 0 -0.45181002566261119 0.047200478116382699 0 -0.44724598738403032 0.055596901805763127 0 -0.44724598738403032 0.055596901805763127 0 -0.4330540984346874 0.059727211006599723 0 -0.44340166754714327 0.064752242975285382 0 -0.45214573084209592 0.060815117056526528 0 -0.44724598738403032 0.055596901805763127 0 -0.44340166754714327 0.064752242975285382 0 -0.4555128362896379 0.01028436835062483 0 -0.46449651081669702 0.0056202949982542584 0 -0.44729247784565462 0.0013143787143561261 0 -0.46449651081669702 0.0056202949982542584 0 -0.46461560415421449 0.00017785565835271019 0 -0.46984480316150562 0.014022046258122031 0 -0.46449651081669702 0.0056202949982542584 0 -0.46984480316150562 0.014022046258122031 0 -0.46449651081669702 0.0056202949982542584 0 -0.46415759031898057 0.02110860264261059 0 -0.4555128362896379 0.01028436835062483 0 -0.46449651081669702 0.0056202949982542584 0 -0.46415759031898057 0.02110860264261059 0 -0.46449651081669702 0.0056202949982542584 0 -0.46415759031898057 0.02110860264261059 0 -0.46984480316150562 0.014022046258122031 0 -0.46572921132987533 0.0215934667067827 0 -0.46415759031898057 0.02110860264261059 0 -0.46984480316150562 0.014022046258122031 0 -0.46572921132987533 0.0215934667067827 0 -0.46415759031898057 0.02110860264261059 0 -0.46408061311540999 0.024626379284918409 0 -0.45538608076481912 0.01840248600133405 0 -0.45181002566261119 0.047200478116382699 0 -0.46408061311540999 0.024626379284918409 0 -0.45538608076481912 0.01840248600133405 0 -0.46572921132987533 0.0215934667067827 0 -0.46408061311540999 0.024626379284918409 0 -0.46572921132987533 0.0215934667067827 0 -0.46415759031898057 0.02110860264261059 0 -0.46572921132987533 0.0215934667067827 0 -0.46415759031898057 0.02110860264261059 0 -0.46408061311540999 0.024626379284918409 0 -0.46415759031898057 0.02110860264261059 0 -0.46408061311540999 0.024626379284918409 0 -0.46969733817023118 0.028215028799780949 0 -0.46375275720087838 0.039609047201021069 0 -0.46408061311540999 0.024626379284918409 0 -0.46969733817023118 0.028215028799780949 0 -0.46572921132987533 0.0215934667067827 0 -0.46408061311540999 0.024626379284918409 0 -0.4555128362896379 0.01028436835062483 0 -0.46415759031898057 0.02110860264261059 0 -0.45538608076481912 0.01840248600133405 0 -0.46415759031898057 0.02110860264261059 0 -0.45538608076481912 0.01840248600133405 0 -0.45538608076481912 0.01840248600133405 0 -0.44599955385374762 0.011671557671039791 0 -0.43696666990903499 0.02445823093484804 0 -0.45181002566261119 0.047200478116382699 0 -0.45538608076481912 0.01840248600133405 0 -0.43696666990903499 0.02445823093484804 0 -0.44599955385374762 0.011671557671039791 0 -0.43761352241791091 0.0061702165628683527 0 -0.43696666990903499 0.02445823093484804 0 -0.4555128362896379 0.01028436835062483 0 -0.45538608076481912 0.01840248600133405 0 -0.44599955385374762 0.011671557671039791 0 -0.4555128362896379 0.01028436835062483 0 -0.44599955385374762 0.011671557671039791 0 -0.44729247784565462 0.0013143787143561261 0 -0.44599955385374762 0.011671557671039791 0 -0.44729247784565462 0.0013143787143561261 0 -0.43761352241791091 0.0061702165628683527 0 -0.42212331415545967 0.001715983753312897 0 -0.43696666990903499 0.02445823093484804 0 -0.43761352241791091 0.0061702165628683527 0 -0.42212331415545967 0.001715983753312897 0 -0.43696666990903499 0.02445823093484804 0 -0.40172918260307472 -0.00048808184188671628 0 -0.42212331415545967 0.001715983753312897 0 -0.39938633158238429 0.018522847822532929 0 -0.42212331415545967 0.001715983753312897 0 -0.41367634112714191 0.02253514246540499 0 -0.39938633158238429 0.018522847822532929 0 -0.42212331415545967 0.001715983753312897 0 -0.39938633158238429 0.018522847822532929 0 -0.42212331415545967 0.001715983753312897 0 -0.41367634112714191 0.02253514246540499 0 -0.42493802743550912 0.025119922587853401 0 -0.41367634112714191 0.02253514246540499 0 -0.41718225539636111 0.034827357257472873 0 -0.40455686351902559 0.031671175492020129 0 -0.41367634112714191 0.02253514246540499 0 -0.42493802743550912 0.025119922587853401 0 -0.41718225539636111 0.034827357257472873 0 -0.43696666990903499 0.02445823093484804 0 -0.42493802743550912 0.025119922587853401 0 -0.43474155658954777 0.042062898528228233 0 -0.42212331415545967 0.001715983753312897 0 -0.43696666990903499 0.02445823093484804 0 -0.42493802743550912 0.025119922587853401 0 -0.43474155658954777 0.042062898528228233 0 -0.41583949132515491 0.053358009613538412 0 -0.41718225539636111 0.034827357257472873 0 -0.42493802743550912 0.025119922587853401 0 -0.43474155658954777 0.042062898528228233 0 -0.41718225539636111 0.034827357257472873 0 -0.43474155658954777 0.042062898528228233 0 -0.4330540984346874 0.059727211006599723 0 -0.41583949132515491 0.053358009613538412 0 -0.4330540984346874 0.059727211006599723 0 -0.41583949132515491 0.053358009613538412 0 -0.41449672725394932 0.071888661969603931 0 -0.41583949132515491 0.053358009613538412 0 -0.40095257851250737 0.047324637705385038 0 -0.4019645701675702 0.06359605045313621 0 -0.41583949132515491 0.053358009613538412 0 -0.40895082949276751 0.040924590394147843 0 -0.40095257851250737 0.047324637705385038 0 -0.41583949132515491 0.053358009613538412 0 -0.41718225539636111 0.034827357257472873 0 -0.40895082949276751 0.040924590394147843 0 -0.41583949132515491 0.053358009613538412 0 -0.41718225539636111 0.034827357257472873 0 -0.41718225539636111 0.034827357257472873 0 -0.40895082949276751 0.040924590394147843 0 -0.40455686351902559 0.031671175492020129 0 -0.40455686351902559 0.031671175492020129 0 -0.38927037520917679 0.041259700564907992 0 -0.37813184384522341 0.025252262733799082 0 -0.40895082949276751 0.040924590394147843 0 -0.40455686351902559 0.031671175492020129 0 -0.40095257851250737 0.047324637705385038 0 -0.40455686351902559 0.031671175492020129 0 -0.40095257851250737 0.047324637705385038 0 -0.38927037520917679 0.041259700564907992 0 -0.40095257851250737 0.047324637705385038 0 -0.38787840726809641 0.057492462487959778 0 -0.38927037520917679 0.041259700564907992 0 -0.40095257851250737 0.047324637705385038 0 -0.38787840726809641 0.057492462487959778 0 -0.4019645701675702 0.06359605045313621 0 -0.38787840726809641 0.057492462487959778 0 -0.38927037520917679 0.041259700564907992 0 -0.37483218290103132 0.044557964405375912 0 -0.38787840726809641 0.057492462487959778 0 -0.37483218290103132 0.044557964405375912 0 -0.37234180684841711 0.062861574713409973 0 -0.38927037520917679 0.041259700564907992 0 -0.37813184384522341 0.025252262733799082 0 -0.37483218290103132 0.044557964405375912 0 -0.37813184384522341 0.025252262733799082 0 -0.385502840193372 0.01160287616344677 0 -0.39938633158238429 0.018522847822532929 0 -0.37813184384522341 0.025252262733799082 0 -0.385502840193372 0.01160287616344677 0 -0.37469109724737659 0.0093115152352250263 0 -0.40172918260307472 -0.00048808184188671628 0 -0.3808204899099874 -0.0031860702741812281 0 -0.385502840193372 0.01160287616344677 0 -0.3808204899099874 -0.0031860702741812281 0 -0.385502840193372 0.01160287616344677 0 -0.37469109724737659 0.0093115152352250263 0 -0.40172918260307472 -0.00048808184188671628 0 -0.385502840193372 0.01160287616344677 0 -0.39938633158238429 0.018522847822532929 0 -0.40455686351902559 0.031671175492020129 0 -0.37813184384522341 0.025252262733799082 0 -0.39938633158238429 0.018522847822532929 0 -0.40455686351902559 0.031671175492020129 0 -0.37813184384522341 0.025252262733799082 0 -0.41367634112714191 0.02253514246540499 0 -0.40455686351902559 0.031671175492020129 0 -0.39938633158238429 0.018522847822532929 0 -0.39658872881943769 0.105548231404194 0 -0.40226433425203839 0.08566911200513054 0 -0.41294733639974812 0.093270842129568918 0 -0.39658872881943769 0.105548231404194 0 -0.38528925572950729 0.091029586038986698 0 -0.40226433425203839 0.08566911200513054 0 -0.39658872881943769 0.105548231404194 0 -0.40226433425203839 0.08566911200513054 0 -0.39658872881943769 0.105548231404194 0 -0.40329750346145149 0.12273577726860591 0 -0.41139794554554748 0.1146530222895339 0 -0.39658872881943769 0.105548231404194 0 -0.40329750346145149 0.12273577726860591 0 -0.39091312338683692 0.1254273508032574 0 -0.39658872881943769 0.105548231404194 0 -0.39091312338683692 0.1254273508032574 0 -0.37715944345331809 0.1135223301104122 0 -0.39091312338683692 0.1254273508032574 0 -0.37895625183438059 0.13321651121940231 0 -0.39658872881943769 0.105548231404194 0 -0.37715944345331809 0.1135223301104122 0 -0.39091312338683692 0.1254273508032574 0 -0.37715944345331809 0.1135223301104122 0 -0.38528925572950729 0.091029586038986698 0 -0.36668329576715208 0.094791004823607111 0 -0.39658872881943769 0.105548231404194 0 -0.37715944345331809 0.1135223301104122 0 -0.38528925572950729 0.091029586038986698 0 -0.37524325287169957 0.081069145775215415 0 -0.38528925572950729 0.091029586038986698 0 -0.36668329576715208 0.094791004823607111 0 -0.37524325287169957 0.081069145775215415 0 -0.3876228444192763 0.080058384741897692 0 -0.38528925572950729 0.091029586038986698 0 -0.37524325287169957 0.081069145775215415 0 -0.3836639475416056 0.071500861765413842 0 -0.37234180684841711 0.062861574713409973 0 -0.38787840726809641 0.057492462487959778 0 -0.3836639475416056 0.071500861765413842 0 -0.37234180684841711 0.062861574713409973 0 -0.37524325287169957 0.081069145775215415 0 -0.3876228444192763 0.080058384741897692 0 -0.3836639475416056 0.071500861765413842 0 -0.3876228444192763 0.080058384741897692 0 -0.3836639475416056 0.071500861765413842 0 -0.39402642836089641 0.071263098223932717 0 -0.38787840726809641 0.057492462487959778 0 -0.3836639475416056 0.071500861765413842 0 -0.39402642836089641 0.071263098223932717 0 -0.38787840726809641 0.057492462487959778 0 -0.39402642836089641 0.071263098223932717 0 -0.4019645701675702 0.06359605045313621 0 -0.3876228444192763 0.080058384741897692 0 -0.39402642836089641 0.071263098223932717 0 -0.39989299149172841 0.081459124004295433 0 -0.40259517931853611 0.072051733662742062 0 -0.39989299149172841 0.081459124004295433 0 -0.41449672725394932 0.071888661969603931 0 -0.39402642836089641 0.071263098223932717 0 -0.40259517931853611 0.072051733662742062 0 -0.39989299149172841 0.081459124004295433 0 -0.39402642836089641 0.071263098223932717 0 -0.40259517931853611 0.072051733662742062 0 -0.4019645701675702 0.06359605045313621 0 -0.38528925572950729 0.091029586038986698 0 -0.40226433425203839 0.08566911200513054 0 -0.39989299149172841 0.081459124004295433 0 -0.38528925572950729 0.091029586038986698 0 -0.39989299149172841 0.081459124004295433 0 -0.3876228444192763 0.080058384741897692 0 -0.38528925572950729 0.091029586038986698 0 -0.39989299149172841 0.081459124004295433 0 -0.40226433425203839 0.08566911200513054 0 -0.39989299149172841 0.081459124004295433 0 -0.41449672725394932 0.071888661969603931 0 -0.41294733639974812 0.093270842129568918 0 -0.41449672725394932 0.071888661969603931 0 -0.40226433425203839 0.08566911200513054 0 -0.41294733639974812 0.093270842129568918 0 -0.41449672725394932 0.071888661969603931 0 -0.41294733639974812 0.093270842129568918 0 -0.41449672725394932 0.071888661969603931 0 -0.42519667748350792 0.08275701310250036 0 -0.41583949132515491 0.053358009613538412 0 -0.4019645701675702 0.06359605045313621 0 -0.41449672725394932 0.071888661969603931 0 -0.41583949132515491 0.053358009613538412 0 -0.41449672725394932 0.071888661969603931 0 -0.40259517931853611 0.072051733662742062 0 -0.4019645701675702 0.06359605045313621 0 -0.41449672725394932 0.071888661969603931 0 -0.39989299149172841 0.081459124004295433 0 -0.41449672725394932 0.071888661969603931 0 -0.41449672725394932 0.071888661969603931 0 -0.4333602937939951 0.074703385712540163 0 -0.42519667748350792 0.08275701310250036 0 -0.4330540984346874 0.059727211006599723 0 -0.41449672725394932 0.071888661969603931 0 -0.4333602937939951 0.074703385712540163 0 -0.4330540984346874 0.059727211006599723 0 -0.41449672725394932 0.071888661969603931 0 -0.4330540984346874 0.059727211006599723 0 -0.4333602937939951 0.074703385712540163 0 -0.44340166754714327 0.064752242975285382 0 -0.4333602937939951 0.074703385712540163 0 -0.42519667748350792 0.08275701310250036 0 -0.43998235248633871 0.091165162598288441 0 -0.41294733639974812 0.093270842129568918 0 -0.42519667748350792 0.08275701310250036 0 -0.43998235248633871 0.091165162598288441 0 -0.41332830460998438 0.1026136930425979 0 -0.43998235248633871 0.091165162598288441 0 -0.41332830460998438 0.1026136930425979 0 -0.42495818346146191 0.11065282109458351 0 -0.43998235248633871 0.091165162598288441 0 -0.41294733639974812 0.093270842129568918 0 -0.41332830460998438 0.1026136930425979 0 -0.43998235248633871 0.091165162598288441 0 -0.42495818346146191 0.11065282109458351 0 -0.43513912617638989 0.1204625136163521 0 -0.43998235248633871 0.091165162598288441 0 -0.41294733639974812 0.093270842129568918 0 -0.41139794554554748 0.1146530222895339 0 -0.41294733639974812 0.093270842129568918 0 -0.41332830460998438 0.1026136930425979 0 -0.41139794554554748 0.1146530222895339 0 -0.39658872881943769 0.105548231404194 0 -0.41294733639974812 0.093270842129568918 0 -0.41139794554554748 0.1146530222895339 0 -0.41332830460998438 0.1026136930425979 0 -0.41139794554554748 0.1146530222895339 0 -0.42495818346146191 0.11065282109458351 0 -0.41995533147117059 0.1186776593857708 0 -0.43513912617638989 0.1204625136163521 0 -0.41018832206531219 0.13288449190933549 0 -0.40329750346145149 0.12273577726860591 0 -0.41120977563587041 0.12223773771331151 0 -0.41139794554554748 0.1146530222895339 0 -0.41120977563587041 0.12223773771331151 0 -0.41995533147117059 0.1186776593857708 0 -0.41018832206531219 0.13288449190933549 0 -0.41139794554554748 0.1146530222895339 0 -0.41995533147117059 0.1186776593857708 0 -0.42495818346146191 0.11065282109458351 0 -0.41120977563587041 0.12223773771331151 0 -0.41139794554554748 0.1146530222895339 0 -0.41995533147117059 0.1186776593857708 0 -0.41995533147117059 0.1186776593857708 0 -0.42495818346146191 0.11065282109458351 0 -0.43513912617638989 0.1204625136163521 0 -0.43513912617638989 0.1204625136163521 0 -0.46008993028746792 0.1080405353233691 0 -0.44177441572917542 0.13121750997573561 0 -0.46008993028746792 0.1080405353233691 0 -0.44177441572917542 0.13121750997573561 0 -0.45419639723632782 0.1335394465759914 0 -0.43513912617638989 0.1204625136163521 0 -0.46008993028746792 0.1080405353233691 0 -0.43513912617638989 0.1204625136163521 0 -0.46008993028746792 0.1080405353233691 0 -0.43998235248633871 0.091165162598288441 0 -0.46008993028746792 0.1080405353233691 0 -0.46663640036269288 0.079716632153979061 0 -0.46008993028746792 0.1080405353233691 0 -0.47203306004411599 0.1159475666415801 0 -0.46552079878816122 0.12870491534675779 0 -0.46008993028746792 0.1080405353233691 0 -0.45419639723632782 0.1335394465759914 0 -0.46008993028746792 0.1080405353233691 0 -0.45419639723632782 0.1335394465759914 0 -0.46552079878816122 0.12870491534675779 0 -0.45214573084209592 0.060815117056526528 0 -0.44855761951122142 0.074428521180809407 0 -0.45775892827938047 0.072093473699490818 0 -0.45214573084209592 0.060815117056526528 0 -0.44340166754714327 0.064752242975285382 0 -0.44855761951122142 0.074428521180809407 0 -0.4333602937939951 0.074703385712540163 0 -0.44340166754714327 0.064752242975285382 0 -0.44855761951122142 0.074428521180809407 0 -0.44855761951122142 0.074428521180809407 0 -0.43998235248633871 0.091165162598288441 0 -0.46287417436907241 0.079759351717095583 0 -0.4333602937939951 0.074703385712540163 0 -0.44855761951122142 0.074428521180809407 0 -0.43998235248633871 0.091165162598288441 0 -0.43998235248633871 0.091165162598288441 0 -0.46663640036269288 0.079716632153979061 0 -0.46287417436907241 0.079759351717095583 0 -0.43998235248633871 0.091165162598288441 0 -0.46663640036269288 0.079716632153979061 0 -0.46008993028746792 0.1080405353233691 0 -0.43998235248633871 0.091165162598288441 0 -0.46663640036269288 0.079716632153979061 0 -0.47319251685162328 0.05135099289100168 0 -0.46830910158364769 0.072479536914980491 0 -0.46320461218593789 0.064658693599934661 0 -0.44855761951122142 0.074428521180809407 0 -0.46287417436907241 0.079759351717095583 0 -0.45775892827938047 0.072093473699490818 0 -0.46287417436907241 0.079759351717095583 0 -0.46830910158364769 0.072479536914980491 0 -0.46320461218593789 0.064658693599934661 0 -0.46287417436907241 0.079759351717095583 0 -0.46320461218593789 0.064658693599934661 0 -0.46287417436907241 0.079759351717095583 0 -0.45775892827938047 0.072093473699490818 0 -0.46320461218593789 0.064658693599934661 0 -0.46663640036269288 0.079716632153979061 0 -0.46830910158364769 0.072479536914980491 0 -0.46663640036269288 0.079716632153979061 0 -0.46287417436907241 0.079759351717095583 0 -0.46830910158364769 0.072479536914980491 0 -0.46830910158364769 0.072479536914980491 0 -0.46320461218593789 0.064658693599934661 0 -0.45214573084209592 0.060815117056526528 0 -0.45775892827938047 0.072093473699490818 0 -0.46320461218593789 0.064658693599934661 0 -0.47319251685162328 0.05135099289100168 0 -0.46830910158364769 0.072479536914980491 0 -0.48029426368036943 0.066915525783382807 0 -0.48029426368036943 0.066915525783382807 0 -0.47163209728596861 0.077570864704998438 0 -0.49451204366162488 0.067743398203061855 0 -0.47163209728596861 0.077570864704998438 0 -0.49451204366162488 0.067743398203061855 0 -0.46830910158364769 0.072479536914980491 0 -0.48029426368036943 0.066915525783382807 0 -0.47163209728596861 0.077570864704998438 0 -0.46830910158364769 0.072479536914980491 0 -0.47163209728596861 0.077570864704998438 0 -0.46663640036269288 0.079716632153979061 0 -0.46830910158364769 0.072479536914980491 0 -0.47163209728596861 0.077570864704998438 0 -0.47163209728596861 0.077570864704998438 0 -0.48748878781623473 0.082429000852051307 0 -0.48381101031735191 0.096230786030097812 0 -0.47163209728596861 0.077570864704998438 0 -0.48381101031735191 0.096230786030097812 0 -0.46663640036269288 0.079716632153979061 0 -0.47163209728596861 0.077570864704998438 0 -0.48381101031735191 0.096230786030097812 0 -0.46663640036269288 0.079716632153979061 0 -0.47163209728596861 0.077570864704998438 0 -0.49999999999999661 0.088170954470047025 0 -0.48381101031735191 0.096230786030097812 0 -0.48748878781623473 0.082429000852051307 0 -0.49999999999999661 0.088170954470047025 0 -0.48381101031735191 0.096230786030097812 0 -0.48748878781623473 0.082429000852051307 0 -0.49999999999999661 0.088170954470047025 0 -0.49451204366162488 0.067743398203061855 0 -0.50000000000000222 0.061393514886853962 0 -0.49999999999999661 0.088170954470047025 0 -0.49451204366162488 0.067743398203061855 0 -0.47163209728596861 0.077570864704998438 0 -0.48748878781623473 0.082429000852051307 0 -0.49451204366162488 0.067743398203061855 0 -0.4875931477811859 0.058240393085406787 0 -0.48029426368036943 0.066915525783382807 0 -0.49451204366162488 0.067743398203061855 0 -0.47203306004411599 0.1159475666415801 0 -0.48392026323867993 0.1240299460739013 0 -0.46552079878816122 0.12870491534675779 0 -0.47203306004411599 0.1159475666415801 0 -0.48392026323867993 0.1240299460739013 0 -0.48381101031735191 0.096230786030097812 0 -0.46008993028746792 0.1080405353233691 0 -0.48381101031735191 0.096230786030097812 0 -0.46008993028746792 0.1080405353233691 0 -0.47203306004411599 0.1159475666415801 0 -0.48381101031735191 0.096230786030097812 0 -0.46008993028746792 0.1080405353233691 0 -0.46663640036269288 0.079716632153979061 0 -0.48381101031735191 0.096230786030097812 0 -0.48381101031735191 0.096230786030097812 0 -0.50000000000000577 0.1210347462055948 0 -0.48381101031735191 0.096230786030097812 0 -0.5 0.10460285033782089 0 -0.50000000000000577 0.1210347462055948 0 -0.49999999999999661 0.088170954470047025 0 -0.48381101031735191 0.096230786030097812 0 -0.5 0.10460285033782089 0 -0.48392026323867993 0.1240299460739013 0 -0.48381101031735191 0.096230786030097812 0 -0.50000000000000577 0.1210347462055948 0 -0.48392026323867993 0.1240299460739013 0 -0.50000000000000577 0.1210347462055948 0 -0.49999999999999728 0.1296122636657859 0 -0.48392026323867993 0.1240299460739013 0 -0.49999999999999728 0.1296122636657859 0 -0.48868868798174958 0.13518544405739391 0 -0.49999999999999728 0.1296122636657859 0 -0.48868868798174958 0.13518544405739391 0 -0.491078796100617 0.14862164374632161 0 -0.49999999999999728 0.1296122636657859 0 -0.491078796100617 0.14862164374632161 0 -0.48392026323867993 0.1240299460739013 0 -0.48868868798174958 0.13518544405739391 0 -0.47975569258770617 0.1384779227435676 0 -0.48392026323867993 0.1240299460739013 0 -0.47975569258770617 0.1384779227435676 0 -0.46552079878816122 0.12870491534675779 0 -0.47975569258770617 0.1384779227435676 0 -0.46900481864114779 0.15486602617041631 0 -0.46552079878816122 0.12870491534675779 0 -0.47975569258770617 0.1384779227435676 0 -0.46900481864114779 0.15486602617041631 0 -0.491078796100617 0.14862164374632161 0 -0.49999999999999728 0.1296122636657859 0 -0.491078796100617 0.14862164374632161 0 -0.5 0.15876868606358679 0 -0.48868868798174958 0.13518544405739391 0 -0.47975569258770617 0.1384779227435676 0 -0.491078796100617 0.14862164374632161 0 -0.5 0.15876868606358679 0 -0.4873393499650206 0.1792723356626886 0 -0.48215759220123888 0.16763102382685841 0 -0.491078796100617 0.14862164374632161 0 -0.5 0.15876868606358679 0 -0.48215759220123888 0.16763102382685841 0 -0.491078796100617 0.14862164374632161 0 -0.48215759220123888 0.16763102382685841 0 -0.5 0.15876868606358679 0 -0.4873393499650206 0.1792723356626886 0 -0.5 0.18792510846138771 0 -0.4873393499650206 0.1792723356626886 0 -0.5 0.18792510846138771 0 -0.48491655725597438 0.1923152475511791 0 -0.47498976011475968 0.17757432479608379 0 -0.47323638830186049 0.186640403907395 0 -0.48215759220123888 0.16763102382685841 0 -0.4873393499650206 0.1792723356626886 0 -0.47323638830186049 0.186640403907395 0 -0.48215759220123888 0.16763102382685841 0 -0.47323638830186049 0.186640403907395 0 -0.48215759220123888 0.16763102382685841 0 -0.4873393499650206 0.1792723356626886 0 -0.47323638830186049 0.186640403907395 0 -0.48491655725597438 0.1923152475511791 0 -0.47498976011475968 0.17757432479608379 0 -0.47248883849413459 0.18102713699407449 0 -0.47248883849413459 0.18102713699407449 0 -0.47323638830186049 0.186640403907395 0 -0.46334647980565752 0.19364922292337439 0 -0.47498976011475968 0.17757432479608379 0 -0.47248883849413459 0.18102713699407449 0 -0.47323638830186049 0.186640403907395 0 -0.47248883849413459 0.18102713699407449 0 -0.47323638830186049 0.186640403907395 0 -0.46900481864114779 0.15486602617041631 0 -0.491078796100617 0.14862164374632161 0 -0.48215759220123888 0.16763102382685841 0 -0.46900481864114779 0.15486602617041631 0 -0.47248883849413459 0.18102713699407449 0 -0.46900481864114779 0.15486602617041631 0 -0.47498976011475968 0.17757432479608379 0 -0.48215759220123888 0.16763102382685841 0 -0.46900481864114779 0.15486602617041631 0 -0.47498976011475968 0.17757432479608379 0 -0.47248883849413459 0.18102713699407449 0 -0.46900481864114779 0.15486602617041631 0 -0.47248883849413459 0.18102713699407449 0 -0.46327572531778272 0.17008119638943731 0 -0.46900481864114779 0.15486602617041631 0 -0.46327572531778272 0.17008119638943731 0 -0.45861702463861947 0.1594382858351536 0 -0.46327572531778272 0.17008119638943731 0 -0.45362239615182609 0.16660253149712129 0 -0.45653564479085679 0.17414421049096609 0 -0.46327572531778272 0.17008119638943731 0 -0.45362239615182609 0.16660253149712129 0 -0.45861702463861947 0.1594382858351536 0 -0.45362239615182609 0.16660253149712129 0 -0.45653564479085679 0.17414421049096609 0 -0.44931711525437962 0.1732200298062305 0 -0.45362239615182609 0.16660253149712129 0 -0.45861702463861947 0.1594382858351536 0 -0.44830286418518722 0.1590383578286137 0 -0.47248883849413459 0.18102713699407449 0 -0.46334647980565752 0.19364922292337439 0 -0.47248883849413459 0.18102713699407449 0 -0.46118378576247249 0.18485663332753621 0 -0.46380092958229607 0.17898940923770379 0 -0.47248883849413459 0.18102713699407449 0 -0.46118378576247249 0.18485663332753621 0 -0.46334647980565752 0.19364922292337439 0 -0.46118378576247249 0.18485663332753621 0 -0.46380092958229607 0.17898940923770379 0 -0.45899194997781639 0.17881762544651389 0 -0.47248883849413459 0.18102713699407449 0 -0.46327572531778272 0.17008119638943731 0 -0.46380092958229607 0.17898940923770379 0 -0.46327572531778272 0.17008119638943731 0 -0.46380092958229607 0.17898940923770379 0 -0.46065106241718801 0.1755081103911553 0 -0.46380092958229607 0.17898940923770379 0 -0.46065106241718801 0.1755081103911553 0 -0.45899194997781639 0.17881762544651389 0 -0.46327572531778272 0.17008119638943731 0 -0.46065106241718801 0.1755081103911553 0 -0.45653564479085679 0.17414421049096609 0 -0.45653564479085679 0.17414421049096609 0 -0.45409515760799463 0.17823137573283879 0 -0.44931711525437962 0.1732200298062305 0 -0.45653564479085679 0.17414421049096609 0 -0.45409515760799463 0.17823137573283879 0 -0.4562588517866546 0.17830677862953531 0 -0.45409515760799463 0.17823137573283879 0 -0.4562588517866546 0.17830677862953531 0 -0.45541265476995058 0.1820339028478225 0 -0.45653564479085679 0.17414421049096609 0 -0.4562588517866546 0.17830677862953531 0 -0.45899194997781639 0.17881762544651389 0 -0.46065106241718801 0.1755081103911553 0 -0.45653564479085679 0.17414421049096609 0 -0.45899194997781639 0.17881762544651389 0 -0.46118378576247249 0.18485663332753621 0 -0.45356038153900669 0.18306048971504221 0 -0.46334647980565752 0.19364922292337439 0 -0.46118378576247249 0.18485663332753621 0 -0.45899194997781639 0.17881762544651389 0 -0.45541265476995058 0.1820339028478225 0 -0.46118378576247249 0.18485663332753621 0 -0.45356038153900669 0.18306048971504221 0 -0.45541265476995058 0.1820339028478225 0 -0.45409515760799463 0.17823137573283879 0 -0.45356038153900669 0.18306048971504221 0 -0.45541265476995058 0.1820339028478225 0 -0.4562588517866546 0.17830677862953531 0 -0.45899194997781639 0.17881762544651389 0 -0.45541265476995058 0.1820339028478225 0 -0.45356038153900669 0.18306048971504221 0 -0.45541265476995058 0.1820339028478225 0 -0.45356038153900669 0.18306048971504221 0 -0.44770747251828202 0.1863043521405881 0 -0.44346157455165153 0.1787278973912079 0 -0.45356038153900669 0.18306048971504221 0 -0.44770747251828202 0.1863043521405881 0 -0.45356038153900669 0.18306048971504221 0 -0.43984094555392639 0.16821581480411571 0 -0.45356038153900669 0.18306048971504221 0 -0.44346157455165153 0.1787278973912079 0 -0.43984094555392639 0.16821581480411571 0 -0.45356038153900669 0.18306048971504221 0 -0.44931711525437962 0.1732200298062305 0 -0.43984094555392639 0.16821581480411571 0 -0.45409515760799463 0.17823137573283879 0 -0.45356038153900669 0.18306048971504221 0 -0.44931711525437962 0.1732200298062305 0 -0.44346157455165153 0.1787278973912079 0 -0.43984094555392639 0.16821581480411571 0 -0.4327374985953909 0.1773309329050855 0 -0.44770747251828202 0.1863043521405881 0 -0.44346157455165153 0.1787278973912079 0 -0.4327374985953909 0.1773309329050855 0 -0.44770747251828202 0.1863043521405881 0 -0.4327374985953909 0.1773309329050855 0 -0.44770747251828202 0.1863043521405881 0 -0.43724638296100488 0.19210221013307971 0 -0.4327374985953909 0.1773309329050855 0 -0.45362239615182609 0.16660253149712129 0 -0.44830286418518722 0.1590383578286137 0 -0.44650188848632089 0.16560999405029209 0 -0.45362239615182609 0.16660253149712129 0 -0.44931711525437962 0.1732200298062305 0 -0.44650188848632089 0.16560999405029209 0 -0.44931711525437962 0.1732200298062305 0 -0.44650188848632089 0.16560999405029209 0 -0.43984094555392639 0.16821581480411571 0 -0.44830286418518722 0.1590383578286137 0 -0.44650188848632089 0.16560999405029209 0 -0.43936488972716042 0.15783614885264691 0 -0.44650188848632089 0.16560999405029209 0 -0.43984094555392639 0.16821581480411571 0 -0.43936488972716042 0.15783614885264691 0 -0.44830286418518722 0.1590383578286137 0 -0.43936488972716042 0.15783614885264691 0 -0.44038708960528089 0.14377825598724389 0 -0.44830286418518722 0.1590383578286137 0 -0.44038708960528089 0.14377825598724389 0 -0.45419639723632782 0.1335394465759914 0 -0.44830286418518722 0.1590383578286137 0 -0.45419639723632782 0.1335394465759914 0 -0.44038708960528089 0.14377825598724389 0 -0.44177441572917542 0.13121750997573561 0 -0.45419639723632782 0.1335394465759914 0 -0.45419639723632782 0.1335394465759914 0 -0.46552079878816122 0.12870491534675779 0 -0.45887931889715389 0.14660331729017961 0 -0.46900481864114779 0.15486602617041631 0 -0.46552079878816122 0.12870491534675779 0 -0.44830286418518722 0.1590383578286137 0 -0.45419639723632782 0.1335394465759914 0 -0.45887931889715389 0.14660331729017961 0 -0.46900481864114779 0.15486602617041631 0 -0.46552079878816122 0.12870491534675779 0 -0.45887931889715389 0.14660331729017961 0 -0.46900481864114779 0.15486602617041631 0 -0.45861702463861947 0.1594382858351536 0 -0.45887931889715389 0.14660331729017961 0 -0.45861702463861947 0.1594382858351536 0 -0.44830286418518722 0.1590383578286137 0 -0.45887931889715389 0.14660331729017961 0 -0.47900800987493991 0.22997885718173941 0 -0.48261351521979851 0.25705218881654102 0 -0.46880019415069518 0.25173944969423673 0 -0.47900800987493991 0.22997885718173941 0 -0.48261351521979851 0.25705218881654102 0 -0.47900800987493991 0.22997885718173941 0 -0.46523556219591589 0.23544368000629959 0 -0.46880019415069518 0.25173944969423673 0 -0.5 0.24623795325698949 0 -0.47900800987493991 0.22997885718173941 0 -0.48261351521979851 0.25705218881654102 0 -0.5 0.24623795325698949 0 -0.49196083529324153 0.2275289885983082 0 -0.47900800987493991 0.22997885718173941 0 -0.5 0.24623795325698949 0 -0.49196083529324153 0.2275289885983082 0 -0.5 0.2170815308591886 0 -0.49196083529324153 0.2275289885983082 0 -0.5 0.2170815308591886 0 -0.49513681887908623 0.21473482310557199 0 -0.49196083529324153 0.2275289885983082 0 -0.48537704214433719 0.21878704860813941 0 -0.47900800987493991 0.22997885718173941 0 -0.49196083529324153 0.2275289885983082 0 -0.48537704214433719 0.21878704860813941 0 -0.49513681887908623 0.21473482310557199 0 -0.47900800987493991 0.22997885718173941 0 -0.47481666709973969 0.20606017055513329 0 -0.47540250453007948 0.20290552554693811 0 -0.47900800987493991 0.22997885718173941 0 -0.47540250453007948 0.20290552554693811 0 -0.47900800987493991 0.22997885718173941 0 -0.47481666709973969 0.20606017055513329 0 -0.45907951772437589 0.2168059887985927 0 -0.48537704214433719 0.21878704860813941 0 -0.47900800987493991 0.22997885718173941 0 -0.47540250453007948 0.20290552554693811 0 -0.49513681887908623 0.21473482310557199 0 -0.47540250453007948 0.20290552554693811 0 -0.49513681887908623 0.21473482310557199 0 -0.4904114374498949 0.2032922599259683 0 -0.47540250453007948 0.20290552554693811 0 -0.48537704214433719 0.21878704860813941 0 -0.49513681887908623 0.21473482310557199 0 -0.47540250453007948 0.20290552554693811 0 -0.5 0.2170815308591886 0 -0.49513681887908623 0.21473482310557199 0 -0.4904114374498949 0.2032922599259683 0 -0.5 0.2170815308591886 0 -0.4904114374498949 0.2032922599259683 0 -0.5 0.18792510846138771 0 -0.4904114374498949 0.2032922599259683 0 -0.5 0.18792510846138771 0 -0.48491655725597438 0.1923152475511791 0 -0.47323638830186049 0.186640403907395 0 -0.47540250453007948 0.20290552554693811 0 -0.46755209032732792 0.1981997686647651 0 -0.47323638830186049 0.186640403907395 0 -0.47540250453007948 0.20290552554693811 0 -0.47323638830186049 0.186640403907395 0 -0.48491655725597438 0.1923152475511791 0 -0.47540250453007948 0.20290552554693811 0 -0.4904114374498949 0.2032922599259683 0 -0.48491655725597438 0.1923152475511791 0 -0.47540250453007948 0.20290552554693811 0 -0.47540250453007948 0.20290552554693811 0 -0.46755209032732792 0.1981997686647651 0 -0.47481666709973969 0.20606017055513329 0 -0.46755209032732792 0.1981997686647651 0 -0.47481666709973969 0.20606017055513329 0 -0.47540250453007948 0.20290552554693811 0 -0.46755209032732792 0.1981997686647651 0 -0.47323638830186049 0.186640403907395 0 -0.46755209032732792 0.1981997686647651 0 -0.47323638830186049 0.186640403907395 0 -0.46334647980565752 0.19364922292337439 0 -0.46755209032732792 0.1981997686647651 0 -0.46334647980565752 0.19364922292337439 0 -0.46232145918825962 0.1950643827035794 0 -0.46232145918825962 0.1950643827035794 0 -0.46755209032732792 0.1981997686647651 0 -0.46334647980565752 0.19364922292337439 0 -0.46755209032732792 0.1981997686647651 0 -0.46334647980565752 0.19364922292337439 0 -0.46232145918825962 0.1950643827035794 0 -0.46755209032732792 0.1981997686647651 0 -0.45356038153900669 0.18306048971504221 0 -0.44770747251828202 0.1863043521405881 0 -0.46232145918825962 0.1950643827035794 0 -0.45356038153900669 0.18306048971504221 0 -0.46334647980565752 0.19364922292337439 0 -0.46232145918825962 0.1950643827035794 0 -0.45356038153900669 0.18306048971504221 0 -0.46334647980565752 0.19364922292337439 0 -0.44770747251828202 0.1863043521405881 0 -0.46232145918825962 0.1950643827035794 0 -0.44770747251828202 0.1863043521405881 0 -0.46232145918825962 0.1950643827035794 0 -0.43724638296100488 0.19210221013307971 0 -0.46232145918825962 0.1950643827035794 0 -0.44531681751352598 0.2185412616720277 0 -0.43724638296100488 0.19210221013307971 0 -0.44770747251828202 0.1863043521405881 0 -0.43724638296100488 0.19210221013307971 0 -0.44531681751352598 0.2185412616720277 0 -0.43724638296100488 0.19210221013307971 0 -0.47481666709973969 0.20606017055513329 0 -0.46755209032732792 0.1981997686647651 0 -0.45907951772437589 0.2168059887985927 0 -0.46232145918825962 0.1950643827035794 0 -0.44531681751352598 0.2185412616720277 0 -0.46232145918825962 0.1950643827035794 0 -0.44531681751352598 0.2185412616720277 0 -0.45907951772437589 0.2168059887985927 0 -0.46232145918825962 0.1950643827035794 0 -0.46755209032732792 0.1981997686647651 0 -0.45907951772437589 0.2168059887985927 0 -0.46755209032732792 0.1981997686647651 0 -0.45907951772437589 0.2168059887985927 0 -0.45907951772437589 0.2168059887985927 0 -0.45041968252199088 0.23525844215057939 0 -0.47900800987493991 0.22997885718173941 0 -0.45907951772437589 0.2168059887985927 0 -0.46523556219591589 0.23544368000629959 0 -0.45907951772437589 0.2168059887985927 0 -0.45041968252199088 0.23525844215057939 0 -0.46523556219591589 0.23544368000629959 0 -0.44531681751352598 0.2185412616720277 0 -0.42994445814438281 0.2397645857074315 0 -0.44531681751352598 0.2185412616720277 0 -0.45041968252199088 0.23525844215057939 0 -0.44087000169099338 0.23875587709351251 0 -0.44531681751352598 0.2185412616720277 0 -0.45907951772437589 0.2168059887985927 0 -0.45041968252199088 0.23525844215057939 0 -0.44531681751352598 0.2185412616720277 0 -0.44087000169099338 0.23875587709351251 0 -0.42994445814438281 0.2397645857074315 0 -0.44531681751352598 0.2185412616720277 0 -0.45041968252199088 0.23525844215057939 0 -0.45041968252199088 0.23525844215057939 0 -0.45304875956843632 0.24387139887288081 0 -0.44104817166580329 0.25522734027280197 0 -0.45041968252199088 0.23525844215057939 0 -0.44104817166580329 0.25522734027280197 0 -0.45041968252199088 0.23525844215057939 0 -0.45304875956843632 0.24387139887288081 0 -0.45041968252199088 0.23525844215057939 0 -0.44087000169099338 0.23875587709351251 0 -0.44104817166580329 0.25522734027280197 0 -0.44087000169099338 0.23875587709351251 0 -0.4361266132271851 0.24545863334425669 0 -0.44104817166580329 0.25522734027280197 0 -0.45304875956843632 0.24387139887288081 0 -0.4606986096508312 0.2467586123431659 0 -0.45570992268827742 0.2559799207992467 0 -0.4606986096508312 0.2467586123431659 0 -0.46523556219591589 0.23544368000629959 0 -0.46880019415069518 0.25173944969423673 0 -0.45041968252199088 0.23525844215057939 0 -0.45304875956843632 0.24387139887288081 0 -0.46523556219591589 0.23544368000629959 0 -0.45304875956843632 0.24387139887288081 0 -0.4606986096508312 0.2467586123431659 0 -0.46523556219591589 0.23544368000629959 0 -0.40704596667858661 0.24107303999636501 0 -0.41960010970278938 0.24891089497569449 0 -0.41758642021824788 0.226512655317606 0 -0.41960010970278938 0.24891089497569449 0 -0.42994445814438281 0.2397645857074315 0 -0.41457209877524059 0.26098790974283598 0 -0.41960010970278938 0.24891089497569449 0 -0.41758642021824788 0.226512655317606 0 -0.40704596667858661 0.24107303999636501 0 -0.41960010970278938 0.24891089497569449 0 -0.40800244746568659 0.25116761303474922 0 -0.41960010970278938 0.24891089497569449 0 -0.42994445814438281 0.2397645857074315 0 -0.41758642021824788 0.226512655317606 0 -0.43108664698666638 0.24385778762273441 0 -0.42994445814438281 0.2397645857074315 0 -0.41457209877524059 0.26098790974283598 0 -0.43108664698666638 0.24385778762273441 0 -0.4361266132271851 0.24545863334425669 0 -0.42994445814438281 0.2397645857074315 0 -0.43108664698666638 0.24385778762273441 0 -0.4361266132271851 0.24545863334425669 0 -0.43469525688392963 0.25062933138387528 0 -0.44087000169099338 0.23875587709351251 0 -0.4361266132271851 0.24545863334425669 0 -0.42994445814438281 0.2397645857074315 0 -0.42994445814438281 0.2397645857074315 0 -0.41758642021824788 0.226512655317606 0 -0.42905561613817422 0.21419189056138541 0 -0.44531681751352598 0.2185412616720277 0 -0.42994445814438281 0.2397645857074315 0 -0.42905561613817422 0.21419189056138541 0 -0.41758642021824788 0.226512655317606 0 -0.41557273073370699 0.2041144156595173 0 -0.39296378387048458 0.21664499027653369 0 -0.41758642021824788 0.226512655317606 0 -0.41557273073370699 0.2041144156595173 0 -0.42905561613817422 0.21419189056138541 0 -0.41758642021824788 0.226512655317606 0 -0.41557273073370699 0.2041144156595173 0 -0.41557273073370699 0.2041144156595173 0 -0.42905561613817422 0.21419189056138541 0 -0.43724638296100488 0.19210221013307971 0 -0.44531681751352598 0.2185412616720277 0 -0.42905561613817422 0.21419189056138541 0 -0.43724638296100488 0.19210221013307971 0 -0.41557273073370699 0.2041144156595173 0 -0.43724638296100488 0.19210221013307971 0 -0.41557273073370699 0.2041144156595173 0 -0.43724638296100488 0.19210221013307971 0 -0.42578261926478289 0.18752768697977201 0 -0.41557273073370699 0.2041144156595173 0 -0.41381132444141472 0.1845223183809237 0 -0.41557273073370699 0.2041144156595173 0 -0.42578261926478289 0.18752768697977201 0 -0.41381132444141472 0.1845223183809237 0 -0.41557273073370699 0.2041144156595173 0 -0.39771891879043508 0.1958512442965066 0 -0.41381132444141472 0.1845223183809237 0 -0.39771891879043508 0.1958512442965066 0 -0.38201106675532531 0.20146622002367581 0 -0.38205951858750847 0.18589126187519001 0 -0.38201106675532531 0.20146622002367581 0 -0.38205951858750847 0.18589126187519001 0 -0.37333899098095752 0.19527648031509559 0 -0.38201106675532531 0.20146622002367581 0 -0.37280550458180473 0.20370653366560079 0 -0.37333899098095752 0.19527648031509559 0 -0.38201106675532531 0.20146622002367581 0 -0.39296378387048458 0.21664499027653369 0 -0.37471030932431831 0.21352417941400839 0 -0.38201106675532531 0.20146622002367581 0 -0.37471030932431831 0.21352417941400839 0 -0.37280550458180473 0.20370653366560079 0 -0.39771891879043508 0.1958512442965066 0 -0.38201106675532531 0.20146622002367581 0 -0.39296378387048458 0.21664499027653369 0 -0.41557273073370699 0.2041144156595173 0 -0.39296378387048458 0.21664499027653369 0 -0.41557273073370699 0.2041144156595173 0 -0.39771891879043508 0.1958512442965066 0 -0.39296378387048458 0.21664499027653369 0 -0.41758642021824788 0.226512655317606 0 -0.39296378387048458 0.21664499027653369 0 -0.3940683155686236 0.2335156559902288 0 -0.40704596667858661 0.24107303999636501 0 -0.41758642021824788 0.226512655317606 0 -0.3940683155686236 0.2335156559902288 0 -0.39296378387048458 0.21664499027653369 0 -0.37035483700726152 0.22917556489354879 0 -0.39296378387048458 0.21664499027653369 0 -0.3940683155686236 0.2335156559902288 0 -0.37035483700726152 0.22917556489354879 0 -0.39296378387048458 0.21664499027653369 0 -0.37035483700726152 0.22917556489354879 0 -0.37471030932431831 0.21352417941400839 0 -0.3940683155686236 0.2335156559902288 0 -0.38153207996096372 0.2447317517231026 0 -0.37035483700726152 0.22917556489354879 0 -0.38153207996096372 0.2447317517231026 0 -0.39671949383857702 0.2469029856130685 0 -0.38871945684062692 0.25591908779214351 0 -0.3940683155686236 0.2335156559902288 0 -0.38153207996096372 0.2447317517231026 0 -0.39671949383857702 0.2469029856130685 0 -0.40704596667858661 0.24107303999636501 0 -0.3940683155686236 0.2335156559902288 0 -0.39671949383857702 0.2469029856130685 0 -0.40704596667858661 0.24107303999636501 0 -0.39671949383857702 0.2469029856130685 0 -0.40800244746568659 0.25116761303474922 0 -0.41240207358376602 0.13852646498226259 0 -0.4261215095688462 0.1533711398931891 0 -0.41087176891842458 0.15182568387116729 0 -0.41240207358376602 0.13852646498226259 0 -0.4261215095688462 0.1533711398931891 0 -0.41087176891842458 0.15182568387116729 0 -0.40716600056045749 0.14424056454902251 0 -0.40243128783346549 0.15143637902384369 0 -0.41087176891842458 0.15182568387116729 0 -0.40716600056045749 0.14424056454902251 0 -0.41240207358376602 0.13852646498226259 0 -0.41018832206531219 0.13288449190933549 0 -0.41240207358376602 0.13852646498226259 0 -0.42766875612146171 0.13670672939401979 0 -0.40716600056045749 0.14424056454902251 0 -0.41018832206531219 0.13288449190933549 0 -0.41240207358376602 0.13852646498226259 0 -0.40329750346145149 0.12273577726860591 0 -0.41120977563587041 0.12223773771331151 0 -0.41018832206531219 0.13288449190933549 0 -0.43513912617638989 0.1204625136163521 0 -0.41018832206531219 0.13288449190933549 0 -0.43513912617638989 0.1204625136163521 0 -0.41018832206531219 0.13288449190933549 0 -0.42766875612146171 0.13670672939401979 0 -0.43513912617638989 0.1204625136163521 0 -0.44177441572917542 0.13121750997573561 0 -0.42766875612146171 0.13670672939401979 0 -0.44038708960528089 0.14377825598724389 0 -0.44177441572917542 0.13121750997573561 0 -0.42766875612146171 0.13670672939401979 0 -0.41240207358376602 0.13852646498226259 0 -0.42766875612146171 0.13670672939401979 0 -0.4261215095688462 0.1533711398931891 0 -0.44038708960528089 0.14377825598724389 0 -0.42766875612146171 0.13670672939401979 0 -0.4261215095688462 0.1533711398931891 0 -0.43936488972716042 0.15783614885264691 0 -0.44038708960528089 0.14377825598724389 0 -0.4261215095688462 0.1533711398931891 0 -0.4327374985953909 0.1773309329050855 0 -0.41204991814912312 0.16493022110232999 0 -0.43021497600172681 0.1690670526359363 0 -0.4327374985953909 0.1773309329050855 0 -0.41204991814912312 0.16493022110232999 0 -0.43984094555392639 0.16821581480411571 0 -0.43936488972716042 0.15783614885264691 0 -0.4261215095688462 0.1533711398931891 0 -0.4261215095688462 0.1533711398931891 0 -0.43021497600172681 0.1690670526359363 0 -0.41204991814912312 0.16493022110232999 0 -0.43984094555392639 0.16821581480411571 0 -0.4261215095688462 0.1533711398931891 0 -0.43984094555392639 0.16821581480411571 0 -0.4261215095688462 0.1533711398931891 0 -0.43021497600172681 0.1690670526359363 0 -0.43984094555392639 0.16821581480411571 0 -0.43021497600172681 0.1690670526359363 0 -0.4327374985953909 0.1773309329050855 0 -0.42578261926478289 0.18752768697977201 0 -0.4327374985953909 0.1773309329050855 0 -0.41381132444141472 0.1845223183809237 0 -0.43724638296100488 0.19210221013307971 0 -0.4327374985953909 0.1773309329050855 0 -0.43724638296100488 0.19210221013307971 0 -0.42578261926478289 0.18752768697977201 0 -0.4327374985953909 0.1773309329050855 0 -0.43021497600172681 0.1690670526359363 0 -0.4327374985953909 0.1773309329050855 0 -0.4327374985953909 0.1773309329050855 0 -0.41381132444141472 0.1845223183809237 0 -0.41204991814912312 0.16493022110232999 0 -0.41381132444141472 0.1845223183809237 0 -0.41204991814912312 0.16493022110232999 0 -0.41381132444141472 0.1845223183809237 0 -0.41204991814912312 0.16493022110232999 0 -0.40409874144362312 0.17257506394227939 0 -0.41087176891842458 0.15182568387116729 0 -0.4261215095688462 0.1533711398931891 0 -0.41204991814912312 0.16493022110232999 0 -0.41204991814912312 0.16493022110232999 0 -0.40331375941810138 0.15969352428474379 0 -0.40409874144362312 0.17257506394227939 0 -0.41087176891842458 0.15182568387116729 0 -0.41204991814912312 0.16493022110232999 0 -0.40331375941810138 0.15969352428474379 0 -0.41087176891842458 0.15182568387116729 0 -0.41204991814912312 0.16493022110232999 0 -0.41204991814912312 0.16493022110232999 0 -0.40331375941810138 0.15969352428474379 0 -0.40331375941810138 0.15969352428474379 0 -0.39577561131488048 0.16769687817865189 0 -0.40409874144362312 0.17257506394227939 0 -0.39577561131488048 0.16769687817865189 0 -0.38696657058558631 0.1731030422556574 0 -0.38977082986178591 0.16398531458174359 0 -0.40331375941810138 0.15969352428474379 0 -0.39577561131488048 0.16769687817865189 0 -0.39363072794088372 0.15628860537995601 0 -0.39577561131488048 0.16769687817865189 0 -0.39363072794088372 0.15628860537995601 0 -0.38977082986178591 0.16398531458174359 0 -0.39771891879043508 0.1958512442965066 0 -0.41381132444141472 0.1845223183809237 0 -0.39674928047327429 0.18004052134154269 0 -0.39771891879043508 0.1958512442965066 0 -0.39674928047327429 0.18004052134154269 0 -0.38205951858750847 0.18589126187519001 0 -0.41381132444141472 0.1845223183809237 0 -0.40409874144362312 0.17257506394227939 0 -0.39674928047327429 0.18004052134154269 0 -0.39577561131488048 0.16769687817865189 0 -0.40409874144362312 0.17257506394227939 0 -0.39674928047327429 0.18004052134154269 0 -0.39577561131488048 0.16769687817865189 0 -0.39674928047327429 0.18004052134154269 0 -0.38696657058558631 0.1731030422556574 0 -0.39674928047327429 0.18004052134154269 0 -0.38696657058558631 0.1731030422556574 0 -0.38205951858750847 0.18589126187519001 0 -0.38696657058558631 0.1731030422556574 0 -0.37699548799831312 0.17417463229183641 0 -0.38205951858750847 0.18589126187519001 0 -0.38205951858750847 0.18589126187519001 0 -0.36968223276253759 0.18123413449923381 0 -0.37333899098095752 0.19527648031509559 0 -0.37699548799831312 0.17417463229183641 0 -0.38205951858750847 0.18589126187519001 0 -0.36968223276253759 0.18123413449923381 0 -0.37699548799831312 0.17417463229183641 0 -0.37820281425845731 0.15790901408884431 0 -0.3812925964193542 0.159123774301969 0 -0.38408662699415452 0.16394340582017691 0 -0.3872424686158516 0.15889421371898979 0 -0.3812925964193542 0.159123774301969 0 -0.39363072794088372 0.15628860537995601 0 -0.3872424686158516 0.15889421371898979 0 -0.38977082986178591 0.16398531458174359 0 -0.38408662699415452 0.16394340582017691 0 -0.3872424686158516 0.15889421371898979 0 -0.38977082986178591 0.16398531458174359 0 -0.38696657058558631 0.1731030422556574 0 -0.38408662699415452 0.16394340582017691 0 -0.38977082986178591 0.16398531458174359 0 -0.38696657058558631 0.1731030422556574 0 -0.38408662699415452 0.16394340582017691 0 -0.38233532049935193 0.16758621366740989 0 -0.37699548799831312 0.17417463229183641 0 -0.38233532049935193 0.16758621366740989 0 -0.3812925964193542 0.159123774301969 0 -0.37699548799831312 0.17417463229183641 0 -0.3812925964193542 0.159123774301969 0 -0.38696657058558631 0.1731030422556574 0 -0.37699548799831312 0.17417463229183641 0 -0.38233532049935193 0.16758621366740989 0 -0.38408662699415452 0.16394340582017691 0 -0.38233532049935193 0.16758621366740989 0 -0.3812925964193542 0.159123774301969 0 -0.38408662699415452 0.16394340582017691 0 -0.3812925964193542 0.159123774301969 0 -0.37820281425845731 0.15790901408884431 0 -0.3812925964193542 0.159123774301969 0 -0.37596008236300599 0.1499253234871967 0 -0.3812925964193542 0.159123774301969 0 -0.37596008236300599 0.1499253234871967 0 -0.38523751795423511 0.1453064702023206 0 -0.37596008236300599 0.1499253234871967 0 -0.38523751795423511 0.1453064702023206 0 -0.37895625183438059 0.13321651121940231 0 -0.3812925964193542 0.159123774301969 0 -0.37596008236300599 0.1499253234871967 0 -0.37596008236300599 0.1499253234871967 0 -0.38523751795423511 0.1453064702023206 0 -0.39363072794088372 0.15628860537995601 0 -0.3872424686158516 0.15889421371898979 0 -0.38523751795423511 0.1453064702023206 0 -0.3812925964193542 0.159123774301969 0 -0.38523751795423511 0.1453064702023206 0 -0.3872424686158516 0.15889421371898979 0 -0.3812925964193542 0.159123774301969 0 -0.38523751795423511 0.1453064702023206 0 -0.41018832206531219 0.13288449190933549 0 -0.38523751795423511 0.1453064702023206 0 -0.39954957758104082 0.1444642192729334 0 -0.39363072794088372 0.15628860537995601 0 -0.39521227782740648 0.1493739184697635 0 -0.40243128783346549 0.15143637902384369 0 -0.39363072794088372 0.15628860537995601 0 -0.38523751795423511 0.1453064702023206 0 -0.39521227782740648 0.1493739184697635 0 -0.38523751795423511 0.1453064702023206 0 -0.39521227782740648 0.1493739184697635 0 -0.39954957758104082 0.1444642192729334 0 -0.39521227782740648 0.1493739184697635 0 -0.39954957758104082 0.1444642192729334 0 -0.40243128783346549 0.15143637902384369 0 -0.40716600056045749 0.14424056454902251 0 -0.39954957758104082 0.1444642192729334 0 -0.40243128783346549 0.15143637902384369 0 -0.41087176891842458 0.15182568387116729 0 -0.40331375941810138 0.15969352428474379 0 -0.40243128783346549 0.15143637902384369 0 -0.40331375941810138 0.15969352428474379 0 -0.39363072794088372 0.15628860537995601 0 -0.40243128783346549 0.15143637902384369 0 -0.41018832206531219 0.13288449190933549 0 -0.38523751795423511 0.1453064702023206 0 -0.41018832206531219 0.13288449190933549 0 -0.38523751795423511 0.1453064702023206 0 -0.39740911671695922 0.13158852254587991 0 -0.38523751795423511 0.1453064702023206 0 -0.39091312338683692 0.1254273508032574 0 -0.39740911671695922 0.13158852254587991 0 -0.40329750346145149 0.12273577726860591 0 -0.41018832206531219 0.13288449190933549 0 -0.39740911671695922 0.13158852254587991 0 -0.40716600056045749 0.14424056454902251 0 -0.41018832206531219 0.13288449190933549 0 -0.39954957758104082 0.1444642192729334 0 -0.40329750346145149 0.12273577726860591 0 -0.39091312338683692 0.1254273508032574 0 -0.39740911671695922 0.13158852254587991 0 -0.38523751795423511 0.1453064702023206 0 -0.39091312338683692 0.1254273508032574 0 -0.37895625183438059 0.13321651121940231 0 -0.38523751795423511 0.1453064702023206 0 -0.39091312338683692 0.1254273508032574 0 -0.37715944345331809 0.1135223301104122 0 -0.37895625183438059 0.13321651121940231 0 -0.3655110920145061 0.1319010814938246 0 -0.37596008236300599 0.1499253234871967 0 -0.37895625183438059 0.13321651121940231 0 -0.3655110920145061 0.1319010814938246 0 -0.3655110920145061 0.1319010814938246 0 -0.35155646613361352 0.14191323404436981 0 -0.36277631525152559 0.1464523879795683 0 -0.3655110920145061 0.1319010814938246 0 -0.34941668540343063 0.1271861453710664 0 -0.35155646613361352 0.14191323404436981 0 -0.34941668540343063 0.1271861453710664 0 -0.35155646613361352 0.14191323404436981 0 -0.33739356488157107 0.13291326013319821 0 -0.35155646613361352 0.14191323404436981 0 -0.35714733540572879 0.15929141579004669 0 -0.34163525104661407 0.15309887967008931 0 -0.35155646613361352 0.14191323404436981 0 -0.36277631525152559 0.1464523879795683 0 -0.35714733540572879 0.15929141579004669 0 -0.35155646613361352 0.14191323404436981 0 -0.33872721894151031 0.1435897662593883 0 -0.34163525104661407 0.15309887967008931 0 -0.37596008236300599 0.1499253234871967 0 -0.35714733540572879 0.15929141579004669 0 -0.37596008236300599 0.1499253234871967 0 -0.36277631525152559 0.1464523879795683 0 -0.35714733540572879 0.15929141579004669 0 -0.37820281425845731 0.15790901408884431 0 -0.37596008236300599 0.1499253234871967 0 -0.35714733540572879 0.15929141579004669 0 -0.37596008236300599 0.1499253234871967 0 -0.3655110920145061 0.1319010814938246 0 -0.36277631525152559 0.1464523879795683 0 -0.37596008236300599 0.1499253234871967 0 -0.3655110920145061 0.1319010814938246 0 -0.37820281425845731 0.15790901408884431 0 -0.36968223276253759 0.18123413449923381 0 -0.37699548799831312 0.17417463229183641 0 -0.37820281425845731 0.15790901408884431 0 -0.36968223276253759 0.18123413449923381 0 -0.37820281425845731 0.15790901408884431 0 -0.36751934160945621 0.1679750069681461 0 -0.36968223276253759 0.18123413449923381 0 -0.37820281425845731 0.15790901408884431 0 -0.36751934160945621 0.1679750069681461 0 -0.35714733540572879 0.15929141579004669 0 -0.36751934160945621 0.1679750069681461 0 -0.3585784327907422 0.17228823351035549 0 -0.35714733540572879 0.15929141579004669 0 -0.36424049386179491 0.1759974371885667 0 -0.3582914056807629 0.18492334470750249 0 -0.3585784327907422 0.17228823351035549 0 -0.36751934160945621 0.1679750069681461 0 -0.36968223276253759 0.18123413449923381 0 -0.36424049386179491 0.1759974371885667 0 -0.36751934160945621 0.1679750069681461 0 -0.36424049386179491 0.1759974371885667 0 -0.3585784327907422 0.17228823351035549 0 -0.36968223276253759 0.18123413449923381 0 -0.36424049386179491 0.1759974371885667 0 -0.3582914056807629 0.18492334470750249 0 -0.35023129843358458 0.17861848153314999 0 -0.34473098855343037 0.17064309468892491 0 -0.33675132205709118 0.1903595234909097 0 -0.3582914056807629 0.18492334470750249 0 -0.35023129843358458 0.17861848153314999 0 -0.35058630745601788 0.1866449855346784 0 -0.3582914056807629 0.18492334470750249 0 -0.3585784327907422 0.17228823351035549 0 -0.35023129843358458 0.17861848153314999 0 -0.3585784327907422 0.17228823351035549 0 -0.35023129843358458 0.17861848153314999 0 -0.35267201379587149 0.17021030638061929 0 -0.35023129843358458 0.17861848153314999 0 -0.35267201379587149 0.17021030638061929 0 -0.34473098855343037 0.17064309468892491 0 -0.35023129843358458 0.17861848153314999 0 -0.35058630745601788 0.1866449855346784 0 -0.33675132205709118 0.1903595234909097 0 -0.35714733540572879 0.15929141579004669 0 -0.33833458844845171 0.1686575080928969 0 -0.35714733540572879 0.15929141579004669 0 -0.34473098855343037 0.17064309468892491 0 -0.33833458844845171 0.1686575080928969 0 -0.35714733540572879 0.15929141579004669 0 -0.33833458844845171 0.1686575080928969 0 -0.34163525104661407 0.15309887967008931 0 -0.3585784327907422 0.17228823351035549 0 -0.35714733540572879 0.15929141579004669 0 -0.35267201379587149 0.17021030638061929 0 -0.35714733540572879 0.15929141579004669 0 -0.35267201379587149 0.17021030638061929 0 -0.34473098855343037 0.17064309468892491 0 -0.33833458844845171 0.1686575080928969 0 -0.32844374772985391 0.16649416630433389 0 -0.31952184149117457 0.17802360039574699 0 -0.33833458844845171 0.1686575080928969 0 -0.33457119007749042 0.15966778674452481 0 -0.34163525104661407 0.15309887967008931 0 -0.33833458844845171 0.1686575080928969 0 -0.32844374772985391 0.16649416630433389 0 -0.33457119007749042 0.15966778674452481 0 -0.32844374772985391 0.16649416630433389 0 -0.33457119007749042 0.15966778674452481 0 -0.3279759517104549 0.15998114761160701 0 -0.33457119007749042 0.15966778674452481 0 -0.3279759517104549 0.15998114761160701 0 -0.33181054432822032 0.15402254376790731 0 -0.34473098855343037 0.17064309468892491 0 -0.33675132205709118 0.1903595234909097 0 -0.34473098855343037 0.17064309468892491 0 -0.3317900362249574 0.17908881268221941 0 -0.33675132205709118 0.1903595234909097 0 -0.33833458844845171 0.1686575080928969 0 -0.31952184149117457 0.17802360039574699 0 -0.33833458844845171 0.1686575080928969 0 -0.3317900362249574 0.17908881268221941 0 -0.31952184149117457 0.17802360039574699 0 -0.34473098855343037 0.17064309468892491 0 -0.33833458844845171 0.1686575080928969 0 -0.3317900362249574 0.17908881268221941 0 -0.3317900362249574 0.17908881268221941 0 -0.31952184149117457 0.17802360039574699 0 -0.31975657544808289 0.19637725513935689 0 -0.31952184149117457 0.17802360039574699 0 -0.31281393894784282 0.17242583979925441 0 -0.3218151669216977 0.16614078867689411 0 -0.31952184149117457 0.17802360039574699 0 -0.31281393894784282 0.17242583979925441 0 -0.31152192073993629 0.18182124277595579 0 -0.31952184149117457 0.17802360039574699 0 -0.31073360595140198 0.19075298862014739 0 -0.31152192073993629 0.18182124277595579 0 -0.32148779520676202 0.15937836753946999 0 -0.3279759517104549 0.15998114761160701 0 -0.3218151669216977 0.16614078867689411 0 -0.32148779520676202 0.15937836753946999 0 -0.3279759517104549 0.15998114761160701 0 -0.32571935592137907 0.15468575204968291 0 -0.32844374772985391 0.16649416630433389 0 -0.3279759517104549 0.15998114761160701 0 -0.3218151669216977 0.16614078867689411 0 -0.32844374772985391 0.16649416630433389 0 -0.31952184149117457 0.17802360039574699 0 -0.3218151669216977 0.16614078867689411 0 -0.31281393894784282 0.17242583979925441 0 -0.3218151669216977 0.16614078867689411 0 -0.31552858071914541 0.16266870975395861 0 -0.31552858071914541 0.16266870975395861 0 -0.3173269881778078 0.15716878774374179 0 -0.31495640228045352 0.15320228423701551 0 -0.31552858071914541 0.16266870975395861 0 -0.31495640228045352 0.15320228423701551 0 -0.30863678883475959 0.16259397311224441 0 -0.32148779520676202 0.15937836753946999 0 -0.3218151669216977 0.16614078867689411 0 -0.31552858071914541 0.16266870975395861 0 -0.32148779520676202 0.15937836753946999 0 -0.31552858071914541 0.16266870975395861 0 -0.3173269881778078 0.15716878774374179 0 -0.32148779520676202 0.15937836753946999 0 -0.3173269881778078 0.15716878774374179 0 -0.32066155966635451 0.15419372936586651 0 -0.31495640228045352 0.15320228423701551 0 -0.31468353131078741 0.13943568208894311 0 -0.30863678883475959 0.16259397311224441 0 -0.31495640228045352 0.15320228423701551 0 -0.31835502653015341 0.15115652379145009 0 -0.31745621172127569 0.1466806285262299 0 -0.3173269881778078 0.15716878774374179 0 -0.31835502653015341 0.15115652379145009 0 -0.32066155966635451 0.15419372936586651 0 -0.3173269881778078 0.15716878774374179 0 -0.31495640228045352 0.15320228423701551 0 -0.31835502653015341 0.15115652379145009 0 -0.32148779520676202 0.15937836753946999 0 -0.32066155966635451 0.15419372936586651 0 -0.32571935592137907 0.15468575204968291 0 -0.32066155966635451 0.15419372936586651 0 -0.32277673852569622 0.15074630390372831 0 -0.32571935592137907 0.15468575204968291 0 -0.31835502653015341 0.15115652379145009 0 -0.32066155966635451 0.15419372936586651 0 -0.32277673852569622 0.15074630390372831 0 -0.32277673852569622 0.15074630390372831 0 -0.32699328441396919 0.14855150304122819 0 -0.32092411479102129 0.1464925945660612 0 -0.31835502653015341 0.15115652379145009 0 -0.32277673852569622 0.15074630390372831 0 -0.32092411479102129 0.1464925945660612 0 -0.32277673852569622 0.15074630390372831 0 -0.32699328441396919 0.14855150304122819 0 -0.32571935592137907 0.15468575204968291 0 -0.32699328441396919 0.14855150304122819 0 -0.32092411479102129 0.1464925945660612 0 -0.32908257984633837 0.14187326395897271 0 -0.32092411479102129 0.1464925945660612 0 -0.32121888659315417 0.1397933325280967 0 -0.32908257984633837 0.14187326395897271 0 -0.31836198369396268 0.14311605794767979 0 -0.31745621172127569 0.1466806285262299 0 -0.31468353131078741 0.13943568208894311 0 -0.31836198369396268 0.14311605794767979 0 -0.31468353131078741 0.13943568208894311 0 -0.32121888659315417 0.1397933325280967 0 -0.31495640228045352 0.15320228423701551 0 -0.31745621172127569 0.1466806285262299 0 -0.31468353131078741 0.13943568208894311 0 -0.32092411479102129 0.1464925945660612 0 -0.31836198369396268 0.14311605794767979 0 -0.32121888659315417 0.1397933325280967 0 -0.31835502653015341 0.15115652379145009 0 -0.32092411479102129 0.1464925945660612 0 -0.31745621172127569 0.1466806285262299 0 -0.32092411479102129 0.1464925945660612 0 -0.31836198369396268 0.14311605794767979 0 -0.31745621172127569 0.1466806285262299 0 -0.31468353131078741 0.13943568208894311 0 -0.31982162690177979 0.13097018294753851 0 -0.32121888659315417 0.1397933325280967 0 -0.31982162690177979 0.13097018294753851 0 -0.31137014296592769 0.13572592035616141 0 -0.31817001170144749 0.11104153437936071 0 -0.31468353131078741 0.13943568208894311 0 -0.31982162690177979 0.13097018294753851 0 -0.31137014296592769 0.13572592035616141 0 -0.31982162690177979 0.13097018294753851 0 -0.3275628557273953 0.12543809845850201 0 -0.32592433311196728 0.1343865298741671 0 -0.31982162690177979 0.13097018294753851 0 -0.32592433311196728 0.1343865298741671 0 -0.32121888659315417 0.1397933325280967 0 -0.32592433311196728 0.1343865298741671 0 -0.32121888659315417 0.1397933325280967 0 -0.32908257984633837 0.14187326395897271 0 -0.33739356488157107 0.13291326013319821 0 -0.33872721894151031 0.1435897662593883 0 -0.32908257984633837 0.14187326395897271 0 -0.32592433311196728 0.1343865298741671 0 -0.33739356488157107 0.13291326013319821 0 -0.32908257984633837 0.14187326395897271 0 -0.34941668540343063 0.1271861453710664 0 -0.33739356488157107 0.13291326013319821 0 -0.33756020232145523 0.1153263116834876 0 -0.3275628557273953 0.12543809845850201 0 -0.32592433311196728 0.1343865298741671 0 -0.33739356488157107 0.13291326013319821 0 -0.35155646613361352 0.14191323404436981 0 -0.33739356488157107 0.13291326013319821 0 -0.33872721894151031 0.1435897662593883 0 -0.33872721894151031 0.1435897662593883 0 -0.34163525104661407 0.15309887967008931 0 -0.3339682327994144 0.14815019349031161 0 -0.33457119007749042 0.15966778674452481 0 -0.34163525104661407 0.15309887967008931 0 -0.33181054432822032 0.15402254376790731 0 -0.34163525104661407 0.15309887967008931 0 -0.33181054432822032 0.15402254376790731 0 -0.3339682327994144 0.14815019349031161 0 -0.32699328441396919 0.14855150304122819 0 -0.32571935592137907 0.15468575204968291 0 -0.33181054432822032 0.15402254376790731 0 -0.3279759517104549 0.15998114761160701 0 -0.32571935592137907 0.15468575204968291 0 -0.33181054432822032 0.15402254376790731 0 -0.32699328441396919 0.14855150304122819 0 -0.33181054432822032 0.15402254376790731 0 -0.3339682327994144 0.14815019349031161 0 -0.32699328441396919 0.14855150304122819 0 -0.32908257984633837 0.14187326395897271 0 -0.3339682327994144 0.14815019349031161 0 -0.33872721894151031 0.1435897662593883 0 -0.32908257984633837 0.14187326395897271 0 -0.3339682327994144 0.14815019349031161 0 -0.3476101438532766 0.24165655188516871 0 -0.37035483700726152 0.22917556489354879 0 -0.3476101438532766 0.24165655188516871 0 -0.35220065320425659 0.24999127972566529 0 -0.36378674211593609 0.2470265393455075 0 -0.3476101438532766 0.24165655188516871 0 -0.34412048827477831 0.25120949573040219 0 -0.3476101438532766 0.24165655188516871 0 -0.35220065320425659 0.24999127972566529 0 -0.34412048827477831 0.25120949573040219 0 -0.3476101438532766 0.24165655188516871 0 -0.35264106977069831 0.22788437532001279 0 -0.38153207996096372 0.2447317517231026 0 -0.36378674211593609 0.2470265393455075 0 -0.37035483700726152 0.22917556489354879 0 -0.3476101438532766 0.24165655188516871 0 -0.36378674211593609 0.2470265393455075 0 -0.37035483700726152 0.22917556489354879 0 -0.38153207996096372 0.2447317517231026 0 -0.36378674211593609 0.2470265393455075 0 -0.37596378635252209 0.25787488210020998 0 -0.37035483700726152 0.22917556489354879 0 -0.35264106977069831 0.22788437532001279 0 -0.37471030932431831 0.21352417941400839 0 -0.3476101438532766 0.24165655188516871 0 -0.37035483700726152 0.22917556489354879 0 -0.35264106977069831 0.22788437532001279 0 -0.3476101438532766 0.24165655188516871 0 -0.35264106977069831 0.22788437532001279 0 -0.33714887442812552 0.23021687369624419 0 -0.35264106977069831 0.22788437532001279 0 -0.3426900166407324 0.21721199498973889 0 -0.33714887442812552 0.23021687369624419 0 -0.35264106977069831 0.22788437532001279 0 -0.36116165126661792 0.20455925490962329 0 -0.35264106977069831 0.22788437532001279 0 -0.36116165126661792 0.20455925490962329 0 -0.3426900166407324 0.21721199498973889 0 -0.34732744992129683 0.20361096131406051 0 -0.36116165126661792 0.20455925490962329 0 -0.3426900166407324 0.21721199498973889 0 -0.35264106977069831 0.22788437532001279 0 -0.37471030932431831 0.21352417941400839 0 -0.36116165126661792 0.20455925490962329 0 -0.37471030932431831 0.21352417941400839 0 -0.37280550458180473 0.20370653366560079 0 -0.36116165126661792 0.20455925490962329 0 -0.36968223276253759 0.18123413449923381 0 -0.36116165126661792 0.20455925490962329 0 -0.36968223276253759 0.18123413449923381 0 -0.36116165126661792 0.20455925490962329 0 -0.37333899098095752 0.19527648031509559 0 -0.36968223276253759 0.18123413449923381 0 -0.3582914056807629 0.18492334470750249 0 -0.36116165126661792 0.20455925490962329 0 -0.37280550458180473 0.20370653366560079 0 -0.36116165126661792 0.20455925490962329 0 -0.37333899098095752 0.19527648031509559 0 -0.3582914056807629 0.18492334470750249 0 -0.36116165126661792 0.20455925490962329 0 -0.35355942319404532 0.19512088577690981 0 -0.35058630745601788 0.1866449855346784 0 -0.35355942319404532 0.19512088577690981 0 -0.33675132205709118 0.1903595234909097 0 -0.34732744992129683 0.20361096131406051 0 -0.35355942319404532 0.19512088577690981 0 -0.33675132205709118 0.1903595234909097 0 -0.3582914056807629 0.18492334470750249 0 -0.35058630745601788 0.1866449855346784 0 -0.35355942319404532 0.19512088577690981 0 -0.34732744992129683 0.20361096131406051 0 -0.36116165126661792 0.20455925490962329 0 -0.35355942319404532 0.19512088577690981 0 -0.33675132205709118 0.1903595234909097 0 -0.32877165556075322 0.21007595229289491 0 -0.3317900362249574 0.17908881268221941 0 -0.33675132205709118 0.1903595234909097 0 -0.31975657544808289 0.19637725513935689 0 -0.33675132205709118 0.1903595234909097 0 -0.31975657544808289 0.19637725513935689 0 -0.32877165556075322 0.21007595229289491 0 -0.34732744992129683 0.20361096131406051 0 -0.33675132205709118 0.1903595234909097 0 -0.32877165556075322 0.21007595229289491 0 -0.31952184149117457 0.17802360039574699 0 -0.31975657544808289 0.19637725513935689 0 -0.31073360595140198 0.19075298862014739 0 -0.31975657544808289 0.19637725513935689 0 -0.31319691754384299 0.2155023187863267 0 -0.32877165556075322 0.21007595229289491 0 -0.31319691754384299 0.2155023187863267 0 -0.32877165556075322 0.21007595229289491 0 -0.34732744992129683 0.20361096131406051 0 -0.32877165556075322 0.21007595229289491 0 -0.34732744992129683 0.20361096131406051 0 -0.32877165556075322 0.21007595229289491 0 -0.3426900166407324 0.21721199498973889 0 -0.32877165556075322 0.21007595229289491 0 -0.33714887442812552 0.23021687369624419 0 -0.31879954813088218 0.2347153712757554 0 -0.32877165556075322 0.21007595229289491 0 -0.3426900166407324 0.21721199498973889 0 -0.33714887442812552 0.23021687369624419 0 -0.31319691754384299 0.2155023187863267 0 -0.32877165556075322 0.21007595229289491 0 -0.31879954813088218 0.2347153712757554 0 -0.32877165556075322 0.21007595229289491 0 -0.31879954813088218 0.2347153712757554 0 -0.31879954813088218 0.2347153712757554 0 -0.31556053223240471 0.2427184408752304 0 -0.32772294389005391 0.25109503919567761 0 -0.31556053223240471 0.2427184408752304 0 -0.30951648038044849 0.24087881725500659 0 -0.32141607343252149 0.26083327442965071 0 -0.31879954813088218 0.2347153712757554 0 -0.31556053223240471 0.2427184408752304 0 -0.31879954813088218 0.2347153712757554 0 -0.31556053223240471 0.2427184408752304 0 -0.30951648038044849 0.24087881725500659 0 -0.3476101438532766 0.24165655188516871 0 -0.33714887442812552 0.23021687369624419 0 -0.34412048827477831 0.25120949573040219 0 -0.33714887442812552 0.23021687369624419 0 -0.31879954813088218 0.2347153712757554 0 -0.34412048827477831 0.25120949573040219 0 -0.31879954813088218 0.2347153712757554 0 -0.34412048827477831 0.25120949573040219 0 -0.31879954813088218 0.2347153712757554 0 -0.34412048827477831 0.25120949573040219 0 -0.32772294389005391 0.25109503919567761 0 -0.28650837652995048 0.2473431110274103 0 -0.29720767462479958 0.23615475724223031 0 -0.29298330853539067 0.22254490598848381 0 -0.28650837652995048 0.2473431110274103 0 -0.29298330853539067 0.22254490598848381 0 -0.28650837652995048 0.2473431110274103 0 -0.28514467421293771 0.23092769825810661 0 -0.28037406685549249 0.239288889529639 0 -0.28650837652995048 0.2473431110274103 0 -0.29940802815127748 0.24907826666049679 0 -0.29720767462479958 0.23615475724223031 0 -0.29940802815127748 0.24907826666049679 0 -0.30951648038044849 0.24087881725500659 0 -0.29720767462479958 0.23615475724223031 0 -0.31319691754384299 0.2155023187863267 0 -0.31879954813088218 0.2347153712757554 0 -0.29762002142428662 0.22092249110113649 0 -0.30951648038044849 0.24087881725500659 0 -0.29720767462479958 0.23615475724223031 0 -0.29762002142428662 0.22092249110113649 0 -0.31879954813088218 0.2347153712757554 0 -0.29762002142428662 0.22092249110113649 0 -0.31879954813088218 0.2347153712757554 0 -0.30951648038044849 0.24087881725500659 0 -0.29762002142428662 0.22092249110113649 0 -0.30951648038044849 0.24087881725500659 0 -0.29762002142428662 0.22092249110113649 0 -0.29298330853539067 0.22254490598848381 0 -0.29402013218163692 0.21857399705119571 0 -0.29298330853539067 0.22254490598848381 0 -0.2868668656620823 0.2246759248621627 0 -0.28938035623915809 0.2155516352667548 0 -0.29720767462479958 0.23615475724223031 0 -0.29762002142428662 0.22092249110113649 0 -0.29298330853539067 0.22254490598848381 0 -0.29762002142428662 0.22092249110113649 0 -0.29298330853539067 0.22254490598848381 0 -0.29762002142428662 0.22092249110113649 0 -0.29402013218163692 0.21857399705119571 0 -0.29762002142428662 0.22092249110113649 0 -0.29298330853539067 0.22254490598848381 0 -0.29402013218163692 0.21857399705119571 0 -0.28650837652995048 0.2473431110274103 0 -0.29298330853539067 0.22254490598848381 0 -0.28514467421293771 0.23092769825810661 0 -0.29298330853539067 0.22254490598848381 0 -0.28938035623915809 0.2155516352667548 0 -0.29402013218163692 0.21857399705119571 0 -0.29298330853539067 0.22254490598848381 0 -0.2868668656620823 0.2246759248621627 0 -0.28514467421293771 0.23092769825810661 0 -0.2868668656620823 0.2246759248621627 0 -0.2746153504589412 0.23472719560717159 0 -0.28514467421293771 0.23092769825810661 0 -0.2868668656620823 0.2246759248621627 0 -0.29298330853539067 0.22254490598848381 0 -0.28514467421293771 0.23092769825810661 0 -0.2868668656620823 0.2246759248621627 0 -0.2868668656620823 0.2246759248621627 0 -0.28938035623915809 0.2155516352667548 0 -0.2868668656620823 0.2246759248621627 0 -0.28705213255633449 0.21403502447092679 0 -0.28938035623915809 0.2155516352667548 0 -0.28705213255633449 0.21403502447092679 0 -0.28971400929861452 0.2076720042635532 0 -0.29027792204785152 0.21229335753772219 0 -0.28705213255633449 0.21403502447092679 0 -0.29027792204785152 0.21229335753772219 0 -0.28938035623915809 0.2155516352667548 0 -0.28705213255633449 0.21403502447092679 0 -0.28938035623915809 0.2155516352667548 0 -0.28705213255633449 0.21403502447092679 0 -0.29027792204785152 0.21229335753772219 0 -0.28705213255633449 0.21403502447092679 0 -0.28971400929861452 0.2076720042635532 0 -0.28429727541272448 0.201341164484372 0 -0.28971400929861452 0.2076720042635532 0 -0.29010499864891731 0.20240311962322069 0 -0.28429727541272448 0.201341164484372 0 -0.29097053675936951 0.2097790782865635 0 -0.28971400929861452 0.2076720042635532 0 -0.29027792204785152 0.21229335753772219 0 -0.29097053675936951 0.2097790782865635 0 -0.28971400929861452 0.2076720042635532 0 -0.29097053675936951 0.2097790782865635 0 -0.29193602831881071 0.2113981134830622 0 -0.29097053675936951 0.2097790782865635 0 -0.28971400929861452 0.2076720042635532 0 -0.29010499864891731 0.20240311962322069 0 -0.29654330388270389 0.20891055515884691 0 -0.29193602831881071 0.2113981134830622 0 -0.29097053675936951 0.2097790782865635 0 -0.29654330388270389 0.20891055515884691 0 -0.29193602831881071 0.2113981134830622 0 -0.29762002142428662 0.22092249110113649 0 -0.29654330388270389 0.20891055515884691 0 -0.29468858883623228 0.21601388905833799 0 -0.29654330388270389 0.20891055515884691 0 -0.29193602831881071 0.2113981134830622 0 -0.29468858883623228 0.21601388905833799 0 -0.29193602831881071 0.2113981134830622 0 -0.29468858883623228 0.21601388905833799 0 -0.29654330388270389 0.20891055515884691 0 -0.29468858883623228 0.21601388905833799 0 -0.29193602831881071 0.2113981134830622 0 -0.29206060552473789 0.2147661984794148 0 -0.29027792204785152 0.21229335753772219 0 -0.29193602831881071 0.2113981134830622 0 -0.29206060552473789 0.2147661984794148 0 -0.29468858883623228 0.21601388905833799 0 -0.29097053675936951 0.2097790782865635 0 -0.29193602831881071 0.2113981134830622 0 -0.29027792204785152 0.21229335753772219 0 -0.29193602831881071 0.2113981134830622 0 -0.29027792204785152 0.21229335753772219 0 -0.29027792204785152 0.21229335753772219 0 -0.28938035623915809 0.2155516352667548 0 -0.29206060552473789 0.2147661984794148 0 -0.29027792204785152 0.21229335753772219 0 -0.28938035623915809 0.2155516352667548 0 -0.29097053675936951 0.2097790782865635 0 -0.29027792204785152 0.21229335753772219 0 -0.28938035623915809 0.2155516352667548 0 -0.29402013218163692 0.21857399705119571 0 -0.29206060552473789 0.2147661984794148 0 -0.28938035623915809 0.2155516352667548 0 -0.29402013218163692 0.21857399705119571 0 -0.29402013218163692 0.21857399705119571 0 -0.29468858883623228 0.21601388905833799 0 -0.29762002142428662 0.22092249110113649 0 -0.29468858883623228 0.21601388905833799 0 -0.29762002142428662 0.22092249110113649 0 -0.29402013218163692 0.21857399705119571 0 -0.29468858883623228 0.21601388905833799 0 -0.29206060552473789 0.2147661984794148 0 -0.29402013218163692 0.21857399705119571 0 -0.29468858883623228 0.21601388905833799 0 -0.31975657544808289 0.19637725513935689 0 -0.31319691754384299 0.2155023187863267 0 -0.29654330388270389 0.20891055515884691 0 -0.31319691754384299 0.2155023187863267 0 -0.29762002142428662 0.22092249110113649 0 -0.29654330388270389 0.20891055515884691 0 -0.31319691754384299 0.2155023187863267 0 -0.29762002142428662 0.22092249110113649 0 -0.29654330388270389 0.20891055515884691 0 -0.31073360595140198 0.19075298862014739 0 -0.30259004635873188 0.1857522641355456 0 -0.29654330388270389 0.20891055515884691 0 -0.30259004635873188 0.1857522641355456 0 -0.29654330388270389 0.20891055515884691 0 -0.30259004635873188 0.1857522641355456 0 -0.29777040549488831 0.18509469230976269 0 -0.31975657544808289 0.19637725513935689 0 -0.29654330388270389 0.20891055515884691 0 -0.31975657544808289 0.19637725513935689 0 -0.29654330388270389 0.20891055515884691 0 -0.31073360595140198 0.19075298862014739 0 -0.29097053675936951 0.2097790782865635 0 -0.29777040549488831 0.18509469230976269 0 -0.29097053675936951 0.2097790782865635 0 -0.29255472328286142 0.19595961128387099 0 -0.29777040549488831 0.18509469230976269 0 -0.29097053675936951 0.2097790782865635 0 -0.29654330388270389 0.20891055515884691 0 -0.29777040549488831 0.18509469230976269 0 -0.29255472328286142 0.19595961128387099 0 -0.29777040549488831 0.18509469230976269 0 -0.29021613828326459 0.18726008670828551 0 -0.29097053675936951 0.2097790782865635 0 -0.29255472328286142 0.19595961128387099 0 -0.29010499864891731 0.20240311962322069 0 -0.29255472328286142 0.19595961128387099 0 -0.28429727541272448 0.201341164484372 0 -0.28085850988873012 0.1889877590575583 0 -0.29255472328286142 0.19595961128387099 0 -0.29010499864891731 0.20240311962322069 0 -0.28429727541272448 0.201341164484372 0 -0.29255472328286142 0.19595961128387099 0 -0.28085850988873012 0.1889877590575583 0 -0.29021613828326459 0.18726008670828551 0 -0.28429727541272448 0.201341164484372 0 -0.28085850988873012 0.1889877590575583 0 -0.26508594023407511 0.1997261912325434 0 -0.28085850988873012 0.1889877590575583 0 -0.26508594023407511 0.1997261912325434 0 -0.26867105505441152 0.18002394511793579 0 -0.26508594023407511 0.1997261912325434 0 -0.25382205123979462 0.21202334682955021 0 -0.2431197479118164 0.1854173579941589 0 -0.26508594023407511 0.1997261912325434 0 -0.2431197479118164 0.1854173579941589 0 -0.26428387497053007 0.21042389576480719 0 -0.25382205123979462 0.21202334682955021 0 -0.26041614939884428 0.22841631352303901 0 -0.26508594023407511 0.1997261912325434 0 -0.26428387497053007 0.21042389576480719 0 -0.25382205123979462 0.21202334682955021 0 -0.26428387497053007 0.21042389576480719 0 -0.25382205123979462 0.21202334682955021 0 -0.28705213255633449 0.21403502447092679 0 -0.26508594023407511 0.1997261912325434 0 -0.26428387497053007 0.21042389576480719 0 -0.28705213255633449 0.21403502447092679 0 -0.26508594023407511 0.1997261912325434 0 -0.28705213255633449 0.21403502447092679 0 -0.26428387497053007 0.21042389576480719 0 -0.26041614939884428 0.22841631352303901 0 -0.28705213255633449 0.21403502447092679 0 -0.28429727541272448 0.201341164484372 0 -0.26508594023407511 0.1997261912325434 0 -0.2868668656620823 0.2246759248621627 0 -0.28705213255633449 0.21403502447092679 0 -0.26041614939884428 0.22841631352303901 0 -0.2868668656620823 0.2246759248621627 0 -0.26234785653272052 0.2332185487860603 0 -0.28705213255633449 0.21403502447092679 0 -0.26041614939884428 0.22841631352303901 0 -0.2868668656620823 0.2246759248621627 0 -0.26041614939884428 0.22841631352303901 0 -0.26234785653272052 0.2332185487860603 0 -0.2868668656620823 0.2246759248621627 0 -0.26234785653272052 0.2332185487860603 0 -0.2746153504589412 0.23472719560717159 0 -0.25382205123979462 0.21202334682955021 0 -0.26041614939884428 0.22841631352303901 0 -0.24583336088181401 0.22389194151097541 0 -0.25382205123979462 0.21202334682955021 0 -0.26041614939884428 0.22841631352303901 0 -0.25020845078822918 0.2339276499512129 0 -0.26041614939884428 0.22841631352303901 0 -0.24583336088181401 0.22389194151097541 0 -0.25020845078822918 0.2339276499512129 0 -0.26041614939884428 0.22841631352303901 0 -0.25020845078822918 0.2339276499512129 0 -0.26041614939884428 0.22841631352303901 0 -0.26234785653272052 0.2332185487860603 0 -0.26041614939884428 0.22841631352303901 0 -0.26234785653272052 0.2332185487860603 0 -0.26234785653272052 0.2332185487860603 0 -0.26639366242262502 0.243276445954381 0 -0.26234785653272052 0.2332185487860603 0 -0.25355414777238738 0.24563073474758021 0 -0.26639366242262502 0.243276445954381 0 -0.26234785653272052 0.2332185487860603 0 -0.25355414777238738 0.24563073474758021 0 -0.23621598375468131 0.24232310763638509 0 -0.25355414777238738 0.24563073474758021 0 -0.26012650635371831 0.24996441057044549 0 -0.26639366242262502 0.243276445954381 0 -0.26639366242262502 0.243276445954381 0 -0.27522786622014028 0.24415755322586771 0 -0.26746969881204902 0.25764483835000601 0 -0.28650837652995048 0.2473431110274103 0 -0.27522786622014028 0.24415755322586771 0 -0.26746969881204902 0.25764483835000601 0 -0.26639366242262502 0.243276445954381 0 -0.2746153504589412 0.23472719560717159 0 -0.27522786622014028 0.24415755322586771 0 -0.26234785653272052 0.2332185487860603 0 -0.26639366242262502 0.243276445954381 0 -0.2746153504589412 0.23472719560717159 0 -0.2746153504589412 0.23472719560717159 0 -0.28037406685549249 0.239288889529639 0 -0.27522786622014028 0.24415755322586771 0 -0.28514467421293771 0.23092769825810661 0 -0.2746153504589412 0.23472719560717159 0 -0.28037406685549249 0.239288889529639 0 -0.28650837652995048 0.2473431110274103 0 -0.28037406685549249 0.239288889529639 0 -0.27522786622014028 0.24415755322586771 0 -0.29374284710146392 0.1512155169296695 0 -0.29054286337699908 0.16006536301122609 0 -0.27765586984683699 0.15493852421889859 0 -0.28268584479449599 0.14352815199566879 0 -0.29374284710146392 0.1512155169296695 0 -0.27765586984683699 0.15493852421889859 0 -0.29374284710146392 0.1512155169296695 0 -0.29248204472642619 0.1239125914114026 0 -0.28268584479449599 0.14352815199566879 0 -0.27257735712673531 0.13419873071746019 0 -0.29248204472642619 0.1239125914114026 0 -0.28268584479449599 0.14352815199566879 0 -0.29374284710146392 0.1512155169296695 0 -0.29248204472642619 0.1239125914114026 0 -0.29374284710146392 0.1512155169296695 0 -0.30031495570910521 0.13813146505412821 0 -0.29248204472642619 0.1239125914114026 0 -0.30031495570910521 0.13813146505412821 0 -0.30258771998673839 0.1296555493006929 0 -0.29248204472642619 0.1239125914114026 0 -0.30258771998673839 0.1296555493006929 0 -0.31137014296592769 0.13572592035616141 0 -0.30618373654549452 0.1208522203810795 0 -0.30031495570910521 0.13813146505412821 0 -0.30258771998673839 0.1296555493006929 0 -0.31137014296592769 0.13572592035616141 0 -0.31468353131078741 0.13943568208894311 0 -0.30863678883475959 0.16259397311224441 0 -0.31137014296592769 0.13572592035616141 0 -0.301414666133485 0.1493558025941219 0 -0.304570274230408 0.1604103063329621 0 -0.31468353131078741 0.13943568208894311 0 -0.31137014296592769 0.13572592035616141 0 -0.304570274230408 0.1604103063329621 0 -0.31137014296592769 0.13572592035616141 0 -0.304570274230408 0.1604103063329621 0 -0.31468353131078741 0.13943568208894311 0 -0.30863678883475959 0.16259397311224441 0 -0.304570274230408 0.1604103063329621 0 -0.29374284710146392 0.1512155169296695 0 -0.30031495570910521 0.13813146505412821 0 -0.301414666133485 0.1493558025941219 0 -0.30031495570910521 0.13813146505412821 0 -0.31137014296592769 0.13572592035616141 0 -0.301414666133485 0.1493558025941219 0 -0.29374284710146392 0.1512155169296695 0 -0.301414666133485 0.1493558025941219 0 -0.29758970135666929 0.15909305068719021 0 -0.30863678883475959 0.16259397311224441 0 -0.304570274230408 0.1604103063329621 0 -0.29777040549488831 0.18509469230976269 0 -0.29773877552428329 0.16923181358200509 0 -0.304570274230408 0.1604103063329621 0 -0.29777040549488831 0.18509469230976269 0 -0.31281393894784282 0.17242583979925441 0 -0.31552858071914541 0.16266870975395861 0 -0.30863678883475959 0.16259397311224441 0 -0.29773877552428329 0.16923181358200509 0 -0.304570274230408 0.1604103063329621 0 -0.29758970135666929 0.15909305068719021 0 -0.301414666133485 0.1493558025941219 0 -0.304570274230408 0.1604103063329621 0 -0.29758970135666929 0.15909305068719021 0 -0.30863678883475959 0.16259397311224441 0 -0.30259004635873188 0.1857522641355456 0 -0.31281393894784282 0.17242583979925441 0 -0.30863678883475959 0.16259397311224441 0 -0.30259004635873188 0.1857522641355456 0 -0.30863678883475959 0.16259397311224441 0 -0.30259004635873188 0.1857522641355456 0 -0.29777040549488831 0.18509469230976269 0 -0.304570274230408 0.1604103063329621 0 -0.29777040549488831 0.18509469230976269 0 -0.31281393894784282 0.17242583979925441 0 -0.31152192073993629 0.18182124277595579 0 -0.30259004635873188 0.1857522641355456 0 -0.31073360595140198 0.19075298862014739 0 -0.31152192073993629 0.18182124277595579 0 -0.30259004635873188 0.1857522641355456 0 -0.29773877552428329 0.16923181358200509 0 -0.29777040549488831 0.18509469230976269 0 -0.29462307124226539 0.17598205111438081 0 -0.28085850988873012 0.1889877590575583 0 -0.28706109989350598 0.1800394304715989 0 -0.27792500778525642 0.1726322723105479 0 -0.29777040549488831 0.18509469230976269 0 -0.29241767872848112 0.18209406515100701 0 -0.29462307124226539 0.17598205111438081 0 -0.29777040549488831 0.18509469230976269 0 -0.29021613828326459 0.18726008670828551 0 -0.29241767872848112 0.18209406515100701 0 -0.29021613828326459 0.18726008670828551 0 -0.29241767872848112 0.18209406515100701 0 -0.28706109989350598 0.1800394304715989 0 -0.29462307124226539 0.17598205111438081 0 -0.28706109989350598 0.1800394304715989 0 -0.28725127165414849 0.16886489383967951 0 -0.29241767872848112 0.18209406515100701 0 -0.29462307124226539 0.17598205111438081 0 -0.28706109989350598 0.1800394304715989 0 -0.28706109989350598 0.1800394304715989 0 -0.28725127165414849 0.16886489383967951 0 -0.27792500778525642 0.1726322723105479 0 -0.28085850988873012 0.1889877590575583 0 -0.29021613828326459 0.18726008670828551 0 -0.28706109989350598 0.1800394304715989 0 -0.29374284710146392 0.1512155169296695 0 -0.29758970135666929 0.15909305068719021 0 -0.29054286337699908 0.16006536301122609 0 -0.29758970135666929 0.15909305068719021 0 -0.29054286337699908 0.16006536301122609 0 -0.29414042529718548 0.16557896746572959 0 -0.29462307124226539 0.17598205111438081 0 -0.29414042529718548 0.16557896746572959 0 -0.28725127165414849 0.16886489383967951 0 -0.29773877552428329 0.16923181358200509 0 -0.29758970135666929 0.15909305068719021 0 -0.29414042529718548 0.16557896746572959 0 -0.29054286337699908 0.16006536301122609 0 -0.29414042529718548 0.16557896746572959 0 -0.28725127165414849 0.16886489383967951 0 -0.29773877552428329 0.16923181358200509 0 -0.29462307124226539 0.17598205111438081 0 -0.29414042529718548 0.16557896746572959 0 -0.29054286337699908 0.16006536301122609 0 -0.28725127165414849 0.16886489383967951 0 -0.27765586984683699 0.15493852421889859 0 -0.26605224037390568 0.16293908115761629 0 -0.26867105505441152 0.18002394511793579 0 -0.27792500778525642 0.1726322723105479 0 -0.26605224037390568 0.16293908115761629 0 -0.27792500778525642 0.1726322723105479 0 -0.27765586984683699 0.15493852421889859 0 -0.28725127165414849 0.16886489383967951 0 -0.27792500778525642 0.1726322723105479 0 -0.27765586984683699 0.15493852421889859 0 -0.28085850988873012 0.1889877590575583 0 -0.26867105505441152 0.18002394511793579 0 -0.27792500778525642 0.1726322723105479 0 -0.26508594023407511 0.1997261912325434 0 -0.25477079641615608 0.17556754903091679 0 -0.2431197479118164 0.1854173579941589 0 -0.26508594023407511 0.1997261912325434 0 -0.26867105505441152 0.18002394511793579 0 -0.25477079641615608 0.17556754903091679 0 -0.26605224037390568 0.16293908115761629 0 -0.26867105505441152 0.18002394511793579 0 -0.25477079641615608 0.17556754903091679 0 -0.26605224037390568 0.16293908115761629 0 -0.25477079641615608 0.17556754903091679 0 -0.25370880345582669 0.159728138447183 0 -0.26605224037390568 0.16293908115761629 0 -0.25370880345582669 0.159728138447183 0 -0.2567994101475965 0.14293011260178351 0 -0.2567994101475965 0.14293011260178351 0 -0.27765586984683699 0.15493852421889859 0 -0.27257735712673531 0.13419873071746019 0 -0.26605224037390568 0.16293908115761629 0 -0.2567994101475965 0.14293011260178351 0 -0.27765586984683699 0.15493852421889859 0 -0.28268584479449599 0.14352815199566879 0 -0.27765586984683699 0.15493852421889859 0 -0.27257735712673531 0.13419873071746019 0 -0.2567994101475965 0.14293011260178351 0 -0.26104522839842298 0.12711346172008581 0 -0.24652085095421339 0.119878352835588 0 -0.2567994101475965 0.14293011260178351 0 -0.27257735712673531 0.13419873071746019 0 -0.26104522839842298 0.12711346172008581 0 -0.25149407947967251 0.098937901634065836 0 -0.26929359156424282 0.1130190188870247 0 -0.24652085095421339 0.119878352835588 0 -0.26104522839842298 0.12711346172008581 0 -0.26929359156424282 0.1130190188870247 0 -0.24652085095421339 0.119878352835588 0 -0.25149407947967251 0.098937901634065836 0 -0.26929359156424282 0.1130190188870247 0 -0.27028653272937331 0.086133491524785805 0 -0.26929359156424282 0.1130190188870247 0 -0.29122124235138852 0.096609665893135716 0 -0.27028653272937331 0.086133491524785805 0 -0.27257735712673531 0.13419873071746019 0 -0.26929359156424282 0.1130190188870247 0 -0.29248204472642619 0.1239125914114026 0 -0.27257735712673531 0.13419873071746019 0 -0.26104522839842298 0.12711346172008581 0 -0.26929359156424282 0.1130190188870247 0 -0.26929359156424282 0.1130190188870247 0 -0.29248204472642619 0.1239125914114026 0 -0.29122124235138852 0.096609665893135716 0 -0.29248204472642619 0.1239125914114026 0 -0.29122124235138852 0.096609665893135716 0 -0.29248204472642619 0.1239125914114026 0 -0.29122124235138852 0.096609665893135716 0 -0.30618373654549452 0.1208522203810795 0 -0.29122124235138852 0.096609665893135716 0 -0.30903411996307212 0.082759198348279522 0 -0.31817001170144749 0.11104153437936071 0 -0.29122124235138852 0.096609665893135716 0 -0.30618373654549452 0.1208522203810795 0 -0.31817001170144749 0.11104153437936071 0 -0.31137014296592769 0.13572592035616141 0 -0.30618373654549452 0.1208522203810795 0 -0.31817001170144749 0.11104153437936071 0 -0.30258771998673839 0.1296555493006929 0 -0.29248204472642619 0.1239125914114026 0 -0.30618373654549452 0.1208522203810795 0 -0.30903411996307212 0.082759198348279522 0 -0.28996043997635079 0.069306740374868697 0 -0.30975992535872698 0.055873485142201362 0 -0.29122124235138852 0.096609665893135716 0 -0.28996043997635079 0.069306740374868697 0 -0.29122124235138852 0.096609665893135716 0 -0.30903411996307212 0.082759198348279522 0 -0.28996043997635079 0.069306740374868697 0 -0.29122124235138852 0.096609665893135716 0 -0.28996043997635079 0.069306740374868697 0 -0.27028653272937331 0.086133491524785805 0 -0.28996043997635079 0.069306740374868697 0 -0.27268117692811378 0.06906488717521235 0 -0.27028653272937331 0.086133491524785805 0 -0.28996043997635079 0.069306740374868697 0 -0.27268117692811378 0.06906488717521235 0 -0.27664251596886669 0.0530431542111056 0 -0.27268117692811378 0.06906488717521235 0 -0.27028653272937331 0.086133491524785805 0 -0.26274145539055982 0.074961699384691119 0 -0.27268117692811378 0.06906488717521235 0 -0.26274145539055982 0.074961699384691119 0 -0.26377494057541839 0.061879350380610501 0 -0.27028653272937331 0.086133491524785805 0 -0.25257355536909432 0.082348312818626632 0 -0.26274145539055982 0.074961699384691119 0 -0.25149407947967251 0.098937901634065836 0 -0.27028653272937331 0.086133491524785805 0 -0.25257355536909432 0.082348312818626632 0 -0.26274145539055982 0.074961699384691119 0 -0.25315120101487221 0.068954177185853227 0 -0.26377494057541839 0.061879350380610501 0 -0.25257355536909432 0.082348312818626632 0 -0.26274145539055982 0.074961699384691119 0 -0.25315120101487221 0.068954177185853227 0 -0.25315120101487221 0.068954177185853227 0 -0.25239598045762301 0.056577261174826282 0 -0.26377494057541839 0.061879350380610501 0 -0.25239598045762301 0.056577261174826282 0 -0.26377494057541839 0.061879350380610501 0 -0.26299712564628458 0.04998870864609891 0 -0.25239598045762301 0.056577261174826282 0 -0.24980698532294751 0.04422840036071244 0 -0.25239598045762301 0.056577261174826282 0 -0.26299712564628458 0.04998870864609891 0 -0.24980698532294751 0.04422840036071244 0 -0.27293014685267419 0.034216310051292123 0 -0.24980698532294751 0.04422840036071244 0 -0.26299712564628458 0.04998870864609891 0 -0.27293014685267419 0.034216310051292123 0 -0.24980698532294751 0.04422840036071244 0 -0.27293014685267419 0.034216310051292123 0 -0.25718064476893909 0.030692254923712262 0 -0.24980698532294751 0.04422840036071244 0 -0.25718064476893909 0.030692254923712262 0 -0.24543378424691301 0.023369322382240511 0 -0.24980698532294751 0.04422840036071244 0 -0.26299712564628458 0.04998870864609891 0 -0.27293014685267419 0.034216310051292123 0 -0.27664251596886669 0.0530431542111056 0 -0.27293014685267419 0.034216310051292123 0 -0.27664251596886669 0.0530431542111056 0 -0.28283387464172161 0.043092733283018908 0 -0.27268117692811378 0.06906488717521235 0 -0.26377494057541839 0.061879350380610501 0 -0.27664251596886669 0.0530431542111056 0 -0.26377494057541839 0.061879350380610501 0 -0.26299712564628458 0.04998870864609891 0 -0.27664251596886669 0.0530431542111056 0 -0.26451735172234209 -0.0056585011065514454 0 -0.26201538849296202 0.0068447474301096848 0 -0.25283005323772689 0.00055530769458268315 0 -0.26201538849296202 0.0068447474301096848 0 -0.25283005323772689 0.00055530769458268315 0 -0.25221396866587598 0.01086439825930755 0 -0.26201538849296202 0.0068447474301096848 0 -0.25221396866587598 0.01086439825930755 0 -0.26055166265322183 0.020954986900603979 0 -0.27293014685267419 0.034216310051292123 0 -0.26055166265322183 0.020954986900603979 0 -0.25718064476893909 0.030692254923712262 0 -0.25221396866587598 0.01086439825930755 0 -0.26055166265322183 0.020954986900603979 0 -0.24543378424691301 0.023369322382240511 0 -0.26055166265322183 0.020954986900603979 0 -0.25718064476893909 0.030692254923712262 0 -0.24543378424691301 0.023369322382240511 0 -0.27293014685267419 0.034216310051292123 0 -0.26055166265322183 0.020954986900603979 0 -0.27918803886455867 0.017260209662709729 0 -0.26201538849296202 0.0068447474301096848 0 -0.27918803886455867 0.017260209662709729 0 -0.27596627589349532 0.0018974693142803909 0 -0.26201538849296202 0.0068447474301096848 0 -0.26055166265322183 0.020954986900603979 0 -0.27918803886455867 0.017260209662709729 0 -0.26451735172234209 -0.0056585011065514454 0 -0.26201538849296202 0.0068447474301096848 0 -0.27596627589349532 0.0018974693142803909 0 -0.27918803886455867 0.017260209662709729 0 -0.27596627589349532 0.0018974693142803909 0 -0.29074293809310919 0.0040245865018172684 0 -0.27918803886455867 0.017260209662709729 0 -0.29074293809310919 0.0040245865018172684 0 -0.29316026164468939 0.015192651565793251 0 -0.29074293809310919 0.0040245865018172684 0 -0.29316026164468939 0.015192651565793251 0 -0.30152911725312731 0.0146522928949242 0 -0.27293014685267419 0.034216310051292123 0 -0.29605330838240113 0.024204219741872389 0 -0.27293014685267419 0.034216310051292123 0 -0.27918803886455867 0.017260209662709729 0 -0.29605330838240113 0.024204219741872389 0 -0.27918803886455867 0.017260209662709729 0 -0.29316026164468939 0.015192651565793251 0 -0.29605330838240113 0.024204219741872389 0 -0.27918803886455867 0.017260209662709729 0 -0.29605330838240113 0.024204219741872389 0 -0.29316026164468939 0.015192651565793251 0 -0.29605330838240113 0.024204219741872389 0 -0.29824364835220007 0.019319985522929229 0 -0.29605330838240113 0.024204219741872389 0 -0.29872368575489111 0.023047973898099441 0 -0.31707212592057421 0.032858388042164413 0 -0.30753562387707511 0.02108648877049886 0 -0.29872368575489111 0.023047973898099441 0 -0.31707212592057421 0.032858388042164413 0 -0.29605330838240113 0.024204219741872389 0 -0.31707212592057421 0.032858388042164413 0 -0.29605330838240113 0.024204219741872389 0 -0.29872368575489111 0.023047973898099441 0 -0.30753562387707511 0.02108648877049886 0 -0.31189356333727219 0.01555608553848852 0 -0.31710889976317552 0.021407696950075661 0 -0.30753562387707511 0.02108648877049886 0 -0.30152911725312731 0.0146522928949242 0 -0.31189356333727219 0.01555608553848852 0 -0.29316026164468939 0.015192651565793251 0 -0.29824364835220007 0.019319985522929229 0 -0.30152911725312731 0.0146522928949242 0 -0.30753562387707511 0.02108648877049886 0 -0.30175186872589149 0.019502789513956859 0 -0.29872368575489111 0.023047973898099441 0 -0.30753562387707511 0.02108648877049886 0 -0.30175186872589149 0.019502789513956859 0 -0.30152911725312731 0.0146522928949242 0 -0.29605330838240113 0.024204219741872389 0 -0.29872368575489111 0.023047973898099441 0 -0.29824364835220007 0.019319985522929229 0 -0.30175186872589149 0.019502789513956859 0 -0.29872368575489111 0.023047973898099441 0 -0.29824364835220007 0.019319985522929229 0 -0.30175186872589149 0.019502789513956859 0 -0.29824364835220007 0.019319985522929229 0 -0.30152911725312731 0.0146522928949242 0 -0.29074293809310919 0.0040245865018172684 0 -0.30801237129536407 0.008219511859587126 0 -0.29074293809310919 0.0040245865018172684 0 -0.30152911725312731 0.0146522928949242 0 -0.30801237129536407 0.008219511859587126 0 -0.29074293809310919 0.0040245865018172684 0 -0.30801237129536407 0.008219511859587126 0 -0.30464292602730408 0.00080418690247109799 0 -0.30152911725312731 0.0146522928949242 0 -0.30801237129536407 0.008219511859587126 0 -0.31189356333727219 0.01555608553848852 0 -0.28996043997635079 0.069306740374868697 0 -0.27664251596886669 0.0530431542111056 0 -0.29156890364186477 0.048882592747249848 0 -0.27664251596886669 0.0530431542111056 0 -0.29156890364186477 0.048882592747249848 0 -0.28283387464172161 0.043092733283018908 0 -0.29156890364186477 0.048882592747249848 0 -0.28283387464172161 0.043092733283018908 0 -0.29019393210348071 0.036228876122428089 0 -0.27293014685267419 0.034216310051292123 0 -0.28283387464172161 0.043092733283018908 0 -0.29019393210348071 0.036228876122428089 0 -0.27293014685267419 0.034216310051292123 0 -0.29605330838240113 0.024204219741872389 0 -0.29019393210348071 0.036228876122428089 0 -0.29605330838240113 0.024204219741872389 0 -0.29019393210348071 0.036228876122428089 0 -0.301738107289937 0.038693765158864322 0 -0.29156890364186477 0.048882592747249848 0 -0.29019393210348071 0.036228876122428089 0 -0.301738107289937 0.038693765158864322 0 -0.29605330838240113 0.024204219741872389 0 -0.301738107289937 0.038693765158864322 0 -0.31707212592057421 0.032858388042164413 0 -0.301738107289937 0.038693765158864322 0 -0.30975992535872698 0.055873485142201362 0 -0.31707212592057421 0.032858388042164413 0 -0.29156890364186477 0.048882592747249848 0 -0.301738107289937 0.038693765158864322 0 -0.30975992535872698 0.055873485142201362 0 -0.28996043997635079 0.069306740374868697 0 -0.29156890364186477 0.048882592747249848 0 -0.30975992535872698 0.055873485142201362 0 -0.30975992535872698 0.055873485142201362 0 -0.32674348856586682 0.054252434373979183 0 -0.32423522421733281 0.071541023964305589 0 -0.30975992535872698 0.055873485142201362 0 -0.32674348856586682 0.054252434373979183 0 -0.31707212592057421 0.032858388042164413 0 -0.31707212592057421 0.032858388042164413 0 -0.33809094345874768 0.041512556342455598 0 -0.31707212592057421 0.032858388042164413 0 -0.33809094345874768 0.041512556342455598 0 -0.32760709157497259 0.025218558865876841 0 -0.32674348856586682 0.054252434373979183 0 -0.31707212592057421 0.032858388042164413 0 -0.33809094345874768 0.041512556342455598 0 -0.33809094345874768 0.041512556342455598 0 -0.33975728198932231 0.020557511335840741 0 -0.34940665873317511 0.032657665868670527 0 -0.32674348856586682 0.054252434373979183 0 -0.33809094345874768 0.041512556342455598 0 -0.3416623527767958 0.063391945962103763 0 -0.30801237129536407 0.008219511859587126 0 -0.31189356333727219 0.01555608553848852 0 -0.32528180449761912 0.01241443721735677 0 -0.30801237129536407 0.008219511859587126 0 -0.30464292602730408 0.00080418690247109799 0 -0.32528180449761912 0.01241443721735677 0 -0.30801237129536407 0.008219511859587126 0 -0.32528180449761912 0.01241443721735677 0 -0.30464292602730408 0.00080418690247109799 0 -0.32528180449761912 0.01241443721735677 0 -0.30464292602730408 0.00080418690247109799 0 -0.31800422345143847 0.00037436502929125799 0 -0.32528180449761912 0.01241443721735677 0 -0.32994479933062693 -0.001554818251230301 0 -0.31800422345143847 0.00037436502929125799 0 -0.32528180449761912 0.01241443721735677 0 -0.32528180449761912 0.01241443721735677 0 -0.31710889976317552 0.021407696950075661 0 -0.32760709157497259 0.025218558865876841 0 -0.31189356333727219 0.01555608553848852 0 -0.32528180449761912 0.01241443721735677 0 -0.31710889976317552 0.021407696950075661 0 -0.30753562387707511 0.02108648877049886 0 -0.31707212592057421 0.032858388042164413 0 -0.31710889976317552 0.021407696950075661 0 -0.31707212592057421 0.032858388042164413 0 -0.31710889976317552 0.021407696950075661 0 -0.32760709157497259 0.025218558865876841 0 -0.32528180449761912 0.01241443721735677 0 -0.33975728198932231 0.020557511335840741 0 -0.35170682417142118 0.018833349975578031 0 -0.33809094345874768 0.041512556342455598 0 -0.32760709157497259 0.025218558865876841 0 -0.33975728198932231 0.020557511335840741 0 -0.32528180449761912 0.01241443721735677 0 -0.33975728198932231 0.020557511335840741 0 -0.32528180449761912 0.01241443721735677 0 -0.32760709157497259 0.025218558865876841 0 -0.33975728198932231 0.020557511335840741 0 -0.32528180449761912 0.01241443721735677 0 -0.34222897702701371 0.0021564326969536521 0 -0.35170682417142118 0.018833349975578031 0 -0.32994479933062693 -0.001554818251230301 0 -0.32528180449761912 0.01241443721735677 0 -0.34222897702701371 0.0021564326969536521 0 -0.32528180449761912 0.01241443721735677 0 -0.35170682417142118 0.018833349975578031 0 -0.34222897702701371 0.0021564326969536521 0 -0.3547260469056448 0.0055725142601272823 0 -0.35170682417142118 0.018833349975578031 0 -0.35431291256067188 -0.0070001533375129051 0 -0.34222897702701371 0.0021564326969536521 0 -0.3547260469056448 0.0055725142601272823 0 -0.3547260469056448 0.0055725142601272823 0 -0.35170682417142118 0.018833349975578031 0 -0.36442246810991469 0.01184424396872906 0 -0.33975728198932231 0.020557511335840741 0 -0.35170682417142118 0.018833349975578031 0 -0.34940665873317511 0.032657665868670527 0 -0.35170682417142118 0.018833349975578031 0 -0.34940665873317511 0.032657665868670527 0 -0.36224936584954609 0.034104920209006573 0 -0.37813184384522341 0.025252262733799082 0 -0.35170682417142118 0.018833349975578031 0 -0.36224936584954609 0.034104920209006573 0 -0.37813184384522341 0.025252262733799082 0 -0.35170682417142118 0.018833349975578031 0 -0.37813184384522341 0.025252262733799082 0 -0.35170682417142118 0.018833349975578031 0 -0.36442246810991469 0.01184424396872906 0 -0.37813184384522341 0.025252262733799082 0 -0.36442246810991469 0.01184424396872906 0 -0.37469109724737659 0.0093115152352250263 0 -0.3808204899099874 -0.0031860702741812281 0 -0.37469109724737659 0.0093115152352250263 0 -0.36457784417838562 0.001044263584331449 0 -0.36442246810991469 0.01184424396872906 0 -0.37469109724737659 0.0093115152352250263 0 -0.36457784417838562 0.001044263584331449 0 -0.3547260469056448 0.0055725142601272823 0 -0.36442246810991469 0.01184424396872906 0 -0.36457784417838562 0.001044263584331449 0 -0.33809094345874768 0.041512556342455598 0 -0.35910976099692132 0.050166724642746817 0 -0.3416623527767958 0.063391945962103763 0 -0.33809094345874768 0.041512556342455598 0 -0.35910976099692132 0.050166724642746817 0 -0.34940665873317511 0.032657665868670527 0 -0.33809094345874768 0.041512556342455598 0 -0.35910976099692132 0.050166724642746817 0 -0.35910976099692132 0.050166724642746817 0 -0.34940665873317511 0.032657665868670527 0 -0.36224936584954609 0.034104920209006573 0 -0.37813184384522341 0.025252262733799082 0 -0.37483218290103132 0.044557964405375912 0 -0.36224936584954609 0.034104920209006573 0 -0.35910976099692132 0.050166724642746817 0 -0.37483218290103132 0.044557964405375912 0 -0.36224936584954609 0.034104920209006573 0 -0.35910976099692132 0.050166724642746817 0 -0.37483218290103132 0.044557964405375912 0 -0.37234180684841711 0.062861574713409973 0 -0.35910976099692132 0.050166724642746817 0 -0.37234180684841711 0.062861574713409973 0 -0.35868334008457192 0.076103713998065814 0 -0.37524325287169957 0.081069145775215415 0 -0.37234180684841711 0.062861574713409973 0 -0.35868334008457192 0.076103713998065814 0 -0.35868334008457192 0.076103713998065814 0 -0.3416623527767958 0.063391945962103763 0 -0.33943799377804412 0.079951076388716041 0 -0.35910976099692132 0.050166724642746817 0 -0.35868334008457192 0.076103713998065814 0 -0.3416623527767958 0.063391945962103763 0 -0.35868334008457192 0.076103713998065814 0 -0.36668329576715208 0.094791004823607111 0 -0.34461311131750749 0.095852597507079543 0 -0.35868334008457192 0.076103713998065814 0 -0.34461311131750749 0.095852597507079543 0 -0.33943799377804412 0.079951076388716041 0 -0.37524325287169957 0.081069145775215415 0 -0.35868334008457192 0.076103713998065814 0 -0.36668329576715208 0.094791004823607111 0 -0.37715944345331809 0.1135223301104122 0 -0.36668329576715208 0.094791004823607111 0 -0.35506210166600682 0.11387683950045201 0 -0.3655110920145061 0.1319010814938246 0 -0.35506210166600682 0.11387683950045201 0 -0.37715944345331809 0.1135223301104122 0 -0.3655110920145061 0.1319010814938246 0 -0.35506210166600682 0.11387683950045201 0 -0.3655110920145061 0.1319010814938246 0 -0.34941668540343063 0.1271861453710664 0 -0.35506210166600682 0.11387683950045201 0 -0.34941668540343063 0.1271861453710664 0 -0.35506210166600682 0.11387683950045201 0 -0.33756020232145523 0.1153263116834876 0 -0.35506210166600682 0.11387683950045201 0 -0.34461311131750749 0.095852597507079543 0 -0.36668329576715208 0.094791004823607111 0 -0.35506210166600682 0.11387683950045201 0 -0.34461311131750749 0.095852597507079543 0 -0.35506210166600682 0.11387683950045201 0 -0.34461311131750749 0.095852597507079543 0 -0.33756020232145523 0.1153263116834876 0 -0.34461311131750749 0.095852597507079543 0 -0.33756020232145523 0.1153263116834876 0 -0.32799594049401232 0.092866100512025554 0 -0.3275628557273953 0.12543809845850201 0 -0.33739356488157107 0.13291326013319821 0 -0.33756020232145523 0.1153263116834876 0 -0.31137014296592769 0.13572592035616141 0 -0.31817001170144749 0.11104153437936071 0 -0.3275628557273953 0.12543809845850201 0 -0.33756020232145523 0.1153263116834876 0 -0.31817001170144749 0.11104153437936071 0 -0.31982162690177979 0.13097018294753851 0 -0.3275628557273953 0.12543809845850201 0 -0.31817001170144749 0.11104153437936071 0 -0.33756020232145523 0.1153263116834876 0 -0.31817001170144749 0.11104153437936071 0 -0.32799594049401232 0.092866100512025554 0 -0.30903411996307212 0.082759198348279522 0 -0.31817001170144749 0.11104153437936071 0 -0.32799594049401232 0.092866100512025554 0 -0.30903411996307212 0.082759198348279522 0 -0.32799594049401232 0.092866100512025554 0 -0.32423522421733281 0.071541023964305589 0 -0.30903411996307212 0.082759198348279522 0 -0.30975992535872698 0.055873485142201362 0 -0.32423522421733281 0.071541023964305589 0 -0.32674348856586682 0.054252434373979183 0 -0.32423522421733281 0.071541023964305589 0 -0.3416623527767958 0.063391945962103763 0 -0.32423522421733281 0.071541023964305589 0 -0.3416623527767958 0.063391945962103763 0 -0.33943799377804412 0.079951076388716041 0 -0.32799594049401232 0.092866100512025554 0 -0.32423522421733281 0.071541023964305589 0 -0.33943799377804412 0.079951076388716041 0 -0.34461311131750749 0.095852597507079543 0 -0.32799594049401232 0.092866100512025554 0 -0.33943799377804412 0.079951076388716041 0 -0.38830524089476059 0.5 0 -0.42781576128675852 0.48014604276213568 0 -0.4519051533490881 0.49315580710187717 0 -0.38830524089476059 0.5 0 -0.37963697716209971 0.4541265140826527 0 -0.403726369224429 0.46713627842239408 0 -0.37963697716209971 0.4541265140826527 0 -0.39140954535566452 0.43301324168735011 0 -0.36929455244857479 0.43135082847567241 0 -0.40598740546494999 0.44914490390186068 0 -0.41276164475155203 0.43156661701311749 0 -0.39140954535566452 0.43301324168735011 0 -0.37963697716209971 0.4541265140826527 0 -0.40598740546494999 0.44914490390186068 0 -0.39140954535566452 0.43301324168735011 0 -0.37963697716209971 0.4541265140826527 0 -0.40598740546494999 0.44914490390186068 0 -0.403726369224429 0.46713627842239408 0 -0.37963697716209971 0.4541265140826527 0 -0.403726369224429 0.46713627842239408 0 -0.40598740546494999 0.44914490390186068 0 -0.403726369224429 0.46713627842239408 0 -0.42132122051489812 0.46323361704318777 0 -0.40598740546494999 0.44914490390186068 0 -0.42132122051489812 0.46323361704318777 0 -0.42409437025086089 0.45011426877683652 0 -0.40598740546494999 0.44914490390186068 0 -0.42409437025086089 0.45011426877683652 0 -0.41276164475155203 0.43156661701311749 0 -0.42409437025086089 0.45011426877683652 0 -0.43117293119472377 0.43595336774235149 0 -0.41276164475155203 0.43156661701311749 0 -0.42409437025086089 0.45011426877683652 0 -0.43308404514538318 0.45670255615162669 0 -0.43838262330539302 0.44592972340270742 0 -0.42409437025086089 0.45011426877683652 0 -0.43838262330539302 0.44592972340270742 0 -0.43117293119472377 0.43595336774235149 0 -0.42132122051489812 0.46323361704318777 0 -0.42409437025086089 0.45011426877683652 0 -0.43308404514538318 0.45670255615162669 0 -0.42132122051489812 0.46323361704318777 0 -0.43308404514538318 0.45670255615162669 0 -0.43581755509282782 0.4690718048617426 0 -0.42132122051489812 0.46323361704318777 0 -0.42781576128675852 0.48014604276213568 0 -0.43581755509282782 0.4690718048617426 0 -0.38830524089476059 0.5 0 -0.403726369224429 0.46713627842239408 0 -0.42781576128675852 0.48014604276213568 0 -0.403726369224429 0.46713627842239408 0 -0.42132122051489812 0.46323361704318777 0 -0.42781576128675852 0.48014604276213568 0 -0.403726369224429 0.46713627842239408 0 -0.42781576128675852 0.48014604276213568 0 -0.38830524089476059 0.5 0 -0.4519051533490881 0.49315580710187717 0 -0.5 0.5 0 -0.42781576128675852 0.48014604276213568 0 -0.4519051533490881 0.49315580710187717 0 -0.42781576128675852 0.48014604276213568 0 -0.43581755509282782 0.4690718048617426 0 -0.4519051533490881 0.49315580710187717 0 -0.43581755509282782 0.4690718048617426 0 -0.4519051533490881 0.49315580710187717 0 -0.45535313796654547 0.47182320420591761 0 -0.4519051533490881 0.49315580710187717 0 -0.45535313796654547 0.47182320420591761 0 -0.47555152761737202 0.47496817171892342 0 -0.4519051533490881 0.49315580710187717 0 -0.5 0.5 0 -0.47555152761737202 0.47496817171892342 0 -0.5 0.5 0 -0.47555152761737202 0.47496817171892342 0 -0.49999999999999878 0.46220273850155019 0 -0.49999999999999878 0.46220273850155019 0 -0.47789567901652158 0.45172883349356358 0 -0.5 0.43650363489131871 0 -0.47789567901652158 0.45172883349356358 0 -0.47764594089094498 0.4346669585540216 0 -0.5 0.43650363489131871 0 -0.47555152761737202 0.47496817171892342 0 -0.49999999999999878 0.46220273850155019 0 -0.47789567901652158 0.45172883349356358 0 -0.49999999999999878 0.46220273850155019 0 -0.47789567901652158 0.45172883349356358 0 -0.47555152761737202 0.47496817171892342 0 -0.47789567901652158 0.45172883349356358 0 -0.46212024790951128 0.45770545885259711 0 -0.47789567901652158 0.45172883349356358 0 -0.45579135803304449 0.44125492848557663 0 -0.47764594089094498 0.4346669585540216 0 -0.47789567901652158 0.45172883349356358 0 -0.45579135803304449 0.44125492848557663 0 -0.47789567901652158 0.45172883349356358 0 -0.45579135803304449 0.44125492848557663 0 -0.46212024790951128 0.45770545885259711 0 -0.45579135803304449 0.44125492848557663 0 -0.46212024790951128 0.45770545885259711 0 -0.44580445656293621 0.4551633666736597 0 -0.45535313796654547 0.47182320420591761 0 -0.46212024790951128 0.45770545885259711 0 -0.44580445656293621 0.4551633666736597 0 -0.45535313796654547 0.47182320420591761 0 -0.47555152761737202 0.47496817171892342 0 -0.46212024790951128 0.45770545885259711 0 -0.43581755509282782 0.4690718048617426 0 -0.45535313796654547 0.47182320420591761 0 -0.44580445656293621 0.4551633666736597 0 -0.43308404514538318 0.45670255615162669 0 -0.43581755509282782 0.4690718048617426 0 -0.44580445656293621 0.4551633666736597 0 -0.43581755509282782 0.4690718048617426 0 -0.44580445656293621 0.4551633666736597 0 -0.45579135803304449 0.44125492848557663 0 -0.44580445656293621 0.4551633666736597 0 -0.43838262330539302 0.44592972340270742 0 -0.45579135803304449 0.44125492848557663 0 -0.43838262330539302 0.44592972340270742 0 -0.44517854724185552 0.43622615731555298 0 -0.45579135803304449 0.44125492848557663 0 -0.44517854724185552 0.43622615731555298 0 -0.45579135803304449 0.44125492848557663 0 -0.44580445656293621 0.4551633666736597 0 -0.43308404514538318 0.45670255615162669 0 -0.44580445656293621 0.4551633666736597 0 -0.43838262330539302 0.44592972340270742 0 -0.43838262330539302 0.44592972340270742 0 -0.44517854724185552 0.43622615731555298 0 -0.43117293119472377 0.43595336774235149 0 -0.44517854724185552 0.43622615731555298 0 -0.43990267673387151 0.42305013017422233 0 -0.43117293119472377 0.43595336774235149 0 -0.44517854724185552 0.43622615731555298 0 -0.43990267673387151 0.42305013017422233 0 -0.4547584439700017 0.42681867924293998 0 -0.45579135803304449 0.44125492848557663 0 -0.44517854724185552 0.43622615731555298 0 -0.4547584439700017 0.42681867924293998 0 -0.43990267673387151 0.42305013017422233 0 -0.44982701782296269 0.40808878695048711 0 -0.43166283265247751 0.40836839632387362 0 -0.43990267673387151 0.42305013017422233 0 -0.44982701782296269 0.40808878695048711 0 -0.4547584439700017 0.42681867924293998 0 -0.44982701782296269 0.40808878695048711 0 -0.4547584439700017 0.42681867924293998 0 -0.46925358163638942 0.42250652034099939 0 -0.44982701782296269 0.40808878695048711 0 -0.46925358163638942 0.42250652034099939 0 -0.4671740110085012 0.39891317197124759 0 -0.45579135803304449 0.44125492848557663 0 -0.46925358163638942 0.42250652034099939 0 -0.45579135803304449 0.44125492848557663 0 -0.4547584439700017 0.42681867924293998 0 -0.46925358163638942 0.42250652034099939 0 -0.45579135803304449 0.44125492848557663 0 -0.46925358163638942 0.42250652034099939 0 -0.47764594089094498 0.4346669585540216 0 -0.46925358163638942 0.42250652034099939 0 -0.47764594089094498 0.4346669585540216 0 -0.48528908576876961 0.42134087555864991 0 -0.46925358163638942 0.42250652034099939 0 -0.48271580523973429 0.4037581121964221 0 -0.46925358163638942 0.42250652034099939 0 -0.48271580523973429 0.4037581121964221 0 -0.4671740110085012 0.39891317197124759 0 -0.46925358163638942 0.42250652034099939 0 -0.48528908576876961 0.42134087555864991 0 -0.48271580523973429 0.4037581121964221 0 -0.5 0.41080453128108713 0 -0.48528908576876961 0.42134087555864991 0 -0.48271580523973429 0.4037581121964221 0 -0.5 0.41080453128108713 0 -0.48528908576876961 0.42134087555864991 0 -0.5 0.43650363489131871 0 -0.47764594089094498 0.4346669585540216 0 -0.48528908576876961 0.42134087555864991 0 -0.5 0.43650363489131871 0 -0.48493717005190617 0.38144576797543439 0 -0.49617802884307899 0.38500970405184481 0 -0.48177320924665618 0.39005445176345988 0 -0.48493717005190617 0.38144576797543439 0 -0.49617802884307899 0.38500970405184481 0 -0.48579421822578073 0.37037269557654418 0 -0.49617802884307899 0.38500970405184481 0 -0.5 0.38510542767085543 0 -0.48579421822578073 0.37037269557654418 0 -0.49617802884307899 0.38500970405184481 0 -0.48271580523973429 0.4037581121964221 0 -0.48177320924665618 0.39005445176345988 0 -0.5 0.41080453128108713 0 -0.49617802884307899 0.38500970405184481 0 -0.5 0.38510542767085543 0 -0.49617802884307899 0.38500970405184481 0 -0.48271580523973429 0.4037581121964221 0 -0.5 0.41080453128108713 0 -0.49617802884307899 0.38500970405184481 0 -0.48271580523973429 0.4037581121964221 0 -0.48271580523973429 0.4037581121964221 0 -0.48177320924665618 0.39005445176345988 0 -0.4671740110085012 0.39891317197124759 0 -0.48177320924665618 0.39005445176345988 0 -0.47261925711814512 0.38188817520076912 0 -0.4671740110085012 0.39891317197124759 0 -0.48493717005190617 0.38144576797543439 0 -0.48177320924665618 0.39005445176345988 0 -0.47261925711814512 0.38188817520076912 0 -0.48493717005190617 0.38144576797543439 0 -0.47261925711814512 0.38188817520076912 0 -0.48579421822578073 0.37037269557654418 0 -0.47261925711814512 0.38188817520076912 0 -0.45693113587696621 0.38479026710767339 0 -0.4671740110085012 0.39891317197124759 0 -0.47261925711814512 0.38188817520076912 0 -0.45693113587696621 0.38479026710767339 0 -0.46961029808907528 0.36760807201773998 0 -0.44982701782296269 0.40808878695048711 0 -0.45693113587696621 0.38479026710767339 0 -0.4671740110085012 0.39891317197124759 0 -0.44982701782296269 0.40808878695048711 0 -0.4355343043878383 0.38468574276256351 0 -0.43166283265247751 0.40836839632387362 0 -0.44982701782296269 0.40808878695048711 0 -0.45693113587696621 0.38479026710767339 0 -0.4355343043878383 0.38468574276256351 0 -0.45693113587696621 0.38479026710767339 0 -0.4355343043878383 0.38468574276256351 0 -0.45225933257685652 0.36441622912641369 0 -0.4355343043878383 0.38468574276256351 0 -0.41654335158796058 0.38358105630463551 0 -0.41973211336751431 0.39895385514191339 0 -0.4355343043878383 0.38468574276256351 0 -0.41654335158796058 0.38358105630463551 0 -0.42129496208114459 0.36817473734102107 0 -0.41654335158796058 0.38358105630463551 0 -0.40104824626358482 0.38803461412665469 0 -0.40435639930432499 0.37115672143930423 0 -0.41654335158796058 0.38358105630463551 0 -0.41973211336751431 0.39895385514191339 0 -0.40104824626358482 0.38803461412665469 0 -0.41973211336751431 0.39895385514191339 0 -0.39971306467292711 0.41067405524364631 0 -0.40104824626358482 0.38803461412665469 0 -0.4355343043878383 0.38468574276256351 0 -0.41973211336751431 0.39895385514191339 0 -0.43166283265247751 0.40836839632387362 0 -0.43990267673387151 0.42305013017422233 0 -0.43166283265247751 0.40836839632387362 0 -0.42681628752120832 0.42284539347012839 0 -0.43166283265247751 0.40836839632387362 0 -0.42681628752120832 0.42284539347012839 0 -0.41645628210480629 0.41438437956652768 0 -0.41973211336751431 0.39895385514191339 0 -0.43166283265247751 0.40836839632387362 0 -0.41645628210480629 0.41438437956652768 0 -0.43117293119472377 0.43595336774235149 0 -0.42681628752120832 0.42284539347012839 0 -0.41276164475155203 0.43156661701311749 0 -0.43990267673387151 0.42305013017422233 0 -0.43117293119472377 0.43595336774235149 0 -0.42681628752120832 0.42284539347012839 0 -0.42681628752120832 0.42284539347012839 0 -0.41276164475155203 0.43156661701311749 0 -0.41645628210480629 0.41438437956652768 0 -0.41973211336751431 0.39895385514191339 0 -0.41645628210480629 0.41438437956652768 0 -0.39971306467292711 0.41067405524364631 0 -0.41276164475155203 0.43156661701311749 0 -0.41645628210480629 0.41438437956652768 0 -0.39971306467292711 0.41067405524364631 0 -0.41276164475155203 0.43156661701311749 0 -0.39971306467292711 0.41067405524364631 0 -0.39140954535566452 0.43301324168735011 0 -0.39140954535566452 0.43301324168735011 0 -0.37892855983090351 0.41546047286650628 0 -0.36929455244857479 0.43135082847567241 0 -0.39971306467292711 0.41067405524364631 0 -0.39140954535566452 0.43301324168735011 0 -0.37892855983090351 0.41546047286650628 0 -0.39971306467292711 0.41067405524364631 0 -0.37892855983090351 0.41546047286650628 0 -0.37735698467441608 0.39094108417503548 0 -0.37735698467441608 0.39094108417503548 0 -0.40104824626358482 0.38803461412665469 0 -0.38719826167224358 0.36997120420820878 0 -0.37735698467441608 0.39094108417503548 0 -0.38719826167224358 0.36997120420820878 0 -0.37735698467441608 0.39094108417503548 0 -0.38719826167224358 0.36997120420820878 0 -0.36759721303204917 0.37071006471903623 0 -0.40104824626358482 0.38803461412665469 0 -0.40435639930432499 0.37115672143930423 0 -0.38719826167224358 0.36997120420820878 0 -0.39971306467292711 0.41067405524364631 0 -0.37735698467441608 0.39094108417503548 0 -0.40104824626358482 0.38803461412665469 0 -0.39703953867007108 0.34900132424138208 0 -0.40435639930432499 0.37115672143930423 0 -0.41701339428319378 0.34866222667725899 0 -0.39703953867007108 0.34900132424138208 0 -0.40435639930432499 0.37115672143930423 0 -0.38719826167224358 0.36997120420820878 0 -0.39703953867007108 0.34900132424138208 0 -0.38719826167224358 0.36997120420820878 0 -0.39703953867007108 0.34900132424138208 0 -0.38719826167224358 0.36997120420820878 0 -0.37872220416441532 0.36076967198077592 0 -0.38719826167224358 0.36997120420820878 0 -0.37872220416441532 0.36076967198077592 0 -0.36759721303204917 0.37071006471903623 0 -0.39703953867007108 0.34900132424138208 0 -0.37678853557995873 0.34903971913367238 0 -0.38089814111255049 0.33771150002866679 0 -0.39703953867007108 0.34900132424138208 0 -0.37872220416441532 0.36076967198077592 0 -0.37678853557995873 0.34903971913367238 0 -0.37678853557995873 0.34903971913367238 0 -0.38089814111255049 0.33771150002866679 0 -0.37023750895959479 0.34345501545807727 0 -0.39703953867007108 0.34900132424138208 0 -0.38089814111255049 0.33771150002866679 0 -0.39078580027250398 0.33012379474772191 0 -0.38089814111255049 0.33771150002866679 0 -0.3815561681182717 0.32969392325661878 0 -0.37022416026342669 0.33041124590188331 0 -0.38089814111255049 0.33771150002866679 0 -0.3815561681182717 0.32969392325661878 0 -0.39078580027250398 0.33012379474772191 0 -0.38450515667004931 0.32208011841518758 0 -0.38375541072461428 0.31116825099135909 0 -0.37022416026342669 0.33041124590188331 0 -0.38375541072461428 0.31116825099135909 0 -0.37022416026342669 0.33041124590188331 0 -0.38375541072461428 0.31116825099135909 0 -0.37432104135374927 0.31655916031734738 0 -0.37022416026342669 0.33041124590188331 0 -0.38375541072461428 0.31116825099135909 0 -0.37432104135374927 0.31655916031734738 0 -0.3815561681182717 0.32969392325661878 0 -0.38450515667004931 0.32208011841518758 0 -0.37022416026342669 0.33041124590188331 0 -0.3815561681182717 0.32969392325661878 0 -0.38450515667004931 0.32208011841518758 0 -0.39078580027250398 0.33012379474772191 0 -0.38450515667004931 0.32208011841518758 0 -0.39710945602955972 0.31644801429988101 0 -0.38375541072461428 0.31116825099135909 0 -0.39710945602955972 0.31644801429988101 0 -0.39078580027250398 0.33012379474772191 0 -0.40688081566789869 0.32803144427455522 0 -0.38450515667004931 0.32208011841518758 0 -0.39710945602955972 0.31644801429988101 0 -0.39078580027250398 0.33012379474772191 0 -0.39703953867007108 0.34900132424138208 0 -0.39078580027250398 0.33012379474772191 0 -0.40688081566789869 0.32803144427455522 0 -0.39703953867007108 0.34900132424138208 0 -0.40688081566789869 0.32803144427455522 0 -0.39703953867007108 0.34900132424138208 0 -0.40688081566789869 0.32803144427455522 0 -0.41701339428319378 0.34866222667725899 0 -0.40688081566789869 0.32803144427455522 0 -0.42524899674642852 0.32718680851450072 0 -0.41701339428319378 0.34866222667725899 0 -0.40688081566789869 0.32803144427455522 0 -0.41672209266572569 0.30706156430772819 0 -0.39710945602955972 0.31644801429988101 0 -0.40688081566789869 0.32803144427455522 0 -0.41672209266572569 0.30706156430772819 0 -0.40688081566789869 0.32803144427455522 0 -0.42524899674642852 0.32718680851450072 0 -0.41672209266572569 0.30706156430772819 0 -0.42524899674642852 0.32718680851450072 0 -0.4444813951104854 0.31594344968861349 0 -0.41672209266572569 0.30706156430772819 0 -0.42524899674642852 0.32718680851450072 0 -0.41701339428319378 0.34866222667725899 0 -0.43871347947984562 0.3417517600975386 0 -0.42524899674642852 0.32718680851450072 0 -0.43871347947984562 0.3417517600975386 0 -0.4444813951104854 0.31594344968861349 0 -0.41701339428319378 0.34866222667725899 0 -0.43529221347535091 0.36098094388568103 0 -0.43871347947984562 0.3417517600975386 0 -0.41701339428319378 0.34866222667725899 0 -0.42129496208114459 0.36817473734102107 0 -0.43529221347535091 0.36098094388568103 0 -0.41654335158796058 0.38358105630463551 0 -0.40435639930432499 0.37115672143930423 0 -0.42129496208114459 0.36817473734102107 0 -0.40435639930432499 0.37115672143930423 0 -0.41701339428319378 0.34866222667725899 0 -0.42129496208114459 0.36817473734102107 0 -0.4355343043878383 0.38468574276256351 0 -0.42129496208114459 0.36817473734102107 0 -0.43529221347535091 0.36098094388568103 0 -0.4355343043878383 0.38468574276256351 0 -0.43529221347535091 0.36098094388568103 0 -0.45225933257685652 0.36441622912641369 0 -0.45225933257685652 0.36441622912641369 0 -0.45590109850333932 0.33858293722190558 0 -0.43871347947984562 0.3417517600975386 0 -0.43529221347535091 0.36098094388568103 0 -0.45225933257685652 0.36441622912641369 0 -0.43871347947984562 0.3417517600975386 0 -0.45225933257685652 0.36441622912641369 0 -0.47274650988082889 0.35034659325925432 0 -0.45590109850333932 0.33858293722190558 0 -0.45225933257685652 0.36441622912641369 0 -0.46961029808907528 0.36760807201773998 0 -0.47274650988082889 0.35034659325925432 0 -0.45693113587696621 0.38479026710767339 0 -0.45225933257685652 0.36441622912641369 0 -0.46961029808907528 0.36760807201773998 0 -0.47261925711814512 0.38188817520076912 0 -0.46961029808907528 0.36760807201773998 0 -0.48579421822578073 0.37037269557654418 0 -0.46961029808907528 0.36760807201773998 0 -0.47274650988082889 0.35034659325925432 0 -0.48579421822578073 0.37037269557654418 0 -0.47274650988082889 0.35034659325925432 0 -0.5 0.35940632406062378 0 -0.50000000000000244 0.33370722045039219 0 -0.5 0.38510542767085543 0 -0.5 0.35940632406062378 0 -0.48579421822578073 0.37037269557654418 0 -0.47274650988082889 0.35034659325925432 0 -0.5 0.35940632406062378 0 -0.48579421822578073 0.37037269557654418 0 -0.50000000000000244 0.33370722045039219 0 -0.47224069755524412 0.32482533506950251 0 -0.5 0.30455079805259122 0 -0.50000000000000244 0.33370722045039219 0 -0.47224069755524412 0.32482533506950251 0 -0.47274650988082889 0.35034659325925432 0 -0.50000000000000244 0.33370722045039219 0 -0.47224069755524412 0.32482533506950251 0 -0.47224069755524412 0.32482533506950251 0 -0.4444813951104854 0.31594344968861349 0 -0.47224069755524412 0.32482533506950251 0 -0.45590109850333932 0.33858293722190558 0 -0.4444813951104854 0.31594344968861349 0 -0.47274650988082889 0.35034659325925432 0 -0.47224069755524412 0.32482533506950251 0 -0.45590109850333932 0.33858293722190558 0 -0.45590109850333932 0.33858293722190558 0 -0.43871347947984562 0.3417517600975386 0 -0.4444813951104854 0.31594344968861349 0 -0.4444813951104854 0.31594344968861349 0 -0.44411473529633311 0.28867733910599253 0 -0.42419937673766861 0.29112890135137542 0 -0.4444813951104854 0.31594344968861349 0 -0.44411473529633311 0.28867733910599253 0 -0.46065488868663262 0.29657360802835508 0 -0.44411473529633311 0.28867733910599253 0 -0.46065488868663262 0.29657360802835508 0 -0.45799162234892099 0.28231908240182879 0 -0.46065488868663262 0.29657360802835508 0 -0.45799162234892099 0.28231908240182879 0 -0.47630543496641248 0.28578638248531191 0 -0.47224069755524412 0.32482533506950251 0 -0.4444813951104854 0.31594344968861349 0 -0.46065488868663262 0.29657360802835508 0 -0.47224069755524412 0.32482533506950251 0 -0.47822848553436231 0.30411333074739011 0 -0.5 0.30455079805259122 0 -0.47224069755524412 0.32482533506950251 0 -0.46065488868663262 0.29657360802835508 0 -0.47822848553436231 0.30411333074739011 0 -0.46065488868663262 0.29657360802835508 0 -0.47822848553436231 0.30411333074739011 0 -0.47630543496641248 0.28578638248531191 0 -0.47630543496641248 0.28578638248531191 0 -0.5 0.30455079805259122 0 -0.5 0.27539437565479041 0 -0.47822848553436231 0.30411333074739011 0 -0.47630543496641248 0.28578638248531191 0 -0.5 0.30455079805259122 0 -0.5 0.24623795325698949 0 -0.5 0.27539437565479041 0 -0.48261351521979851 0.25705218881654102 0 -0.5 0.27539437565479041 0 -0.47607534545298602 0.26951384659625532 0 -0.48261351521979851 0.25705218881654102 0 -0.47630543496641248 0.28578638248531191 0 -0.5 0.27539437565479041 0 -0.47607534545298602 0.26951384659625532 0 -0.47630543496641248 0.28578638248531191 0 -0.47607534545298602 0.26951384659625532 0 -0.46202981492694722 0.26863997546131502 0 -0.47607534545298602 0.26951384659625532 0 -0.48261351521979851 0.25705218881654102 0 -0.46880019415069518 0.25173944969423673 0 -0.47607534545298602 0.26951384659625532 0 -0.46880019415069518 0.25173944969423673 0 -0.46202981492694722 0.26863997546131502 0 -0.45570992268827742 0.2559799207992467 0 -0.46202981492694722 0.26863997546131502 0 -0.44685323786827968 0.2719181069281697 0 -0.4606986096508312 0.2467586123431659 0 -0.46880019415069518 0.25173944969423673 0 -0.45570992268827742 0.2559799207992467 0 -0.46880019415069518 0.25173944969423673 0 -0.45570992268827742 0.2559799207992467 0 -0.46202981492694722 0.26863997546131502 0 -0.45799162234892099 0.28231908240182879 0 -0.47630543496641248 0.28578638248531191 0 -0.46202981492694722 0.26863997546131502 0 -0.46202981492694722 0.26863997546131502 0 -0.44685323786827968 0.2719181069281697 0 -0.45799162234892099 0.28231908240182879 0 -0.46202981492694722 0.26863997546131502 0 -0.44685323786827968 0.2719181069281697 0 -0.44411473529633311 0.28867733910599253 0 -0.45799162234892099 0.28231908240182879 0 -0.44685323786827968 0.2719181069281697 0 -0.44685323786827968 0.2719181069281697 0 -0.44104817166580329 0.25522734027280197 0 -0.43167666080961192 0.27519623839502277 0 -0.44411473529633311 0.28867733910599253 0 -0.44685323786827968 0.2719181069281697 0 -0.43167666080961192 0.27519623839502277 0 -0.44685323786827968 0.2719181069281697 0 -0.43167666080961192 0.27519623839502277 0 -0.45570992268827742 0.2559799207992467 0 -0.44685323786827968 0.2719181069281697 0 -0.44104817166580329 0.25522734027280197 0 -0.45304875956843632 0.24387139887288081 0 -0.45570992268827742 0.2559799207992467 0 -0.44104817166580329 0.25522734027280197 0 -0.43108664698666638 0.24385778762273441 0 -0.43000374755496701 0.25678178028455512 0 -0.43469525688392963 0.25062933138387528 0 -0.43000374755496701 0.25678178028455512 0 -0.41804233680469127 0.26240829743430188 0 -0.43167666080961192 0.27519623839502277 0 -0.44104817166580329 0.25522734027280197 0 -0.43000374755496701 0.25678178028455512 0 -0.43167666080961192 0.27519623839502277 0 -0.44104817166580329 0.25522734027280197 0 -0.43167666080961192 0.27519623839502277 0 -0.43108664698666638 0.24385778762273441 0 -0.43000374755496701 0.25678178028455512 0 -0.41804233680469127 0.26240829743430188 0 -0.4361266132271851 0.24545863334425669 0 -0.44104817166580329 0.25522734027280197 0 -0.43469525688392963 0.25062933138387528 0 -0.42994445814438281 0.2397645857074315 0 -0.41457209877524059 0.26098790974283598 0 -0.44104817166580329 0.25522734027280197 0 -0.43000374755496701 0.25678178028455512 0 -0.43469525688392963 0.25062933138387528 0 -0.43108664698666638 0.24385778762273441 0 -0.41804233680469127 0.26240829743430188 0 -0.41457209877524059 0.26098790974283598 0 -0.40800244746568659 0.25116761303474922 0 -0.39760401715780419 0.26373738729706497 0 -0.43108664698666638 0.24385778762273441 0 -0.41804233680469127 0.26240829743430188 0 -0.41457209877524059 0.26098790974283598 0 -0.41960010970278938 0.24891089497569449 0 -0.41457209877524059 0.26098790974283598 0 -0.40800244746568659 0.25116761303474922 0 -0.41804233680469127 0.26240829743430188 0 -0.41457209877524059 0.26098790974283598 0 -0.40499802662271761 0.28095880724587019 0 -0.41804233680469127 0.26240829743430188 0 -0.40499802662271761 0.28095880724587019 0 -0.43167666080961192 0.27519623839502277 0 -0.40499802662271761 0.28095880724587019 0 -0.41457209877524059 0.26098790974283598 0 -0.39919973940609482 0.28221123377823792 0 -0.41804233680469127 0.26240829743430188 0 -0.43167666080961192 0.27519623839502277 0 -0.40499802662271761 0.28095880724587019 0 -0.41457209877524059 0.26098790974283598 0 -0.39919973940609482 0.28221123377823792 0 -0.40499802662271761 0.28095880724587019 0 -0.43167666080961192 0.27519623839502277 0 -0.42419937673766861 0.29112890135137542 0 -0.44411473529633311 0.28867733910599253 0 -0.43167666080961192 0.27519623839502277 0 -0.42419937673766861 0.29112890135137542 0 -0.4444813951104854 0.31594344968861349 0 -0.42419937673766861 0.29112890135137542 0 -0.41672209266572569 0.30706156430772819 0 -0.4444813951104854 0.31594344968861349 0 -0.41672209266572569 0.30706156430772819 0 -0.41672209266572569 0.30706156430772819 0 -0.40019604602200998 0.30177387912972398 0 -0.41672209266572569 0.30706156430772819 0 -0.40019604602200998 0.30177387912972398 0 -0.40247361342501969 0.30047245039921527 0 -0.42419937673766861 0.29112890135137542 0 -0.41672209266572569 0.30706156430772819 0 -0.42419937673766861 0.29112890135137542 0 -0.41672209266572569 0.30706156430772819 0 -0.41244452780178492 0.29514371543444878 0 -0.41672209266572569 0.30706156430772819 0 -0.41244452780178492 0.29514371543444878 0 -0.40247361342501969 0.30047245039921527 0 -0.43167666080961192 0.27519623839502277 0 -0.42419937673766861 0.29112890135137542 0 -0.40499802662271761 0.28095880724587019 0 -0.42419937673766861 0.29112890135137542 0 -0.41244452780178492 0.29514371543444878 0 -0.40499802662271761 0.28095880724587019 0 -0.41244452780178492 0.29514371543444878 0 -0.40247361342501969 0.30047245039921527 0 -0.40499802662271761 0.28095880724587019 0 -0.39216763327938953 0.29920510270199308 0 -0.40499802662271761 0.28095880724587019 0 -0.39919973940609482 0.28221123377823792 0 -0.39216763327938953 0.29920510270199308 0 -0.38788365614645898 0.29783439845087228 0 -0.40247361342501969 0.30047245039921527 0 -0.39216763327938953 0.29920510270199308 0 -0.40499802662271761 0.28095880724587019 0 -0.39919973940609482 0.28221123377823792 0 -0.39216763327938953 0.29920510270199308 0 -0.40499802662271761 0.28095880724587019 0 -0.39919973940609482 0.28221123377823792 0 -0.40499802662271761 0.28095880724587019 0 -0.39919973940609482 0.28221123377823792 0 -0.38788365614645898 0.29783439845087228 0 -0.39919973940609482 0.28221123377823792 0 -0.38438729537800459 0.28541071273068591 0 -0.40019604602200998 0.30177387912972398 0 -0.38375541072461428 0.31116825099135909 0 -0.39710945602955972 0.31644801429988101 0 -0.40019604602200998 0.30177387912972398 0 -0.38375541072461428 0.31116825099135909 0 -0.39710945602955972 0.31644801429988101 0 -0.41672209266572569 0.30706156430772819 0 -0.40019604602200998 0.30177387912972398 0 -0.40019604602200998 0.30177387912972398 0 -0.39216763327938953 0.29920510270199308 0 -0.38375541072461428 0.31116825099135909 0 -0.40019604602200998 0.30177387912972398 0 -0.40247361342501969 0.30047245039921527 0 -0.40019604602200998 0.30177387912972398 0 -0.39216763327938953 0.29920510270199308 0 -0.40019604602200998 0.30177387912972398 0 -0.40247361342501969 0.30047245039921527 0 -0.39216763327938953 0.29920510270199308 0 -0.38375541072461428 0.31116825099135909 0 -0.38788365614645898 0.29783439845087228 0 -0.37432104135374927 0.31655916031734738 0 -0.38788365614645898 0.29783439845087228 0 -0.37257143863931169 0.30164768493009347 0 -0.37432104135374927 0.31655916031734738 0 -0.38788365614645898 0.29783439845087228 0 -0.37432104135374927 0.31655916031734738 0 -0.39216763327938953 0.29920510270199308 0 -0.38375541072461428 0.31116825099135909 0 -0.39216763327938953 0.29920510270199308 0 -0.38375541072461428 0.31116825099135909 0 -0.38788365614645898 0.29783439845087228 0 -0.39216763327938953 0.29920510270199308 0 -0.38788365614645898 0.29783439845087228 0 -0.39919973940609482 0.28221123377823792 0 -0.38788365614645898 0.29783439845087228 0 -0.38438729537800459 0.28541071273068591 0 -0.38788365614645898 0.29783439845087228 0 -0.38438729537800459 0.28541071273068591 0 -0.37416152146389853 0.28455482825184097 0 -0.38438729537800459 0.28541071273068591 0 -0.37440248222425798 0.27354885100524451 0 -0.37416152146389853 0.28455482825184097 0 -0.38438729537800459 0.28541071273068591 0 -0.38713471198790361 0.27174179537213322 0 -0.37440248222425798 0.27354885100524451 0 -0.38713471198790361 0.27174179537213322 0 -0.37596378635252209 0.25787488210020998 0 -0.37440248222425798 0.27354885100524451 0 -0.39919973940609482 0.28221123377823792 0 -0.38438729537800459 0.28541071273068591 0 -0.38713471198790361 0.27174179537213322 0 -0.38713471198790361 0.27174179537213322 0 -0.37596378635252209 0.25787488210020998 0 -0.38871945684062692 0.25591908779214351 0 -0.38153207996096372 0.2447317517231026 0 -0.37596378635252209 0.25787488210020998 0 -0.38871945684062692 0.25591908779214351 0 -0.38713471198790361 0.27174179537213322 0 -0.38871945684062692 0.25591908779214351 0 -0.39760401715780419 0.26373738729706497 0 -0.39671949383857702 0.2469029856130685 0 -0.38871945684062692 0.25591908779214351 0 -0.39760401715780419 0.26373738729706497 0 -0.39671949383857702 0.2469029856130685 0 -0.40800244746568659 0.25116761303474922 0 -0.39760401715780419 0.26373738729706497 0 -0.39919973940609482 0.28221123377823792 0 -0.38713471198790361 0.27174179537213322 0 -0.39760401715780419 0.26373738729706497 0 -0.41457209877524059 0.26098790974283598 0 -0.39919973940609482 0.28221123377823792 0 -0.39760401715780419 0.26373738729706497 0 -0.35109752312501719 0.2656753128641941 0 -0.3642139479920159 0.26405805001253763 0 -0.36213843628054559 0.27642889683052962 0 -0.34846125146091278 0.28113499967215538 0 -0.35109752312501719 0.2656753128641941 0 -0.36213843628054559 0.27642889683052962 0 -0.34846125146091278 0.28113499967215538 0 -0.35109752312501719 0.2656753128641941 0 -0.33871807737968218 0.26599861366734939 0 -0.35109752312501719 0.2656753128641941 0 -0.348387383022429 0.25398896176139241 0 -0.33871807737968218 0.26599861366734939 0 -0.35220065320425659 0.24999127972566529 0 -0.34412048827477831 0.25120949573040219 0 -0.348387383022429 0.25398896176139241 0 -0.34412048827477831 0.25120949573040219 0 -0.348387383022429 0.25398896176139241 0 -0.35220065320425659 0.24999127972566529 0 -0.348387383022429 0.25398896176139241 0 -0.35696276246410108 0.25602526228046041 0 -0.35220065320425659 0.24999127972566529 0 -0.36378674211593609 0.2470265393455075 0 -0.35696276246410108 0.25602526228046041 0 -0.35109752312501719 0.2656753128641941 0 -0.35696276246410108 0.25602526228046041 0 -0.3642139479920159 0.26405805001253763 0 -0.35109752312501719 0.2656753128641941 0 -0.348387383022429 0.25398896176139241 0 -0.35696276246410108 0.25602526228046041 0 -0.35696276246410108 0.25602526228046041 0 -0.3642139479920159 0.26405805001253763 0 -0.36523180973114378 0.25624618343467892 0 -0.37596378635252209 0.25787488210020998 0 -0.3642139479920159 0.26405805001253763 0 -0.37440248222425798 0.27354885100524451 0 -0.36378674211593609 0.2470265393455075 0 -0.35696276246410108 0.25602526228046041 0 -0.36523180973114378 0.25624618343467892 0 -0.36378674211593609 0.2470265393455075 0 -0.37596378635252209 0.25787488210020998 0 -0.36523180973114378 0.25624618343467892 0 -0.37596378635252209 0.25787488210020998 0 -0.3642139479920159 0.26405805001253763 0 -0.36523180973114378 0.25624618343467892 0 -0.3642139479920159 0.26405805001253763 0 -0.36213843628054559 0.27642889683052962 0 -0.37440248222425798 0.27354885100524451 0 -0.36213843628054559 0.27642889683052962 0 -0.37440248222425798 0.27354885100524451 0 -0.37416152146389853 0.28455482825184097 0 -0.38788365614645898 0.29783439845087228 0 -0.36199573729022638 0.28955128224187371 0 -0.37257143863931169 0.30164768493009347 0 -0.38788365614645898 0.29783439845087228 0 -0.36199573729022638 0.28955128224187371 0 -0.38788365614645898 0.29783439845087228 0 -0.37416152146389853 0.28455482825184097 0 -0.36199573729022638 0.28955128224187371 0 -0.36213843628054559 0.27642889683052962 0 -0.37416152146389853 0.28455482825184097 0 -0.36199573729022638 0.28955128224187371 0 -0.36199573729022638 0.28955128224187371 0 -0.37257143863931169 0.30164768493009347 0 -0.36141213112647402 0.30602569602505508 0 -0.37257143863931169 0.30164768493009347 0 -0.36141213112647402 0.30602569602505508 0 -0.37432104135374927 0.31655916031734738 0 -0.36199573729022638 0.28955128224187371 0 -0.36141213112647402 0.30602569602505508 0 -0.35178384347941882 0.29846974857690772 0 -0.36141213112647402 0.30602569602505508 0 -0.35222221862684472 0.31020775645575538 0 -0.35734821863655031 0.31599916803058947 0 -0.36141213112647402 0.30602569602505508 0 -0.35222221862684472 0.31020775645575538 0 -0.35178384347941882 0.29846974857690772 0 -0.35178384347941882 0.29846974857690772 0 -0.3408977493304689 0.29350214517966039 0 -0.34167778461943149 0.3079887209006823 0 -0.35222221862684472 0.31020775645575538 0 -0.34167778461943149 0.3079887209006823 0 -0.34724359558122542 0.31762791645631783 0 -0.35222221862684472 0.31020775645575538 0 -0.35178384347941882 0.29846974857690772 0 -0.34167778461943149 0.3079887209006823 0 -0.34846125146091278 0.28113499967215538 0 -0.35178384347941882 0.29846974857690772 0 -0.3408977493304689 0.29350214517966039 0 -0.34846125146091278 0.28113499967215538 0 -0.36199573729022638 0.28955128224187371 0 -0.35178384347941882 0.29846974857690772 0 -0.34846125146091278 0.28113499967215538 0 -0.36213843628054559 0.27642889683052962 0 -0.36199573729022638 0.28955128224187371 0 -0.32420518991501429 0.30572769175643522 0 -0.33331566648458932 0.28078773160429787 0 -0.3408977493304689 0.29350214517966039 0 -0.33331566648458932 0.28078773160429787 0 -0.3408977493304689 0.29350214517966039 0 -0.32420518991501429 0.30572769175643522 0 -0.33331566648458932 0.28078773160429787 0 -0.34846125146091278 0.28113499967215538 0 -0.3408977493304689 0.29350214517966039 0 -0.33331566648458932 0.28078773160429787 0 -0.3408977493304689 0.29350214517966039 0 -0.34167778461943149 0.3079887209006823 0 -0.32420518991501429 0.30572769175643522 0 -0.34167778461943149 0.3079887209006823 0 -0.32420518991501429 0.30572769175643522 0 -0.33388499945798311 0.32290058417175083 0 -0.32420518991501429 0.30572769175643522 0 -0.31506610354108072 0.29394266944879782 0 -0.30866295761277263 0.31125440222161438 0 -0.32420518991501429 0.30572769175643522 0 -0.31506610354108072 0.29394266944879782 0 -0.33331566648458932 0.28078773160429787 0 -0.31506610354108072 0.29394266944879782 0 -0.33331566648458932 0.28078773160429787 0 -0.31150090665063151 0.27858300818318121 0 -0.33331566648458932 0.28078773160429787 0 -0.32141607343252149 0.26083327442965071 0 -0.31150090665063151 0.27858300818318121 0 -0.33331566648458932 0.28078773160429787 0 -0.32141607343252149 0.26083327442965071 0 -0.33331566648458932 0.28078773160429787 0 -0.33871807737968218 0.26599861366734939 0 -0.32141607343252149 0.26083327442965071 0 -0.33331566648458932 0.28078773160429787 0 -0.33871807737968218 0.26599861366734939 0 -0.34846125146091278 0.28113499967215538 0 -0.33331566648458932 0.28078773160429787 0 -0.33871807737968218 0.26599861366734939 0 -0.33871807737968218 0.26599861366734939 0 -0.32772294389005391 0.25109503919567761 0 -0.32141607343252149 0.26083327442965071 0 -0.34412048827477831 0.25120949573040219 0 -0.33871807737968218 0.26599861366734939 0 -0.32772294389005391 0.25109503919567761 0 -0.34412048827477831 0.25120949573040219 0 -0.348387383022429 0.25398896176139241 0 -0.33871807737968218 0.26599861366734939 0 -0.34412048827477831 0.25120949573040219 0 -0.33871807737968218 0.26599861366734939 0 -0.31556053223240471 0.2427184408752304 0 -0.32772294389005391 0.25109503919567761 0 -0.32141607343252149 0.26083327442965071 0 -0.30951648038044849 0.24087881725500659 0 -0.32141607343252149 0.26083327442965071 0 -0.29940802815127748 0.24907826666049679 0 -0.32141607343252149 0.26083327442965071 0 -0.29944806004686558 0.26433728186756622 0 -0.29940802815127748 0.24907826666049679 0 -0.30951648038044849 0.24087881725500659 0 -0.32141607343252149 0.26083327442965071 0 -0.32141607343252149 0.26083327442965071 0 -0.29944806004686558 0.26433728186756622 0 -0.31150090665063151 0.27858300818318121 0 -0.29944806004686558 0.26433728186756622 0 -0.31150090665063151 0.27858300818318121 0 -0.2971353323518019 0.27871793833344027 0 -0.2971353323518019 0.27871793833344027 0 -0.28003344452450829 0.27214131606633618 0 -0.28797650764944133 0.28916286695827198 0 -0.29944806004686558 0.26433728186756622 0 -0.2971353323518019 0.27871793833344027 0 -0.28003344452450829 0.27214131606633618 0 -0.28650837652995048 0.2473431110274103 0 -0.28003344452450829 0.27214131606633618 0 -0.28650837652995048 0.2473431110274103 0 -0.29944806004686558 0.26433728186756622 0 -0.28003344452450829 0.27214131606633618 0 -0.28650837652995048 0.2473431110274103 0 -0.29940802815127748 0.24907826666049679 0 -0.29944806004686558 0.26433728186756622 0 -0.28650837652995048 0.2473431110274103 0 -0.26746969881204902 0.25764483835000601 0 -0.28003344452450829 0.27214131606633618 0 -0.26746969881204902 0.25764483835000601 0 -0.28003344452450829 0.27214131606633618 0 -0.2656276850436195 0.27596536321284532 0 -0.28003344452450829 0.27214131606633618 0 -0.2656276850436195 0.27596536321284532 0 -0.26583437068794658 0.2908686019160393 0 -0.26746969881204902 0.25764483835000601 0 -0.2656276850436195 0.27596536321284532 0 -0.2498943307853857 0.27313514927493482 0 -0.2656276850436195 0.27596536321284532 0 -0.26583437068794658 0.2908686019160393 0 -0.2498943307853857 0.27313514927493482 0 -0.25466517866705962 0.2551558687183289 0 -0.24565678637246771 0.25432931140221188 0 -0.2498943307853857 0.27313514927493482 0 -0.26746969881204902 0.25764483835000601 0 -0.25466517866705962 0.2551558687183289 0 -0.2498943307853857 0.27313514927493482 0 -0.25355414777238738 0.24563073474758021 0 -0.25466517866705962 0.2551558687183289 0 -0.24565678637246771 0.25432931140221188 0 -0.25355414777238738 0.24563073474758021 0 -0.26012650635371831 0.24996441057044549 0 -0.25466517866705962 0.2551558687183289 0 -0.26012650635371831 0.24996441057044549 0 -0.26746969881204902 0.25764483835000601 0 -0.25466517866705962 0.2551558687183289 0 -0.26012650635371831 0.24996441057044549 0 -0.26639366242262502 0.243276445954381 0 -0.26746969881204902 0.25764483835000601 0 -0.25209251067084948 0.30983878725335651 0 -0.26586092560629598 0.30248932104900722 0 -0.26996891648945959 0.31689112501850358 0 -0.25209251067084948 0.30983878725335651 0 -0.2556824143928022 0.29450383255318441 0 -0.24425620720258351 0.292958432891613 0 -0.25209251067084948 0.30983878725335651 0 -0.2556824143928022 0.29450383255318441 0 -0.26586092560629598 0.30248932104900722 0 -0.26583437068794658 0.2908686019160393 0 -0.2498943307853857 0.27313514927493482 0 -0.2556824143928022 0.29450383255318441 0 -0.26583437068794658 0.2908686019160393 0 -0.2498943307853857 0.27313514927493482 0 -0.2556824143928022 0.29450383255318441 0 -0.26583437068794658 0.2908686019160393 0 -0.26586092560629598 0.30248932104900722 0 -0.28003344452450829 0.27214131606633618 0 -0.27355851251906599 0.29693952110526212 0 -0.28003344452450829 0.27214131606633618 0 -0.27355851251906599 0.29693952110526212 0 -0.28797650764944133 0.28916286695827198 0 -0.28003344452450829 0.27214131606633618 0 -0.26583437068794658 0.2908686019160393 0 -0.27355851251906599 0.29693952110526212 0 -0.26583437068794658 0.2908686019160393 0 -0.27355851251906599 0.29693952110526212 0 -0.26586092560629598 0.30248932104900722 0 -0.27355851251906599 0.29693952110526212 0 -0.27750896366170041 0.30717503642525251 0 -0.28773495946894689 0.30345305531216688 0 -0.27355851251906599 0.29693952110526212 0 -0.26586092560629598 0.30248932104900722 0 -0.27750896366170041 0.30717503642525251 0 -0.26586092560629598 0.30248932104900722 0 -0.27750896366170041 0.30717503642525251 0 -0.26996891648945959 0.31689112501850358 0 -0.27750896366170041 0.30717503642525251 0 -0.28773495946894689 0.30345305531216688 0 -0.28938177379282831 0.31866411559643287 0 -0.28773495946894689 0.30345305531216688 0 -0.30073409074238061 0.29523572746927262 0 -0.29717928307864239 0.30982778455149468 0 -0.28773495946894689 0.30345305531216688 0 -0.29717928307864239 0.30982778455149468 0 -0.28938177379282831 0.31866411559643287 0 -0.2971353323518019 0.27871793833344027 0 -0.28797650764944133 0.28916286695827198 0 -0.30073409074238061 0.29523572746927262 0 -0.27355851251906599 0.29693952110526212 0 -0.28773495946894689 0.30345305531216688 0 -0.28797650764944133 0.28916286695827198 0 -0.28773495946894689 0.30345305531216688 0 -0.28797650764944133 0.28916286695827198 0 -0.30073409074238061 0.29523572746927262 0 -0.31506610354108072 0.29394266944879782 0 -0.31150090665063151 0.27858300818318121 0 -0.30073409074238061 0.29523572746927262 0 -0.31150090665063151 0.27858300818318121 0 -0.2971353323518019 0.27871793833344027 0 -0.30073409074238061 0.29523572746927262 0 -0.31506610354108072 0.29394266944879782 0 -0.30073409074238061 0.29523572746927262 0 -0.30866295761277263 0.31125440222161438 0 -0.30073409074238061 0.29523572746927262 0 -0.29717928307864239 0.30982778455149468 0 -0.30866295761277263 0.31125440222161438 0 -0.30866295761277263 0.31125440222161438 0 -0.30161175327739059 0.32356947622827631 0 -0.31509471334544292 0.33066765190857378 0 -0.29717928307864239 0.30982778455149468 0 -0.30866295761277263 0.31125440222161438 0 -0.30161175327739059 0.32356947622827631 0 -0.297316816078119 0.33660871341807319 0 -0.30594725555961039 0.35564812359143899 0 -0.31509471334544292 0.33066765190857378 0 -0.30161175327739059 0.32356947622827631 0 -0.297316816078119 0.33660871341807319 0 -0.31509471334544292 0.33066765190857378 0 -0.30594725555961039 0.35564812359143899 0 -0.31509471334544292 0.33066765190857378 0 -0.297316816078119 0.33660871341807319 0 -0.27842771169941272 0.32971404272246202 0 -0.2823964692161044 0.34525016335444952 0 -0.297316816078119 0.33660871341807319 0 -0.28938177379282831 0.31866411559643287 0 -0.27842771169941272 0.32971404272246202 0 -0.30161175327739059 0.32356947622827631 0 -0.297316816078119 0.33660871341807319 0 -0.28938177379282831 0.31866411559643287 0 -0.29717928307864239 0.30982778455149468 0 -0.30161175327739059 0.32356947622827631 0 -0.28938177379282831 0.31866411559643287 0 -0.28938177379282831 0.31866411559643287 0 -0.26996891648945959 0.31689112501850358 0 -0.27842771169941272 0.32971404272246202 0 -0.27750896366170041 0.30717503642525251 0 -0.28938177379282831 0.31866411559643287 0 -0.26996891648945959 0.31689112501850358 0 -0.26996891648945959 0.31689112501850358 0 -0.27842771169941272 0.32971404272246202 0 -0.25888266408886079 0.33481169158673002 0 -0.27842771169941272 0.32971404272246202 0 -0.25888266408886079 0.33481169158673002 0 -0.2823964692161044 0.34525016335444952 0 -0.25888266408886079 0.33481169158673002 0 -0.2823964692161044 0.34525016335444952 0 -0.25209251067084948 0.30983878725335651 0 -0.26996891648945959 0.31689112501850358 0 -0.25888266408886079 0.33481169158673002 0 -0.25801636075578011 0.36597590002421032 0 -0.27311383260625288 0.36863091072770088 0 -0.25125573985850302 0.38688011717805648 0 -0.25888266408886079 0.33481169158673002 0 -0.26471938503857562 0.35180278336054988 0 -0.24775099256547911 0.35500491509708137 0 -0.25801636075578011 0.36597590002421032 0 -0.26471938503857562 0.35180278336054988 0 -0.24775099256547911 0.35500491509708137 0 -0.25801636075578011 0.36597590002421032 0 -0.26471938503857562 0.35180278336054988 0 -0.27295014926074201 0.35986702621101452 0 -0.26471938503857562 0.35180278336054988 0 -0.27295014926074201 0.35986702621101452 0 -0.2823964692161044 0.34525016335444952 0 -0.25888266408886079 0.33481169158673002 0 -0.26471938503857562 0.35180278336054988 0 -0.2823964692161044 0.34525016335444952 0 -0.27295014926074201 0.35986702621101452 0 -0.2813758053383339 0.36077803709551548 0 -0.2823964692161044 0.34525016335444952 0 -0.27926183473145888 0.36502370441747661 0 -0.27295014926074201 0.35986702621101452 0 -0.27311383260625288 0.36863091072770088 0 -0.27926183473145888 0.36502370441747661 0 -0.27295014926074201 0.35986702621101452 0 -0.2813758053383339 0.36077803709551548 0 -0.25801636075578011 0.36597590002421032 0 -0.27295014926074201 0.35986702621101452 0 -0.27311383260625288 0.36863091072770088 0 -0.27311383260625288 0.36863091072770088 0 -0.2772817316506464 0.37200856017672479 0 -0.27926183473145888 0.36502370441747661 0 -0.27311383260625288 0.36863091072770088 0 -0.2772817316506464 0.37200856017672479 0 -0.2772817316506464 0.37200856017672479 0 -0.2915876548013191 0.3638339878764269 0 -0.2772817316506464 0.37200856017672479 0 -0.2915876548013191 0.3638339878764269 0 -0.29497297720334231 0.37449626856593538 0 -0.27926183473145888 0.36502370441747661 0 -0.2772817316506464 0.37200856017672479 0 -0.2915876548013191 0.3638339878764269 0 -0.27926183473145888 0.36502370441747661 0 -0.2813758053383339 0.36077803709551548 0 -0.2915876548013191 0.3638339878764269 0 -0.2915876548013191 0.3638339878764269 0 -0.29497297720334231 0.37449626856593538 0 -0.30126798772675678 0.36851835964392188 0 -0.2813758053383339 0.36077803709551548 0 -0.2915876548013191 0.3638339878764269 0 -0.2823964692161044 0.34525016335444952 0 -0.2823964692161044 0.34525016335444952 0 -0.30594725555961039 0.35564812359143899 0 -0.2915876548013191 0.3638339878764269 0 -0.2823964692161044 0.34525016335444952 0 -0.30594725555961039 0.35564812359143899 0 -0.297316816078119 0.33660871341807319 0 -0.2823964692161044 0.34525016335444952 0 -0.30594725555961039 0.35564812359143899 0 -0.29497297720334231 0.37449626856593538 0 -0.30126798772675678 0.36851835964392188 0 -0.30931136752389798 0.38141581627294469 0 -0.2915876548013191 0.3638339878764269 0 -0.30594725555961039 0.35564812359143899 0 -0.2915876548013191 0.3638339878764269 0 -0.30594725555961039 0.35564812359143899 0 -0.30126798772675678 0.36851835964392188 0 -0.30594725555961039 0.35564812359143899 0 -0.30126798772675678 0.36851835964392188 0 -0.30594725555961039 0.35564812359143899 0 -0.30819030827110749 0.36600674540273792 0 -0.31585867615776753 0.36722946273718382 0 -0.30594725555961039 0.35564812359143899 0 -0.30126798772675678 0.36851835964392188 0 -0.30819030827110749 0.36600674540273792 0 -0.30126798772675678 0.36851835964392188 0 -0.31020383195356771 0.37247449390141468 0 -0.30931136752389798 0.38141581627294469 0 -0.30819030827110749 0.36600674540273792 0 -0.31020383195356771 0.37247449390141468 0 -0.31585867615776753 0.36722946273718382 0 -0.30126798772675678 0.36851835964392188 0 -0.30819030827110749 0.36600674540273792 0 -0.31020383195356771 0.37247449390141468 0 -0.31585867615776753 0.36722946273718382 0 -0.33156561067617563 0.36707779576853689 0 -0.32372951228327712 0.37697794045109623 0 -0.31020383195356771 0.37247449390141468 0 -0.31585867615776753 0.36722946273718382 0 -0.32372951228327712 0.37697794045109623 0 -0.30594725555961039 0.35564812359143899 0 -0.31585867615776753 0.36722946273718382 0 -0.33156561067617563 0.36707779576853689 0 -0.30594725555961039 0.35564812359143899 0 -0.33156561067617563 0.36707779576853689 0 -0.32263576794191229 0.35569627281181082 0 -0.30594725555961039 0.35564812359143899 0 -0.33156561067617563 0.36707779576853689 0 -0.33788559484865172 0.36686251772548423 0 -0.34316165934105108 0.36889723572293143 0 -0.3500307436836837 0.35009473192277152 0 -0.33156561067617563 0.36707779576853689 0 -0.33788559484865172 0.36686251772548423 0 -0.32372951228327712 0.37697794045109623 0 -0.33788559484865172 0.36686251772548423 0 -0.34316165934105108 0.36889723572293143 0 -0.32963040887986328 0.38814023063345532 0 -0.33156561067617563 0.36707779576853689 0 -0.33367983391109129 0.36048348908238442 0 -0.32263576794191229 0.35569627281181082 0 -0.33156561067617563 0.36707779576853689 0 -0.33367983391109129 0.36048348908238442 0 -0.33788559484865172 0.36686251772548423 0 -0.33367983391109129 0.36048348908238442 0 -0.33788559484865172 0.36686251772548423 0 -0.33691525335732708 0.35337733936211768 0 -0.33788559484865172 0.36686251772548423 0 -0.33691525335732708 0.35337733936211768 0 -0.3500307436836837 0.35009473192277152 0 -0.33691525335732708 0.35337733936211768 0 -0.32876317163516422 0.34259146147959119 0 -0.3500307436836837 0.35009473192277152 0 -0.33367983391109129 0.36048348908238442 0 -0.33691525335732708 0.35337733936211768 0 -0.32263576794191229 0.35569627281181082 0 -0.33691525335732708 0.35337733936211768 0 -0.32263576794191229 0.35569627281181082 0 -0.32876317163516422 0.34259146147959119 0 -0.30594725555961039 0.35564812359143899 0 -0.32263576794191229 0.35569627281181082 0 -0.32876317163516422 0.34259146147959119 0 -0.30594725555961039 0.35564812359143899 0 -0.32876317163516422 0.34259146147959119 0 -0.30594725555961039 0.35564812359143899 0 -0.31509471334544292 0.33066765190857378 0 -0.32876317163516422 0.34259146147959119 0 -0.31509471334544292 0.33066765190857378 0 -0.33388499945798311 0.32290058417175083 0 -0.32876317163516422 0.34259146147959119 0 -0.32420518991501429 0.30572769175643522 0 -0.31509471334544292 0.33066765190857378 0 -0.32420518991501429 0.30572769175643522 0 -0.30866295761277263 0.31125440222161438 0 -0.31509471334544292 0.33066765190857378 0 -0.32420518991501429 0.30572769175643522 0 -0.31509471334544292 0.33066765190857378 0 -0.33388499945798311 0.32290058417175083 0 -0.34167778461943149 0.3079887209006823 0 -0.33388499945798311 0.32290058417175083 0 -0.34724359558122542 0.31762791645631783 0 -0.32876317163516422 0.34259146147959119 0 -0.35154210649445722 0.32957531089847009 0 -0.3500307436836837 0.35009473192277152 0 -0.33388499945798311 0.32290058417175083 0 -0.32876317163516422 0.34259146147959119 0 -0.35154210649445722 0.32957531089847009 0 -0.32876317163516422 0.34259146147959119 0 -0.35154210649445722 0.32957531089847009 0 -0.36217589251871563 0.33332694612005892 0 -0.3500307436836837 0.35009473192277152 0 -0.35154210649445722 0.32957531089847009 0 -0.36217589251871563 0.33332694612005892 0 -0.3500307436836837 0.35009473192277152 0 -0.33388499945798311 0.32290058417175083 0 -0.35154210649445722 0.32957531089847009 0 -0.34724359558122542 0.31762791645631783 0 -0.35154210649445722 0.32957531089847009 0 -0.34724359558122542 0.31762791645631783 0 -0.35734821863655031 0.31599916803058947 0 -0.35222221862684472 0.31020775645575538 0 -0.34724359558122542 0.31762791645631783 0 -0.35734821863655031 0.31599916803058947 0 -0.35154210649445722 0.32957531089847009 0 -0.37432104135374927 0.31655916031734738 0 -0.36217589251871563 0.33332694612005892 0 -0.35154210649445722 0.32957531089847009 0 -0.37432104135374927 0.31655916031734738 0 -0.36141213112647402 0.30602569602505508 0 -0.35734821863655031 0.31599916803058947 0 -0.37432104135374927 0.31655916031734738 0 -0.35154210649445722 0.32957531089847009 0 -0.35734821863655031 0.31599916803058947 0 -0.37432104135374927 0.31655916031734738 0 -0.37432104135374927 0.31655916031734738 0 -0.36217589251871563 0.33332694612005892 0 -0.37432104135374927 0.31655916031734738 0 -0.36217589251871563 0.33332694612005892 0 -0.37022416026342669 0.33041124590188331 0 -0.37022416026342669 0.33041124590188331 0 -0.37023750895959479 0.34345501545807727 0 -0.35669290980223889 0.34965424081240742 0 -0.37022416026342669 0.33041124590188331 0 -0.35669290980223889 0.34965424081240742 0 -0.36217589251871563 0.33332694612005892 0 -0.37022416026342669 0.33041124590188331 0 -0.35669290980223889 0.34965424081240742 0 -0.38089814111255049 0.33771150002866679 0 -0.37022416026342669 0.33041124590188331 0 -0.37023750895959479 0.34345501545807727 0 -0.37678853557995873 0.34903971913367238 0 -0.37023750895959479 0.34345501545807727 0 -0.36658379803979868 0.35045837141375641 0 -0.37023750895959479 0.34345501545807727 0 -0.36658379803979868 0.35045837141375641 0 -0.35669290980223889 0.34965424081240742 0 -0.36658379803979868 0.35045837141375641 0 -0.36187870758255752 0.35672149192930258 0 -0.35669290980223889 0.34965424081240742 0 -0.36658379803979868 0.35045837141375641 0 -0.36187870758255752 0.35672149192930258 0 -0.36857252188203582 0.3579593029613975 0 -0.37872220416441532 0.36076967198077592 0 -0.37678853557995873 0.34903971913367238 0 -0.36857252188203582 0.3579593029613975 0 -0.37678853557995873 0.34903971913367238 0 -0.36658379803979868 0.35045837141375641 0 -0.36857252188203582 0.3579593029613975 0 -0.37872220416441532 0.36076967198077592 0 -0.36857252188203582 0.3579593029613975 0 -0.36759721303204917 0.37071006471903623 0 -0.36759721303204917 0.37071006471903623 0 -0.36174009891689651 0.36441780749702168 0 -0.35549846059536649 0.37426378437646263 0 -0.36857252188203582 0.3579593029613975 0 -0.36759721303204917 0.37071006471903623 0 -0.36174009891689651 0.36441780749702168 0 -0.36187870758255752 0.35672149192930258 0 -0.36857252188203582 0.3579593029613975 0 -0.36174009891689651 0.36441780749702168 0 -0.36187870758255752 0.35672149192930258 0 -0.36174009891689651 0.36441780749702168 0 -0.35515359149247311 0.3624343934989096 0 -0.34316165934105108 0.36889723572293143 0 -0.35515359149247311 0.3624343934989096 0 -0.35669290980223889 0.34965424081240742 0 -0.36174009891689651 0.36441780749702168 0 -0.35515359149247311 0.3624343934989096 0 -0.35549846059536649 0.37426378437646263 0 -0.34316165934105108 0.36889723572293143 0 -0.35515359149247311 0.3624343934989096 0 -0.35549846059536649 0.37426378437646263 0 -0.34316165934105108 0.36889723572293143 0 -0.35669290980223889 0.34965424081240742 0 -0.34316165934105108 0.36889723572293143 0 -0.3500307436836837 0.35009473192277152 0 -0.35669290980223889 0.34965424081240742 0 -0.36217589251871563 0.33332694612005892 0 -0.3500307436836837 0.35009473192277152 0 -0.35669290980223889 0.34965424081240742 0 -0.33788559484865172 0.36686251772548423 0 -0.3500307436836837 0.35009473192277152 0 -0.36187870758255752 0.35672149192930258 0 -0.35515359149247311 0.3624343934989096 0 -0.35669290980223889 0.34965424081240742 0 -0.3441265506172182 0.38372643659165162 0 -0.35312766050458733 0.39028404457668953 0 -0.3402972356931161 0.40106918488740012 0 -0.35312766050458733 0.39028404457668953 0 -0.35953565335401849 0.41119683984087868 0 -0.3402972356931161 0.40106918488740012 0 -0.35549846059536649 0.37426378437646263 0 -0.35312766050458733 0.39028404457668953 0 -0.3634173907719726 0.38187962123995212 0 -0.35549846059536649 0.37426378437646263 0 -0.3441265506172182 0.38372643659165162 0 -0.35312766050458733 0.39028404457668953 0 -0.34316165934105108 0.36889723572293143 0 -0.35549846059536649 0.37426378437646263 0 -0.3441265506172182 0.38372643659165162 0 -0.37735698467441608 0.39094108417503548 0 -0.35312766050458733 0.39028404457668953 0 -0.3634173907719726 0.38187962123995212 0 -0.37735698467441608 0.39094108417503548 0 -0.36759721303204917 0.37071006471903623 0 -0.3634173907719726 0.38187962123995212 0 -0.36759721303204917 0.37071006471903623 0 -0.35549846059536649 0.37426378437646263 0 -0.3634173907719726 0.38187962123995212 0 -0.37735698467441608 0.39094108417503548 0 -0.35312766050458733 0.39028404457668953 0 -0.35953565335401849 0.41119683984087868 0 -0.37892855983090351 0.41546047286650628 0 -0.37735698467441608 0.39094108417503548 0 -0.35953565335401849 0.41119683984087868 0 -0.37892855983090351 0.41546047286650628 0 -0.35953565335401849 0.41119683984087868 0 -0.36929455244857479 0.43135082847567241 0 -0.35953565335401849 0.41119683984087868 0 -0.36929455244857479 0.43135082847567241 0 -0.34981938230441761 0.43079279490846728 0 -0.36929455244857479 0.43135082847567241 0 -0.34981938230441761 0.43079279490846728 0 -0.35554758509977019 0.44111674974291132 0 -0.35953565335401849 0.41119683984087868 0 -0.34616007555570988 0.4167716102131292 0 -0.3402972356931161 0.40106918488740012 0 -0.35953565335401849 0.41119683984087868 0 -0.34981938230441761 0.43079279490846728 0 -0.34616007555570988 0.4167716102131292 0 -0.34616007555570988 0.4167716102131292 0 -0.33168496964097538 0.41609673622553089 0 -0.3402972356931161 0.40106918488740012 0 -0.34981938230441761 0.43079279490846728 0 -0.34616007555570988 0.4167716102131292 0 -0.33168496964097538 0.41609673622553089 0 -0.33168496964097538 0.41609673622553089 0 -0.33754682568267891 0.43229418330541602 0 -0.32717553709509611 0.44013143445449499 0 -0.34981938230441761 0.43079279490846728 0 -0.33168496964097538 0.41609673622553089 0 -0.34981938230441761 0.43079279490846728 0 -0.33168496964097538 0.41609673622553089 0 -0.33754682568267891 0.43229418330541602 0 -0.34981938230441761 0.43079279490846728 0 -0.33754682568267891 0.43229418330541602 0 -0.34150741369022658 0.44215576763317072 0 -0.33168496964097538 0.41609673622553089 0 -0.30488102026893282 0.42949982592955688 0 -0.32717553709509611 0.44013143445449499 0 -0.33168496964097538 0.41609673622553089 0 -0.31355055697753331 0.40140067754259467 0 -0.30488102026893282 0.42949982592955688 0 -0.33168496964097538 0.41609673622553089 0 -0.31355055697753331 0.40140067754259467 0 -0.31355055697753331 0.40140067754259467 0 -0.3402972356931161 0.40106918488740012 0 -0.32963040887986328 0.38814023063345532 0 -0.3441265506172182 0.38372643659165162 0 -0.3402972356931161 0.40106918488740012 0 -0.32963040887986328 0.38814023063345532 0 -0.33168496964097538 0.41609673622553089 0 -0.31355055697753331 0.40140067754259467 0 -0.3402972356931161 0.40106918488740012 0 -0.33788559484865172 0.36686251772548423 0 -0.32963040887986328 0.38814023063345532 0 -0.32372951228327712 0.37697794045109623 0 -0.34316165934105108 0.36889723572293143 0 -0.3441265506172182 0.38372643659165162 0 -0.32963040887986328 0.38814023063345532 0 -0.34316165934105108 0.36889723572293143 0 -0.32963040887986328 0.38814023063345532 0 -0.32963040887986328 0.38814023063345532 0 -0.32372951228327712 0.37697794045109623 0 -0.30931136752389798 0.38141581627294469 0 -0.31355055697753331 0.40140067754259467 0 -0.32963040887986328 0.38814023063345532 0 -0.30931136752389798 0.38141581627294469 0 -0.31020383195356771 0.37247449390141468 0 -0.32372951228327712 0.37697794045109623 0 -0.30931136752389798 0.38141581627294469 0 -0.31355055697753331 0.40140067754259467 0 -0.30931136752389798 0.38141581627294469 0 -0.29541614431409102 0.38670461885965829 0 -0.29497297720334231 0.37449626856593538 0 -0.30931136752389798 0.38141581627294469 0 -0.29541614431409102 0.38670461885965829 0 -0.31355055697753331 0.40140067754259467 0 -0.29541614431409102 0.38670461885965829 0 -0.31355055697753331 0.40140067754259467 0 -0.29126109503286152 0.40400032917300238 0 -0.29541614431409102 0.38670461885965829 0 -0.29126109503286152 0.40400032917300238 0 -0.28256238199203021 0.38602726634782653 0 -0.2733700388418866 0.39537208850392069 0 -0.29126109503286152 0.40400032917300238 0 -0.28256238199203021 0.38602726634782653 0 -0.29541614431409102 0.38670461885965829 0 -0.2772817316506464 0.37200856017672479 0 -0.28256238199203021 0.38602726634782653 0 -0.29541614431409102 0.38670461885965829 0 -0.2772817316506464 0.37200856017672479 0 -0.29541614431409102 0.38670461885965829 0 -0.2772817316506464 0.37200856017672479 0 -0.29497297720334231 0.37449626856593538 0 -0.29541614431409102 0.38670461885965829 0 -0.2772817316506464 0.37200856017672479 0 -0.28256238199203021 0.38602726634782653 0 -0.2733700388418866 0.39537208850392069 0 -0.27311383260625288 0.36863091072770088 0 -0.2772817316506464 0.37200856017672479 0 -0.25125573985850302 0.38688011717805648 0 -0.2772817316506464 0.37200856017672479 0 -0.2733700388418866 0.39537208850392069 0 -0.25125573985850302 0.38688011717805648 0 -0.2733700388418866 0.39537208850392069 0 -0.25125573985850302 0.38688011717805648 0 -0.25658003635958748 0.41050023803125851 0 -0.2772817316506464 0.37200856017672479 0 -0.25125573985850302 0.38688011717805648 0 -0.25556984409446543 0.43307776232123768 0 -0.25658003635958748 0.41050023803125851 0 -0.27840927073197508 0.42622713356338893 0 -0.2733700388418866 0.39537208850392069 0 -0.25658003635958748 0.41050023803125851 0 -0.27840927073197508 0.42622713356338893 0 -0.29126109503286152 0.40400032917300238 0 -0.2733700388418866 0.39537208850392069 0 -0.27840927073197508 0.42622713356338893 0 -0.27840927073197508 0.42622713356338893 0 -0.30488102026893282 0.42949982592955688 0 -0.28134531793956352 0.45340060711537972 0 -0.29126109503286152 0.40400032917300238 0 -0.27840927073197508 0.42622713356338893 0 -0.30488102026893282 0.42949982592955688 0 -0.31355055697753331 0.40140067754259467 0 -0.29126109503286152 0.40400032917300238 0 -0.30488102026893282 0.42949982592955688 0 -0.30488102026893282 0.42949982592955688 0 -0.30810759854753672 0.45796517311919288 0 -0.28134531793956352 0.45340060711537972 0 -0.25556984409446543 0.43307776232123768 0 -0.27840927073197508 0.42622713356338893 0 -0.28134531793956352 0.45340060711537972 0 -0.25556984409446543 0.43307776232123768 0 -0.28134531793956352 0.45340060711537972 0 -0.25190045545754441 0.45663845226315769 0 -0.28134531793956352 0.45340060711537972 0 -0.25190045545754441 0.45663845226315769 0 -0.28388063560316229 0.5 0 -0.25190045545754441 0.45663845226315769 0 -0.28388063560316229 0.5 0 -0.24611876192404011 0.47621856951055741 0 -0.28388063560316229 0.5 0 -0.22609104325913229 0.48764554555300432 0 -0.24611876192404011 0.47621856951055741 0 -0.30810759854753672 0.45796517311919288 0 -0.28388063560316229 0.5 0 -0.34024974713423062 0.46521022242584259 0 -0.30810759854753672 0.45796517311919288 0 -0.28134531793956352 0.45340060711537972 0 -0.28388063560316229 0.5 0 -0.38830524089476059 0.5 0 -0.28388063560316229 0.5 0 -0.34024974713423062 0.46521022242584259 0 -0.30810759854753672 0.45796517311919288 0 -0.32717553709509611 0.44013143445449499 0 -0.34024974713423062 0.46521022242584259 0 -0.30488102026893282 0.42949982592955688 0 -0.30810759854753672 0.45796517311919288 0 -0.32717553709509611 0.44013143445449499 0 -0.32717553709509611 0.44013143445449499 0 -0.34150741369022658 0.44215576763317072 0 -0.34024974713423062 0.46521022242584259 0 -0.33754682568267891 0.43229418330541602 0 -0.32717553709509611 0.44013143445449499 0 -0.34150741369022658 0.44215576763317072 0 -0.37963697716209971 0.4541265140826527 0 -0.34024974713423062 0.46521022242584259 0 -0.35554758509977019 0.44111674974291132 0 -0.34150741369022658 0.44215576763317072 0 -0.34024974713423062 0.46521022242584259 0 -0.35554758509977019 0.44111674974291132 0 -0.34981938230441761 0.43079279490846728 0 -0.34150741369022658 0.44215576763317072 0 -0.35554758509977019 0.44111674974291132 0 -0.37963697716209971 0.4541265140826527 0 -0.36929455244857479 0.43135082847567241 0 -0.35554758509977019 0.44111674974291132 0 -0.37963697716209971 0.4541265140826527 0 -0.35554758509977019 0.44111674974291132 0 -0.38830524089476059 0.5 0 -0.37963697716209971 0.4541265140826527 0 -0.34024974713423062 0.46521022242584259 0 -0.13429886875633179 0.45944833036229271 0 -0.1575896188456079 0.47852327377784409 0 -0.12103489197726459 0.47737874935941937 0 -0.14783955599987469 0.5 0 -0.1575896188456079 0.47852327377784409 0 -0.12103489197726459 0.47737874935941937 0 -0.13429886875633179 0.45944833036229271 0 -0.1438725930767096 0.44503848826693182 0 -0.1270439353142809 0.43695352111152291 0 -0.1438725930767096 0.44503848826693182 0 -0.1541223690331581 0.4594378792739614 0 -0.15854471564549361 0.43604223882750098 0 -0.13429886875633179 0.45944833036229271 0 -0.1541223690331581 0.4594378792739614 0 -0.1575896188456079 0.47852327377784409 0 -0.13429886875633179 0.45944833036229271 0 -0.1438725930767096 0.44503848826693182 0 -0.1541223690331581 0.4594378792739614 0 -0.1541223690331581 0.4594378792739614 0 -0.17811192710848281 0.46884043470030901 0 -0.1541223690331581 0.4594378792739614 0 -0.1803449069397505 0.44593792925865833 0 -0.17811192710848281 0.46884043470030901 0 -0.1541223690331581 0.4594378792739614 0 -0.1803449069397505 0.44593792925865833 0 -0.15854471564549361 0.43604223882750098 0 -0.1803449069397505 0.44593792925865833 0 -0.17811192710848281 0.46884043470030901 0 -0.1946459258113768 0.46196040617937162 0 -0.14783955599987469 0.5 0 -0.1575896188456079 0.47852327377784409 0 -0.20555974819216161 0.5 0 -0.17811192710848281 0.46884043470030901 0 -0.1575896188456079 0.47852327377784409 0 -0.20555974819216161 0.5 0 -0.1541223690331581 0.4594378792739614 0 -0.17811192710848281 0.46884043470030901 0 -0.1575896188456079 0.47852327377784409 0 -0.28388063560316229 0.5 0 -0.20555974819216161 0.5 0 -0.22609104325913229 0.48764554555300432 0 -0.17811192710848281 0.46884043470030901 0 -0.20210148518380749 0.47824299012665672 0 -0.17811192710848281 0.46884043470030901 0 -0.20210148518380749 0.47824299012665672 0 -0.20555974819216161 0.5 0 -0.17811192710848281 0.46884043470030901 0 -0.20210148518380749 0.47824299012665672 0 -0.1946459258113768 0.46196040617937162 0 -0.20210148518380749 0.47824299012665672 0 -0.22609104325913229 0.48764554555300432 0 -0.22260291337632121 0.46059028022606763 0 -0.20210148518380749 0.47824299012665672 0 -0.22609104325913229 0.48764554555300432 0 -0.20210148518380749 0.47824299012665672 0 -0.20555974819216161 0.5 0 -0.22609104325913229 0.48764554555300432 0 -0.22609104325913229 0.48764554555300432 0 -0.24611876192404011 0.47621856951055741 0 -0.22260291337632121 0.46059028022606763 0 -0.25190045545754441 0.45663845226315769 0 -0.23823527158833871 0.44176747767903912 0 -0.22260291337632121 0.46059028022606763 0 -0.25556984409446543 0.43307776232123768 0 -0.25190045545754441 0.45663845226315769 0 -0.23823527158833871 0.44176747767903912 0 -0.25190045545754441 0.45663845226315769 0 -0.24611876192404011 0.47621856951055741 0 -0.22260291337632121 0.46059028022606763 0 -0.23823527158833871 0.44176747767903912 0 -0.22260291337632121 0.46059028022606763 0 -0.2207298729459567 0.43687426637188959 0 -0.22260291337632121 0.46059028022606763 0 -0.20317649723527581 0.44651506569139893 0 -0.2207298729459567 0.43687426637188959 0 -0.20210148518380749 0.47824299012665672 0 -0.22260291337632121 0.46059028022606763 0 -0.1946459258113768 0.46196040617937162 0 -0.22260291337632121 0.46059028022606763 0 -0.20317649723527581 0.44651506569139893 0 -0.1946459258113768 0.46196040617937162 0 -0.1803449069397505 0.44593792925865833 0 -0.20317649723527581 0.44651506569139893 0 -0.1946459258113768 0.46196040617937162 0 -0.1803449069397505 0.44593792925865833 0 -0.20317649723527581 0.44651506569139893 0 -0.19702747297569609 0.42844411528060161 0 -0.1877558265573222 0.40867597777064762 0 -0.21182565062880909 0.414140964159393 0 -0.1877558265573222 0.40867597777064762 0 -0.21182565062880909 0.414140964159393 0 -0.20237582415177849 0.40002279675069891 0 -0.19702747297569609 0.42844411528060161 0 -0.1877558265573222 0.40867597777064762 0 -0.21182565062880909 0.414140964159393 0 -0.19702747297569609 0.42844411528060161 0 -0.21182565062880909 0.414140964159393 0 -0.2207298729459567 0.43687426637188959 0 -0.20317649723527581 0.44651506569139893 0 -0.19702747297569609 0.42844411528060161 0 -0.2207298729459567 0.43687426637188959 0 -0.21182565062880909 0.414140964159393 0 -0.2207298729459567 0.43687426637188959 0 -0.2358954747002959 0.41960595054813837 0 -0.23823527158833871 0.44176747767903912 0 -0.2207298729459567 0.43687426637188959 0 -0.2358954747002959 0.41960595054813837 0 -0.21182565062880909 0.414140964159393 0 -0.2358954747002959 0.41960595054813837 0 -0.21182565062880909 0.414140964159393 0 -0.2358954747002959 0.41960595054813837 0 -0.2273491821239107 0.39478675754356513 0 -0.25658003635958748 0.41050023803125851 0 -0.2358954747002959 0.41960595054813837 0 -0.2273491821239107 0.39478675754356513 0 -0.25556984409446543 0.43307776232123768 0 -0.25658003635958748 0.41050023803125851 0 -0.2358954747002959 0.41960595054813837 0 -0.25556984409446543 0.43307776232123768 0 -0.23823527158833871 0.44176747767903912 0 -0.2358954747002959 0.41960595054813837 0 -0.25125573985850302 0.38688011717805648 0 -0.2273491821239107 0.39478675754356513 0 -0.23820980057709781 0.3734503636087903 0 -0.25801636075578011 0.36597590002421032 0 -0.25125573985850302 0.38688011717805648 0 -0.23820980057709781 0.3734503636087903 0 -0.25125573985850302 0.38688011717805648 0 -0.25658003635958748 0.41050023803125851 0 -0.2273491821239107 0.39478675754356513 0 -0.2273491821239107 0.39478675754356513 0 -0.2201506021665274 0.37551437942317001 0 -0.23820980057709781 0.3734503636087903 0 -0.2273491821239107 0.39478675754356513 0 -0.2201506021665274 0.37551437942317001 0 -0.20524707637890041 0.3830966533213383 0 -0.2273491821239107 0.39478675754356513 0 -0.20524707637890041 0.3830966533213383 0 -0.20237582415177849 0.40002279675069891 0 -0.21182565062880909 0.414140964159393 0 -0.2273491821239107 0.39478675754356513 0 -0.20237582415177849 0.40002279675069891 0 -0.20524707637890041 0.3830966533213383 0 -0.20237582415177849 0.40002279675069891 0 -0.18741189920662199 0.38899480574885259 0 -0.1877558265573222 0.40867597777064762 0 -0.20237582415177849 0.40002279675069891 0 -0.18741189920662199 0.38899480574885259 0 -0.20524707637890041 0.3830966533213383 0 -0.18741189920662199 0.38899480574885259 0 -0.19073161862731711 0.37399795757179938 0 -0.18741189920662199 0.38899480574885259 0 -0.1707432455289139 0.3754701037722622 0 -0.19073161862731711 0.37399795757179938 0 -0.18741189920662199 0.38899480574885259 0 -0.1707432455289139 0.3754701037722622 0 -0.17296791386628169 0.39200904686923421 0 -0.1707432455289139 0.3754701037722622 0 -0.17296791386628169 0.39200904686923421 0 -0.15524259555271511 0.38369335567250618 0 -0.1636860024858352 0.40321099138190208 0 -0.17296791386628169 0.39200904686923421 0 -0.15524259555271511 0.38369335567250618 0 -0.1877558265573222 0.40867597777064762 0 -0.1636860024858352 0.40321099138190208 0 -0.17296791386628169 0.39200904686923421 0 -0.1877558265573222 0.40867597777064762 0 -0.18741189920662199 0.38899480574885259 0 -0.17296791386628169 0.39200904686923421 0 -0.1877558265573222 0.40867597777064762 0 -0.1636860024858352 0.40321099138190208 0 -0.19702747297569609 0.42844411528060161 0 -0.1877558265573222 0.40867597777064762 0 -0.17733955734670831 0.42275002935736578 0 -0.1877558265573222 0.40867597777064762 0 -0.1636860024858352 0.40321099138190208 0 -0.17733955734670831 0.42275002935736578 0 -0.1803449069397505 0.44593792925865833 0 -0.17733955734670831 0.42275002935736578 0 -0.15854471564549361 0.43604223882750098 0 -0.1803449069397505 0.44593792925865833 0 -0.19702747297569609 0.42844411528060161 0 -0.17733955734670831 0.42275002935736578 0 -0.17733955734670831 0.42275002935736578 0 -0.15854471564549361 0.43604223882750098 0 -0.15024119451998361 0.41477739066636521 0 -0.1636860024858352 0.40321099138190208 0 -0.17733955734670831 0.42275002935736578 0 -0.15024119451998361 0.41477739066636521 0 -0.17733955734670831 0.42275002935736578 0 -0.15024119451998361 0.41477739066636521 0 -0.15854471564549361 0.43604223882750098 0 -0.15024119451998361 0.41477739066636521 0 -0.1437098876447109 0.43039174603275782 0 -0.15024119451998361 0.41477739066636521 0 -0.1437098876447109 0.43039174603275782 0 -0.1334671919727361 0.42175198106784051 0 -0.1438725930767096 0.44503848826693182 0 -0.15854471564549361 0.43604223882750098 0 -0.1437098876447109 0.43039174603275782 0 -0.1270439353142809 0.43695352111152291 0 -0.1334671919727361 0.42175198106784051 0 -0.1176040665924666 0.42166973072099201 0 -0.1438725930767096 0.44503848826693182 0 -0.1437098876447109 0.43039174603275782 0 -0.1270439353142809 0.43695352111152291 0 -0.1437098876447109 0.43039174603275782 0 -0.1270439353142809 0.43695352111152291 0 -0.1334671919727361 0.42175198106784051 0 -0.15024119451998361 0.41477739066636521 0 -0.1396161784143482 0.39774600499315671 0 -0.1231428316932589 0.40680475197536448 0 -0.15024119451998361 0.41477739066636521 0 -0.1334671919727361 0.42175198106784051 0 -0.1231428316932589 0.40680475197536448 0 -0.15024119451998361 0.41477739066636521 0 -0.1231428316932589 0.40680475197536448 0 -0.1396161784143482 0.39774600499315671 0 -0.11906308739394331 0.3865806531226435 0 -0.1231428316932589 0.40680475197536448 0 -0.1396161784143482 0.39774600499315671 0 -0.13532528328201701 0.37584650447051487 0 -0.11906308739394331 0.3865806531226435 0 -0.1396161784143482 0.39774600499315671 0 -0.13532528328201701 0.37584650447051487 0 -0.15524259555271511 0.38369335567250618 0 -0.1636860024858352 0.40321099138190208 0 -0.1396161784143482 0.39774600499315671 0 -0.1636860024858352 0.40321099138190208 0 -0.1396161784143482 0.39774600499315671 0 -0.15524259555271511 0.38369335567250618 0 -0.1636860024858352 0.40321099138190208 0 -0.15024119451998361 0.41477739066636521 0 -0.1396161784143482 0.39774600499315671 0 -0.15387005815840721 0.34547014511867058 0 -0.14912175125945551 0.36145135015141061 0 -0.1367502033665807 0.34152098586960372 0 -0.13532528328201701 0.37584650447051487 0 -0.15524259555271511 0.38369335567250618 0 -0.14912175125945551 0.36145135015141061 0 -0.13532528328201701 0.37584650447051487 0 -0.14912175125945551 0.36145135015141061 0 -0.13050369970872611 0.35667342728772222 0 -0.13532528328201701 0.37584650447051487 0 -0.13050369970872611 0.35667342728772222 0 -0.11840438736291389 0.36893423559565047 0 -0.14912175125945551 0.36145135015141061 0 -0.13050369970872611 0.35667342728772222 0 -0.1367502033665807 0.34152098586960372 0 -0.13050369970872611 0.35667342728772222 0 -0.1367502033665807 0.34152098586960372 0 -0.11989828754680699 0.33755234214377011 0 -0.1367502033665807 0.34152098586960372 0 -0.12816643349291301 0.32155351161784551 0 -0.14891091947540741 0.33086968317415649 0 -0.1367502033665807 0.34152098586960372 0 -0.12816643349291301 0.32155351161784551 0 -0.11989828754680699 0.33755234214377011 0 -0.12816643349291301 0.32155351161784551 0 -0.14891091947540741 0.33086968317415649 0 -0.14081051317867191 0.30784232556217078 0 -0.14891091947540741 0.33086968317415649 0 -0.15655731153505151 0.31607522780324349 0 -0.14081051317867191 0.30784232556217078 0 -0.15387005815840721 0.34547014511867058 0 -0.1367502033665807 0.34152098586960372 0 -0.14891091947540741 0.33086968317415649 0 -0.15387005815840721 0.34547014511867058 0 -0.14891091947540741 0.33086968317415649 0 -0.16949406426994701 0.33286683160042191 0 -0.14891091947540741 0.33086968317415649 0 -0.16949406426994701 0.33286683160042191 0 -0.15655731153505151 0.31607522780324349 0 -0.16949406426994701 0.33286683160042191 0 -0.15655731153505151 0.31607522780324349 0 -0.17214039887192739 0.31020065460146801 0 -0.16949406426994701 0.33286683160042191 0 -0.18668038474105639 0.32308334363704039 0 -0.17214039887192739 0.31020065460146801 0 -0.18668038474105639 0.32308334363704039 0 -0.19858942785467301 0.30444231869426919 0 -0.17214039887192739 0.31020065460146801 0 -0.16949406426994701 0.33286683160042191 0 -0.18726639452205771 0.33987286431269481 0 -0.1691463331717569 0.35316149882263659 0 -0.16949406426994701 0.33286683160042191 0 -0.18668038474105639 0.32308334363704039 0 -0.18726639452205771 0.33987286431269481 0 -0.18726639452205771 0.33987286431269481 0 -0.18651625832782259 0.35839679228393428 0 -0.1691463331717569 0.35316149882263659 0 -0.15387005815840721 0.34547014511867058 0 -0.14912175125945551 0.36145135015141061 0 -0.1691463331717569 0.35316149882263659 0 -0.15387005815840721 0.34547014511867058 0 -0.16949406426994701 0.33286683160042191 0 -0.1691463331717569 0.35316149882263659 0 -0.1707432455289139 0.3754701037722622 0 -0.14912175125945551 0.36145135015141061 0 -0.1691463331717569 0.35316149882263659 0 -0.1707432455289139 0.3754701037722622 0 -0.15524259555271511 0.38369335567250618 0 -0.14912175125945551 0.36145135015141061 0 -0.1707432455289139 0.3754701037722622 0 -0.18651625832782259 0.35839679228393428 0 -0.1691463331717569 0.35316149882263659 0 -0.1707432455289139 0.3754701037722622 0 -0.18651625832782259 0.35839679228393428 0 -0.19073161862731711 0.37399795757179938 0 -0.20524707637890041 0.3830966533213383 0 -0.19073161862731711 0.37399795757179938 0 -0.2057092932049083 0.36576340440298988 0 -0.18651625832782259 0.35839679228393428 0 -0.19073161862731711 0.37399795757179938 0 -0.2057092932049083 0.36576340440298988 0 -0.18651625832782259 0.35839679228393428 0 -0.20824452344342609 0.34582549099678439 0 -0.2057092932049083 0.36576340440298988 0 -0.18726639452205771 0.33987286431269481 0 -0.18651625832782259 0.35839679228393428 0 -0.20824452344342609 0.34582549099678439 0 -0.20824452344342609 0.34582549099678439 0 -0.2057092932049083 0.36576340440298988 0 -0.22423765854781991 0.36047471823916621 0 -0.2201506021665274 0.37551437942317001 0 -0.20524707637890041 0.3830966533213383 0 -0.2057092932049083 0.36576340440298988 0 -0.2201506021665274 0.37551437942317001 0 -0.2057092932049083 0.36576340440298988 0 -0.22423765854781991 0.36047471823916621 0 -0.2201506021665274 0.37551437942317001 0 -0.22423765854781991 0.36047471823916621 0 -0.23820980057709781 0.3734503636087903 0 -0.20824452344342609 0.34582549099678439 0 -0.22423765854781991 0.36047471823916621 0 -0.23395538721902739 0.34305734413846151 0 -0.25888266408886079 0.33481169158673002 0 -0.24775099256547911 0.35500491509708137 0 -0.23395538721902739 0.34305734413846151 0 -0.22423765854781991 0.36047471823916621 0 -0.24775099256547911 0.35500491509708137 0 -0.23395538721902739 0.34305734413846151 0 -0.22423765854781991 0.36047471823916621 0 -0.24775099256547911 0.35500491509708137 0 -0.23820980057709781 0.3734503636087903 0 -0.25801636075578011 0.36597590002421032 0 -0.24775099256547911 0.35500491509708137 0 -0.23820980057709781 0.3734503636087903 0 -0.25209251067084948 0.30983878725335651 0 -0.25888266408886079 0.33481169158673002 0 -0.23536885896161741 0.32437321981901063 0 -0.25888266408886079 0.33481169158673002 0 -0.23536885896161741 0.32437321981901063 0 -0.23395538721902739 0.34305734413846151 0 -0.25888266408886079 0.33481169158673002 0 -0.23536885896161741 0.32437321981901063 0 -0.20824452344342609 0.34582549099678439 0 -0.21959630810027339 0.33063598981296538 0 -0.23395538721902739 0.34305734413846151 0 -0.23536885896161741 0.32437321981901063 0 -0.21959630810027339 0.33063598981296538 0 -0.23395538721902739 0.34305734413846151 0 -0.23536885896161741 0.32437321981901063 0 -0.21959630810027339 0.33063598981296538 0 -0.2191309248500454 0.31367704129262342 0 -0.23536885896161741 0.32437321981901063 0 -0.2191309248500454 0.31367704129262342 0 -0.23409804367780879 0.30326077286087127 0 -0.21959630810027339 0.33063598981296538 0 -0.2191309248500454 0.31367704129262342 0 -0.20351680317833709 0.32590322853535159 0 -0.2191309248500454 0.31367704129262342 0 -0.20351680317833709 0.32590322853535159 0 -0.19858942785467301 0.30444231869426919 0 -0.20824452344342609 0.34582549099678439 0 -0.21959630810027339 0.33063598981296538 0 -0.20351680317833709 0.32590322853535159 0 -0.18726639452205771 0.33987286431269481 0 -0.20824452344342609 0.34582549099678439 0 -0.20351680317833709 0.32590322853535159 0 -0.18668038474105639 0.32308334363704039 0 -0.18726639452205771 0.33987286431269481 0 -0.20351680317833709 0.32590322853535159 0 -0.18668038474105639 0.32308334363704039 0 -0.20351680317833709 0.32590322853535159 0 -0.19858942785467301 0.30444231869426919 0 -0.19858942785467301 0.30444231869426919 0 -0.19295173281484959 0.28926504373298689 0 -0.17966871424683931 0.29468873677274843 0 -0.19295173281484959 0.28926504373298689 0 -0.20172036935710361 0.27896527196014248 0 -0.18878155529593499 0.27649224234542319 0 -0.19858942785467301 0.30444231869426919 0 -0.19295173281484959 0.28926504373298689 0 -0.20680087962799629 0.28900610384560022 0 -0.19295173281484959 0.28926504373298689 0 -0.20680087962799629 0.28900610384560022 0 -0.20172036935710361 0.27896527196014248 0 -0.19858942785467301 0.30444231869426919 0 -0.20680087962799629 0.28900610384560022 0 -0.22208690671569989 0.29401405043834089 0 -0.20680087962799629 0.28900610384560022 0 -0.21621154702302409 0.27917666662023111 0 -0.20172036935710361 0.27896527196014248 0 -0.20680087962799629 0.28900610384560022 0 -0.22208690671569989 0.29401405043834089 0 -0.21621154702302409 0.27917666662023111 0 -0.2191309248500454 0.31367704129262342 0 -0.19858942785467301 0.30444231869426919 0 -0.22208690671569989 0.29401405043834089 0 -0.2191309248500454 0.31367704129262342 0 -0.23409804367780879 0.30326077286087127 0 -0.22208690671569989 0.29401405043834089 0 -0.23409804367780879 0.30326077286087127 0 -0.22208690671569989 0.29401405043834089 0 -0.2316528536660577 0.28470310547028332 0 -0.22208690671569989 0.29401405043834089 0 -0.2316528536660577 0.28470310547028332 0 -0.21621154702302409 0.27917666662023111 0 -0.23409804367780879 0.30326077286087127 0 -0.2316528536660577 0.28470310547028332 0 -0.24425620720258351 0.292958432891613 0 -0.2316528536660577 0.28470310547028332 0 -0.24425620720258351 0.292958432891613 0 -0.2498943307853857 0.27313514927493482 0 -0.2556824143928022 0.29450383255318441 0 -0.24425620720258351 0.292958432891613 0 -0.2498943307853857 0.27313514927493482 0 -0.25209251067084948 0.30983878725335651 0 -0.23536885896161741 0.32437321981901063 0 -0.23409804367780879 0.30326077286087127 0 -0.25209251067084948 0.30983878725335651 0 -0.23409804367780879 0.30326077286087127 0 -0.24425620720258351 0.292958432891613 0 -0.2498943307853857 0.27313514927493482 0 -0.23395429088282479 0.25540169663383039 0 -0.24565678637246771 0.25432931140221188 0 -0.2498943307853857 0.27313514927493482 0 -0.23395429088282479 0.25540169663383039 0 -0.24565678637246771 0.25432931140221188 0 -0.23395429088282479 0.25540169663383039 0 -0.23621598375468131 0.24232310763638509 0 -0.2316528536660577 0.28470310547028332 0 -0.2498943307853857 0.27313514927493482 0 -0.22793878400975731 0.26902276273186682 0 -0.2498943307853857 0.27313514927493482 0 -0.22793878400975731 0.26902276273186682 0 -0.23395429088282479 0.25540169663383039 0 -0.2316528536660577 0.28470310547028332 0 -0.22793878400975731 0.26902276273186682 0 -0.21621154702302409 0.27917666662023111 0 -0.22793878400975731 0.26902276273186682 0 -0.21619615738903419 0.26140441239500423 0 -0.2144410194261992 0.26985715190424492 0 -0.22793878400975731 0.26902276273186682 0 -0.21621154702302409 0.27917666662023111 0 -0.2144410194261992 0.26985715190424492 0 -0.22793878400975731 0.26902276273186682 0 -0.22473428255638639 0.25922997019891131 0 -0.21619615738903419 0.26140441239500423 0 -0.22793878400975731 0.26902276273186682 0 -0.22473428255638639 0.25922997019891131 0 -0.23395429088282479 0.25540169663383039 0 -0.22473428255638639 0.25922997019891131 0 -0.23395429088282479 0.25540169663383039 0 -0.21938876226052809 0.24971123941932449 0 -0.22473428255638639 0.25922997019891131 0 -0.21619615738903419 0.26140441239500423 0 -0.21938876226052809 0.24971123941932449 0 -0.21619615738903419 0.26140441239500423 0 -0.20814198958425389 0.26395363282407369 0 -0.19828096430522671 0.24268160811117781 0 -0.21619615738903419 0.26140441239500423 0 -0.19828096430522671 0.24268160811117781 0 -0.21619615738903419 0.26140441239500423 0 -0.21938876226052809 0.24971123941932449 0 -0.19828096430522671 0.24268160811117781 0 -0.21619615738903419 0.26140441239500423 0 -0.20814198958425389 0.26395363282407369 0 -0.2144410194261992 0.26985715190424492 0 -0.21621154702302409 0.27917666662023111 0 -0.2144410194261992 0.26985715190424492 0 -0.20734632271820719 0.27198715476552721 0 -0.20814198958425389 0.26395363282407369 0 -0.2144410194261992 0.26985715190424492 0 -0.20734632271820719 0.27198715476552721 0 -0.20814198958425389 0.26395363282407369 0 -0.20734632271820719 0.27198715476552721 0 -0.1978223556512694 0.27026440381800998 0 -0.21621154702302409 0.27917666662023111 0 -0.20734632271820719 0.27198715476552721 0 -0.20172036935710361 0.27896527196014248 0 -0.1978223556512694 0.27026440381800998 0 -0.18878155529593499 0.27649224234542319 0 -0.1831215413008474 0.25992371719488311 0 -0.20734632271820719 0.27198715476552721 0 -0.20172036935710361 0.27896527196014248 0 -0.1978223556512694 0.27026440381800998 0 -0.20172036935710361 0.27896527196014248 0 -0.1978223556512694 0.27026440381800998 0 -0.18878155529593499 0.27649224234542319 0 -0.20814198958425389 0.26395363282407369 0 -0.1978223556512694 0.27026440381800998 0 -0.1831215413008474 0.25992371719488311 0 -0.20814198958425389 0.26395363282407369 0 -0.1831215413008474 0.25992371719488311 0 -0.19828096430522671 0.24268160811117781 0 -0.20814198958425389 0.26395363282407369 0 -0.1831215413008474 0.25992371719488311 0 -0.1831215413008474 0.25992371719488311 0 -0.15810109301744099 0.25589380156569258 0 -0.1754675533648144 0.2408008616495303 0 -0.1831215413008474 0.25992371719488311 0 -0.15810109301744099 0.25589380156569258 0 -0.16312868085498561 0.27124699832650168 0 -0.1831215413008474 0.25992371719488311 0 -0.15810109301744099 0.25589380156569258 0 -0.16312868085498561 0.27124699832650168 0 -0.17554153086678381 0.27878060178853847 0 -0.1591204808259627 0.29075506504648002 0 -0.18878155529593499 0.27649224234542319 0 -0.1831215413008474 0.25992371719488311 0 -0.17554153086678381 0.27878060178853847 0 -0.1831215413008474 0.25992371719488311 0 -0.16312868085498561 0.27124699832650168 0 -0.17554153086678381 0.27878060178853847 0 -0.19295173281484959 0.28926504373298689 0 -0.18878155529593499 0.27649224234542319 0 -0.17554153086678381 0.27878060178853847 0 -0.19295173281484959 0.28926504373298689 0 -0.17554153086678381 0.27878060178853847 0 -0.17966871424683931 0.29468873677274843 0 -0.19858942785467301 0.30444231869426919 0 -0.17966871424683931 0.29468873677274843 0 -0.17214039887192739 0.31020065460146801 0 -0.17966871424683931 0.29468873677274843 0 -0.17214039887192739 0.31020065460146801 0 -0.1591204808259627 0.29075506504648002 0 -0.17214039887192739 0.31020065460146801 0 -0.1591204808259627 0.29075506504648002 0 -0.15655731153505151 0.31607522780324349 0 -0.17214039887192739 0.31020065460146801 0 -0.1591204808259627 0.29075506504648002 0 -0.17554153086678381 0.27878060178853847 0 -0.17966871424683931 0.29468873677274843 0 -0.1591204808259627 0.29075506504648002 0 -0.1591204808259627 0.29075506504648002 0 -0.13545730030778191 0.28816933091580998 0 -0.14610056277999789 0.27130947549149192 0 -0.1591204808259627 0.29075506504648002 0 -0.14081051317867191 0.30784232556217078 0 -0.13545730030778191 0.28816933091580998 0 -0.15655731153505151 0.31607522780324349 0 -0.1591204808259627 0.29075506504648002 0 -0.14081051317867191 0.30784232556217078 0 -0.14081051317867191 0.30784232556217078 0 -0.13545730030778191 0.28816933091580998 0 -0.1192955010994131 0.30034434214278249 0 -0.12816643349291301 0.32155351161784551 0 -0.14081051317867191 0.30784232556217078 0 -0.1192955010994131 0.30034434214278249 0 -0.13545730030778191 0.28816933091580998 0 -0.12057468794772699 0.2825717575497419 0 -0.1192955010994131 0.30034434214278249 0 -0.1272115954829113 0.27183588298069528 0 -0.12802988070776319 0.2605085735468804 0 -0.14610056277999789 0.27130947549149192 0 -0.13545730030778191 0.28816933091580998 0 -0.1272115954829113 0.27183588298069528 0 -0.14610056277999789 0.27130947549149192 0 -0.13545730030778191 0.28816933091580998 0 -0.1272115954829113 0.27183588298069528 0 -0.12057468794772699 0.2825717575497419 0 -0.12802988070776319 0.2605085735468804 0 -0.13308064473403439 0.25186388593650311 0 -0.14610056277999789 0.27130947549149192 0 -0.13308064473403439 0.25186388593650311 0 -0.14610056277999789 0.27130947549149192 0 -0.12802988070776319 0.2605085735468804 0 -0.12594884044955931 0.25071520269850439 0 -0.13308064473403439 0.25186388593650311 0 -0.12594884044955931 0.25071520269850439 0 -0.13308064473403439 0.25186388593650311 0 -0.15810109301744099 0.25589380156569258 0 -0.13308064473403439 0.25186388593650311 0 -0.14610056277999789 0.27130947549149192 0 -0.15810109301744099 0.25589380156569258 0 -0.13308064473403439 0.25186388593650311 0 -0.15810109301744099 0.25589380156569258 0 -0.13308064473403439 0.25186388593650311 0 -0.14042991150252279 0.2438277696377856 0 -0.1591204808259627 0.29075506504648002 0 -0.14610056277999789 0.27130947549149192 0 -0.15810109301744099 0.25589380156569258 0 -0.16312868085498561 0.27124699832650168 0 -0.14610056277999789 0.27130947549149192 0 -0.16312868085498561 0.27124699832650168 0 -0.1591204808259627 0.29075506504648002 0 -0.14610056277999789 0.27130947549149192 0 -0.09737639892554309 0.27052235011621029 0 -0.11388041772228991 0.26962383094249343 0 -0.1064318637666259 0.28394060515110447 0 -0.09737639892554309 0.27052235011621029 0 -0.1093113425500527 0.25762787717354679 0 -0.11388041772228991 0.26962383094249343 0 -0.09737639892554309 0.27052235011621029 0 -0.1064318637666259 0.28394060515110447 0 -0.09178642815772059 0.284692169729444 0 -0.1093113425500527 0.25762787717354679 0 -0.082083790945880891 0.25421675507308772 0 -0.1093113425500527 0.25762787717354679 0 -0.082083790945880891 0.25421675507308772 0 -0.097808993047078713 0.24307883669473671 0 -0.09737639892554309 0.27052235011621029 0 -0.1093113425500527 0.25762787717354679 0 -0.082083790945880891 0.25421675507308772 0 -0.1093113425500527 0.25762787717354679 0 -0.1189392722295104 0.25732248993651619 0 -0.11388041772228991 0.26962383094249343 0 -0.1093113425500527 0.25762787717354679 0 -0.1189392722295104 0.25732248993651619 0 -0.1133144768543244 0.24346474061285289 0 -0.12802988070776319 0.2605085735468804 0 -0.12594884044955931 0.25071520269850439 0 -0.1189392722295104 0.25732248993651619 0 -0.12594884044955931 0.25071520269850439 0 -0.1189392722295104 0.25732248993651619 0 -0.1219120720920598 0.245209269023206 0 -0.1272115954829113 0.27183588298069528 0 -0.12802988070776319 0.2605085735468804 0 -0.1189392722295104 0.25732248993651619 0 -0.1272115954829113 0.27183588298069528 0 -0.1189392722295104 0.25732248993651619 0 -0.11388041772228991 0.26962383094249343 0 -0.11388041772228991 0.26962383094249343 0 -0.12057468794772699 0.2825717575497419 0 -0.1064318637666259 0.28394060515110447 0 -0.1272115954829113 0.27183588298069528 0 -0.11388041772228991 0.26962383094249343 0 -0.12057468794772699 0.2825717575497419 0 -0.12057468794772699 0.2825717575497419 0 -0.1192955010994131 0.30034434214278249 0 -0.1064318637666259 0.28394060515110447 0 -0.1192955010994131 0.30034434214278249 0 -0.098184141985521639 0.30101548138848722 0 -0.1104330685736923 0.31827185421616833 0 -0.098184141985521639 0.30101548138848722 0 -0.1064318637666259 0.28394060515110447 0 -0.09178642815772059 0.284692169729444 0 -0.1192955010994131 0.30034434214278249 0 -0.098184141985521639 0.30101548138848722 0 -0.1064318637666259 0.28394060515110447 0 -0.098184141985521639 0.30101548138848722 0 -0.079896053930087169 0.29403163891796869 0 -0.09178642815772059 0.284692169729444 0 -0.079896053930087169 0.29403163891796869 0 -0.09178642815772059 0.284692169729444 0 -0.080989922437983974 0.27412419699552831 0 -0.079896053930087169 0.29403163891796869 0 -0.080989922437983974 0.27412419699552831 0 -0.079896053930087169 0.29403163891796869 0 -0.084509330384762174 0.30923756412801018 0 -0.070582160834362639 0.31501279540152072 0 -0.098184141985521639 0.30101548138848722 0 -0.084509330384762174 0.30923756412801018 0 -0.095633312527366968 0.32058478856536199 0 -0.098184141985521639 0.30101548138848722 0 -0.079896053930087169 0.29403163891796869 0 -0.084509330384762174 0.30923756412801018 0 -0.079896053930087169 0.29403163891796869 0 -0.058140619125593831 0.30252411498317572 0 -0.070582160834362639 0.31501279540152072 0 -0.079896053930087169 0.29403163891796869 0 -0.0670845583362083 0.27445855613263731 0 -0.060654062952679243 0.28660927550043469 0 -0.079896053930087169 0.29403163891796869 0 -0.060654062952679243 0.28660927550043469 0 -0.058140619125593831 0.30252411498317572 0 -0.079896053930087169 0.29403163891796869 0 -0.0670845583362083 0.27445855613263731 0 -0.080989922437983974 0.27412419699552831 0 -0.0670845583362083 0.27445855613263731 0 -0.069886286851312526 0.2622287860979205 0 -0.057842003791260518 0.26347149677716458 0 -0.0670845583362083 0.27445855613263731 0 -0.080989922437983974 0.27412419699552831 0 -0.069886286851312526 0.2622287860979205 0 -0.09737639892554309 0.27052235011621029 0 -0.080989922437983974 0.27412419699552831 0 -0.082083790945880891 0.25421675507308772 0 -0.09737639892554309 0.27052235011621029 0 -0.09178642815772059 0.284692169729444 0 -0.080989922437983974 0.27412419699552831 0 -0.080989922437983974 0.27412419699552831 0 -0.082083790945880891 0.25421675507308772 0 -0.082083790945880891 0.25421675507308772 0 -0.069886286851312526 0.2622287860979205 0 -0.060203154901558281 0.25147550524394302 0 -0.082083790945880891 0.25421675507308772 0 -0.060203154901558281 0.25147550524394302 0 -0.080989922437983974 0.27412419699552831 0 -0.082083790945880891 0.25421675507308772 0 -0.069886286851312526 0.2622287860979205 0 -0.069886286851312526 0.2622287860979205 0 -0.060203154901558281 0.25147550524394302 0 -0.057842003791260518 0.26347149677716458 0 -0.060203154901558281 0.25147550524394302 0 -0.049686439473911062 0.25631724582189669 0 -0.038322518857235421 0.2487342554147999 0 -0.060203154901558281 0.25147550524394302 0 -0.057842003791260518 0.26347149677716458 0 -0.049686439473911062 0.25631724582189669 0 -0.060203154901558281 0.25147550524394302 0 -0.038322518857235421 0.2487342554147999 0 -0.057842003791260518 0.26347149677716458 0 -0.049686439473911062 0.25631724582189669 0 -0.04237808034559002 0.26158772585167939 0 -0.057842003791260518 0.26347149677716458 0 -0.037181687169475737 0.27503524930187362 0 -0.057842003791260518 0.26347149677716458 0 -0.053880077548057508 0.27733082286456112 0 -0.037181687169475737 0.27503524930187362 0 -0.0670845583362083 0.27445855613263731 0 -0.053880077548057508 0.27733082286456112 0 -0.060654062952679243 0.28660927550043469 0 -0.0670845583362083 0.27445855613263731 0 -0.057842003791260518 0.26347149677716458 0 -0.053880077548057508 0.27733082286456112 0 -0.053880077548057508 0.27733082286456112 0 -0.037181687169475737 0.27503524930187362 0 -0.046638075490663747 0.28707953661069507 0 -0.057842003791260518 0.26347149677716458 0 -0.037181687169475737 0.27503524930187362 0 -0.04237808034559002 0.26158772585167939 0 -0.037181687169475737 0.27503524930187362 0 -0.04237808034559002 0.26158772585167939 0 -0.027220302379093571 0.26473944709709002 0 -0.04237808034559002 0.26158772585167939 0 -0.027220302379093571 0.26473944709709002 0 -0.038322518857235421 0.2487342554147999 0 -0.049686439473911062 0.25631724582189669 0 -0.04237808034559002 0.26158772585167939 0 -0.038322518857235421 0.2487342554147999 0 -0.018625722794162039 0.2527549559677339 0 -0.027220302379093571 0.26473944709709002 0 -0.011747290710393109 0.26931471444242389 0 -0.018625722794162039 0.2527549559677339 0 -0.027220302379093571 0.26473944709709002 0 -0.038322518857235421 0.2487342554147999 0 -0.018625722794162039 0.2527549559677339 0 -0.038322518857235421 0.2487342554147999 0 -0.037181687169475737 0.27503524930187362 0 -0.01652137054769125 0.28659900182658321 0 -0.023167662701663341 0.2739221031669925 0 -0.011747290710393109 0.26931471444242389 0 -0.01652137054769125 0.28659900182658321 0 -0.037181687169475737 0.27503524930187362 0 -0.027220302379093571 0.26473944709709002 0 -0.023167662701663341 0.2739221031669925 0 -0.037181687169475737 0.27503524930187362 0 -0.023167662701663341 0.2739221031669925 0 -0.01652137054769125 0.28659900182658321 0 -0.027220302379093571 0.26473944709709002 0 -0.023167662701663341 0.2739221031669925 0 -0.011747290710393109 0.26931471444242389 0 -0.011747290710393109 0.26931471444242389 0 -0.01652137054769125 0.28659900182658321 0 0.0013692637925755099 0.27360342369342261 0 -0.011747290710393109 0.26931471444242389 0 0.001071073268911413 0.25677565652066781 0 0.0013692637925755099 0.27360342369342261 0 -0.018625722794162039 0.2527549559677339 0 -0.011747290710393109 0.26931471444242389 0 0.001071073268911413 0.25677565652066781 0 -0.018625722794162039 0.2527549559677339 0 0.001071073268911413 0.25677565652066781 0 -0.018625722794162039 0.2527549559677339 0 -0.0088800879237758076 0.24504564880380281 0 0.001071073268911413 0.25677565652066781 0 -0.0070763024001717382 0.30691980919720979 0 -0.01652137054769125 0.28659900182658321 0 -0.019066607394054622 0.30022997835431042 0 -0.0070763024001717382 0.30691980919720979 0 -0.01652137054769125 0.28659900182658321 0 0.0048235759326871047 0.29854594742624441 0 -0.0070763024001717382 0.30691980919720979 0 -0.019066607394054622 0.30022997835431042 0 -0.017126522696249421 0.31666384217758847 0 -0.01652137054769125 0.28659900182658321 0 0.0048235759326871047 0.29854594742624441 0 -0.01652137054769125 0.28659900182658321 0 0.011897649909806339 0.28769702659914947 0 -0.01652137054769125 0.28659900182658321 0 0.011897649909806339 0.28769702659914947 0 0.0013692637925755099 0.27360342369342261 0 -0.021873425019193132 0.29274486704119851 0 -0.01652137054769125 0.28659900182658321 0 -0.019066607394054622 0.30022997835431042 0 -0.037181687169475737 0.27503524930187362 0 -0.01652137054769125 0.28659900182658321 0 -0.020552507301102502 0.28644325092646161 0 -0.037181687169475737 0.27503524930187362 0 -0.020552507301102502 0.28644325092646161 0 -0.029651629973764439 0.29439736925941717 0 -0.01652137054769125 0.28659900182658321 0 -0.020552507301102502 0.28644325092646161 0 -0.021873425019193132 0.29274486704119851 0 -0.01652137054769125 0.28659900182658321 0 -0.020552507301102502 0.28644325092646161 0 -0.021873425019193132 0.29274486704119851 0 -0.029651629973764439 0.29439736925941717 0 -0.019066607394054622 0.30022997835431042 0 -0.021873425019193132 0.29274486704119851 0 -0.020552507301102502 0.28644325092646161 0 -0.029651629973764439 0.29439736925941717 0 -0.019066607394054622 0.30022997835431042 0 -0.033354748617239693 0.3097657468872016 0 -0.017126522696249421 0.31666384217758847 0 -0.029651629973764439 0.29439736925941717 0 -0.019066607394054622 0.30022997835431042 0 -0.033354748617239693 0.3097657468872016 0 -0.029651629973764439 0.29439736925941717 0 -0.033354748617239693 0.3097657468872016 0 -0.041858192365962887 0.29951878068899568 0 -0.033354748617239693 0.3097657468872016 0 -0.041858192365962887 0.29951878068899568 0 -0.047318333037921448 0.30961601831277941 0 -0.037181687169475737 0.27503524930187362 0 -0.029651629973764439 0.29439736925941717 0 -0.046638075490663747 0.28707953661069507 0 -0.029651629973764439 0.29439736925941717 0 -0.041858192365962887 0.29951878068899568 0 -0.046638075490663747 0.28707953661069507 0 -0.041858192365962887 0.29951878068899568 0 -0.046638075490663747 0.28707953661069507 0 -0.058140619125593831 0.30252411498317572 0 -0.046638075490663747 0.28707953661069507 0 -0.060654062952679243 0.28660927550043469 0 -0.058140619125593831 0.30252411498317572 0 -0.053880077548057508 0.27733082286456112 0 -0.046638075490663747 0.28707953661069507 0 -0.060654062952679243 0.28660927550043469 0 -0.041858192365962887 0.29951878068899568 0 -0.047318333037921448 0.30961601831277941 0 -0.058140619125593831 0.30252411498317572 0 -0.047318333037921448 0.30961601831277941 0 -0.058140619125593831 0.30252411498317572 0 -0.057511781084156839 0.31636151128843187 0 -0.058140619125593831 0.30252411498317572 0 -0.057511781084156839 0.31636151128843187 0 -0.070582160834362639 0.31501279540152072 0 -0.057511781084156839 0.31636151128843187 0 -0.060794352793921237 0.33012729813730751 0 -0.046207917777891863 0.32164664745704918 0 -0.047318333037921448 0.30961601831277941 0 -0.057511781084156839 0.31636151128843187 0 -0.046207917777891863 0.32164664745704918 0 -0.060794352793921237 0.33012729813730751 0 -0.043397095437070987 0.33554584582718361 0 -0.046207917777891863 0.32164664745704918 0 -0.060794352793921237 0.33012729813730751 0 -0.043397095437070987 0.33554584582718361 0 -0.054038837895988491 0.34880148818320689 0 -0.043397095437070987 0.33554584582718361 0 -0.03049629409671906 0.32619365398532829 0 -0.025338947773331309 0.34147622369616792 0 -0.043397095437070987 0.33554584582718361 0 -0.025338947773331309 0.34147622369616792 0 -0.036975842887595471 0.34990762886361398 0 -0.043397095437070987 0.33554584582718361 0 -0.046207917777891863 0.32164664745704918 0 -0.03049629409671906 0.32619365398532829 0 -0.033354748617239693 0.3097657468872016 0 -0.046207917777891863 0.32164664745704918 0 -0.03049629409671906 0.32619365398532829 0 -0.033354748617239693 0.3097657468872016 0 -0.047318333037921448 0.30961601831277941 0 -0.046207917777891863 0.32164664745704918 0 -0.033354748617239693 0.3097657468872016 0 -0.03049629409671906 0.32619365398532829 0 -0.017126522696249421 0.31666384217758847 0 -0.03049629409671906 0.32619365398532829 0 -0.017126522696249421 0.31666384217758847 0 -0.01309315224043823 0.33096981185643792 0 -0.03049629409671906 0.32619365398532829 0 -0.025338947773331309 0.34147622369616792 0 -0.01309315224043823 0.33096981185643792 0 -0.01309315224043823 0.33096981185643792 0 -0.0025107411006645708 0.34572378359625211 0 0.0048746630775424772 0.32215067290176053 0 -0.025338947773331309 0.34147622369616792 0 -0.01309315224043823 0.33096981185643792 0 -0.0025107411006645708 0.34572378359625211 0 -0.0070763024001717382 0.30691980919720979 0 -0.017126522696249421 0.31666384217758847 0 0.0048746630775424772 0.32215067290176053 0 -0.017126522696249421 0.31666384217758847 0 -0.01309315224043823 0.33096981185643792 0 0.0048746630775424772 0.32215067290176053 0 -0.021693650473223421 0.3588953635848931 0 -0.023929182181737729 0.38035753061769451 0 0.0024647386837281168 0.37096252636441063 0 -0.0025107411006645708 0.34572378359625211 0 -0.021693650473223421 0.3588953635848931 0 0.0024647386837281168 0.37096252636441063 0 -0.025338947773331309 0.34147622369616792 0 -0.0025107411006645708 0.34572378359625211 0 -0.021693650473223421 0.3588953635848931 0 -0.025338947773331309 0.34147622369616792 0 -0.021693650473223421 0.3588953635848931 0 -0.036975842887595471 0.34990762886361398 0 -0.021693650473223421 0.3588953635848931 0 -0.040410682858363169 0.36481922302661818 0 -0.023929182181737729 0.38035753061769451 0 -0.040410682858363169 0.36481922302661818 0 -0.036975842887595471 0.34990762886361398 0 -0.054038837895988491 0.34880148818320689 0 -0.021693650473223421 0.3588953635848931 0 -0.040410682858363169 0.36481922302661818 0 -0.036975842887595471 0.34990762886361398 0 -0.043397095437070987 0.33554584582718361 0 -0.036975842887595471 0.34990762886361398 0 -0.054038837895988491 0.34880148818320689 0 -0.040410682858363169 0.36481922302661818 0 -0.062060628978046081 0.36484408317062622 0 -0.050641090289533681 0.377833478038336 0 -0.040410682858363169 0.36481922302661818 0 -0.054038837895988491 0.34880148818320689 0 -0.062060628978046081 0.36484408317062622 0 -0.062060628978046081 0.36484408317062622 0 -0.082862917015559048 0.37071238767068621 0 -0.07762512296661743 0.34790242979757402 0 -0.062060628978046081 0.36484408317062622 0 -0.082862917015559048 0.37071238767068621 0 -0.067275934800971771 0.38466938297571901 0 -0.07762512296661743 0.34790242979757402 0 -0.10111936955999271 0.33808097099315532 0 -0.10026513495021649 0.357835038780138 0 -0.082862917015559048 0.37071238767068621 0 -0.07762512296661743 0.34790242979757402 0 -0.10026513495021649 0.357835038780138 0 -0.054038837895988491 0.34880148818320689 0 -0.062060628978046081 0.36484408317062622 0 -0.07762512296661743 0.34790242979757402 0 -0.060794352793921237 0.33012729813730751 0 -0.07762512296661743 0.34790242979757402 0 -0.08169260707358747 0.3288200439088888 0 -0.060794352793921237 0.33012729813730751 0 -0.054038837895988491 0.34880148818320689 0 -0.07762512296661743 0.34790242979757402 0 -0.060794352793921237 0.33012729813730751 0 -0.070582160834362639 0.31501279540152072 0 -0.08169260707358747 0.3288200439088888 0 -0.057511781084156839 0.31636151128843187 0 -0.060794352793921237 0.33012729813730751 0 -0.070582160834362639 0.31501279540152072 0 -0.084509330384762174 0.30923756412801018 0 -0.08169260707358747 0.3288200439088888 0 -0.095633312527366968 0.32058478856536199 0 -0.084509330384762174 0.30923756412801018 0 -0.070582160834362639 0.31501279540152072 0 -0.08169260707358747 0.3288200439088888 0 -0.08169260707358747 0.3288200439088888 0 -0.10111936955999271 0.33808097099315532 0 -0.095633312527366968 0.32058478856536199 0 -0.07762512296661743 0.34790242979757402 0 -0.08169260707358747 0.3288200439088888 0 -0.10111936955999271 0.33808097099315532 0 -0.098184141985521639 0.30101548138848722 0 -0.095633312527366968 0.32058478856536199 0 -0.1104330685736923 0.31827185421616833 0 -0.10111936955999271 0.33808097099315532 0 -0.095633312527366968 0.32058478856536199 0 -0.1104330685736923 0.31827185421616833 0 -0.12816643349291301 0.32155351161784551 0 -0.1192955010994131 0.30034434214278249 0 -0.1104330685736923 0.31827185421616833 0 -0.12816643349291301 0.32155351161784551 0 -0.1104330685736923 0.31827185421616833 0 -0.11989828754680699 0.33755234214377011 0 -0.10111936955999271 0.33808097099315532 0 -0.11989828754680699 0.33755234214377011 0 -0.1145506234854948 0.35265891351241491 0 -0.10111936955999271 0.33808097099315532 0 -0.1104330685736923 0.31827185421616833 0 -0.11989828754680699 0.33755234214377011 0 -0.13050369970872611 0.35667342728772222 0 -0.11989828754680699 0.33755234214377011 0 -0.1145506234854948 0.35265891351241491 0 -0.1145506234854948 0.35265891351241491 0 -0.11840438736291389 0.36893423559565047 0 -0.10026513495021649 0.357835038780138 0 -0.13050369970872611 0.35667342728772222 0 -0.1145506234854948 0.35265891351241491 0 -0.11840438736291389 0.36893423559565047 0 -0.082862917015559048 0.37071238767068621 0 -0.10026513495021649 0.357835038780138 0 -0.1033279991178334 0.37657888569069642 0 -0.11840438736291389 0.36893423559565047 0 -0.10026513495021649 0.357835038780138 0 -0.1033279991178334 0.37657888569069642 0 -0.10111936955999271 0.33808097099315532 0 -0.1145506234854948 0.35265891351241491 0 -0.10026513495021649 0.357835038780138 0 -0.096044468866534283 0.3988321132843638 0 -0.1033279991178334 0.37657888569069642 0 -0.11906308739394331 0.3865806531226435 0 -0.082862917015559048 0.37071238767068621 0 -0.096044468866534283 0.3988321132843638 0 -0.1033279991178334 0.37657888569069642 0 -0.11840438736291389 0.36893423559565047 0 -0.1033279991178334 0.37657888569069642 0 -0.11906308739394331 0.3865806531226435 0 -0.13532528328201701 0.37584650447051487 0 -0.11840438736291389 0.36893423559565047 0 -0.11906308739394331 0.3865806531226435 0 -0.096044468866534283 0.3988321132843638 0 -0.11906308739394331 0.3865806531226435 0 -0.1231428316932589 0.40680475197536448 0 -0.096044468866534283 0.3988321132843638 0 -0.1231428316932589 0.40680475197536448 0 -0.096044468866534283 0.3988321132843638 0 -0.1231428316932589 0.40680475197536448 0 -0.1176040665924666 0.42166973072099201 0 -0.1334671919727361 0.42175198106784051 0 -0.1231428316932589 0.40680475197536448 0 -0.1176040665924666 0.42166973072099201 0 -0.096044468866534283 0.3988321132843638 0 -0.1176040665924666 0.42166973072099201 0 -0.1018585952074873 0.43106855587612358 0 -0.1270439353142809 0.43695352111152291 0 -0.1176040665924666 0.42166973072099201 0 -0.1018585952074873 0.43106855587612358 0 -0.096044468866534283 0.3988321132843638 0 -0.083258855245603086 0.41864805858120552 0 -0.066266815238952559 0.40511068331697192 0 -0.096044468866534283 0.3988321132843638 0 -0.1018585952074873 0.43106855587612358 0 -0.083258855245603086 0.41864805858120552 0 -0.1018585952074873 0.43106855587612358 0 -0.083258855245603086 0.41864805858120552 0 -0.084679631861398555 0.434453159275204 0 -0.084679631861398555 0.434453159275204 0 -0.065057625795955587 0.42471958052086978 0 -0.0715118902909192 0.44276391571046342 0 -0.083258855245603086 0.41864805858120552 0 -0.084679631861398555 0.434453159275204 0 -0.065057625795955587 0.42471958052086978 0 -0.083258855245603086 0.41864805858120552 0 -0.065057625795955587 0.42471958052086978 0 -0.066266815238952559 0.40511068331697192 0 -0.096044468866534283 0.3988321132843638 0 -0.066266815238952559 0.40511068331697192 0 -0.067275934800971771 0.38466938297571901 0 -0.082862917015559048 0.37071238767068621 0 -0.096044468866534283 0.3988321132843638 0 -0.067275934800971771 0.38466938297571901 0 -0.067275934800971771 0.38466938297571901 0 -0.050641090289533681 0.377833478038336 0 -0.049639071455094518 0.39186828522787909 0 -0.062060628978046081 0.36484408317062622 0 -0.067275934800971771 0.38466938297571901 0 -0.050641090289533681 0.377833478038336 0 -0.066266815238952559 0.40511068331697192 0 -0.049639071455094518 0.39186828522787909 0 -0.048131486223544608 0.4073908669408951 0 -0.066266815238952559 0.40511068331697192 0 -0.067275934800971771 0.38466938297571901 0 -0.049639071455094518 0.39186828522787909 0 -0.049639071455094518 0.39186828522787909 0 -0.038625794120758727 0.40315703140060011 0 -0.032653513920706458 0.38849433158559499 0 -0.038625794120758727 0.40315703140060011 0 -0.032653513920706458 0.38849433158559499 0 -0.02489634498304974 0.41216944014457191 0 -0.049639071455094518 0.39186828522787909 0 -0.038625794120758727 0.40315703140060011 0 -0.048131486223544608 0.4073908669408951 0 -0.050641090289533681 0.377833478038336 0 -0.049639071455094518 0.39186828522787909 0 -0.032653513920706458 0.38849433158559499 0 -0.040410682858363169 0.36481922302661818 0 -0.032653513920706458 0.38849433158559499 0 -0.023929182181737729 0.38035753061769451 0 -0.040410682858363169 0.36481922302661818 0 -0.032653513920706458 0.38849433158559499 0 -0.040410682858363169 0.36481922302661818 0 -0.050641090289533681 0.377833478038336 0 -0.032653513920706458 0.38849433158559499 0 -0.032653513920706458 0.38849433158559499 0 -0.023929182181737729 0.38035753061769451 0 -0.0175082681887339 0.3959876205492866 0 -0.023929182181737729 0.38035753061769451 0 -0.0175082681887339 0.3959876205492866 0 -0.0097408134845490945 0.3842850560440757 0 -0.0175082681887339 0.3959876205492866 0 -0.0062189795252348846 0.40611161009886648 0 -0.02489634498304974 0.41216944014457191 0 -0.032653513920706458 0.38849433158559499 0 -0.0175082681887339 0.3959876205492866 0 -0.02489634498304974 0.41216944014457191 0 -0.032653513920706458 0.38849433158559499 0 -0.02489634498304974 0.41216944014457191 0 -0.0175082681887339 0.3959876205492866 0 -0.0062189795252348846 0.40611161009886648 0 9.4577485471350172e-06 0.3898325466449114 0 -0.0175082681887339 0.3959876205492866 0 -0.0097408134845490945 0.3842850560440757 0 9.4577485471350172e-06 0.3898325466449114 0 -0.023929182181737729 0.38035753061769451 0 -0.0097408134845490945 0.3842850560440757 0 0.0024647386837281168 0.37096252636441063 0 -0.0097408134845490945 0.3842850560440757 0 9.4577485471350172e-06 0.3898325466449114 0 0.0024647386837281168 0.37096252636441063 0 -0.023929182181737729 0.38035753061769451 0 0.0024647386837281168 0.37096252636441063 0 -0.015398347945267 0.42469999563183369 0 -0.0082961280015614192 0.41716866767720079 0 0.0009558333416579321 0.42644653379215269 0 -0.015398347945267 0.42469999563183369 0 -0.0060715276852571108 0.43503514122775527 0 0.0009558333416579321 0.42644653379215269 0 -0.015398347945267 0.42469999563183369 0 -0.0060715276852571108 0.43503514122775527 0 -0.017139176045393459 0.43584454870354877 0 -0.0082961280015614192 0.41716866767720079 0 0.004077199104086591 0.4164157587185795 0 0.0009558333416579321 0.42644653379215269 0 -0.0062189795252348846 0.40611161009886648 0 -0.0082961280015614192 0.41716866767720079 0 -0.02489634498304974 0.41216944014457191 0 -0.0062189795252348846 0.40611161009886648 0 -0.0082961280015614192 0.41716866767720079 0 0.004077199104086591 0.4164157587185795 0 -0.015398347945267 0.42469999563183369 0 -0.0082961280015614192 0.41716866767720079 0 -0.02489634498304974 0.41216944014457191 0 -0.02489634498304974 0.41216944014457191 0 -0.017139176045393459 0.43584454870354877 0 -0.017139176045393459 0.43584454870354877 0 -0.035919203223314239 0.4286339587737707 0 -0.0290341286639587 0.43838703521212502 0 -0.015398347945267 0.42469999563183369 0 -0.02489634498304974 0.41216944014457191 0 -0.017139176045393459 0.43584454870354877 0 -0.02489634498304974 0.41216944014457191 0 -0.017139176045393459 0.43584454870354877 0 -0.035919203223314239 0.4286339587737707 0 -0.015398347945267 0.42469999563183369 0 -0.017139176045393459 0.43584454870354877 0 -0.035919203223314239 0.4286339587737707 0 -0.048511362902289142 0.44114466699646659 0 -0.0290341286639587 0.43838703521212502 0 -0.035919203223314239 0.4286339587737707 0 -0.047307130981008742 0.42341423552615798 0 -0.048511362902289142 0.44114466699646659 0 -0.035919203223314239 0.4286339587737707 0 -0.038915976759940123 0.41518210439878761 0 -0.047307130981008742 0.42341423552615798 0 -0.02489634498304974 0.41216944014457191 0 -0.035919203223314239 0.4286339587737707 0 -0.038915976759940123 0.41518210439878761 0 -0.038915976759940123 0.41518210439878761 0 -0.048131486223544608 0.4073908669408951 0 -0.047307130981008742 0.42341423552615798 0 -0.038625794120758727 0.40315703140060011 0 -0.02489634498304974 0.41216944014457191 0 -0.038915976759940123 0.41518210439878761 0 -0.038625794120758727 0.40315703140060011 0 -0.038915976759940123 0.41518210439878761 0 -0.048131486223544608 0.4073908669408951 0 -0.065057625795955587 0.42471958052086978 0 -0.066266815238952559 0.40511068331697192 0 -0.048131486223544608 0.4073908669408951 0 -0.065057625795955587 0.42471958052086978 0 -0.048131486223544608 0.4073908669408951 0 -0.047307130981008742 0.42341423552615798 0 -0.065057625795955587 0.42471958052086978 0 -0.047307130981008742 0.42341423552615798 0 -0.048511362902289142 0.44114466699646659 0 -0.065057625795955587 0.42471958052086978 0 -0.048511362902289142 0.44114466699646659 0 -0.0715118902909192 0.44276391571046342 0 -0.048511362902289142 0.44114466699646659 0 -0.060615565440421112 0.46019098698902838 0 -0.0715118902909192 0.44276391571046342 0 -0.060615565440421112 0.46019098698902838 0 -0.044958094678946993 0.45969614000107373 0 -0.048407044953963217 0.47250710324264372 0 -0.048511362902289142 0.44114466699646659 0 -0.060615565440421112 0.46019098698902838 0 -0.044958094678946993 0.45969614000107373 0 -0.03301916835720508 0.44987936283047342 0 -0.035780417500462881 0.47493968141523679 0 -0.044958094678946993 0.45969614000107373 0 -0.03301916835720508 0.44987936283047342 0 -0.035780417500462881 0.47493968141523679 0 -0.048511362902289142 0.44114466699646659 0 -0.03301916835720508 0.44987936283047342 0 -0.0290341286639587 0.43838703521212502 0 -0.048511362902289142 0.44114466699646659 0 -0.044958094678946993 0.45969614000107373 0 -0.03301916835720508 0.44987936283047342 0 -0.03301916835720508 0.44987936283047342 0 -0.0290341286639587 0.43838703521212502 0 -0.020479630396337229 0.45722969913569977 0 -0.017139176045393459 0.43584454870354877 0 -0.020479630396337229 0.45722969913569977 0 -0.017139176045393459 0.43584454870354877 0 -0.0290341286639587 0.43838703521212502 0 -0.020479630396337229 0.45722969913569977 0 -0.020479630396337229 0.45722969913569977 0 -0.023820084747280552 0.47861484956785072 0 -0.03301916835720508 0.44987936283047342 0 -0.020479630396337229 0.45722969913569977 0 -0.035780417500462881 0.47493968141523679 0 -0.020479630396337229 0.45722969913569977 0 -0.0089961342195608793 0.46069735270669371 0 -0.01113740460063027 0.47285528926081583 0 -0.0089961342195608793 0.46069735270669371 0 -0.01113740460063027 0.47285528926081583 0 0.001892583759287806 0.46891493070632789 0 -0.0089961342195608793 0.46069735270669371 0 0.001892583759287806 0.46891493070632789 0 0.006126683664170204 0.4551121289163319 0 -0.0089961342195608793 0.46069735270669371 0 -0.0040689949533659836 0.44571316907421982 0 0.006126683664170204 0.4551121289163319 0 -0.017139176045393459 0.43584454870354877 0 -0.020479630396337229 0.45722969913569977 0 -0.0089961342195608793 0.46069735270669371 0 -0.017139176045393459 0.43584454870354877 0 -0.0089961342195608793 0.46069735270669371 0 -0.017139176045393459 0.43584454870354877 0 -0.0089961342195608793 0.46069735270669371 0 -0.0040689949533659836 0.44571316907421982 0 -0.0060715276852571108 0.43503514122775527 0 -0.0040689949533659836 0.44571316907421982 0 0.0075351656714072726 0.44152041939626258 0 -0.0060715276852571108 0.43503514122775527 0 -0.017139176045393459 0.43584454870354877 0 -0.0040689949533659836 0.44571316907421982 0 -0.013329082676762079 0.48809175138458161 0 -0.027160539098224131 0.50000000000000167 0 0.002082438541431642 0.5 0 -0.013329082676762079 0.48809175138458161 0 -0.0020920793231286642 0.48358315206374081 0 0.002082438541431642 0.5 0 -0.0020920793231286642 0.48358315206374081 0 -0.01113740460063027 0.47285528926081583 0 0.001892583759287806 0.46891493070632789 0 -0.013329082676762079 0.48809175138458161 0 -0.0020920793231286642 0.48358315206374081 0 -0.01113740460063027 0.47285528926081583 0 -0.020479630396337229 0.45722969913569977 0 -0.023820084747280552 0.47861484956785072 0 -0.035780417500462881 0.47493968141523679 0 -0.020479630396337229 0.45722969913569977 0 -0.01113740460063027 0.47285528926081583 0 -0.023820084747280552 0.47861484956785072 0 -0.013329082676762079 0.48809175138458161 0 -0.01113740460063027 0.47285528926081583 0 -0.023820084747280552 0.47861484956785072 0 -0.023820084747280552 0.47861484956785072 0 -0.027160539098224131 0.50000000000000167 0 -0.023820084747280552 0.47861484956785072 0 -0.027160539098224131 0.50000000000000167 0 -0.038541666643720718 0.50000000000000022 0 -0.013329082676762079 0.48809175138458161 0 -0.023820084747280552 0.47861484956785072 0 -0.027160539098224131 0.50000000000000167 0 -0.038541666643720718 0.50000000000000022 0 -0.035780417500462881 0.47493968141523679 0 -0.023820084747280552 0.47861484956785072 0 -0.038541666643720718 0.50000000000000022 0 -0.035780417500462881 0.47493968141523679 0 -0.038541666643720718 0.50000000000000022 0 -0.035780417500462881 0.47493968141523679 0 -0.047587204854294907 0.48597394634099761 0 -0.035780417500462881 0.47493968141523679 0 -0.048407044953963217 0.47250710324264372 0 -0.047587204854294907 0.48597394634099761 0 -0.044958094678946993 0.45969614000107373 0 -0.035780417500462881 0.47493968141523679 0 -0.048407044953963217 0.47250710324264372 0 -0.060615565440421112 0.46019098698902838 0 -0.048407044953963217 0.47250710324264372 0 -0.060500753941801322 0.48260404851558769 0 -0.048407044953963217 0.47250710324264372 0 -0.060500753941801322 0.48260404851558769 0 -0.047587204854294907 0.48597394634099761 0 -0.038541666643720718 0.50000000000000022 0 -0.056249226991132877 0.5 0 -0.047587204854294907 0.48597394634099761 0 -0.060500753941801322 0.48260404851558769 0 -0.056249226991132877 0.5 0 -0.047587204854294907 0.48597394634099761 0 -0.14783955599987469 0.5 0 -0.073956787338544924 0.50000000000000033 0 -0.12103489197726459 0.47737874935941937 0 -0.060500753941801322 0.48260404851558769 0 -0.056249226991132877 0.5 0 -0.073956787338544924 0.50000000000000033 0 -0.060500753941801322 0.48260404851558769 0 -0.073956787338544924 0.50000000000000033 0 -0.08190462993618422 0.47632647737550721 0 -0.073956787338544924 0.50000000000000033 0 -0.08190462993618422 0.47632647737550721 0 -0.073956787338544924 0.50000000000000033 0 -0.08190462993618422 0.47632647737550721 0 -0.099690012622044674 0.4691265976498647 0 -0.060615565440421112 0.46019098698902838 0 -0.060500753941801322 0.48260404851558769 0 -0.08190462993618422 0.47632647737550721 0 -0.060615565440421112 0.46019098698902838 0 -0.08190462993618422 0.47632647737550721 0 -0.089852472533823419 0.45265295475101408 0 -0.060615565440421112 0.46019098698902838 0 -0.0715118902909192 0.44276391571046342 0 -0.089852472533823419 0.45265295475101408 0 -0.084679631861398555 0.434453159275204 0 -0.0715118902909192 0.44276391571046342 0 -0.089852472533823419 0.45265295475101408 0 -0.1018585952074873 0.43106855587612358 0 -0.084679631861398555 0.434453159275204 0 -0.089852472533823419 0.45265295475101408 0 -0.08190462993618422 0.47632647737550721 0 -0.089852472533823419 0.45265295475101408 0 -0.099690012622044674 0.4691265976498647 0 -0.08190462993618422 0.47632647737550721 0 -0.089852472533823419 0.45265295475101408 0 -0.089852472533823419 0.45265295475101408 0 -0.1121018480540986 0.45446630101983682 0 -0.099690012622044674 0.4691265976498647 0 -0.1018585952074873 0.43106855587612358 0 -0.089852472533823419 0.45265295475101408 0 -0.1121018480540986 0.45446630101983682 0 -0.1270439353142809 0.43695352111152291 0 -0.1018585952074873 0.43106855587612358 0 -0.1121018480540986 0.45446630101983682 0 -0.13429886875633179 0.45944833036229271 0 -0.1270439353142809 0.43695352111152291 0 -0.1121018480540986 0.45446630101983682 0 -0.13429886875633179 0.45944833036229271 0 -0.1121018480540986 0.45446630101983682 0 -0.12103489197726459 0.47737874935941937 0 -0.1121018480540986 0.45446630101983682 0 -0.12103489197726459 0.47737874935941937 0 -0.099690012622044674 0.4691265976498647 0 -0.073956787338544924 0.50000000000000033 0 -0.12103489197726459 0.47737874935941937 0 -0.099690012622044674 0.4691265976498647 0 -0.1627629860584022 0.081917553740947752 0 -0.17479407007718689 0.087737327066241849 0 -0.16410944305632 0.096840186149950158 0 -0.1627629860584022 0.081917553740947752 0 -0.16410944305632 0.096840186149950158 0 -0.1524760341836274 0.095185084319504287 0 -0.1627629860584022 0.081917553740947752 0 -0.16505719595472229 0.067009038850388877 0 -0.1531104106283806 0.071183246184920834 0 -0.16505719595472229 0.067009038850388877 0 -0.1531104106283806 0.071183246184920834 0 -0.15703261107325711 0.058693029804076861 0 -0.1627629860584022 0.081917553740947752 0 -0.16505719595472229 0.067009038850388877 0 -0.1769995615122682 0.072957661544142682 0 -0.1627629860584022 0.081917553740947752 0 -0.1769995615122682 0.072957661544142682 0 -0.18625518789196341 0.071745672788493142 0 -0.1769995615122682 0.072957661544142682 0 -0.18625518789196341 0.071745672788493142 0 -0.18758534349195979 0.05688657041695059 0 -0.1627629860584022 0.081917553740947752 0 -0.18625518789196341 0.071745672788493142 0 -0.16505719595472229 0.067009038850388877 0 -0.1769995615122682 0.072957661544142682 0 -0.17538041050130329 0.050293702977856271 0 -0.18625518789196341 0.071745672788493142 0 -0.18758534349195979 0.05688657041695059 0 -0.18499099827277199 0.08586787245346883 0 -0.17479407007718689 0.087737327066241849 0 -0.17585173510647609 0.102315350198349 0 -0.18625518789196341 0.071745672788493142 0 -0.18499099827277199 0.08586787245346883 0 -0.17479407007718689 0.087737327066241849 0 -0.18625518789196341 0.071745672788493142 0 -0.18499099827277199 0.08586787245346883 0 -0.1627629860584022 0.081917553740947752 0 -0.18625518789196341 0.071745672788493142 0 -0.17479407007718689 0.087737327066241849 0 -0.18499099827277199 0.08586787245346883 0 -0.18347747502585449 0.1027753657329817 0 -0.17585173510647609 0.102315350198349 0 -0.18499099827277199 0.08586787245346883 0 -0.17585173510647609 0.102315350198349 0 -0.18499099827277199 0.08586787245346883 0 -0.18347747502585449 0.1027753657329817 0 -0.18499099827277199 0.08586787245346883 0 -0.18347747502585449 0.1027753657329817 0 -0.19067755834818831 0.09664944466985799 0 -0.18347747502585449 0.1027753657329817 0 -0.17585173510647609 0.102315350198349 0 -0.18196395177893829 0.11968285901249461 0 -0.17585173510647609 0.102315350198349 0 -0.18196395177893829 0.11968285901249461 0 -0.1667124719401791 0.11876282794322859 0 -0.18347747502585449 0.1027753657329817 0 -0.18196395177893829 0.11968285901249461 0 -0.1898121447413777 0.1103156725357313 0 -0.18347747502585449 0.1027753657329817 0 -0.18196395177893829 0.11968285901249461 0 -0.18196395177893829 0.11968285901249461 0 -0.1885165756651753 0.1200781398392947 0 -0.18727046621823759 0.12745674582228969 0 -0.18196395177893829 0.11968285901249461 0 -0.1885165756651753 0.1200781398392947 0 -0.18196395177893829 0.11968285901249461 0 -0.1885165756651753 0.1200781398392947 0 -0.1898121447413777 0.1103156725357313 0 -0.18196395177893829 0.11968285901249461 0 -0.1667124719401791 0.11876282794322859 0 -0.17362273250058111 0.13108344186743751 0 -0.18196395177893829 0.11968285901249461 0 -0.1667124719401791 0.11876282794322859 0 -0.1667124719401791 0.11876282794322859 0 -0.1553671110122343 0.105105704337088 0 -0.14850171314463809 0.1105882956072808 0 -0.17585173510647609 0.102315350198349 0 -0.1667124719401791 0.11876282794322859 0 -0.1667124719401791 0.11876282794322859 0 -0.1655101902788024 0.10575601715715401 0 -0.1553671110122343 0.105105704337088 0 -0.17585173510647609 0.102315350198349 0 -0.1667124719401791 0.11876282794322859 0 -0.1655101902788024 0.10575601715715401 0 -0.17479407007718689 0.087737327066241849 0 -0.17585173510647609 0.102315350198349 0 -0.16410944305632 0.096840186149950158 0 -0.17585173510647609 0.102315350198349 0 -0.16410944305632 0.096840186149950158 0 -0.1655101902788024 0.10575601715715401 0 -0.16410944305632 0.096840186149950158 0 -0.1655101902788024 0.10575601715715401 0 -0.1553671110122343 0.105105704337088 0 -0.16410944305632 0.096840186149950158 0 -0.1524760341836274 0.095185084319504287 0 -0.1553671110122343 0.105105704337088 0 -0.1524760341836274 0.095185084319504287 0 -0.1553671110122343 0.105105704337088 0 -0.1435685642728369 0.1024641338296149 0 -0.1553671110122343 0.105105704337088 0 -0.1435685642728369 0.1024641338296149 0 -0.14850171314463809 0.1105882956072808 0 -0.1435685642728369 0.1024641338296149 0 -0.14850171314463809 0.1105882956072808 0 -0.1372464201140981 0.1088230095980308 0 -0.1524760341836274 0.095185084319504287 0 -0.1435685642728369 0.1024641338296149 0 -0.1392707842248411 0.0920894346934025 0 -0.1667124719401791 0.11876282794322859 0 -0.14850171314463809 0.1105882956072808 0 -0.13961829393823 0.11712839732917631 0 -0.1667124719401791 0.11876282794322859 0 -0.13961829393823 0.11712839732917631 0 -0.14481560132665361 0.13080787983555911 0 -0.1667124719401791 0.11876282794322859 0 -0.13961829393823 0.11712839732917631 0 -0.14850171314463809 0.1105882956072808 0 -0.13961829393823 0.11712839732917631 0 -0.1372464201140981 0.1088230095980308 0 -0.13961829393823 0.11712839732917631 0 -0.13114276804465411 0.1237362104859978 0 -0.1188837192841094 0.1158776037608457 0 -0.13961829393823 0.11712839732917631 0 -0.12783598980160399 0.11152836086208651 0 -0.1188837192841094 0.1158776037608457 0 -0.13961829393823 0.11712839732917631 0 -0.1188837192841094 0.1158776037608457 0 -0.13961829393823 0.11712839732917631 0 -0.13114276804465411 0.1237362104859978 0 -0.14481560132665361 0.13080787983555911 0 -0.13961829393823 0.11712839732917631 0 -0.12783598980160399 0.11152836086208651 0 -0.1372464201140981 0.1088230095980308 0 -0.13371666951954089 0.10160708163315151 0 -0.1392707842248411 0.0920894346934025 0 -0.1157785823912799 0.1022613156458573 0 -0.1392707842248411 0.0920894346934025 0 -0.1157785823912799 0.1022613156458573 0 -0.13371666951954089 0.10160708163315151 0 -0.12819454715255271 0.10686451578017481 0 -0.1157785823912799 0.1022613156458573 0 -0.1435685642728369 0.1024641338296149 0 -0.13371666951954089 0.10160708163315151 0 -0.1392707842248411 0.0920894346934025 0 -0.13371666951954089 0.10160708163315151 0 -0.1372464201140981 0.1088230095980308 0 -0.12819454715255271 0.10686451578017481 0 -0.1435685642728369 0.1024641338296149 0 -0.13371666951954089 0.10160708163315151 0 -0.1372464201140981 0.1088230095980308 0 -0.12783598980160399 0.11152836086208651 0 -0.1372464201140981 0.1088230095980308 0 -0.12819454715255271 0.10686451578017481 0 -0.12783598980160399 0.11152836086208651 0 -0.12819454715255271 0.10686451578017481 0 -0.12159657186685841 0.1093319148879265 0 -0.1392707842248411 0.0920894346934025 0 -0.14098105137258279 0.086127345383486903 0 -0.1247293894785861 0.080375583490691058 0 -0.1392707842248411 0.0920894346934025 0 -0.1247293894785861 0.080375583490691058 0 -0.1157785823912799 0.1022613156458573 0 -0.1627629860584022 0.081917553740947752 0 -0.14098105137258279 0.086127345383486903 0 -0.1531104106283806 0.071183246184920834 0 -0.1627629860584022 0.081917553740947752 0 -0.1524760341836274 0.095185084319504287 0 -0.1392707842248411 0.0920894346934025 0 -0.1627629860584022 0.081917553740947752 0 -0.1392707842248411 0.0920894346934025 0 -0.14098105137258279 0.086127345383486903 0 -0.1627629860584022 0.081917553740947752 0 -0.1392707842248411 0.0920894346934025 0 -0.14098105137258279 0.086127345383486903 0 -0.1531104106283806 0.071183246184920834 0 -0.13843533025975549 0.057367386221451537 0 -0.14098105137258279 0.086127345383486903 0 -0.13843533025975549 0.057367386221451537 0 -0.1247293894785861 0.080375583490691058 0 -0.13843533025975549 0.057367386221451537 0 -0.1247293894785861 0.080375583490691058 0 -0.11944240010931829 0.062079441005573152 0 -0.14098105137258279 0.086127345383486903 0 -0.13843533025975549 0.057367386221451537 0 -0.13843533025975549 0.057367386221451537 0 -0.1217776407636797 0.046883171440986422 0 -0.11944240010931829 0.062079441005573152 0 -0.13843533025975549 0.057367386221451537 0 -0.1358896091469283 0.028607427059415911 0 -0.13843533025975549 0.057367386221451537 0 -0.1358896091469283 0.028607427059415911 0 -0.1217776407636797 0.046883171440986422 0 -0.13843533025975549 0.057367386221451537 0 -0.1358896091469283 0.028607427059415911 0 -0.15626974918756181 0.037479098072229107 0 -0.1531104106283806 0.071183246184920834 0 -0.13843533025975549 0.057367386221451537 0 -0.15703261107325711 0.058693029804076861 0 -0.13843533025975549 0.057367386221451537 0 -0.15703261107325711 0.058693029804076861 0 -0.15626974918756181 0.037479098072229107 0 -0.13334388803410099 -0.0001525321026195833 0 -0.1358896091469283 0.028607427059415911 0 -0.13334388803410099 -0.0001525321026195833 0 -0.1358896091469283 0.028607427059415911 0 -0.11983629681939879 0.01154877613917666 0 -0.13334388803410099 -0.0001525321026195833 0 -0.1358896091469283 0.028607427059415911 0 -0.14976308853899001 0.0227983838584917 0 -0.1358896091469283 0.028607427059415911 0 -0.14976308853899001 0.0227983838584917 0 -0.15626974918756181 0.037479098072229107 0 -0.14976308853899001 0.0227983838584917 0 -0.15201470086044461 0.0079273161326678838 0 -0.1629464885727592 0.0172202758547551 0 -0.13334388803410099 -0.0001525321026195833 0 -0.14976308853899001 0.0227983838584917 0 -0.15201470086044461 0.0079273161326678838 0 -0.15718115217602721 -0.011749852868622681 0 -0.15201470086044461 0.0079273161326678838 0 -0.1610711125221512 0.0045908812410209391 0 -0.15201470086044461 0.0079273161326678838 0 -0.1610711125221512 0.0045908812410209391 0 -0.1629464885727592 0.0172202758547551 0 -0.1610711125221512 0.0045908812410209391 0 -0.1629464885727592 0.0172202758547551 0 -0.172142108479374 0.0049657858452834486 0 -0.14976308853899001 0.0227983838584917 0 -0.1629464885727592 0.0172202758547551 0 -0.15626974918756181 0.037479098072229107 0 -0.1629464885727592 0.0172202758547551 0 -0.17376125949033841 0.027629744411569911 0 -0.15626974918756181 0.037479098072229107 0 -0.1629464885727592 0.0172202758547551 0 -0.17376125949033841 0.027629744411569911 0 -0.172142108479374 0.0049657858452834486 0 -0.17376125949033841 0.027629744411569911 0 -0.172142108479374 0.0049657858452834486 0 -0.17376125949033841 0.027629744411569911 0 -0.1849850567867912 0.021319531940013819 0 -0.18792838067470599 0.040814556756480477 0 -0.17376125949033841 0.027629744411569911 0 -0.1849850567867912 0.021319531940013819 0 -0.17676647334294501 0.0101325152156128 0 -0.17376125949033841 0.027629744411569911 0 -0.17676647334294501 0.0101325152156128 0 -0.172142108479374 0.0049657858452834486 0 -0.1849850567867912 0.021319531940013819 0 -0.17676647334294501 0.0101325152156128 0 -0.18626390564351561 0.0080025729528093829 0 -0.17676647334294501 0.0101325152156128 0 -0.18626390564351561 0.0080025729528093829 0 -0.1810383977361181 0.001838255785446235 0 -0.18768795508738781 -0.002083437595672367 0 -0.18626390564351561 0.0080025729528093829 0 -0.1810383977361181 0.001838255785446235 0 -0.17676647334294501 0.0101325152156128 0 -0.1810383977361181 0.001838255785446235 0 -0.172142108479374 0.0049657858452834486 0 -0.17676647334294501 0.0101325152156128 0 -0.172142108479374 0.0049657858452834486 0 -0.15703261107325711 0.058693029804076861 0 -0.15626974918756181 0.037479098072229107 0 -0.17538041050130329 0.050293702977856271 0 -0.16505719595472229 0.067009038850388877 0 -0.15703261107325711 0.058693029804076861 0 -0.17538041050130329 0.050293702977856271 0 -0.17376125949033841 0.027629744411569911 0 -0.15626974918756181 0.037479098072229107 0 -0.17538041050130329 0.050293702977856271 0 -0.17376125949033841 0.027629744411569911 0 -0.17538041050130329 0.050293702977856271 0 -0.18792838067470599 0.040814556756480477 0 -0.17376125949033841 0.027629744411569911 0 -0.17538041050130329 0.050293702977856271 0 -0.17538041050130329 0.050293702977856271 0 -0.18758534349195979 0.05688657041695059 0 -0.18792838067470599 0.040814556756480477 0 -0.1769995615122682 0.072957661544142682 0 -0.17538041050130329 0.050293702977856271 0 -0.1769995615122682 0.072957661544142682 0 -0.17538041050130329 0.050293702977856271 0 -0.18758534349195979 0.05688657041695059 0 -0.2050147967898463 0.049832037344569022 0 -0.19492383628468171 0.067992237495622387 0 -0.18758534349195979 0.05688657041695059 0 -0.19473373041535849 0.049489388634081387 0 -0.18792838067470599 0.040814556756480477 0 -0.19473373041535849 0.049489388634081387 0 -0.2050147967898463 0.049832037344569022 0 -0.19492383628468171 0.067992237495622387 0 -0.18758534349195979 0.05688657041695059 0 -0.19473373041535849 0.049489388634081387 0 -0.19492383628468171 0.067992237495622387 0 -0.19473373041535849 0.049489388634081387 0 -0.18792838067470599 0.040814556756480477 0 -0.1997441443997936 0.040217341781858838 0 -0.18792838067470599 0.040814556756480477 0 -0.1997441443997936 0.040217341781858838 0 -0.19593805682404869 0.029278888980649051 0 -0.19473373041535849 0.049489388634081387 0 -0.1997441443997936 0.040217341781858838 0 -0.2050147967898463 0.049832037344569022 0 -0.21510575729500839 0.031671837193514213 0 -0.21719060872882559 0.043812914903054299 0 -0.2050147967898463 0.049832037344569022 0 -0.21510575729500839 0.031671837193514213 0 -0.2050147967898463 0.049832037344569022 0 -0.1997441443997936 0.040217341781858838 0 -0.21510575729500839 0.031671837193514213 0 -0.2050147967898463 0.049832037344569022 0 -0.1997441443997936 0.040217341781858838 0 -0.21510575729500839 0.031671837193514213 0 -0.19593805682404869 0.029278888980649051 0 -0.21719060872882559 0.043812914903054299 0 -0.21404766246295179 0.052629578542139573 0 -0.22434888412719639 0.055251495448749903 0 -0.21719060872882559 0.043812914903054299 0 -0.21404766246295179 0.052629578542139573 0 -0.2050147967898463 0.049832037344569022 0 -0.20963636020593859 0.061621866472185059 0 -0.2050147967898463 0.049832037344569022 0 -0.19492383628468171 0.067992237495622387 0 -0.21404766246295179 0.052629578542139573 0 -0.20963636020593859 0.061621866472185059 0 -0.22434888412719639 0.055251495448749903 0 -0.20963636020593859 0.061621866472185059 0 -0.22434888412719639 0.055251495448749903 0 -0.21404766246295179 0.052629578542139573 0 -0.20963636020593859 0.061621866472185059 0 -0.2050147967898463 0.049832037344569022 0 -0.18768795508738781 -0.002083437595672367 0 -0.18626390564351561 0.0080025729528093829 0 -0.19736635287963419 0.0018705876172133949 0 -0.1849850567867912 0.021319531940013819 0 -0.18626390564351561 0.0080025729528093829 0 -0.19418380032342211 0.01371911349298385 0 -0.18626390564351561 0.0080025729528093829 0 -0.19736635287963419 0.0018705876172133949 0 -0.19418380032342211 0.01371911349298385 0 -0.19736635287963419 0.0018705876172133949 0 -0.19418380032342211 0.01371911349298385 0 -0.208897403785512 0.011744623124039909 0 -0.1849850567867912 0.021319531940013819 0 -0.18792838067470599 0.040814556756480477 0 -0.19593805682404869 0.029278888980649051 0 -0.19418380032342211 0.01371911349298385 0 -0.19593805682404869 0.029278888980649051 0 -0.208897403785512 0.011744623124039909 0 -0.19593805682404869 0.029278888980649051 0 -0.208897403785512 0.011744623124039909 0 -0.1849850567867912 0.021319531940013819 0 -0.19418380032342211 0.01371911349298385 0 -0.19593805682404869 0.029278888980649051 0 -0.21510575729500839 0.031671837193514213 0 -0.19593805682404869 0.029278888980649051 0 -0.208897403785512 0.011744623124039909 0 -0.21510575729500839 0.031671837193514213 0 -0.208897403785512 0.011744623124039909 0 -0.2251967178001705 0.013511637042459451 0 -0.22185675074697531 -0.0057896427325692494 0 -0.208897403785512 0.011744623124039909 0 -0.22181947471183691 0.0055836275476817644 0 -0.208897403785512 0.011744623124039909 0 -0.22181947471183691 0.0055836275476817644 0 -0.2251967178001705 0.013511637042459451 0 -0.22185675074697531 -0.0057896427325692494 0 -0.208897403785512 0.011744623124039909 0 -0.20822551237540271 -0.01030358335887274 0 -0.19736635287963419 0.0018705876172133949 0 -0.208897403785512 0.011744623124039909 0 -0.2313270265146895 0.002867892756796941 0 -0.2251967178001705 0.013511637042459451 0 -0.2278379553209427 0.02905969410277336 0 -0.22185675074697531 -0.0057896427325692494 0 -0.2313270265146895 0.002867892756796941 0 -0.22181947471183691 0.0055836275476817644 0 -0.2313270265146895 0.002867892756796941 0 -0.22181947471183691 0.0055836275476817644 0 -0.2251967178001705 0.013511637042459451 0 -0.21510575729500839 0.031671837193514213 0 -0.2251967178001705 0.013511637042459451 0 -0.2313270265146895 0.002867892756796941 0 -0.2278379553209427 0.02905969410277336 0 -0.2313270265146895 0.002867892756796941 0 -0.2278379553209427 0.02905969410277336 0 -0.23680392219739549 0.017019974237364621 0 -0.21510575729500839 0.031671837193514213 0 -0.2251967178001705 0.013511637042459451 0 -0.2278379553209427 0.02905969410277336 0 -0.2278379553209427 0.02905969410277336 0 -0.23680392219739549 0.017019974237364621 0 -0.23872511279595349 0.032674888061233837 0 -0.24543378424691301 0.023369322382240511 0 -0.23680392219739549 0.017019974237364621 0 -0.23872511279595349 0.032674888061233837 0 -0.25221396866587598 0.01086439825930755 0 -0.24543378424691301 0.023369322382240511 0 -0.24106058317087861 0.0025102444037685551 0 -0.24543378424691301 0.023369322382240511 0 -0.24106058317087861 0.0025102444037685551 0 -0.24543378424691301 0.023369322382240511 0 -0.23680392219739549 0.017019974237364621 0 -0.24106058317087861 0.0025102444037685551 0 -0.25283005323772689 0.00055530769458268315 0 -0.25221396866587598 0.01086439825930755 0 -0.24106058317087861 0.0025102444037685551 0 -0.2313270265146895 0.002867892756796941 0 -0.23680392219739549 0.017019974237364621 0 -0.24106058317087861 0.0025102444037685551 0 -0.22434888412719639 0.055251495448749903 0 -0.23910898115920931 0.062393219272261151 0 -0.22260815440731591 0.068318826118827516 0 -0.20963636020593859 0.061621866472185059 0 -0.22434888412719639 0.055251495448749903 0 -0.22260815440731591 0.068318826118827516 0 -0.22434888412719639 0.055251495448749903 0 -0.22260815440731591 0.068318826118827516 0 -0.21719060872882559 0.043812914903054299 0 -0.2278379553209427 0.02905969410277336 0 -0.22434888412719639 0.055251495448749903 0 -0.2278379553209427 0.02905969410277336 0 -0.22434888412719639 0.055251495448749903 0 -0.2278379553209427 0.02905969410277336 0 -0.22434888412719639 0.055251495448749903 0 -0.23491847913408601 0.041143784079474027 0 -0.21510575729500839 0.031671837193514213 0 -0.21719060872882559 0.043812914903054299 0 -0.2278379553209427 0.02905969410277336 0 -0.2278379553209427 0.02905969410277336 0 -0.23491847913408601 0.041143784079474027 0 -0.23872511279595349 0.032674888061233837 0 -0.22434888412719639 0.055251495448749903 0 -0.23491847913408601 0.041143784079474027 0 -0.24980698532294751 0.04422840036071244 0 -0.24543378424691301 0.023369322382240511 0 -0.24980698532294751 0.04422840036071244 0 -0.24543378424691301 0.023369322382240511 0 -0.23872511279595349 0.032674888061233837 0 -0.24980698532294751 0.04422840036071244 0 -0.23491847913408601 0.041143784079474027 0 -0.23872511279595349 0.032674888061233837 0 -0.24980698532294751 0.04422840036071244 0 -0.22434888412719639 0.055251495448749903 0 -0.24980698532294751 0.04422840036071244 0 -0.23910898115920931 0.062393219272261151 0 -0.22434888412719639 0.055251495448749903 0 -0.24980698532294751 0.04422840036071244 0 -0.25239598045762301 0.056577261174826282 0 -0.24980698532294751 0.04422840036071244 0 -0.23910898115920931 0.062393219272261151 0 -0.25315120101487221 0.068954177185853227 0 -0.25239598045762301 0.056577261174826282 0 -0.23910898115920931 0.062393219272261151 0 -0.25315120101487221 0.068954177185853227 0 -0.23910898115920931 0.062393219272261151 0 -0.24267471687956249 0.074384321586695668 0 -0.25257355536909432 0.082348312818626632 0 -0.25315120101487221 0.068954177185853227 0 -0.24267471687956249 0.074384321586695668 0 -0.23910898115920931 0.062393219272261151 0 -0.24267471687956249 0.074384321586695668 0 -0.23198741136008641 0.076448508159078638 0 -0.25149407947967251 0.098937901634065836 0 -0.25257355536909432 0.082348312818626632 0 -0.24091929758590161 0.086338992333045733 0 -0.25257355536909432 0.082348312818626632 0 -0.24267471687956249 0.074384321586695668 0 -0.24091929758590161 0.086338992333045733 0 -0.24267471687956249 0.074384321586695668 0 -0.24091929758590161 0.086338992333045733 0 -0.23198741136008641 0.076448508159078638 0 -0.24091929758590161 0.086338992333045733 0 -0.22805359489205679 0.088562450943366747 0 -0.23002301885947529 0.1017296272664529 0 -0.22805359489205679 0.088562450943366747 0 -0.22089446880206379 0.080479109839414836 0 -0.23198741136008641 0.076448508159078638 0 -0.24091929758590161 0.086338992333045733 0 -0.22805359489205679 0.088562450943366747 0 -0.23198741136008641 0.076448508159078638 0 -0.22805359489205679 0.088562450943366747 0 -0.22089446880206379 0.080479109839414836 0 -0.21746257338512859 0.091865400180526136 0 -0.23910898115920931 0.062393219272261151 0 -0.23198741136008641 0.076448508159078638 0 -0.22260815440731591 0.068318826118827516 0 -0.22089446880206379 0.080479109839414836 0 -0.23198741136008641 0.076448508159078638 0 -0.22260815440731591 0.068318826118827516 0 -0.22089446880206379 0.080479109839414836 0 -0.22260815440731591 0.068318826118827516 0 -0.2136029586071844 0.072871262154328681 0 -0.20963636020593859 0.061621866472185059 0 -0.22260815440731591 0.068318826118827516 0 -0.2136029586071844 0.072871262154328681 0 -0.20963636020593859 0.061621866472185059 0 -0.20484351384366339 0.072592100218728334 0 -0.2136029586071844 0.072871262154328681 0 -0.20963636020593859 0.061621866472185059 0 -0.20484351384366339 0.072592100218728334 0 -0.19492383628468171 0.067992237495622387 0 -0.20484351384366339 0.072592100218728334 0 -0.20705082378299319 0.083143418275745576 0 -0.1986616784116052 0.077538025199572536 0 -0.20484351384366339 0.072592100218728334 0 -0.2136029586071844 0.072871262154328681 0 -0.20705082378299319 0.083143418275745576 0 -0.22089446880206379 0.080479109839414836 0 -0.21746257338512859 0.091865400180526136 0 -0.20705082378299319 0.083143418275745576 0 -0.21746257338512859 0.091865400180526136 0 -0.20705082378299319 0.083143418275745576 0 -0.20613913223390201 0.10335032814344999 0 -0.22089446880206379 0.080479109839414836 0 -0.2136029586071844 0.072871262154328681 0 -0.20705082378299319 0.083143418275745576 0 -0.20705082378299319 0.083143418275745576 0 -0.19028257515992719 0.084557724708872378 0 -0.20613913223390201 0.10335032814344999 0 -0.20705082378299319 0.083143418275745576 0 -0.19028257515992719 0.084557724708872378 0 -0.1986616784116052 0.077538025199572536 0 -0.18499099827277199 0.08586787245346883 0 -0.19028257515992719 0.084557724708872378 0 -0.19492383628468171 0.067992237495622387 0 -0.18499099827277199 0.08586787245346883 0 -0.19028257515992719 0.084557724708872378 0 -0.19067755834818831 0.09664944466985799 0 -0.18499099827277199 0.08586787245346883 0 -0.19492383628468171 0.067992237495622387 0 -0.19028257515992719 0.084557724708872378 0 -0.19492383628468171 0.067992237495622387 0 -0.1986616784116052 0.077538025199572536 0 -0.18625518789196341 0.071745672788493142 0 -0.18499099827277199 0.08586787245346883 0 -0.19492383628468171 0.067992237495622387 0 -0.18625518789196341 0.071745672788493142 0 -0.18758534349195979 0.05688657041695059 0 -0.19492383628468171 0.067992237495622387 0 -0.18625518789196341 0.071745672788493142 0 -0.19492383628468171 0.067992237495622387 0 -0.20963636020593859 0.061621866472185059 0 -0.19492383628468171 0.067992237495622387 0 -0.20484351384366339 0.072592100218728334 0 -0.19492383628468171 0.067992237495622387 0 -0.1986616784116052 0.077538025199572536 0 -0.20114884871181399 0.1150699808380018 0 -0.1898121447413777 0.1103156725357313 0 -0.20613913223390201 0.10335032814344999 0 -0.20114884871181399 0.1150699808380018 0 -0.1953803003513819 0.12007005814617169 0 -0.1898121447413777 0.1103156725357313 0 -0.1953803003513819 0.12007005814617169 0 -0.19330265133832711 0.12779496921168201 0 -0.20174592528934751 0.12647820272724161 0 -0.20114884871181399 0.1150699808380018 0 -0.1953803003513819 0.12007005814617169 0 -0.20174592528934751 0.12647820272724161 0 -0.1953803003513819 0.12007005814617169 0 -0.1885165756651753 0.1200781398392947 0 -0.19330265133832711 0.12779496921168201 0 -0.1953803003513819 0.12007005814617169 0 -0.1885165756651753 0.1200781398392947 0 -0.1898121447413777 0.1103156725357313 0 -0.19028257515992719 0.084557724708872378 0 -0.19067755834818831 0.09664944466985799 0 -0.20613913223390201 0.10335032814344999 0 -0.19028257515992719 0.084557724708872378 0 -0.20613913223390201 0.10335032814344999 0 -0.1898121447413777 0.1103156725357313 0 -0.19067755834818831 0.09664944466985799 0 -0.20613913223390201 0.10335032814344999 0 -0.18347747502585449 0.1027753657329817 0 -0.1898121447413777 0.1103156725357313 0 -0.19067755834818831 0.09664944466985799 0 -0.21746257338512859 0.091865400180526136 0 -0.20613913223390201 0.10335032814344999 0 -0.23002301885947529 0.1017296272664529 0 -0.20114884871181399 0.1150699808380018 0 -0.22199568930787689 0.12214293157802759 0 -0.20174592528934751 0.12647820272724161 0 -0.20613913223390201 0.10335032814344999 0 -0.22199568930787689 0.12214293157802759 0 -0.20114884871181399 0.1150699808380018 0 -0.20613913223390201 0.10335032814344999 0 -0.22199568930787689 0.12214293157802759 0 -0.22199568930787689 0.12214293157802759 0 -0.23002301885947529 0.1017296272664529 0 -0.24652085095421339 0.119878352835588 0 -0.20613913223390201 0.10335032814344999 0 -0.22199568930787689 0.12214293157802759 0 -0.23002301885947529 0.1017296272664529 0 -0.22805359489205679 0.088562450943366747 0 -0.21746257338512859 0.091865400180526136 0 -0.23002301885947529 0.1017296272664529 0 -0.25149407947967251 0.098937901634065836 0 -0.24091929758590161 0.086338992333045733 0 -0.23002301885947529 0.1017296272664529 0 -0.25149407947967251 0.098937901634065836 0 -0.23002301885947529 0.1017296272664529 0 -0.24652085095421339 0.119878352835588 0 -0.22199568930787689 0.12214293157802759 0 -0.24652085095421339 0.119878352835588 0 -0.23785224638185179 0.14093553501260531 0 -0.2567994101475965 0.14293011260178351 0 -0.24652085095421339 0.119878352835588 0 -0.23785224638185179 0.14093553501260531 0 -0.22199568930787689 0.12214293157802759 0 -0.22041697239355371 0.13737398845040399 0 -0.23785224638185179 0.14093553501260531 0 -0.22199568930787689 0.12214293157802759 0 -0.23785224638185179 0.14093553501260531 0 -0.22041697239355371 0.13737398845040399 0 -0.23116787213024359 0.1549668042291194 0 -0.2173810933873595 0.15225543931094651 0 -0.22041697239355371 0.13737398845040399 0 -0.23116787213024359 0.1549668042291194 0 -0.23785224638185179 0.14093553501260531 0 -0.25370880345582669 0.159728138447183 0 -0.23785224638185179 0.14093553501260531 0 -0.25370880345582669 0.159728138447183 0 -0.2567994101475965 0.14293011260178351 0 -0.23785224638185179 0.14093553501260531 0 -0.25370880345582669 0.159728138447183 0 -0.23116787213024359 0.1549668042291194 0 -0.23785224638185179 0.14093553501260531 0 -0.25477079641615608 0.17556754903091679 0 -0.25370880345582669 0.159728138447183 0 -0.2361959103630101 0.1682046572440237 0 -0.25370880345582669 0.159728138447183 0 -0.23116787213024359 0.1549668042291194 0 -0.2361959103630101 0.1682046572440237 0 -0.2361959103630101 0.1682046572440237 0 -0.2431197479118164 0.1854173579941589 0 -0.25477079641615608 0.17556754903091679 0 -0.2361959103630101 0.1682046572440237 0 -0.2431197479118164 0.1854173579941589 0 -0.2431197479118164 0.1854173579941589 0 -0.22145220679985991 0.17130306690955399 0 -0.22871930681484981 0.19731525518571849 0 -0.2431197479118164 0.1854173579941589 0 -0.22145220679985991 0.17130306690955399 0 -0.2361959103630101 0.1682046572440237 0 -0.2431197479118164 0.1854173579941589 0 -0.22145220679985991 0.17130306690955399 0 -0.23116787213024359 0.1549668042291194 0 -0.2361959103630101 0.1682046572440237 0 -0.22145220679985991 0.17130306690955399 0 -0.23116787213024359 0.1549668042291194 0 -0.22145220679985991 0.17130306690955399 0 -0.2173810933873595 0.15225543931094651 0 -0.22145220679985991 0.17130306690955399 0 -0.19317073511988081 0.1799301491814434 0 -0.1997846656879036 0.15718877582494881 0 -0.22145220679985991 0.17130306690955399 0 -0.1997846656879036 0.15718877582494881 0 -0.22145220679985991 0.17130306690955399 0 -0.1997846656879036 0.15718877582494881 0 -0.2173810933873595 0.15225543931094651 0 -0.22145220679985991 0.17130306690955399 0 -0.19317073511988081 0.1799301491814434 0 -0.21004014177526559 0.19716878064164189 0 -0.19317073511988081 0.1799301491814434 0 -0.1997846656879036 0.15718877582494881 0 -0.19317073511988081 0.1799301491814434 0 -0.1997846656879036 0.15718877582494881 0 -0.1848065342958729 0.16851519668647069 0 -0.1997846656879036 0.15718877582494881 0 -0.18822188513930349 0.15785315034197001 0 -0.1848065342958729 0.16851519668647069 0 -0.1997846656879036 0.15718877582494881 0 -0.20516182965388319 0.13869990720259559 0 -0.1997846656879036 0.15718877582494881 0 -0.19455280585515519 0.14584810660980371 0 -0.18619191165773741 0.14833442146918979 0 -0.1997846656879036 0.15718877582494881 0 -0.18822188513930349 0.15785315034197001 0 -0.18619191165773741 0.14833442146918979 0 -0.1997846656879036 0.15718877582494881 0 -0.18619191165773741 0.14833442146918979 0 -0.1997846656879036 0.15718877582494881 0 -0.19455280585515519 0.14584810660980371 0 -0.20516182965388319 0.13869990720259559 0 -0.19455280585515519 0.14584810660980371 0 -0.18939883631309681 0.14103926026568661 0 -0.195992469628051 0.13642649354008651 0 -0.19455280585515519 0.14584810660980371 0 -0.18619191165773741 0.14833442146918979 0 -0.1872459625937084 0.1446644714918601 0 -0.19455280585515519 0.14584810660980371 0 -0.18939883631309681 0.14103926026568661 0 -0.1872459625937084 0.1446644714918601 0 -0.18939883631309681 0.14103926026568661 0 -0.18943140198765471 0.13429945889646791 0 -0.183948150094322 0.13648945435169579 0 -0.18943140198765471 0.13429945889646791 0 -0.19330265133832711 0.12779496921168201 0 -0.195992469628051 0.13642649354008651 0 -0.18939883631309681 0.14103926026568661 0 -0.18943140198765471 0.13429945889646791 0 -0.195992469628051 0.13642649354008651 0 -0.1885165756651753 0.1200781398392947 0 -0.19330265133832711 0.12779496921168201 0 -0.18727046621823759 0.12745674582228969 0 -0.18943140198765471 0.13429945889646791 0 -0.19330265133832711 0.12779496921168201 0 -0.18727046621823759 0.12745674582228969 0 -0.19330265133832711 0.12779496921168201 0 -0.20174592528934751 0.12647820272724161 0 -0.195992469628051 0.13642649354008651 0 -0.19455280585515519 0.14584810660980371 0 -0.195992469628051 0.13642649354008651 0 -0.20516182965388319 0.13869990720259559 0 -0.20174592528934751 0.12647820272724161 0 -0.195992469628051 0.13642649354008651 0 -0.20516182965388319 0.13869990720259559 0 -0.22199568930787689 0.12214293157802759 0 -0.22041697239355371 0.13737398845040399 0 -0.20174592528934751 0.12647820272724161 0 -0.22041697239355371 0.13737398845040399 0 -0.20174592528934751 0.12647820272724161 0 -0.20516182965388319 0.13869990720259559 0 -0.22041697239355371 0.13737398845040399 0 -0.20516182965388319 0.13869990720259559 0 -0.2173810933873595 0.15225543931094651 0 -0.1997846656879036 0.15718877582494881 0 -0.20516182965388319 0.13869990720259559 0 -0.2173810933873595 0.15225543931094651 0 -0.23395429088282479 0.25540169663383039 0 -0.218014250980264 0.2376682439927261 0 -0.23395429088282479 0.25540169663383039 0 -0.21938876226052809 0.24971123941932449 0 -0.218014250980264 0.2376682439927261 0 -0.23395429088282479 0.25540169663383039 0 -0.23621598375468131 0.24232310763638509 0 -0.218014250980264 0.2376682439927261 0 -0.23621598375468131 0.24232310763638509 0 -0.2367720218234538 0.22911332816048871 0 -0.218014250980264 0.2376682439927261 0 -0.26234785653272052 0.2332185487860603 0 -0.23621598375468131 0.24232310763638509 0 -0.25355414777238738 0.24563073474758021 0 -0.24565678637246771 0.25432931140221188 0 -0.23621598375468131 0.24232310763638509 0 -0.25020845078822918 0.2339276499512129 0 -0.26234785653272052 0.2332185487860603 0 -0.23621598375468131 0.24232310763638509 0 -0.25020845078822918 0.2339276499512129 0 -0.23621598375468131 0.24232310763638509 0 -0.2367720218234538 0.22911332816048871 0 -0.2367720218234538 0.22911332816048871 0 -0.24583336088181401 0.22389194151097541 0 -0.22794813115874879 0.21597906909058601 0 -0.25020845078822918 0.2339276499512129 0 -0.2367720218234538 0.22911332816048871 0 -0.24583336088181401 0.22389194151097541 0 -0.2367720218234538 0.22911332816048871 0 -0.22794813115874879 0.21597906909058601 0 -0.218014250980264 0.2376682439927261 0 -0.22794813115874879 0.21597906909058601 0 -0.22871930681484981 0.19731525518571849 0 -0.21004014177526559 0.19716878064164189 0 -0.25382205123979462 0.21202334682955021 0 -0.22794813115874879 0.21597906909058601 0 -0.25382205123979462 0.21202334682955021 0 -0.24583336088181401 0.22389194151097541 0 -0.22794813115874879 0.21597906909058601 0 -0.25382205123979462 0.21202334682955021 0 -0.22794813115874879 0.21597906909058601 0 -0.22871930681484981 0.19731525518571849 0 -0.25382205123979462 0.21202334682955021 0 -0.2431197479118164 0.1854173579941589 0 -0.22871930681484981 0.19731525518571849 0 -0.25382205123979462 0.21202334682955021 0 -0.2431197479118164 0.1854173579941589 0 -0.22145220679985991 0.17130306690955399 0 -0.22871930681484981 0.19731525518571849 0 -0.21004014177526559 0.19716878064164189 0 -0.19317073511988081 0.1799301491814434 0 -0.21004014177526559 0.19716878064164189 0 -0.18655680455186249 0.20267152253793941 0 -0.19317073511988081 0.1799301491814434 0 -0.18655680455186249 0.20267152253793941 0 -0.2020742110777031 0.21993479135162169 0 -0.18655680455186249 0.20267152253793941 0 -0.21004014177526559 0.19716878064164189 0 -0.2020742110777031 0.21993479135162169 0 -0.18655680455186249 0.20267152253793941 0 -0.2020742110777031 0.21993479135162169 0 -0.1805803879577314 0.2232208645219855 0 -0.18655680455186249 0.20267152253793941 0 -0.22794813115874879 0.21597906909058601 0 -0.21004014177526559 0.19716878064164189 0 -0.2020742110777031 0.21993479135162169 0 -0.22794813115874879 0.21597906909058601 0 -0.2020742110777031 0.21993479135162169 0 -0.22794813115874879 0.21597906909058601 0 -0.2020742110777031 0.21993479135162169 0 -0.218014250980264 0.2376682439927261 0 -0.2020742110777031 0.21993479135162169 0 -0.218014250980264 0.2376682439927261 0 -0.2020742110777031 0.21993479135162169 0 -0.19828096430522671 0.24268160811117781 0 -0.218014250980264 0.2376682439927261 0 -0.19032533364051971 0.22744901695303399 0 -0.19828096430522671 0.24268160811117781 0 -0.1805803879577314 0.2232208645219855 0 -0.2020742110777031 0.21993479135162169 0 -0.19032533364051971 0.22744901695303399 0 -0.19828096430522671 0.24268160811117781 0 -0.19828096430522671 0.24268160811117781 0 -0.1805803879577314 0.2232208645219855 0 -0.2020742110777031 0.21993479135162169 0 -0.1805803879577314 0.2232208645219855 0 -0.2020742110777031 0.21993479135162169 0 -0.19032533364051971 0.22744901695303399 0 -0.1805803879577314 0.2232208645219855 0 -0.21938876226052809 0.24971123941932449 0 -0.19828096430522671 0.24268160811117781 0 -0.218014250980264 0.2376682439927261 0 -0.15810109301744099 0.25589380156569258 0 -0.16173095114918309 0.23975699729506639 0 -0.1754675533648144 0.2408008616495303 0 -0.15810109301744099 0.25589380156569258 0 -0.16173095114918309 0.23975699729506639 0 -0.14975156403062179 0.23751073679959989 0 -0.16173095114918309 0.23975699729506639 0 -0.16247821456491859 0.22598840689819899 0 -0.14975156403062179 0.23751073679959989 0 -0.16173095114918309 0.23975699729506639 0 -0.1754675533648144 0.2408008616495303 0 -0.1720496621127294 0.2306965457770129 0 -0.1831215413008474 0.25992371719488311 0 -0.19828096430522671 0.24268160811117781 0 -0.1754675533648144 0.2408008616495303 0 -0.19828096430522671 0.24268160811117781 0 -0.1754675533648144 0.2408008616495303 0 -0.1805803879577314 0.2232208645219855 0 -0.1754675533648144 0.2408008616495303 0 -0.1805803879577314 0.2232208645219855 0 -0.1720496621127294 0.2306965457770129 0 -0.1754675533648144 0.2408008616495303 0 -0.1805803879577314 0.2232208645219855 0 -0.1805803879577314 0.2232208645219855 0 -0.1720496621127294 0.2306965457770129 0 -0.16247821456491859 0.22598840689819899 0 -0.1805803879577314 0.2232208645219855 0 -0.16247821456491859 0.22598840689819899 0 -0.16173095114918309 0.23975699729506639 0 -0.1720496621127294 0.2306965457770129 0 -0.16247821456491859 0.22598840689819899 0 -0.1805803879577314 0.2232208645219855 0 -0.16247821456491859 0.22598840689819899 0 -0.1637282239808919 0.2065712412546179 0 -0.16247821456491859 0.22598840689819899 0 -0.1637282239808919 0.2065712412546179 0 -0.14958174745040481 0.2105711018898373 0 -0.1805803879577314 0.2232208645219855 0 -0.1637282239808919 0.2065712412546179 0 -0.17618387568481109 0.21071741209008721 0 -0.1805803879577314 0.2232208645219855 0 -0.18655680455186249 0.20267152253793941 0 -0.1805803879577314 0.2232208645219855 0 -0.1637282239808919 0.2065712412546179 0 -0.1805803879577314 0.2232208645219855 0 -0.17618387568481109 0.21071741209008721 0 -0.18655680455186249 0.20267152253793941 0 -0.19317073511988081 0.1799301491814434 0 -0.18655680455186249 0.20267152253793941 0 -0.17324957645785841 0.1878670991718778 0 -0.17618387568481109 0.21071741209008721 0 -0.18655680455186249 0.20267152253793941 0 -0.17324957645785841 0.1878670991718778 0 -0.18655680455186249 0.20267152253793941 0 -0.17324957645785841 0.1878670991718778 0 -0.1637282239808919 0.2065712412546179 0 -0.14767928173792211 0.18979881780531971 0 -0.1602623463289472 0.1861579747356655 0 -0.1637282239808919 0.2065712412546179 0 -0.17618387568481109 0.21071741209008721 0 -0.17324957645785841 0.1878670991718778 0 -0.1637282239808919 0.2065712412546179 0 -0.17324957645785841 0.1878670991718778 0 -0.1602623463289472 0.1861579747356655 0 -0.14767928173792211 0.18979881780531971 0 -0.13867064720323491 0.20231150169490481 0 -0.14958174745040481 0.2105711018898373 0 -0.1637282239808919 0.2065712412546179 0 -0.14767928173792211 0.18979881780531971 0 -0.14958174745040481 0.2105711018898373 0 -0.1637282239808919 0.2065712412546179 0 -0.14767928173792211 0.18979881780531971 0 -0.14767928173792211 0.18979881780531971 0 -0.13437978249309709 0.19280874424978159 0 -0.1312761128123042 0.1825358824564898 0 -0.14767928173792211 0.18979881780531971 0 -0.13437978249309709 0.19280874424978159 0 -0.13867064720323491 0.20231150169490481 0 -0.13437978249309709 0.19280874424978159 0 -0.1261233355923059 0.1905246963459806 0 -0.12814953511971819 0.19887282294621331 0 -0.13437978249309709 0.19280874424978159 0 -0.1261233355923059 0.1905246963459806 0 -0.1312761128123042 0.1825358824564898 0 -0.13437978249309709 0.19280874424978159 0 -0.12814953511971819 0.19887282294621331 0 -0.13867064720323491 0.20231150169490481 0 -0.13867064720323491 0.20231150169490481 0 -0.13039578950497929 0.20819878331028399 0 -0.1390861617889185 0.21445072242926561 0 -0.12814953511971819 0.19887282294621331 0 -0.13867064720323491 0.20231150169490481 0 -0.13039578950497929 0.20819878331028399 0 -0.12814953511971819 0.19887282294621331 0 -0.13039578950497929 0.20819878331028399 0 -0.1205286192071177 0.20569682108836609 0 -0.13039578950497929 0.20819878331028399 0 -0.12949101911143751 0.21967480117886029 0 -0.12303769696988411 0.21335380999066031 0 -0.13039578950497929 0.20819878331028399 0 -0.1390861617889185 0.21445072242926561 0 -0.12949101911143751 0.21967480117886029 0 -0.1390861617889185 0.21445072242926561 0 -0.14958174745040481 0.2105711018898373 0 -0.14584795542654269 0.22430592125671689 0 -0.13867064720323491 0.20231150169490481 0 -0.1390861617889185 0.21445072242926561 0 -0.14958174745040481 0.2105711018898373 0 -0.16247821456491859 0.22598840689819899 0 -0.14584795542654269 0.22430592125671689 0 -0.14975156403062179 0.23751073679959989 0 -0.16247821456491859 0.22598840689819899 0 -0.14958174745040481 0.2105711018898373 0 -0.14584795542654269 0.22430592125671689 0 -0.14584795542654269 0.22430592125671689 0 -0.13975607698932191 0.23284238597501 0 -0.14975156403062179 0.23751073679959989 0 -0.14584795542654269 0.22430592125671689 0 -0.1372871586817824 0.2230809852635951 0 -0.13975607698932191 0.23284238597501 0 -0.1390861617889185 0.21445072242926561 0 -0.14584795542654269 0.22430592125671689 0 -0.1372871586817824 0.2230809852635951 0 -0.1390861617889185 0.21445072242926561 0 -0.1372871586817824 0.2230809852635951 0 -0.12949101911143751 0.21967480117886029 0 -0.1372871586817824 0.2230809852635951 0 -0.12949101911143751 0.21967480117886029 0 -0.13204044213396871 0.22958688406836061 0 -0.12949101911143751 0.21967480117886029 0 -0.13204044213396871 0.22958688406836061 0 -0.12441569538872051 0.2270324935801234 0 -0.13204044213396871 0.22958688406836061 0 -0.1240164161691903 0.2368055745566362 0 -0.12441569538872051 0.2270324935801234 0 -0.1372871586817824 0.2230809852635951 0 -0.13204044213396871 0.22958688406836061 0 -0.13975607698932191 0.23284238597501 0 -0.13204044213396871 0.22958688406836061 0 -0.13975607698932191 0.23284238597501 0 -0.13315487305513499 0.23936768265315769 0 -0.13975607698932191 0.23284238597501 0 -0.13315487305513499 0.23936768265315769 0 -0.14042991150252279 0.2438277696377856 0 -0.13204044213396871 0.22958688406836061 0 -0.13315487305513499 0.23936768265315769 0 -0.1240164161691903 0.2368055745566362 0 -0.13315487305513499 0.23936768265315769 0 -0.1287372250424039 0.24537687455207741 0 -0.1240164161691903 0.2368055745566362 0 -0.12594884044955931 0.25071520269850439 0 -0.1287372250424039 0.24537687455207741 0 -0.1219120720920598 0.245209269023206 0 -0.13315487305513499 0.23936768265315769 0 -0.1287372250424039 0.24537687455207741 0 -0.13385066358352399 0.24510905319488091 0 -0.13308064473403439 0.25186388593650311 0 -0.1287372250424039 0.24537687455207741 0 -0.13308064473403439 0.25186388593650311 0 -0.1287372250424039 0.24537687455207741 0 -0.13385066358352399 0.24510905319488091 0 -0.12594884044955931 0.25071520269850439 0 -0.13308064473403439 0.25186388593650311 0 -0.1287372250424039 0.24537687455207741 0 -0.13308064473403439 0.25186388593650311 0 -0.13385066358352399 0.24510905319488091 0 -0.14042991150252279 0.2438277696377856 0 -0.13315487305513499 0.23936768265315769 0 -0.13385066358352399 0.24510905319488091 0 -0.14042991150252279 0.2438277696377856 0 -0.15810109301744099 0.25589380156569258 0 -0.14042991150252279 0.2438277696377856 0 -0.14975156403062179 0.23751073679959989 0 -0.13975607698932191 0.23284238597501 0 -0.14042991150252279 0.2438277696377856 0 -0.14975156403062179 0.23751073679959989 0 -0.16665674416642731 0.13946834495939189 0 -0.16091867888865299 0.15887308568324529 0 -0.15222339300174409 0.1448381032742351 0 -0.16665674416642731 0.13946834495939189 0 -0.17980644450097941 0.14378426602881311 0 -0.16091867888865299 0.15887308568324529 0 -0.1667124719401791 0.11876282794322859 0 -0.16665674416642731 0.13946834495939189 0 -0.15222339300174409 0.1448381032742351 0 -0.1667124719401791 0.11876282794322859 0 -0.16665674416642731 0.13946834495939189 0 -0.17362273250058111 0.13108344186743751 0 -0.1667124719401791 0.11876282794322859 0 -0.15222339300174409 0.1448381032742351 0 -0.18196395177893829 0.11968285901249461 0 -0.18727046621823759 0.12745674582228969 0 -0.183948150094322 0.13648945435169579 0 -0.16665674416642731 0.13946834495939189 0 -0.17362273250058111 0.13108344186743751 0 -0.17980644450097941 0.14378426602881311 0 -0.18196395177893829 0.11968285901249461 0 -0.17980644450097941 0.14378426602881311 0 -0.18196395177893829 0.11968285901249461 0 -0.183948150094322 0.13648945435169579 0 -0.17980644450097941 0.14378426602881311 0 -0.18196395177893829 0.11968285901249461 0 -0.17362273250058111 0.13108344186743751 0 -0.17980644450097941 0.14378426602881311 0 -0.18943140198765471 0.13429945889646791 0 -0.18727046621823759 0.12745674582228969 0 -0.183948150094322 0.13648945435169579 0 -0.18939883631309681 0.14103926026568661 0 -0.183948150094322 0.13648945435169579 0 -0.18490048744322141 0.14256204897986161 0 -0.18410304371400049 0.14683279276125241 0 -0.16091867888865299 0.15887308568324529 0 -0.18410304371400049 0.14683279276125241 0 -0.17980644450097941 0.14378426602881311 0 -0.16091867888865299 0.15887308568324529 0 -0.18410304371400049 0.14683279276125241 0 -0.17949737225209381 0.15492579780570409 0 -0.16091867888865299 0.15887308568324529 0 -0.18939883631309681 0.14103926026568661 0 -0.18490048744322141 0.14256204897986161 0 -0.1872459625937084 0.1446644714918601 0 -0.18490048744322141 0.14256204897986161 0 -0.1872459625937084 0.1446644714918601 0 -0.18410304371400049 0.14683279276125241 0 -0.18619191165773741 0.14833442146918979 0 -0.1872459625937084 0.1446644714918601 0 -0.18410304371400049 0.14683279276125241 0 -0.183948150094322 0.13648945435169579 0 -0.18490048744322141 0.14256204897986161 0 -0.17980644450097941 0.14378426602881311 0 -0.18490048744322141 0.14256204897986161 0 -0.18410304371400049 0.14683279276125241 0 -0.17980644450097941 0.14378426602881311 0 -0.18619191165773741 0.14833442146918979 0 -0.18410304371400049 0.14683279276125241 0 -0.17949737225209381 0.15492579780570409 0 -0.18822188513930349 0.15785315034197001 0 -0.18619191165773741 0.14833442146918979 0 -0.17949737225209381 0.15492579780570409 0 -0.18822188513930349 0.15785315034197001 0 -0.1848065342958729 0.16851519668647069 0 -0.1763962123345916 0.16305082100723151 0 -0.17949737225209381 0.15492579780570409 0 -0.1763962123345916 0.16305082100723151 0 -0.16091867888865299 0.15887308568324529 0 -0.18822188513930349 0.15785315034197001 0 -0.17949737225209381 0.15492579780570409 0 -0.1763962123345916 0.16305082100723151 0 -0.1763962123345916 0.16305082100723151 0 -0.17395516860332011 0.17384992971761509 0 -0.16780310204760451 0.16720912805347721 0 -0.1848065342958729 0.16851519668647069 0 -0.1763962123345916 0.16305082100723151 0 -0.17395516860332011 0.17384992971761509 0 -0.19317073511988081 0.1799301491814434 0 -0.1848065342958729 0.16851519668647069 0 -0.17395516860332011 0.17384992971761509 0 -0.19317073511988081 0.1799301491814434 0 -0.17324957645785841 0.1878670991718778 0 -0.17395516860332011 0.17384992971761509 0 -0.17324957645785841 0.1878670991718778 0 -0.15994234836385321 0.173062675805817 0 -0.17324957645785841 0.1878670991718778 0 -0.15994234836385321 0.173062675805817 0 -0.1602623463289472 0.1861579747356655 0 -0.17324957645785841 0.1878670991718778 0 -0.17395516860332011 0.17384992971761509 0 -0.15994234836385321 0.173062675805817 0 -0.15994234836385321 0.173062675805817 0 -0.1602623463289472 0.1861579747356655 0 -0.14898836183486161 0.17714154085550629 0 -0.15994234836385321 0.173062675805817 0 -0.16091867888865299 0.15887308568324529 0 -0.14898836183486161 0.17714154085550629 0 -0.1763962123345916 0.16305082100723151 0 -0.16780310204760451 0.16720912805347721 0 -0.16091867888865299 0.15887308568324529 0 -0.17395516860332011 0.17384992971761509 0 -0.15994234836385321 0.173062675805817 0 -0.16780310204760451 0.16720912805347721 0 -0.15994234836385321 0.173062675805817 0 -0.16780310204760451 0.16720912805347721 0 -0.16091867888865299 0.15887308568324529 0 -0.16091867888865299 0.15887308568324529 0 -0.13773431406330661 0.1709133786052402 0 -0.13773431406330661 0.1709133786052402 0 -0.15222339300174409 0.1448381032742351 0 -0.13773431406330661 0.1709133786052402 0 -0.13750473130215629 0.1541166753272081 0 -0.15222339300174409 0.1448381032742351 0 -0.16091867888865299 0.15887308568324529 0 -0.14898836183486161 0.17714154085550629 0 -0.13773431406330661 0.1709133786052402 0 -0.16091867888865299 0.15887308568324529 0 -0.13773431406330661 0.1709133786052402 0 -0.15222339300174409 0.1448381032742351 0 -0.14767928173792211 0.18979881780531971 0 -0.14898836183486161 0.17714154085550629 0 -0.1312761128123042 0.1825358824564898 0 -0.14767928173792211 0.18979881780531971 0 -0.1602623463289472 0.1861579747356655 0 -0.14898836183486161 0.17714154085550629 0 -0.1312761128123042 0.1825358824564898 0 -0.13773431406330661 0.1709133786052402 0 -0.11760844143789061 0.18136531048028101 0 -0.14898836183486161 0.17714154085550629 0 -0.1312761128123042 0.1825358824564898 0 -0.13773431406330661 0.1709133786052402 0 -0.13773431406330661 0.1709133786052402 0 -0.11760844143789061 0.18136531048028101 0 -0.1312761128123042 0.1825358824564898 0 -0.13773431406330661 0.1709133786052402 0 -0.1261233355923059 0.1905246963459806 0 -0.1312761128123042 0.1825358824564898 0 -0.11760844143789061 0.18136531048028101 0 -0.13773431406330661 0.1709133786052402 0 -0.13750473130215629 0.1541166753272081 0 -0.1243756047412712 0.15255076048313909 0 -0.13773431406330661 0.1709133786052402 0 -0.1243756047412712 0.15255076048313909 0 -0.11760844143789061 0.18136531048028101 0 -0.13775388565207439 0.14198265177733779 0 -0.13750473130215629 0.1541166753272081 0 -0.1243756047412712 0.15255076048313909 0 -0.13775388565207439 0.14198265177733779 0 -0.13750473130215629 0.1541166753272081 0 -0.15222339300174409 0.1448381032742351 0 -0.1667124719401791 0.11876282794322859 0 -0.15222339300174409 0.1448381032742351 0 -0.14481560132665361 0.13080787983555911 0 -0.13775388565207439 0.14198265177733779 0 -0.15222339300174409 0.1448381032742351 0 -0.14481560132665361 0.13080787983555911 0 -0.13114276804465411 0.1237362104859978 0 -0.1243756047412712 0.15255076048313909 0 -0.13114276804465411 0.1237362104859978 0 -0.13775388565207439 0.14198265177733779 0 -0.1243756047412712 0.15255076048313909 0 -0.13114276804465411 0.1237362104859978 0 -0.13775388565207439 0.14198265177733779 0 -0.14481560132665361 0.13080787983555911 0 -0.11555144519325281 0.13934500976017189 0 -0.1107889536746144 0.12685430703977299 0 -0.1188837192841094 0.1158776037608457 0 -0.13114276804465411 0.1237362104859978 0 -0.11555144519325281 0.13934500976017189 0 -0.1188837192841094 0.1158776037608457 0 -0.13114276804465411 0.1237362104859978 0 -0.11555144519325281 0.13934500976017189 0 -0.1243756047412712 0.15255076048313909 0 -0.11555144519325281 0.13934500976017189 0 -0.1188837192841094 0.1158776037608457 0 -0.11555144519325281 0.13934500976017189 0 -0.098086196591783206 0.12944416685506749 0 -0.1006094123224328 0.15068979515434031 0 -0.11555144519325281 0.13934500976017189 0 -0.1107889536746144 0.12685430703977299 0 -0.098086196591783206 0.12944416685506749 0 -0.098086196591783206 0.12944416685506749 0 -0.1006094123224328 0.15068979515434031 0 -0.084534875577851498 0.1461875675682027 0 -0.11555144519325281 0.13934500976017189 0 -0.1243756047412712 0.15255076048313909 0 -0.1122311642678975 0.16261360342809511 0 -0.11555144519325281 0.13934500976017189 0 -0.1006094123224328 0.15068979515434031 0 -0.1122311642678975 0.16261360342809511 0 -0.11555144519325281 0.13934500976017189 0 -0.1122311642678975 0.16261360342809511 0 -0.1243756047412712 0.15255076048313909 0 -0.1122311642678975 0.16261360342809511 0 -0.11760844143789061 0.18136531048028101 0 -0.1243756047412712 0.15255076048313909 0 -0.11760844143789061 0.18136531048028101 0 -0.1122311642678975 0.16261360342809511 0 -0.1089108833425438 0.18588219709601861 0 -0.1122311642678975 0.16261360342809511 0 -0.11760844143789061 0.18136531048028101 0 -0.1089108833425438 0.18588219709601861 0 -0.11760844143789061 0.18136531048028101 0 -0.1089108833425438 0.18588219709601861 0 -0.1122311642678975 0.16261360342809511 0 -0.1089108833425438 0.18588219709601861 0 -0.099874610257137203 0.17203051222223609 0 -0.1089108833425438 0.18588219709601861 0 -0.099874610257137203 0.17203051222223609 0 -0.095038122120911311 0.18383081343480959 0 -0.1006094123224328 0.15068979515434031 0 -0.1122311642678975 0.16261360342809511 0 -0.099874610257137203 0.17203051222223609 0 -0.1006094123224328 0.15068979515434031 0 -0.099874610257137203 0.17203051222223609 0 -0.084799030532318145 0.1629521720608986 0 -0.099874610257137203 0.17203051222223609 0 -0.084799030532318145 0.1629521720608986 0 -0.086206103196577816 0.17919430847692111 0 -0.084799030532318145 0.1629521720608986 0 -0.086206103196577816 0.17919430847692111 0 -0.067500517916960906 0.1734177257744379 0 -0.095038122120911311 0.18383081343480959 0 -0.086206103196577816 0.17919430847692111 0 -0.085160891687387261 0.19821623594406429 0 -0.099874610257137203 0.17203051222223609 0 -0.095038122120911311 0.18383081343480959 0 -0.086206103196577816 0.17919430847692111 0 -0.086206103196577816 0.17919430847692111 0 -0.067500517916960906 0.1734177257744379 0 -0.073598742241093279 0.18804124248776541 0 -0.067500517916960906 0.1734177257744379 0 -0.073598742241093279 0.18804124248776541 0 -0.051767123127349518 0.18832640186841959 0 -0.067500517916960906 0.1734177257744379 0 -0.070792002131543602 0.15552809472913121 0 -0.05271772929093764 0.1547006834852887 0 -0.084799030532318145 0.1629521720608986 0 -0.067500517916960906 0.1734177257744379 0 -0.070792002131543602 0.15552809472913121 0 -0.070792002131543602 0.15552809472913121 0 -0.065854533756839792 0.13905226787658351 0 -0.084534875577851498 0.1461875675682027 0 -0.070792002131543602 0.15552809472913121 0 -0.065854533756839792 0.13905226787658351 0 -0.05271772929093764 0.1547006834852887 0 -0.077858960693218085 0.12775094360419961 0 -0.065854533756839792 0.13905226787658351 0 -0.056986655654753068 0.1212302980893958 0 -0.077858960693218085 0.12775094360419961 0 -0.065854533756839792 0.13905226787658351 0 -0.084534875577851498 0.1461875675682027 0 -0.098086196591783206 0.12944416685506749 0 -0.077858960693218085 0.12775094360419961 0 -0.084534875577851498 0.1461875675682027 0 -0.1006094123224328 0.15068979515434031 0 -0.084799030532318145 0.1629521720608986 0 -0.084534875577851498 0.1461875675682027 0 -0.084799030532318145 0.1629521720608986 0 -0.070792002131543602 0.15552809472913121 0 -0.084534875577851498 0.1461875675682027 0 -0.097808993047078713 0.24307883669473671 0 -0.106149368228787 0.23603270276301 0 -0.096211326277643977 0.23153960843934801 0 -0.097808993047078713 0.24307883669473671 0 -0.106149368228787 0.23603270276301 0 -0.1133144768543244 0.24346474061285289 0 -0.1093113425500527 0.25762787717354679 0 -0.097808993047078713 0.24307883669473671 0 -0.1133144768543244 0.24346474061285289 0 -0.1189392722295104 0.25732248993651619 0 -0.1133144768543244 0.24346474061285289 0 -0.1219120720920598 0.245209269023206 0 -0.1287372250424039 0.24537687455207741 0 -0.1219120720920598 0.245209269023206 0 -0.1240164161691903 0.2368055745566362 0 -0.1133144768543244 0.24346474061285289 0 -0.1240164161691903 0.2368055745566362 0 -0.1150406797544057 0.22877389794965181 0 -0.1133144768543244 0.24346474061285289 0 -0.1219120720920598 0.245209269023206 0 -0.1240164161691903 0.2368055745566362 0 -0.106149368228787 0.23603270276301 0 -0.1133144768543244 0.24346474061285289 0 -0.1150406797544057 0.22877389794965181 0 -0.1240164161691903 0.2368055745566362 0 -0.1150406797544057 0.22877389794965181 0 -0.12441569538872051 0.2270324935801234 0 -0.1150406797544057 0.22877389794965181 0 -0.12441569538872051 0.2270324935801234 0 -0.1210403633975241 0.22051190375815249 0 -0.12949101911143751 0.21967480117886029 0 -0.12441569538872051 0.2270324935801234 0 -0.1210403633975241 0.22051190375815249 0 -0.1150406797544057 0.22877389794965181 0 -0.1210403633975241 0.22051190375815249 0 -0.11333157671004 0.2152836770875757 0 -0.1150406797544057 0.22877389794965181 0 -0.099796697071008147 0.21902921213274229 0 -0.11333157671004 0.2152836770875757 0 -0.106149368228787 0.23603270276301 0 -0.1150406797544057 0.22877389794965181 0 -0.099796697071008147 0.21902921213274229 0 -0.1150406797544057 0.22877389794965181 0 -0.099796697071008147 0.21902921213274229 0 -0.106149368228787 0.23603270276301 0 -0.096211326277643977 0.23153960843934801 0 -0.099796697071008147 0.21902921213274229 0 -0.099796697071008147 0.21902921213274229 0 -0.095654788519125858 0.20434370579280561 0 -0.1049356393069434 0.2091523173964529 0 -0.1049356393069434 0.2091523173964529 0 -0.1119487718552917 0.2054641573447418 0 -0.10692498289340061 0.19979942628682079 0 -0.095654788519125858 0.20434370579280561 0 -0.1049356393069434 0.2091523173964529 0 -0.10692498289340061 0.19979942628682079 0 -0.099796697071008147 0.21902921213274229 0 -0.1049356393069434 0.2091523173964529 0 -0.11333157671004 0.2152836770875757 0 -0.1210403633975241 0.22051190375815249 0 -0.11333157671004 0.2152836770875757 0 -0.12303769696988411 0.21335380999066031 0 -0.11333157671004 0.2152836770875757 0 -0.12303769696988411 0.21335380999066031 0 -0.1205286192071177 0.20569682108836609 0 -0.12949101911143751 0.21967480117886029 0 -0.1210403633975241 0.22051190375815249 0 -0.12303769696988411 0.21335380999066031 0 -0.13039578950497929 0.20819878331028399 0 -0.12303769696988411 0.21335380999066031 0 -0.1205286192071177 0.20569682108836609 0 -0.11333157671004 0.2152836770875757 0 -0.1205286192071177 0.20569682108836609 0 -0.1119487718552917 0.2054641573447418 0 -0.1049356393069434 0.2091523173964529 0 -0.11333157671004 0.2152836770875757 0 -0.1119487718552917 0.2054641573447418 0 -0.11760844143789061 0.18136531048028101 0 -0.1119487718552917 0.2054641573447418 0 -0.11760844143789061 0.18136531048028101 0 -0.1119487718552917 0.2054641573447418 0 -0.1206987341637801 0.19630154345805531 0 -0.11760844143789061 0.18136531048028101 0 -0.1089108833425438 0.18588219709601861 0 -0.1119487718552917 0.2054641573447418 0 -0.12814953511971819 0.19887282294621331 0 -0.1205286192071177 0.20569682108836609 0 -0.1206987341637801 0.19630154345805531 0 -0.1205286192071177 0.20569682108836609 0 -0.1119487718552917 0.2054641573447418 0 -0.1206987341637801 0.19630154345805531 0 -0.1261233355923059 0.1905246963459806 0 -0.12814953511971819 0.19887282294621331 0 -0.1206987341637801 0.19630154345805531 0 -0.1261233355923059 0.1905246963459806 0 -0.11760844143789061 0.18136531048028101 0 -0.1206987341637801 0.19630154345805531 0 -0.1089108833425438 0.18588219709601861 0 -0.095038122120911311 0.18383081343480959 0 -0.085160891687387261 0.19821623594406429 0 -0.1089108833425438 0.18588219709601861 0 -0.095654788519125858 0.20434370579280561 0 -0.085160891687387261 0.19821623594406429 0 -0.1089108833425438 0.18588219709601861 0 -0.10692498289340061 0.19979942628682079 0 -0.1089108833425438 0.18588219709601861 0 -0.1119487718552917 0.2054641573447418 0 -0.10692498289340061 0.19979942628682079 0 -0.1089108833425438 0.18588219709601861 0 -0.095654788519125858 0.20434370579280561 0 -0.10692498289340061 0.19979942628682079 0 -0.1089108833425438 0.18588219709601861 0 -0.085160891687387261 0.19821623594406429 0 -0.086206103196577816 0.17919430847692111 0 -0.085160891687387261 0.19821623594406429 0 -0.086206103196577816 0.17919430847692111 0 -0.085160891687387261 0.19821623594406429 0 -0.073598742241093279 0.18804124248776541 0 -0.085160891687387261 0.19821623594406429 0 -0.075271972064088769 0.20335183011899541 0 -0.073598742241093279 0.18804124248776541 0 -0.075271972064088769 0.20335183011899541 0 -0.051767123127349518 0.18832640186841959 0 -0.075271972064088769 0.20335183011899541 0 -0.051767123127349518 0.18832640186841959 0 -0.085160891687387261 0.19821623594406429 0 -0.073598742241093279 0.18804124248776541 0 -0.075271972064088769 0.20335183011899541 0 -0.075271972064088769 0.20335183011899541 0 -0.054717852561596968 0.21402616264558921 0 -0.075271972064088769 0.20335183011899541 0 -0.072164024055096143 0.22019545168613691 0 -0.054717852561596968 0.21402616264558921 0 -0.075271972064088769 0.20335183011899541 0 -0.08455271438761025 0.2092845263158333 0 -0.072164024055096143 0.22019545168613691 0 -0.085160891687387261 0.19821623594406429 0 -0.075271972064088769 0.20335183011899541 0 -0.08455271438761025 0.2092845263158333 0 -0.085160891687387261 0.19821623594406429 0 -0.08455271438761025 0.2092845263158333 0 -0.075271972064088769 0.20335183011899541 0 -0.08455271438761025 0.2092845263158333 0 -0.099796697071008147 0.21902921213274229 0 -0.095654788519125858 0.20434370579280561 0 -0.08455271438761025 0.2092845263158333 0 -0.095654788519125858 0.20434370579280561 0 -0.085160891687387261 0.19821623594406429 0 -0.08455271438761025 0.2092845263158333 0 -0.099796697071008147 0.21902921213274229 0 -0.08455271438761025 0.2092845263158333 0 -0.08455271438761025 0.2092845263158333 0 -0.083318252666745363 0.2317506406944605 0 -0.072164024055096143 0.22019545168613691 0 -0.096211326277643977 0.23153960843934801 0 -0.099796697071008147 0.21902921213274229 0 -0.083318252666745363 0.2317506406944605 0 -0.099796697071008147 0.21902921213274229 0 -0.08455271438761025 0.2092845263158333 0 -0.083318252666745363 0.2317506406944605 0 -0.08455271438761025 0.2092845263158333 0 -0.083318252666745363 0.2317506406944605 0 -0.072164024055096143 0.22019545168613691 0 -0.062409709005510371 0.2314657849516133 0 -0.054717852561596968 0.21402616264558921 0 -0.072164024055096143 0.22019545168613691 0 -0.072814812041956556 0.2310529179637715 0 -0.062409709005510371 0.2314657849516133 0 -0.083318252666745363 0.2317506406944605 0 -0.072164024055096143 0.22019545168613691 0 -0.072814812041956556 0.2310529179637715 0 -0.060203154901558281 0.25147550524394302 0 -0.073473629747554212 0.24155887061920331 0 -0.055898074302394823 0.24514656301700169 0 -0.083318252666745363 0.2317506406944605 0 -0.072814812041956556 0.2310529179637715 0 -0.073473629747554212 0.24155887061920331 0 -0.073473629747554212 0.24155887061920331 0 -0.055898074302394823 0.24514656301700169 0 -0.062409709005510371 0.2314657849516133 0 -0.073473629747554212 0.24155887061920331 0 -0.055898074302394823 0.24514656301700169 0 -0.082083790945880891 0.25421675507308772 0 -0.060203154901558281 0.25147550524394302 0 -0.073473629747554212 0.24155887061920331 0 -0.072814812041956556 0.2310529179637715 0 -0.073473629747554212 0.24155887061920331 0 -0.062409709005510371 0.2314657849516133 0 -0.082083790945880891 0.25421675507308772 0 -0.083318252666745363 0.2317506406944605 0 -0.082083790945880891 0.25421675507308772 0 -0.097808993047078713 0.24307883669473671 0 -0.083318252666745363 0.2317506406944605 0 -0.082083790945880891 0.25421675507308772 0 -0.083318252666745363 0.2317506406944605 0 -0.073473629747554212 0.24155887061920331 0 -0.097808993047078713 0.24307883669473671 0 -0.096211326277643977 0.23153960843934801 0 -0.083318252666745363 0.2317506406944605 0 -0.038322518857235421 0.2487342554147999 0 -0.047114742024772373 0.2327083914941222 0 -0.02841813908430068 0.23731272371673751 0 -0.038322518857235421 0.2487342554147999 0 -0.055898074302394823 0.24514656301700169 0 -0.047114742024772373 0.2327083914941222 0 -0.060203154901558281 0.25147550524394302 0 -0.038322518857235421 0.2487342554147999 0 -0.055898074302394823 0.24514656301700169 0 -0.038322518857235421 0.2487342554147999 0 -0.055898074302394823 0.24514656301700169 0 -0.055898074302394823 0.24514656301700169 0 -0.047114742024772373 0.2327083914941222 0 -0.062409709005510371 0.2314657849516133 0 -0.047114742024772373 0.2327083914941222 0 -0.062409709005510371 0.2314657849516133 0 -0.054717852561596968 0.21402616264558921 0 -0.047114742024772373 0.2327083914941222 0 -0.034163733059105569 0.22470049517218391 0 -0.054717852561596968 0.21402616264558921 0 -0.034163733059105569 0.22470049517218391 0 -0.054717852561596968 0.21402616264558921 0 -0.047114742024772373 0.2327083914941222 0 -0.034163733059105569 0.22470049517218391 0 -0.02841813908430068 0.23731272371673751 0 -0.034163733059105569 0.22470049517218391 0 -0.054717852561596968 0.21402616264558921 0 -0.02984576638218616 0.20250122530335049 0 -0.075271972064088769 0.20335183011899541 0 -0.054717852561596968 0.21402616264558921 0 -0.051767123127349518 0.18832640186841959 0 -0.054717852561596968 0.21402616264558921 0 -0.051767123127349518 0.18832640186841959 0 -0.02984576638218616 0.20250122530335049 0 -0.051767123127349518 0.18832640186841959 0 -0.02984576638218616 0.20250122530335049 0 -0.028262274190611121 0.17330097361784219 0 -0.02984576638218616 0.20250122530335049 0 -0.0098054323372850343 0.2071541145266611 0 -0.01014789215669795 0.1873388675034304 0 -0.02984576638218616 0.20250122530335049 0 -0.028262274190611121 0.17330097361784219 0 -0.01014789215669795 0.1873388675034304 0 -0.0098054323372850343 0.2071541145266611 0 -0.01014789215669795 0.1873388675034304 0 0.011712399139053019 0.20712528728958629 0 -0.0098054323372850343 0.2071541145266611 0 -0.018186546395408471 0.21968768760646021 0 0.00023083505264562081 0.22276002696559249 0 -0.034163733059105569 0.22470049517218391 0 -0.02984576638218616 0.20250122530335049 0 -0.018186546395408471 0.21968768760646021 0 -0.02984576638218616 0.20250122530335049 0 -0.0098054323372850343 0.2071541145266611 0 -0.018186546395408471 0.21968768760646021 0 -0.034163733059105569 0.22470049517218391 0 -0.013609613556614209 0.23537482769877849 0 -0.034163733059105569 0.22470049517218391 0 -0.013609613556614209 0.23537482769877849 0 -0.02841813908430068 0.23731272371673751 0 -0.034163733059105569 0.22470049517218391 0 -0.018186546395408471 0.21968768760646021 0 -0.013609613556614209 0.23537482769877849 0 -0.018186546395408471 0.21968768760646021 0 -0.013609613556614209 0.23537482769877849 0 0.00023083505264562081 0.22276002696559249 0 -0.013609613556614209 0.23537482769877849 0 -0.001069103097690819 0.2352337777433495 0 0.00023083505264562081 0.22276002696559249 0 -0.013609613556614209 0.23537482769877849 0 -0.001069103097690819 0.2352337777433495 0 -0.0088800879237758076 0.24504564880380281 0 -0.001069103097690819 0.2352337777433495 0 -0.0088800879237758076 0.24504564880380281 0 0.0033435243420843392 0.24550581269512031 0 -0.0088800879237758076 0.24504564880380281 0 0.0033435243420843392 0.24550581269512031 0 0.001071073268911413 0.25677565652066781 0 -0.038322518857235421 0.2487342554147999 0 -0.0088800879237758076 0.24504564880380281 0 -0.018625722794162039 0.2527549559677339 0 -0.038322518857235421 0.2487342554147999 0 -0.0088800879237758076 0.24504564880380281 0 -0.038322518857235421 0.2487342554147999 0 -0.0088800879237758076 0.24504564880380281 0 -0.02841813908430068 0.23731272371673751 0 -0.013609613556614209 0.23537482769877849 0 -0.0088800879237758076 0.24504564880380281 0 -0.02841813908430068 0.23731272371673751 0 -0.037934940664914402 0.13598364119613959 0 -0.05271772929093764 0.1547006834852887 0 -0.033627718075405891 0.14885963548415421 0 -0.037934940664914402 0.13598364119613959 0 -0.05271772929093764 0.1547006834852887 0 -0.033627718075405891 0.14885963548415421 0 -0.05271772929093764 0.1547006834852887 0 -0.038576251966112841 0.16156591903621301 0 -0.037934940664914402 0.13598364119613959 0 -0.052091131696338507 0.13365425302212519 0 -0.042334962483613382 0.12056683367077579 0 -0.065854533756839792 0.13905226787658351 0 -0.052091131696338507 0.13365425302212519 0 -0.056986655654753068 0.1212302980893958 0 -0.052091131696338507 0.13365425302212519 0 -0.042334962483613382 0.12056683367077579 0 -0.056986655654753068 0.1212302980893958 0 -0.037934940664914402 0.13598364119613959 0 -0.052091131696338507 0.13365425302212519 0 -0.05271772929093764 0.1547006834852887 0 -0.065854533756839792 0.13905226787658351 0 -0.052091131696338507 0.13365425302212519 0 -0.05271772929093764 0.1547006834852887 0 -0.067500517916960906 0.1734177257744379 0 -0.05271772929093764 0.1547006834852887 0 -0.067500517916960906 0.1734177257744379 0 -0.05271772929093764 0.1547006834852887 0 -0.04975993209433871 0.1710407330115746 0 -0.05271772929093764 0.1547006834852887 0 -0.04975993209433871 0.1710407330115746 0 -0.038576251966112841 0.16156591903621301 0 -0.067500517916960906 0.1734177257744379 0 -0.051767123127349518 0.18832640186841959 0 -0.04975993209433871 0.1710407330115746 0 -0.051767123127349518 0.18832640186841959 0 -0.04975993209433871 0.1710407330115746 0 -0.028262274190611121 0.17330097361784219 0 -0.051767123127349518 0.18832640186841959 0 -0.028262274190611121 0.17330097361784219 0 -0.04975993209433871 0.1710407330115746 0 -0.038576251966112841 0.16156591903621301 0 -0.028262274190611121 0.17330097361784219 0 -0.033627718075405891 0.14885963548415421 0 -0.038576251966112841 0.16156591903621301 0 -0.021032782308734271 0.15924079314238629 0 -0.038576251966112841 0.16156591903621301 0 -0.021032782308734271 0.15924079314238629 0 -0.028262274190611121 0.17330097361784219 0 -0.021032782308734271 0.15924079314238629 0 -0.028262274190611121 0.17330097361784219 0 -0.01251360905584047 0.17109637486746221 0 -0.028262274190611121 0.17330097361784219 0 -0.01014789215669795 0.1873388675034304 0 -0.01251360905584047 0.17109637486746221 0 -0.01014789215669795 0.1873388675034304 0 -0.01251360905584047 0.17109637486746221 0 0.0026961394843078119 0.16959424552817209 0 -0.021032782308734271 0.15924079314238629 0 -0.01251360905584047 0.17109637486746221 0 -0.0032861824956104632 0.15848237531508319 0 -0.01251360905584047 0.17109637486746221 0 -0.0032861824956104632 0.15848237531508319 0 0.0026961394843078119 0.16959424552817209 0 -0.01143355296233705 0.1463914483388491 0 0.0107606121507319 0.14392326119354501 0 -0.021032782308734271 0.15924079314238629 0 -0.0032861824956104632 0.15848237531508319 0 -0.01143355296233705 0.1463914483388491 0 -0.0032861824956104632 0.15848237531508319 0 -0.01143355296233705 0.1463914483388491 0 0.0107606121507319 0.14392326119354501 0 -0.033627718075405891 0.14885963548415421 0 -0.01143355296233705 0.1463914483388491 0 -0.02205909256605593 0.13332617275988479 0 -0.033627718075405891 0.14885963548415421 0 -0.01143355296233705 0.1463914483388491 0 -0.033627718075405891 0.14885963548415421 0 -0.021032782308734271 0.15924079314238629 0 -0.01143355296233705 0.1463914483388491 0 -0.037934940664914402 0.13598364119613959 0 -0.02205909256605593 0.13332617275988479 0 -0.023152152038891208 0.11726659890699059 0 -0.02205909256605593 0.13332617275988479 0 -0.0061957699440802691 0.13059493005026859 0 -0.023152152038891208 0.11726659890699059 0 -0.037934940664914402 0.13598364119613959 0 -0.023152152038891208 0.11726659890699059 0 -0.033627718075405891 0.14885963548415421 0 -0.037934940664914402 0.13598364119613959 0 -0.02205909256605593 0.13332617275988479 0 -0.01143355296233705 0.1463914483388491 0 -0.0061957699440802691 0.13059493005026859 0 0.0107606121507319 0.14392326119354501 0 -0.01143355296233705 0.1463914483388491 0 -0.02205909256605593 0.13332617275988479 0 -0.0061957699440802691 0.13059493005026859 0 -0.0028245424118018142 0.1172602116382065 0 -0.0092538722443179962 0.10510111594370269 0 -0.023152152038891208 0.11726659890699059 0 -0.0061957699440802691 0.13059493005026859 0 -0.023152152038891208 0.11726659890699059 0 -0.0061957699440802691 0.13059493005026859 0 -0.0028245424118018142 0.1172602116382065 0 -0.023152152038891208 0.11726659890699059 0 -0.0028245424118018142 0.1172602116382065 0 -0.0092538722443179962 0.10510111594370269 0 0.01004351340954676 0.11240294598950661 0 -0.0086949604563171488 0.098686798294587819 0 -0.0092538722443179962 0.10510111594370269 0 0.01004351340954676 0.11240294598950661 0 -0.0086949604563171488 0.098686798294587819 0 -0.0092538722443179962 0.10510111594370269 0 -0.023152152038891208 0.11726659890699059 0 -0.0086949604563171488 0.098686798294587819 0 0.0037128992863694719 0.087554214639535888 0 0.0048398924750147542 0.099486127833739654 0 -0.0086949604563171488 0.098686798294587819 0 -0.0092538722443179962 0.10510111594370269 0 -0.0086949604563171488 0.098686798294587819 0 -0.022542274944482379 0.1051567324725733 0 -0.023152152038891208 0.11726659890699059 0 -0.0086949604563171488 0.098686798294587819 0 -0.023152152038891208 0.11726659890699059 0 -0.0086949604563171488 0.098686798294587819 0 -0.022542274944482379 0.1051567324725733 0 -0.023522669513783321 0.096152189509708913 0 -0.022542274944482379 0.1051567324725733 0 -0.023522669513783321 0.096152189509708913 0 -0.034733616745098152 0.108163147718796 0 -0.022542274944482379 0.1051567324725733 0 -0.023152152038891208 0.11726659890699059 0 -0.034733616745098152 0.108163147718796 0 -0.023152152038891208 0.11726659890699059 0 -0.034733616745098152 0.108163147718796 0 -0.0065392468501627218 0.073946880247965974 0 -0.01624090706365864 0.082029730652887184 0 -0.020934471659767199 0.058970697102832877 0 -0.0086949604563171488 0.098686798294587819 0 -0.0065392468501627218 0.073946880247965974 0 -0.0086949604563171488 0.098686798294587819 0 -0.0065392468501627218 0.073946880247965974 0 -0.01624090706365864 0.082029730652887184 0 -0.0086949604563171488 0.098686798294587819 0 -0.0065392468501627218 0.073946880247965974 0 0.0037128992863694719 0.087554214639535888 0 -0.0086949604563171488 0.098686798294587819 0 -0.01624090706365864 0.082029730652887184 0 -0.030440024411125199 0.082794218151397314 0 -0.0086949604563171488 0.098686798294587819 0 -0.023522669513783321 0.096152189509708913 0 -0.030440024411125199 0.082794218151397314 0 -0.0086949604563171488 0.098686798294587819 0 -0.030440024411125199 0.082794218151397314 0 -0.01624090706365864 0.082029730652887184 0 -0.030440024411125199 0.082794218151397314 0 -0.020934471659767199 0.058970697102832877 0 -0.030440024411125199 0.082794218151397314 0 -0.035739070134103483 0.065185202150675609 0 -0.020934471659767199 0.058970697102832877 0 -0.030440024411125199 0.082794218151397314 0 -0.020934471659767199 0.058970697102832877 0 -0.030440024411125199 0.082794218151397314 0 -0.035739070134103483 0.065185202150675609 0 -0.044154924708830832 0.072730890122679748 0 -0.035739070134103483 0.065185202150675609 0 -0.044154924708830832 0.072730890122679748 0 -0.048409304100085218 0.061587747802123727 0 -0.030440024411125199 0.082794218151397314 0 -0.044154924708830832 0.072730890122679748 0 -0.023522669513783321 0.096152189509708913 0 -0.030440024411125199 0.082794218151397314 0 -0.042226575161574562 0.094596815268444989 0 -0.030440024411125199 0.082794218151397314 0 -0.044154924708830832 0.072730890122679748 0 -0.047305090154399237 0.083488251776404968 0 -0.030440024411125199 0.082794218151397314 0 -0.047305090154399237 0.083488251776404968 0 -0.042226575161574562 0.094596815268444989 0 -0.047305090154399237 0.083488251776404968 0 -0.058952416476872403 0.093022494805065525 0 -0.042226575161574562 0.094596815268444989 0 -0.047305090154399237 0.083488251776404968 0 -0.058952416476872403 0.093022494805065525 0 -0.060751510013593218 0.074296840534437261 0 -0.044154924708830832 0.072730890122679748 0 -0.047305090154399237 0.083488251776404968 0 -0.060751510013593218 0.074296840534437261 0 -0.044154924708830832 0.072730890122679748 0 -0.060751510013593218 0.074296840534437261 0 -0.048409304100085218 0.061587747802123727 0 -0.060751510013593218 0.074296840534437261 0 -0.048409304100085218 0.061587747802123727 0 -0.05991057524020043 0.058286864838709852 0 -0.023152152038891208 0.11726659890699059 0 -0.042334962483613382 0.12056683367077579 0 -0.034733616745098152 0.108163147718796 0 -0.037934940664914402 0.13598364119613959 0 -0.023152152038891208 0.11726659890699059 0 -0.042334962483613382 0.12056683367077579 0 -0.042334962483613382 0.12056683367077579 0 -0.034733616745098152 0.108163147718796 0 -0.049545047409559062 0.1073502429651465 0 -0.023522669513783321 0.096152189509708913 0 -0.034733616745098152 0.108163147718796 0 -0.042226575161574562 0.094596815268444989 0 -0.034733616745098152 0.108163147718796 0 -0.042226575161574562 0.094596815268444989 0 -0.049545047409559062 0.1073502429651465 0 -0.058952416476872403 0.093022494805065525 0 -0.049545047409559062 0.1073502429651465 0 -0.070341001652421825 0.1068743881840561 0 -0.058952416476872403 0.093022494805065525 0 -0.042226575161574562 0.094596815268444989 0 -0.049545047409559062 0.1073502429651465 0 -0.049545047409559062 0.1073502429651465 0 -0.056986655654753068 0.1212302980893958 0 -0.070341001652421825 0.1068743881840561 0 -0.042334962483613382 0.12056683367077579 0 -0.049545047409559062 0.1073502429651465 0 -0.056986655654753068 0.1212302980893958 0 -0.077858960693218085 0.12775094360419961 0 -0.056986655654753068 0.1212302980893958 0 -0.070341001652421825 0.1068743881840561 0 -0.077858960693218085 0.12775094360419961 0 -0.085429937934331832 0.11385953610107211 0 -0.070341001652421825 0.1068743881840561 0 -0.098086196591783206 0.12944416685506749 0 -0.077858960693218085 0.12775094360419961 0 -0.085429937934331832 0.11385953610107211 0 -0.085429937934331832 0.11385953610107211 0 -0.088523195875842231 0.096835914281960034 0 -0.10104251050369729 0.1020475228487175 0 -0.085429937934331832 0.11385953610107211 0 -0.088523195875842231 0.096835914281960034 0 -0.070341001652421825 0.1068743881840561 0 -0.058952416476872403 0.093022494805065525 0 -0.070341001652421825 0.1068743881840561 0 -0.075090797522376143 0.088071287441553445 0 -0.088523195875842231 0.096835914281960034 0 -0.070341001652421825 0.1068743881840561 0 -0.075090797522376143 0.088071287441553445 0 -0.058952416476872403 0.093022494805065525 0 -0.060751510013593218 0.074296840534437261 0 -0.075090797522376143 0.088071287441553445 0 -0.060751510013593218 0.074296840534437261 0 -0.075090797522376143 0.088071287441553445 0 -0.076829559856721824 0.071012235559103368 0 -0.060751510013593218 0.074296840534437261 0 -0.069322815322856238 0.063123546765687155 0 -0.05991057524020043 0.058286864838709852 0 -0.060751510013593218 0.074296840534437261 0 -0.076829559856721824 0.071012235559103368 0 -0.069322815322856238 0.063123546765687155 0 -0.076829559856721824 0.071012235559103368 0 -0.069322815322856238 0.063123546765687155 0 -0.076375068807355909 0.054995565831240198 0 -0.076829559856721824 0.071012235559103368 0 -0.086331803265920604 0.080552532726292661 0 -0.093790597287660663 0.069999077548098088 0 -0.076829559856721824 0.071012235559103368 0 -0.093790597287660663 0.069999077548098088 0 -0.089587514868056176 0.056235019520764533 0 -0.075090797522376143 0.088071287441553445 0 -0.076829559856721824 0.071012235559103368 0 -0.086331803265920604 0.080552532726292661 0 -0.088523195875842231 0.096835914281960034 0 -0.075090797522376143 0.088071287441553445 0 -0.086331803265920604 0.080552532726292661 0 -0.086331803265920604 0.080552532726292661 0 -0.096855557802558959 0.085949399621778291 0 -0.093790597287660663 0.069999077548098088 0 -0.088523195875842231 0.096835914281960034 0 -0.086331803265920604 0.080552532726292661 0 -0.096855557802558959 0.085949399621778291 0 -0.096855557802558959 0.085949399621778291 0 -0.1093325439707481 0.088972808174784368 0 -0.10104251050369729 0.1020475228487175 0 -0.096855557802558959 0.085949399621778291 0 -0.1093325439707481 0.088972808174784368 0 -0.10825667967761821 0.074230219266877812 0 -0.093790597287660663 0.069999077548098088 0 -0.10825667967761821 0.074230219266877812 0 -0.1050484656129346 0.057252938925664507 0 -0.096855557802558959 0.085949399621778291 0 -0.093790597287660663 0.069999077548098088 0 -0.10825667967761821 0.074230219266877812 0 -0.10825667967761821 0.074230219266877812 0 -0.11944240010931829 0.062079441005573152 0 -0.1050484656129346 0.057252938925664507 0 -0.10825667967761821 0.074230219266877812 0 -0.1247293894785861 0.080375583490691058 0 -0.11944240010931829 0.062079441005573152 0 -0.1093325439707481 0.088972808174784368 0 -0.1247293894785861 0.080375583490691058 0 -0.1157785823912799 0.1022613156458573 0 -0.1093325439707481 0.088972808174784368 0 -0.10825667967761821 0.074230219266877812 0 -0.1247293894785861 0.080375583490691058 0 -0.1157785823912799 0.1022613156458573 0 -0.1125241159362808 0.1154939667151242 0 -0.10104251050369729 0.1020475228487175 0 -0.1157785823912799 0.1022613156458573 0 -0.12159657186685841 0.1093319148879265 0 -0.1125241159362808 0.1154939667151242 0 -0.12819454715255271 0.10686451578017481 0 -0.1157785823912799 0.1022613156458573 0 -0.12159657186685841 0.1093319148879265 0 -0.12783598980160399 0.11152836086208651 0 -0.1188837192841094 0.1158776037608457 0 -0.1125241159362808 0.1154939667151242 0 -0.12783598980160399 0.11152836086208651 0 -0.12159657186685841 0.1093319148879265 0 -0.1125241159362808 0.1154939667151242 0 -0.1107889536746144 0.12685430703977299 0 -0.1188837192841094 0.1158776037608457 0 -0.1125241159362808 0.1154939667151242 0 -0.1188837192841094 0.1158776037608457 0 -0.1125241159362808 0.1154939667151242 0 -0.085429937934331832 0.11385953610107211 0 -0.1125241159362808 0.1154939667151242 0 -0.085429937934331832 0.11385953610107211 0 -0.1125241159362808 0.1154939667151242 0 -0.10104251050369729 0.1020475228487175 0 -0.098086196591783206 0.12944416685506749 0 -0.085429937934331832 0.11385953610107211 0 -0.1125241159362808 0.1154939667151242 0 -0.1107889536746144 0.12685430703977299 0 -0.098086196591783206 0.12944416685506749 0 -0.1125241159362808 0.1154939667151242 0 -0.088523195875842231 0.096835914281960034 0 -0.096855557802558959 0.085949399621778291 0 -0.10104251050369729 0.1020475228487175 0 -0.1093325439707481 0.088972808174784368 0 -0.1157785823912799 0.1022613156458573 0 -0.10104251050369729 0.1020475228487175 0 -0.1020358119049414 0.02932694745310269 0 -0.1026449947438315 0.003663571059520726 0 -0.11496814389640971 0.02809417330370859 0 -0.1026449947438315 0.003663571059520726 0 -0.090337872331081676 0.028085921737497899 0 -0.1020358119049414 0.02932694745310269 0 -0.1026449947438315 0.003663571059520726 0 -0.090337872331081676 0.028085921737497899 0 -0.1026449947438315 0.003663571059520726 0 -0.11983629681939879 0.01154877613917666 0 -0.11496814389640971 0.02809417330370859 0 -0.1203328952813548 -0.0044339126386656706 0 -0.1026449947438315 0.003663571059520726 0 -0.11983629681939879 0.01154877613917666 0 -0.1203328952813548 -0.0044339126386656706 0 -0.13334388803410099 -0.0001525321026195833 0 -0.11983629681939879 0.01154877613917666 0 -0.1358896091469283 0.028607427059415911 0 -0.11983629681939879 0.01154877613917666 0 -0.11496814389640971 0.02809417330370859 0 -0.11496814389640971 0.02809417330370859 0 -0.1217776407636797 0.046883171440986422 0 -0.1081057225643292 0.043142674233138202 0 -0.1358896091469283 0.028607427059415911 0 -0.11496814389640971 0.02809417330370859 0 -0.1217776407636797 0.046883171440986422 0 -0.1217776407636797 0.046883171440986422 0 -0.11944240010931829 0.062079441005573152 0 -0.1050484656129346 0.057252938925664507 0 -0.1217776407636797 0.046883171440986422 0 -0.1050484656129346 0.057252938925664507 0 -0.1081057225643292 0.043142674233138202 0 -0.1050484656129346 0.057252938925664507 0 -0.1081057225643292 0.043142674233138202 0 -0.094122325989055136 0.043648396931648042 0 -0.1050484656129346 0.057252938925664507 0 -0.094122325989055136 0.043648396931648042 0 -0.089587514868056176 0.056235019520764533 0 -0.093790597287660663 0.069999077548098088 0 -0.1050484656129346 0.057252938925664507 0 -0.089587514868056176 0.056235019520764533 0 -0.1020358119049414 0.02932694745310269 0 -0.11496814389640971 0.02809417330370859 0 -0.1081057225643292 0.043142674233138202 0 -0.1020358119049414 0.02932694745310269 0 -0.1081057225643292 0.043142674233138202 0 -0.094122325989055136 0.043648396931648042 0 -0.1020358119049414 0.02932694745310269 0 -0.094122325989055136 0.043648396931648042 0 -0.090337872331081676 0.028085921737497899 0 -0.094122325989055136 0.043648396931648042 0 -0.079916102541930753 0.038438337883064048 0 -0.090337872331081676 0.028085921737497899 0 -0.079916102541930753 0.038438337883064048 0 -0.083711082910051582 0.047902249772197127 0 -0.075463487025170695 0.046186013127963992 0 -0.094122325989055136 0.043648396931648042 0 -0.079916102541930753 0.038438337883064048 0 -0.083711082910051582 0.047902249772197127 0 -0.076829559856721824 0.071012235559103368 0 -0.089587514868056176 0.056235019520764533 0 -0.076375068807355909 0.054995565831240198 0 -0.094122325989055136 0.043648396931648042 0 -0.089587514868056176 0.056235019520764533 0 -0.083711082910051582 0.047902249772197127 0 -0.089587514868056176 0.056235019520764533 0 -0.083711082910051582 0.047902249772197127 0 -0.076375068807355909 0.054995565831240198 0 -0.083711082910051582 0.047902249772197127 0 -0.076375068807355909 0.054995565831240198 0 -0.075463487025170695 0.046186013127963992 0 -0.069322815322856238 0.063123546765687155 0 -0.076375068807355909 0.054995565831240198 0 -0.067293181580604211 0.050585468160706769 0 -0.076375068807355909 0.054995565831240198 0 -0.067293181580604211 0.050585468160706769 0 -0.075463487025170695 0.046186013127963992 0 -0.069322815322856238 0.063123546765687155 0 -0.067293181580604211 0.050585468160706769 0 -0.05991057524020043 0.058286864838709852 0 -0.079916102541930753 0.038438337883064048 0 -0.070021999285911019 0.039008443992611767 0 -0.065236379068342315 0.02618726182777557 0 -0.079916102541930753 0.038438337883064048 0 -0.075463487025170695 0.046186013127963992 0 -0.070021999285911019 0.039008443992611767 0 -0.067293181580604211 0.050585468160706769 0 -0.075463487025170695 0.046186013127963992 0 -0.070021999285911019 0.039008443992611767 0 -0.067293181580604211 0.050585468160706769 0 -0.070021999285911019 0.039008443992611767 0 -0.055107512183142568 0.045586505103600371 0 -0.079916102541930753 0.038438337883064048 0 -0.07447592692004007 0.01573772936913893 0 -0.07447592692004007 0.01573772936913893 0 -0.065236379068342315 0.02618726182777557 0 -0.054143937104984843 0.0086080978698742146 0 -0.079916102541930753 0.038438337883064048 0 -0.07447592692004007 0.01573772936913893 0 -0.065236379068342315 0.02618726182777557 0 -0.079916102541930753 0.038438337883064048 0 -0.07447592692004007 0.01573772936913893 0 -0.090337872331081676 0.028085921737497899 0 -0.1026449947438315 0.003663571059520726 0 -0.07447592692004007 0.01573772936913893 0 -0.090337872331081676 0.028085921737497899 0 -0.08597795090394926 -0.0076000302298698573 0 -0.1026449947438315 0.003663571059520726 0 -0.07447592692004007 0.01573772936913893 0 -0.0690357512981494 -0.0069628791447860954 0 -0.07447592692004007 0.01573772936913893 0 -0.054143937104984843 0.0086080978698742146 0 -0.0690357512981494 -0.0069628791447860954 0 -0.07447592692004007 0.01573772936913893 0 -0.08597795090394926 -0.0076000302298698573 0 -0.0690357512981494 -0.0069628791447860954 0 -0.07447592692004007 0.01573772936913893 0 -0.065236379068342315 0.02618726182777557 0 -0.054143937104984843 0.0086080978698742146 0 -0.047623929488844849 0.029143700024188899 0 -0.047623929488844849 0.029143700024188899 0 -0.025225859691778679 0.019278956055766031 0 -0.047623929488844849 0.029143700024188899 0 -0.02996362206597546 0.037330421021580698 0 -0.025225859691778679 0.019278956055766031 0 -0.047623929488844849 0.029143700024188899 0 -0.036671200689271023 0.0057763915615372261 0 -0.025225859691778679 0.019278956055766031 0 -0.054143937104984843 0.0086080978698742146 0 -0.047623929488844849 0.029143700024188899 0 -0.036671200689271023 0.0057763915615372261 0 -0.04051248678685327 -0.0091701030098075009 0 -0.054143937104984843 0.0086080978698742146 0 -0.036671200689271023 0.0057763915615372261 0 -0.048409304100085218 0.061587747802123727 0 -0.05991057524020043 0.058286864838709852 0 -0.055107512183142568 0.045586505103600371 0 -0.048409304100085218 0.061587747802123727 0 -0.055107512183142568 0.045586505103600371 0 -0.039678882423995837 0.050985985482041647 0 -0.067293181580604211 0.050585468160706769 0 -0.05991057524020043 0.058286864838709852 0 -0.055107512183142568 0.045586505103600371 0 -0.070021999285911019 0.039008443992611767 0 -0.065236379068342315 0.02618726182777557 0 -0.047623929488844849 0.029143700024188899 0 -0.070021999285911019 0.039008443992611767 0 -0.047623929488844849 0.029143700024188899 0 -0.047623929488844849 0.029143700024188899 0 -0.055107512183142568 0.045586505103600371 0 -0.039678882423995837 0.050985985482041647 0 -0.070021999285911019 0.039008443992611767 0 -0.047623929488844849 0.029143700024188899 0 -0.055107512183142568 0.045586505103600371 0 -0.047623929488844849 0.029143700024188899 0 -0.039678882423995837 0.050985985482041647 0 -0.02996362206597546 0.037330421021580698 0 -0.035739070134103483 0.065185202150675609 0 -0.039678882423995837 0.050985985482041647 0 -0.020934471659767199 0.058970697102832877 0 -0.035739070134103483 0.065185202150675609 0 -0.048409304100085218 0.061587747802123727 0 -0.039678882423995837 0.050985985482041647 0 -0.020934471659767199 0.058970697102832877 0 -0.01142891890840924 0.035147176054268543 0 -0.039678882423995837 0.050985985482041647 0 -0.020934471659767199 0.058970697102832877 0 -0.02996362206597546 0.037330421021580698 0 -0.020934471659767199 0.058970697102832877 0 -0.02996362206597546 0.037330421021580698 0 -0.01142891890840924 0.035147176054268543 0 -0.01142891890840924 0.035147176054268543 0 -0.0043835332440070708 0.049206962201344212 0 -0.0022278196378514121 0.024467044154722371 0 -0.0043835332440070708 0.049206962201344212 0 -0.0022278196378514121 0.024467044154722371 0 -0.0065392468501627218 0.073946880247965974 0 -0.020934471659767199 0.058970697102832877 0 -0.0043835332440070708 0.049206962201344212 0 -0.020934471659767199 0.058970697102832877 0 -0.01142891890840924 0.035147176054268543 0 -0.0043835332440070708 0.049206962201344212 0 -0.0065392468501627218 0.073946880247965974 0 -0.0043835332440070708 0.049206962201344212 0 0.0094236310279546421 0.058915403939540451 0 -0.0065392468501627218 0.073946880247965974 0 -0.0043835332440070708 0.049206962201344212 0 -0.036671200689271023 0.0057763915615372261 0 -0.02165275992836839 0.0022290584850298968 0 -0.025225859691778679 0.019278956055766031 0 -0.02165275992836839 0.0022290584850298968 0 -0.025225859691778679 0.019278956055766031 0 -0.002827789894712216 0.0094142120873437173 0 -0.02996362206597546 0.037330421021580698 0 -0.01142891890840924 0.035147176054268543 0 -0.025225859691778679 0.019278956055766031 0 -0.01142891890840924 0.035147176054268543 0 -0.025225859691778679 0.019278956055766031 0 -0.010351483662987489 0.01879099980077063 0 -0.01142891890840924 0.035147176054268543 0 -0.010351483662987489 0.01879099980077063 0 -0.001923366157050393 0.011323655005704489 0 -0.01142891890840924 0.035147176054268543 0 -0.001923366157050393 0.011323655005704489 0 -0.01142891890840924 0.035147176054268543 0 -0.0022278196378514121 0.024467044154722371 0 -0.001923366157050393 0.011323655005704489 0 -0.025225859691778679 0.019278956055766031 0 -0.010351483662987489 0.01879099980077063 0 -0.002827789894712216 0.0094142120873437173 0 -3.0483325887532769e-05 -0.0080437905340390685 0 -0.002827789894712216 0.0094142120873437173 0 0.00074313100808037769 0.0046406821159502556 0 -0.025225859691778679 0.019278956055766031 0 -0.002827789894712216 0.0094142120873437173 0 -0.010351483662987489 0.01879099980077063 0 -0.001923366157050393 0.011323655005704489 0 -0.002827789894712216 0.0094142120873437173 0 -0.00080625630422247793 0.0085238714698513043 0 -0.002827789894712216 0.0094142120873437173 0 -0.00080625630422247793 0.0085238714698513043 0 -0.001923366157050393 0.011323655005704489 0 -0.002827789894712216 0.0094142120873437173 0 -0.00080625630422247793 0.0085238714698513043 0 -0.001923366157050393 0.011323655005704489 0 -0.001923366157050393 0.011323655005704489 0 -0.002827789894712216 0.0094142120873437173 0 -0.00080625630422247793 0.0085238714698513043 0 -0.002827789894712216 0.0094142120873437173 0 0.00074313100808037769 0.0046406821159502556 0 -0.00080625630422247793 0.0085238714698513043 0 0.00074313100808037769 0.0046406821159502556 0 0.0114893599922821 0.0084546309914183011 0 0.01812849918490092 0.016042438460421381 0 0.01470889098275989 -0.01133742718195838 0 0.00074313100808037769 0.0046406821159502556 0 0.0063828244129049781 0.0025647612679847069 0 0.003381286086920498 -0.0028614156450472439 0 0.00074313100808037769 0.0046406821159502556 0 0.0024278434633335862 0.0070994823834550948 0 0.0063828244129049781 0.0025647612679847069 0 -0.00080625630422247793 0.0085238714698513043 0 0.00074313100808037769 0.0046406821159502556 0 0.0024278434633335862 0.0070994823834550948 0 -0.00080625630422247793 0.0085238714698513043 0 0.0024278434633335862 0.0070994823834550948 0 0.0024278434633335862 0.0070994823834550948 0 0.0063828244129049781 0.0025647612679847069 0 0.0066128376819070012 0.009345508365457519 0 0.0063828244129049781 0.0025647612679847069 0 0.0114893599922821 0.0084546309914183011 0 0.0066128376819070012 0.009345508365457519 0 0.0114893599922821 0.0084546309914183011 0 0.0080841282913532066 0.017861805335367339 0 0.01812849918490092 0.016042438460421381 0 0.0114893599922821 0.0084546309914183011 0 0.0066128376819070012 0.009345508365457519 0 0.0080841282913532066 0.017861805335367339 0 0.0066128376819070012 0.009345508365457519 0 0.0029692203481763912 0.01156458817540764 0 0.0080841282913532066 0.017861805335367339 0 -0.001923366157050393 0.011323655005704489 0 0.0029692203481763912 0.01156458817540764 0 0.0080841282913532066 0.017861805335367339 0 0.0024278434633335862 0.0070994823834550948 0 0.0066128376819070012 0.009345508365457519 0 0.0029692203481763912 0.01156458817540764 0 -0.00080625630422247793 0.0085238714698513043 0 0.0024278434633335862 0.0070994823834550948 0 0.0029692203481763912 0.01156458817540764 0 -0.00080625630422247793 0.0085238714698513043 0 -0.001923366157050393 0.011323655005704489 0 0.0029692203481763912 0.01156458817540764 0 -0.001923366157050393 0.011323655005704489 0 0.0069511860649901572 0.0300598404775629 0 -0.001923366157050393 0.011323655005704489 0 0.0069511860649901572 0.0300598404775629 0 0.0080841282913532066 0.017861805335367339 0 -0.0022278196378514121 0.024467044154722371 0 -0.001923366157050393 0.011323655005704489 0 0.0069511860649901572 0.0300598404775629 0 0.0069511860649901572 0.0300598404775629 0 0.01812849918490092 0.016042438460421381 0 0.02154810738704192 0.043422304102800957 0 0.0069511860649901572 0.0300598404775629 0 0.0080841282913532066 0.017861805335367339 0 0.01812849918490092 0.016042438460421381 0 0.01812849918490092 0.016042438460421381 0 0.02154810738704192 0.043422304102800957 0 0.036240471408027143 0.031444899926276457 0 0.01812849918490092 0.016042438460421381 0 0.036240471408027143 0.031444899926276457 0 0.035117134206933388 0.0082609407808874047 0 0.01812849918490092 0.016042438460421381 0 0.02154810738704192 0.043422304102800957 0 0.01812849918490092 0.016042438460421381 0 0.02336106269812703 0.00091390438485969283 0 0.035117134206933388 0.0082609407808874047 0 0.01812849918490092 0.016042438460421381 0 0.02336106269812703 0.00091390438485969283 0 0.01470889098275989 -0.01133742718195838 0 0.01812849918490092 0.016042438460421381 0 0.01470889098275989 -0.01133742718195838 0 -0.0043835332440070708 0.049206962201344212 0 0.0094236310279546421 0.058915403939540451 0 0.0083848478089949136 0.045401127680312132 0 0.0094236310279546421 0.058915403939540451 0 0.0083848478089949136 0.045401127680312132 0 0.02154810738704192 0.043422304102800957 0 -0.0043835332440070708 0.049206962201344212 0 0.0069511860649901572 0.0300598404775629 0 0.0083848478089949136 0.045401127680312132 0 -0.0043835332440070708 0.049206962201344212 0 -0.0022278196378514121 0.024467044154722371 0 0.0069511860649901572 0.0300598404775629 0 0.0069511860649901572 0.0300598404775629 0 0.0083848478089949136 0.045401127680312132 0 0.02154810738704192 0.043422304102800957 0 0.02154810738704192 0.043422304102800957 0 0.034057460475930348 0.051137863011422167 0 0.036240471408027143 0.031444899926276457 0 0.02154810738704192 0.043422304102800957 0 0.034057460475930348 0.051137863011422167 0 0.02496771558918293 0.070802169745180527 0 0.02154810738704192 0.043422304102800957 0 0.02496771558918293 0.070802169745180527 0 0.0094236310279546421 0.058915403939540451 0 0.02154810738704192 0.043422304102800957 0 0.02496771558918293 0.070802169745180527 0 0.039016848815392413 0.061694350942109788 0 0.034057460475930348 0.051137863011422167 0 0.02496771558918293 0.070802169745180527 0 0.039016848815392413 0.061694350942109788 0 0.04851415918000733 0.048325590340743123 0 0.049180964140182609 0.061772125910157308 0 0.039016848815392413 0.061694350942109788 0 0.034057460475930348 0.051137863011422167 0 0.04851415918000733 0.048325590340743123 0 0.036240471408027143 0.031444899926276457 0 0.049441922355923533 0.033260324049087027 0 0.04851415918000733 0.048325590340743123 0 0.034057460475930348 0.051137863011422167 0 0.036240471408027143 0.031444899926276457 0 0.04851415918000733 0.048325590340743123 0 0.049441922355923533 0.033260324049087027 0 0.06217882763591645 0.041749894930329733 0 0.072811075236522818 0.023161790777025432 0 0.049441922355923533 0.033260324049087027 0 0.06217882763591645 0.041749894930329733 0 0.04851415918000733 0.048325590340743123 0 0.057469657818100053 0.056484462076641172 0 0.071951324340616685 0.05729293389698005 0 0.052733588780563362 0.071295473401761775 0 0.06217882763591645 0.041749894930329733 0 0.04851415918000733 0.048325590340743123 0 0.062296647309772239 0.051140722330638683 0 0.04851415918000733 0.048325590340743123 0 0.062296647309772239 0.051140722330638683 0 0.057469657818100053 0.056484462076641172 0 0.04851415918000733 0.048325590340743123 0 0.057469657818100053 0.056484462076641172 0 0.049180964140182609 0.061772125910157308 0 0.035117134206933388 0.0082609407808874047 0 0.05014437405546638 0.017056028073235641 0 0.049204038009894972 -0.0054557019415801163 0 0.036240471408027143 0.031444899926276457 0 0.049441922355923533 0.033260324049087027 0 0.05014437405546638 0.017056028073235641 0 0.036240471408027143 0.031444899926276457 0 0.035117134206933388 0.0082609407808874047 0 0.05014437405546638 0.017056028073235641 0 0.049441922355923533 0.033260324049087027 0 0.05014437405546638 0.017056028073235641 0 0.072811075236522818 0.023161790777025432 0 0.05014437405546638 0.017056028073235641 0 0.065523571445864737 0.0048623888904800374 0 0.049204038009894972 -0.0054557019415801163 0 0.05014437405546638 0.017056028073235641 0 0.065523571445864737 0.0048623888904800374 0 0.072811075236522818 0.023161790777025432 0 0.065523571445864737 0.0048623888904800374 0 0.081625812361846267 0.0043142162544619559 0 0.072811075236522818 0.023161790777025432 0 0.081625812361846267 0.0043142162544619559 0 0.091300944540949613 0.018852543314897191 0 0.1040343233732574 0.0055112649514856022 0 0.081625812361846267 0.0043142162544619559 0 0.091300944540949613 0.018852543314897191 0 0.072811075236522818 0.023161790777025432 0 0.091300944540949613 0.018852543314897191 0 0.072811075236522818 0.023161790777025432 0 0.088503004393038848 0.031539091723656591 0 0.091300944540949613 0.018852543314897191 0 0.088503004393038848 0.031539091723656591 0 0.097582190672335409 0.027994785655253759 0 0.06217882763591645 0.041749894930329733 0 0.072811075236522818 0.023161790777025432 0 0.084140631963659479 0.048411488890395697 0 0.06217882763591645 0.041749894930329733 0 0.071369267574219547 0.051850730408499447 0 0.084140631963659479 0.048411488890395697 0 0.062296647309772239 0.051140722330638683 0 0.057469657818100053 0.056484462076641172 0 0.071951324340616685 0.05729293389698005 0 0.062296647309772239 0.051140722330638683 0 0.071369267574219547 0.051850730408499447 0 0.071951324340616685 0.05729293389698005 0 0.06217882763591645 0.041749894930329733 0 0.062296647309772239 0.051140722330638683 0 0.071369267574219547 0.051850730408499447 0 0.071951324340616685 0.05729293389698005 0 0.084140631963659479 0.048411488890395697 0 0.071369267574219547 0.051850730408499447 0 0.071951324340616685 0.05729293389698005 0 0.084140631963659479 0.048411488890395697 0 0.071369267574219547 0.051850730408499447 0 0.071951324340616685 0.05729293389698005 0 0.084140631963659479 0.048411488890395697 0 0.096759444974188744 0.058420556003493697 0 0.095051921202015444 0.072729012155571718 0 0.084140631963659479 0.048411488890395697 0 0.095051921202015444 0.072729012155571718 0 0.071951324340616685 0.05729293389698005 0 0.084140631963659479 0.048411488890395697 0 0.080563503688542537 0.069407964498132732 0 0.084140631963659479 0.048411488890395697 0 0.096759444974188744 0.058420556003493697 0 0.094722464204611126 0.048868170970764478 0 0.084140631963659479 0.048411488890395697 0 0.088503004393038848 0.031539091723656591 0 0.096680179551726572 0.039274849980710493 0 0.072811075236522818 0.023161790777025432 0 0.084140631963659479 0.048411488890395697 0 0.088503004393038848 0.031539091723656591 0 0.072811075236522818 0.023161790777025432 0 0.084140631963659479 0.048411488890395697 0 0.084140631963659479 0.048411488890395697 0 0.096680179551726572 0.039274849980710493 0 0.084140631963659479 0.048411488890395697 0 0.096680179551726572 0.039274849980710493 0 0.094722464204611126 0.048868170970764478 0 0.088503004393038848 0.031539091723656591 0 0.096680179551726572 0.039274849980710493 0 0.097582190672335409 0.027994785655253759 0 0.096680179551726572 0.039274849980710493 0 0.097582190672335409 0.027994785655253759 0 0.1092197271397934 0.03013821107102491 0 0.100973357432475 0.045415129869155607 0 0.096680179551726572 0.039274849980710493 0 0.094722464204611126 0.048868170970764478 0 0.100973357432475 0.045415129869155607 0 0.096680179551726572 0.039274849980710493 0 0.109820421749935 0.039812999415286751 0 0.100973357432475 0.045415129869155607 0 0.1026703642236272 0.0537044991098607 0 0.109820421749935 0.039812999415286751 0 0.096680179551726572 0.039274849980710493 0 0.1092197271397934 0.03013821107102491 0 0.096680179551726572 0.039274849980710493 0 0.109820421749935 0.039812999415286751 0 0.1092197271397934 0.03013821107102491 0 0.109820421749935 0.039812999415286751 0 0.1078918160951535 0.068429767418017026 0 0.1026703642236272 0.0537044991098607 0 0.109820421749935 0.039812999415286751 0 0.1078918160951535 0.068429767418017026 0 0.100973357432475 0.045415129869155607 0 0.094722464204611126 0.048868170970764478 0 0.1026703642236272 0.0537044991098607 0 0.096759444974188744 0.058420556003493697 0 0.094722464204611126 0.048868170970764478 0 0.1026703642236272 0.0537044991098607 0 0.096759444974188744 0.058420556003493697 0 0.1026703642236272 0.0537044991098607 0 0.1078918160951535 0.068429767418017026 0 0.11879537671154 0.054503452579204151 0 0.109820421749935 0.039812999415286751 0 0.1078918160951535 0.068429767418017026 0 0.11879537671154 0.054503452579204151 0 0.1212396523092672 0.04301610155105557 0 0.13219795414921851 0.050865807536204018 0 0.109820421749935 0.039812999415286751 0 0.1176326758284854 0.03447190472259002 0 0.1092197271397934 0.03013821107102491 0 0.11879537671154 0.054503452579204151 0 0.109820421749935 0.039812999415286751 0 0.1212396523092672 0.04301610155105557 0 0.109820421749935 0.039812999415286751 0 0.1212396523092672 0.04301610155105557 0 0.1176326758284854 0.03447190472259002 0 0.1212396523092672 0.04301610155105557 0 0.1176326758284854 0.03447190472259002 0 0.12819236272077719 0.032794415142888687 0 0.1176326758284854 0.03447190472259002 0 0.1171914316661455 0.01842873425314543 0 0.1092197271397934 0.03013821107102491 0 0.1176326758284854 0.03447190472259002 0 0.1171914316661455 0.01842873425314543 0 0.12819236272077719 0.032794415142888687 0 0.1171914316661455 0.01842873425314543 0 0.1092197271397934 0.03013821107102491 0 0.1042523051455497 0.01996356030681341 0 0.1171914316661455 0.01842873425314543 0 0.13405124018761799 0.0139311533632366 0 0.12282510645186411 -0.0073439745882975596 0 0.1171914316661455 0.01842873425314543 0 0.1040343233732574 0.0055112649514856022 0 0.12282510645186411 -0.0073439745882975596 0 0.1171914316661455 0.01842873425314543 0 0.1040343233732574 0.0055112649514856022 0 0.1042523051455497 0.01996356030681341 0 0.091300944540949613 0.018852543314897191 0 0.1040343233732574 0.0055112649514856022 0 0.1042523051455497 0.01996356030681341 0 0.091300944540949613 0.018852543314897191 0 0.097582190672335409 0.027994785655253759 0 0.1042523051455497 0.01996356030681341 0 0.097582190672335409 0.027994785655253759 0 0.1092197271397934 0.03013821107102491 0 0.1042523051455497 0.01996356030681341 0 0.10577014600408401 0.099911237268542077 0 0.093929720469173444 0.1079072519195161 0 0.090239211869349495 0.091490778099163825 0 0.10577014600408401 0.099911237268542077 0 0.093929720469173444 0.1079072519195161 0 0.10463459698087391 0.1167605827385602 0 0.107723901076272 0.1009705112741871 0 0.10577014600408401 0.099911237268542077 0 0.10463459698087391 0.1167605827385602 0 0.10577014600408401 0.099911237268542077 0 0.10463459698087391 0.1167605827385602 0 0.10577014600408401 0.099911237268542077 0 0.1059632104403728 0.097046535420747315 0 0.090239211869349495 0.091490778099163825 0 0.107723901076272 0.1009705112741871 0 0.1059632104403728 0.097046535420747315 0 0.107723901076272 0.1009705112741871 0 0.10577014600408401 0.099911237268542077 0 0.1059632104403728 0.097046535420747315 0 0.10577014600408401 0.099911237268542077 0 0.1059632104403728 0.097046535420747315 0 0.107723901076272 0.1009705112741871 0 0.10577014600408401 0.099911237268542077 0 0.10577014600408401 0.099911237268542077 0 0.090239211869349495 0.091490778099163825 0 0.10463459698087391 0.1167605827385602 0 0.091456264210061228 0.1217484887960897 0 0.1034990479576668 0.1336099282085785 0 0.107723901076272 0.1009705112741871 0 0.10463459698087391 0.1167605827385602 0 0.11461870130561071 0.1163366574117381 0 0.093929720469173444 0.1079072519195161 0 0.10463459698087391 0.1167605827385602 0 0.091456264210061228 0.1217484887960897 0 0.10873661379897009 0.1247631392450078 0 0.10463459698087391 0.1167605827385602 0 0.11461870130561071 0.1163366574117381 0 0.107723901076272 0.1009705112741871 0 0.11461870130561071 0.1163366574117381 0 0.12934176796694591 0.11269114339475091 0 0.10873661379897009 0.1247631392450078 0 0.11461870130561071 0.1163366574117381 0 0.1213978210768491 0.12325216397544481 0 0.11461870130561071 0.1163366574117381 0 0.1213978210768491 0.12325216397544481 0 0.12934176796694591 0.11269114339475091 0 0.107723901076272 0.1009705112741871 0 0.12934176796694591 0.11269114339475091 0 0.107723901076272 0.1009705112741871 0 0.12017825096638279 0.098157197119779993 0 0.12934176796694591 0.11269114339475091 0 0.107723901076272 0.1009705112741871 0 0.11461870130561071 0.1163366574117381 0 0.107723901076272 0.1009705112741871 0 0.1059632104403728 0.097046535420747315 0 0.12017825096638279 0.098157197119779993 0 0.1059632104403728 0.097046535420747315 0 0.12135635699018291 0.084570390640513346 0 0.1078918160951535 0.068429767418017026 0 0.1059632104403728 0.097046535420747315 0 0.12017825096638279 0.098157197119779993 0 0.12135635699018291 0.084570390640513346 0 0.11879537671154 0.054503452579204151 0 0.1078918160951535 0.068429767418017026 0 0.12711863179355451 0.067545840930336137 0 0.12135635699018291 0.084570390640513346 0 0.1078918160951535 0.068429767418017026 0 0.12711863179355451 0.067545840930336137 0 0.096759444974188744 0.058420556003493697 0 0.1078918160951535 0.068429767418017026 0 0.095051921202015444 0.072729012155571718 0 0.1059632104403728 0.097046535420747315 0 0.095051921202015444 0.072729012155571718 0 0.090239211869349495 0.091490778099163825 0 0.1059632104403728 0.097046535420747315 0 0.1078918160951535 0.068429767418017026 0 0.095051921202015444 0.072729012155571718 0 0.1059632104403728 0.097046535420747315 0 0.1078918160951535 0.068429767418017026 0 0.1059632104403728 0.097046535420747315 0 0.095051921202015444 0.072729012155571718 0 0.095051921202015444 0.072729012155571718 0 0.090239211869349495 0.091490778099163825 0 0.074708277734614803 0.083070318929785808 0 0.090239211869349495 0.091490778099163825 0 0.074708277734614803 0.083070318929785808 0 0.095051921202015444 0.072729012155571718 0 0.080563503688542537 0.069407964498132732 0 0.074708277734614803 0.083070318929785808 0 0.084140631963659479 0.048411488890395697 0 0.095051921202015444 0.072729012155571718 0 0.080563503688542537 0.069407964498132732 0 0.071951324340616685 0.05729293389698005 0 0.074708277734614803 0.083070318929785808 0 0.071951324340616685 0.05729293389698005 0 0.080563503688542537 0.069407964498132732 0 0.074708277734614803 0.083070318929785808 0 0.071951324340616685 0.05729293389698005 0 0.074708277734614803 0.083070318929785808 0 0.062392716991880877 0.076393149644119696 0 0.074708277734614803 0.083070318929785808 0 0.062392716991880877 0.076393149644119696 0 0.061811152058731049 0.087572209442648527 0 0.074708277734614803 0.083070318929785808 0 0.062392716991880877 0.076393149644119696 0 0.074708277734614803 0.083070318929785808 0 0.066102150742995566 0.096679648511579175 0 0.061811152058731049 0.087572209442648527 0 0.074708277734614803 0.083070318929785808 0 0.077548383281498032 0.1096251726952258 0 0.074708277734614803 0.083070318929785808 0 0.066102150742995566 0.096679648511579175 0 0.077548383281498032 0.1096251726952258 0 0.066102150742995566 0.096679648511579175 0 0.077548383281498032 0.1096251726952258 0 0.061158565733766872 0.10629209625441791 0 0.093929720469173444 0.1079072519195161 0 0.090239211869349495 0.091490778099163825 0 0.077548383281498032 0.1096251726952258 0 0.090239211869349495 0.091490778099163825 0 0.074708277734614803 0.083070318929785808 0 0.077548383281498032 0.1096251726952258 0 0.077548383281498032 0.1096251726952258 0 0.080388488828379512 0.13618002646066599 0 0.093929720469173444 0.1079072519195161 0 0.091456264210061228 0.1217484887960897 0 0.077548383281498032 0.1096251726952258 0 0.091456264210061228 0.1217484887960897 0 0.077548383281498032 0.1096251726952258 0 0.080388488828379512 0.13618002646066599 0 0.077548383281498032 0.1096251726952258 0 0.066417694472592617 0.11678337387639599 0 0.080388488828379512 0.13618002646066599 0 0.077548383281498032 0.1096251726952258 0 0.066417694472592617 0.11678337387639599 0 0.061158565733766872 0.10629209625441791 0 0.066417694472592617 0.11678337387639599 0 0.047752838076156892 0.120754109221166 0 0.061158565733766872 0.10629209625441791 0 0.047752838076156892 0.120754109221166 0 0.061158565733766872 0.10629209625441791 0 0.047562833637272858 0.105872143046586 0 0.066102150742995566 0.096679648511579175 0 0.061158565733766872 0.10629209625441791 0 0.054392522485254093 0.096818715842042852 0 0.054392522485254093 0.096818715842042852 0 0.047562833637272858 0.105872143046586 0 0.0436136150517627 0.095003892598601078 0 0.061158565733766872 0.10629209625441791 0 0.054392522485254093 0.096818715842042852 0 0.047562833637272858 0.105872143046586 0 0.047562833637272858 0.105872143046586 0 0.0436136150517627 0.095003892598601078 0 0.033739908219774267 0.1057944425683397 0 0.0436136150517627 0.095003892598601078 0 0.033739908219774267 0.1057944425683397 0 0.033515853220511448 0.085298012906545304 0 0.047752838076156892 0.120754109221166 0 0.033739908219774267 0.1057944425683397 0 0.028781987275410249 0.126119093684426 0 0.047752838076156892 0.120754109221166 0 0.047562833637272858 0.105872143046586 0 0.033739908219774267 0.1057944425683397 0 0.071951324340616685 0.05729293389698005 0 0.052733588780563362 0.071295473401761775 0 0.071951324340616685 0.05729293389698005 0 0.062392716991880877 0.076393149644119696 0 0.052733588780563362 0.071295473401761775 0 0.057469657818100053 0.056484462076641172 0 0.049180964140182609 0.061772125910157308 0 0.052733588780563362 0.071295473401761775 0 0.062392716991880877 0.076393149644119696 0 0.052733588780563362 0.071295473401761775 0 0.051460092338908123 0.084899214285715299 0 0.062392716991880877 0.076393149644119696 0 0.051460092338908123 0.084899214285715299 0 0.061811152058731049 0.087572209442648527 0 0.054392522485254093 0.096818715842042852 0 0.051460092338908123 0.084899214285715299 0 0.061811152058731049 0.087572209442648527 0 0.066102150742995566 0.096679648511579175 0 0.054392522485254093 0.096818715842042852 0 0.061811152058731049 0.087572209442648527 0 0.054392522485254093 0.096818715842042852 0 0.0436136150517627 0.095003892598601078 0 0.051460092338908123 0.084899214285715299 0 0.0436136150517627 0.095003892598601078 0 0.051460092338908123 0.084899214285715299 0 0.033515853220511448 0.085298012906545304 0 0.052733588780563362 0.071295473401761775 0 0.051460092338908123 0.084899214285715299 0 0.033515853220511448 0.085298012906545304 0 0.052733588780563362 0.071295473401761775 0 0.033515853220511448 0.085298012906545304 0 0.052733588780563362 0.071295473401761775 0 0.033515853220511448 0.085298012906545304 0 0.038356579664859773 0.071857487916493823 0 0.033515853220511448 0.085298012906545304 0 0.038356579664859773 0.071857487916493823 0 0.02496771558918293 0.070802169745180527 0 0.039016848815392413 0.061694350942109788 0 0.038356579664859773 0.071857487916493823 0 0.02496771558918293 0.070802169745180527 0 0.039016848815392413 0.061694350942109788 0 0.049180964140182609 0.061772125910157308 0 0.038356579664859773 0.071857487916493823 0 0.049180964140182609 0.061772125910157308 0 0.052733588780563362 0.071295473401761775 0 0.038356579664859773 0.071857487916493823 0 0.02496771558918293 0.070802169745180527 0 0.01698164187793445 0.083244910169821593 0 0.0093391268853680581 0.074428968719297023 0 0.033515853220511448 0.085298012906545304 0 0.02496771558918293 0.070802169745180527 0 0.01698164187793445 0.083244910169821593 0 0.033515853220511448 0.085298012906545304 0 0.01698164187793445 0.083244910169821593 0 0.01429811766045957 0.099300552411328818 0 0.033515853220511448 0.085298012906545304 0 0.01429811766045957 0.099300552411328818 0 0.01698164187793445 0.083244910169821593 0 0.0037128992863694719 0.087554214639535888 0 0.01429811766045957 0.099300552411328818 0 -0.0065392468501627218 0.073946880247965974 0 0.0037128992863694719 0.087554214639535888 0 0.0093391268853680581 0.074428968719297023 0 0.01698164187793445 0.083244910169821593 0 0.0037128992863694719 0.087554214639535888 0 0.0093391268853680581 0.074428968719297023 0 -0.0065392468501627218 0.073946880247965974 0 0.0094236310279546421 0.058915403939540451 0 0.0093391268853680581 0.074428968719297023 0 0.0094236310279546421 0.058915403939540451 0 0.02496771558918293 0.070802169745180527 0 0.0093391268853680581 0.074428968719297023 0 0.01004351340954676 0.11240294598950661 0 0.028781987275410249 0.126119093684426 0 0.021863995690743959 0.1089993149676502 0 0.01004351340954676 0.11240294598950661 0 0.028781987275410249 0.126119093684426 0 0.033739908219774267 0.1057944425683397 0 0.021863995690743959 0.1089993149676502 0 0.028781987275410249 0.126119093684426 0 0.01004351340954676 0.11240294598950661 0 0.01199519263195121 0.12852769413245599 0 0.028781987275410249 0.126119093684426 0 0.033739908219774267 0.1057944425683397 0 0.033515853220511448 0.085298012906545304 0 0.01429811766045957 0.099300552411328818 0 0.033739908219774267 0.1057944425683397 0 0.021863995690743959 0.1089993149676502 0 0.01429811766045957 0.099300552411328818 0 -0.0086949604563171488 0.098686798294587819 0 0.01004351340954676 0.11240294598950661 0 -0.0086949604563171488 0.098686798294587819 0 0.0048398924750147542 0.099486127833739654 0 0.01004351340954676 0.11240294598950661 0 0.021863995690743959 0.1089993149676502 0 0.01429811766045957 0.099300552411328818 0 0.01004351340954676 0.11240294598950661 0 0.01429811766045957 0.099300552411328818 0 0.0048398924750147542 0.099486127833739654 0 0.01004351340954676 0.11240294598950661 0 0.0037128992863694719 0.087554214639535888 0 0.01429811766045957 0.099300552411328818 0 0.0048398924750147542 0.099486127833739654 0 -0.0028245424118018142 0.1172602116382065 0 0.01004351340954676 0.11240294598950661 0 0.01199519263195121 0.12852769413245599 0 -0.0061957699440802691 0.13059493005026859 0 -0.0028245424118018142 0.1172602116382065 0 0.01199519263195121 0.12852769413245599 0 -0.0061957699440802691 0.13059493005026859 0 0.01199519263195121 0.12852769413245599 0 0.0107606121507319 0.14392326119354501 0 -0.0061957699440802691 0.13059493005026859 0 0.0107606121507319 0.14392326119354501 0 0.01199519263195121 0.12852769413245599 0 0.028781987275410249 0.126119093684426 0 0.02914053664600276 0.14187925128644491 0 0.01199519263195121 0.12852769413245599 0 0.02914053664600276 0.14187925128644491 0 0.0107606121507319 0.14392326119354501 0 0.02914053664600276 0.14187925128644491 0 0.0107606121507319 0.14392326119354501 0 0.02362024698764786 0.15403140044929581 0 0.02914053664600276 0.14187925128644491 0 0.0107606121507319 0.14392326119354501 0 0.02362024698764786 0.15403140044929581 0 0.02914053664600276 0.14187925128644491 0 0.037447563628434308 0.14837691387084709 0 0.02362024698764786 0.15403140044929581 0 0.0107606121507319 0.14392326119354501 0 0.02362024698764786 0.15403140044929581 0 0.0107606121507319 0.14392326119354501 0 0.011173398546453351 0.15942038856449381 0 -0.0032861824956104632 0.15848237531508319 0 0.0107606121507319 0.14392326119354501 0 0.011173398546453351 0.15942038856449381 0 -0.0032861824956104632 0.15848237531508319 0 0.0026961394843078119 0.16959424552817209 0 0.011173398546453351 0.15942038856449381 0 0.0026961394843078119 0.16959424552817209 0 0.011173398546453351 0.15942038856449381 0 0.01764377822560757 0.16931949934645571 0 -0.01014789215669795 0.1873388675034304 0 0.0026961394843078119 0.16959424552817209 0 0.0077234197069661233 0.18419146408424869 0 0.0026961394843078119 0.16959424552817209 0 0.0077234197069661233 0.18419146408424869 0 0.01764377822560757 0.16931949934645571 0 0.02409247381038503 0.18373416256555319 0 0.03647988182456513 0.164139539705045 0 0.0077234197069661233 0.18419146408424869 0 0.02409247381038503 0.18373416256555319 0 0.01764377822560757 0.16931949934645571 0 0.02409247381038503 0.18373416256555319 0 0.01764377822560757 0.16931949934645571 0 0.03647988182456513 0.164139539705045 0 0.02362024698764786 0.15403140044929581 0 0.01764377822560757 0.16931949934645571 0 0.03647988182456513 0.164139539705045 0 0.02362024698764786 0.15403140044929581 0 0.011173398546453351 0.15942038856449381 0 0.01764377822560757 0.16931949934645571 0 0.02362024698764786 0.15403140044929581 0 0.03647988182456513 0.164139539705045 0 0.03647988182456513 0.164139539705045 0 0.049321135458667037 0.17423323066890409 0 0.05343179966870857 0.16073218515813389 0 0.03647988182456513 0.164139539705045 0 0.049321135458667037 0.17423323066890409 0 0.03647988182456513 0.164139539705045 0 0.039481510229772428 0.18635161687995119 0 0.049321135458667037 0.17423323066890409 0 0.02409247381038503 0.18373416256555319 0 0.03647988182456513 0.164139539705045 0 0.039481510229772428 0.18635161687995119 0 0.049321135458667037 0.17423323066890409 0 0.06044724268150177 0.19604773601857689 0 0.070320237768311186 0.18311252994634891 0 0.049321135458667037 0.17423323066890409 0 0.064075796546363861 0.16878140576070139 0 0.070320237768311186 0.18311252994634891 0 0.039481510229772428 0.18635161687995119 0 0.049321135458667037 0.17423323066890409 0 0.06044724268150177 0.19604773601857689 0 0.049321135458667037 0.17423323066890409 0 0.05343179966870857 0.16073218515813389 0 0.064075796546363861 0.16878140576070139 0 0.05343179966870857 0.16073218515813389 0 0.067040501673529276 0.1541234785574529 0 0.064075796546363861 0.16878140576070139 0 0.050476691542682098 0.1419991365341044 0 0.067040501673529276 0.1541234785574529 0 0.050476691542682098 0.1419991365341044 0 0.0521716723850267 0.13931798561669809 0 0.067040501673529276 0.1541234785574529 0 0.05343179966870857 0.16073218515813389 0 0.050476691542682098 0.1419991365341044 0 0.067040501673529276 0.1541234785574529 0 0.050476691542682098 0.1419991365341044 0 0.047520461141273618 0.1398352413793455 0 0.050476691542682098 0.1419991365341044 0 0.0521716723850267 0.13931798561669809 0 0.047752838076156892 0.120754109221166 0 0.0521716723850267 0.13931798561669809 0 0.047520461141273618 0.1398352413793455 0 0.066417694472592617 0.11678337387639599 0 0.0521716723850267 0.13931798561669809 0 0.066417694472592617 0.11678337387639599 0 0.047752838076156892 0.120754109221166 0 0.0521716723850267 0.13931798561669809 0 0.0521716723850267 0.13931798561669809 0 0.047520461141273618 0.1398352413793455 0 0.050476691542682098 0.1419991365341044 0 0.0521716723850267 0.13931798561669809 0 0.047520461141273618 0.1398352413793455 0 0.047752838076156892 0.120754109221166 0 0.028781987275410249 0.126119093684426 0 0.047520461141273618 0.1398352413793455 0 0.028781987275410249 0.126119093684426 0 0.02914053664600276 0.14187925128644491 0 0.047520461141273618 0.1398352413793455 0 0.028781987275410249 0.126119093684426 0 0.047520461141273618 0.1398352413793455 0 0.03647988182456513 0.164139539705045 0 0.050476691542682098 0.1419991365341044 0 0.037447563628434308 0.14837691387084709 0 0.03647988182456513 0.164139539705045 0 0.050476691542682098 0.1419991365341044 0 0.03647988182456513 0.164139539705045 0 0.05343179966870857 0.16073218515813389 0 0.050476691542682098 0.1419991365341044 0 0.02914053664600276 0.14187925128644491 0 0.047520461141273618 0.1398352413793455 0 0.02362024698764786 0.15403140044929581 0 0.03647988182456513 0.164139539705045 0 0.037447563628434308 0.14837691387084709 0 0.02914053664600276 0.14187925128644491 0 0.047520461141273618 0.1398352413793455 0 0.037447563628434308 0.14837691387084709 0 0.050476691542682098 0.1419991365341044 0 0.047520461141273618 0.1398352413793455 0 0.037447563628434308 0.14837691387084709 0 0.01210992947877311 0.23723684743345411 0 0.01591800352680944 0.25266184638829969 0 0.033371124929654633 0.25067541080430228 0 0.01210992947877311 0.23723684743345411 0 0.033371124929654633 0.25067541080430228 0 0.01210992947877311 0.23723684743345411 0 0.026971615496806468 0.2232686653435241 0 0.033371124929654633 0.25067541080430228 0 0.0033435243420843392 0.24550581269512031 0 0.01210992947877311 0.23723684743345411 0 0.01591800352680944 0.25266184638829969 0 -0.001069103097690819 0.2352337777433495 0 0.0033435243420843392 0.24550581269512031 0 0.01210992947877311 0.23723684743345411 0 0.01210992947877311 0.23723684743345411 0 0.00023083505264562081 0.22276002696559249 0 0.026971615496806468 0.2232686653435241 0 -0.001069103097690819 0.2352337777433495 0 0.01210992947877311 0.23723684743345411 0 0.00023083505264562081 0.22276002696559249 0 0.011712399139053019 0.20712528728958629 0 0.036079820910277442 0.20158651165408159 0 0.026971615496806468 0.2232686653435241 0 0.011712399139053019 0.20712528728958629 0 0.036079820910277442 0.20158651165408159 0 0.00023083505264562081 0.22276002696559249 0 0.026971615496806468 0.2232686653435241 0 0.011712399139053019 0.20712528728958629 0 -0.0098054323372850343 0.2071541145266611 0 0.00023083505264562081 0.22276002696559249 0 0.011712399139053019 0.20712528728958629 0 0.0077234197069661233 0.18419146408424869 0 0.02409247381038503 0.18373416256555319 0 0.011712399139053019 0.20712528728958629 0 -0.01014789215669795 0.1873388675034304 0 0.0077234197069661233 0.18419146408424869 0 0.011712399139053019 0.20712528728958629 0 0.02409247381038503 0.18373416256555319 0 0.011712399139053019 0.20712528728958629 0 0.036079820910277442 0.20158651165408159 0 0.039481510229772428 0.18635161687995119 0 0.036079820910277442 0.20158651165408159 0 0.06044724268150177 0.19604773601857689 0 0.02409247381038503 0.18373416256555319 0 0.039481510229772428 0.18635161687995119 0 0.036079820910277442 0.20158651165408159 0 0.036079820910277442 0.20158651165408159 0 0.06044724268150177 0.19604773601857689 0 0.036079820910277442 0.20158651165408159 0 0.06044724268150177 0.19604773601857689 0 0.063483044822152709 0.2117733570994649 0 0.036079820910277442 0.20158651165408159 0 0.049241983416702537 0.22751679203340691 0 0.063483044822152709 0.2117733570994649 0 0.026971615496806468 0.2232686653435241 0 0.036079820910277442 0.20158651165408159 0 0.049241983416702537 0.22751679203340691 0 0.026971615496806468 0.2232686653435241 0 0.049241983416702537 0.22751679203340691 0 0.033371124929654633 0.25067541080430228 0 0.049241983416702537 0.22751679203340691 0 0.058328838893199828 0.24486311732509269 0 0.033371124929654633 0.25067541080430228 0 0.049241983416702537 0.22751679203340691 0 0.058328838893199828 0.24486311732509269 0 0.075151268053455622 0.2313676386934557 0 0.093649627678486516 0.24667326851556401 0 0.075151268053455622 0.2313676386934557 0 0.073189528411794241 0.25034404403557708 0 0.058328838893199828 0.24486311732509269 0 0.075151268053455622 0.2313676386934557 0 0.073189528411794241 0.25034404403557708 0 0.049241983416702537 0.22751679203340691 0 0.075151268053455622 0.2313676386934557 0 0.063483044822152709 0.2117733570994649 0 0.075151268053455622 0.2313676386934557 0 0.08500678235776557 0.2078556916800896 0 0.097271802425649243 0.22501157726732521 0 0.093649627678486516 0.24667326851556401 0 0.075151268053455622 0.2313676386934557 0 0.097271802425649243 0.22501157726732521 0 0.075151268053455622 0.2313676386934557 0 0.08500678235776557 0.2078556916800896 0 0.063483044822152709 0.2117733570994649 0 0.08500678235776557 0.2078556916800896 0 0.063483044822152709 0.2117733570994649 0 0.075412599875980701 0.20088577873455751 0 0.06044724268150177 0.19604773601857689 0 0.08481466445272598 0.1905089603830723 0 0.06044724268150177 0.19604773601857689 0 0.063483044822152709 0.2117733570994649 0 0.075412599875980701 0.20088577873455751 0 0.06044724268150177 0.19604773601857689 0 0.08481466445272598 0.1905089603830723 0 0.070320237768311186 0.18311252994634891 0 0.06044724268150177 0.19604773601857689 0 0.075412599875980701 0.20088577873455751 0 0.08481466445272598 0.1905089603830723 0 0.085907702630118626 0.18778441685605529 0 0.08481466445272598 0.1905089603830723 0 0.1091820862239507 0.18497018474756979 0 0.08500678235776557 0.2078556916800896 0 0.075412599875980701 0.20088577873455751 0 0.086397726760049226 0.19889433104238041 0 0.075412599875980701 0.20088577873455751 0 0.08481466445272598 0.1905089603830723 0 0.086397726760049226 0.19889433104238041 0 0.086397726760049226 0.19889433104238041 0 0.094293658231340366 0.19331653663782361 0 0.096780155488636443 0.19889267037827069 0 0.08500678235776557 0.2078556916800896 0 0.086397726760049226 0.19889433104238041 0 0.096780155488636443 0.19889267037827069 0 0.08481466445272598 0.1905089603830723 0 0.086397726760049226 0.19889433104238041 0 0.094293658231340366 0.19331653663782361 0 0.08481466445272598 0.1905089603830723 0 0.094293658231340366 0.19331653663782361 0 0.1091820862239507 0.18497018474756979 0 0.08481466445272598 0.1905089603830723 0 0.1091820862239507 0.18497018474756979 0 0.096780155488636443 0.19889267037827069 0 0.111064519155083 0.20092564539228561 0 0.1091820862239507 0.18497018474756979 0 0.094293658231340366 0.19331653663782361 0 0.096780155488636443 0.19889267037827069 0 0.1091820862239507 0.18497018474756979 0 0.096780155488636443 0.19889267037827069 0 0.111064519155083 0.20092564539228561 0 0.1008453307243844 0.2088744216204261 0 0.1091820862239507 0.18497018474756979 0 0.13016365725124379 0.20032822986596641 0 0.111064519155083 0.20092564539228561 0 0.1091820862239507 0.18497018474756979 0 0.13016365725124379 0.20032822986596641 0 0.1091820862239507 0.18497018474756979 0 0.1246574238361096 0.18145260197979779 0 0.13016365725124379 0.20032822986596641 0 0.111064519155083 0.20092564539228561 0 0.1136051687387328 0.2163328823572167 0 0.13016365725124379 0.20032822986596641 0 0.1136051687387328 0.2163328823572167 0 0.13122443958997659 0.22473052344458869 0 0.13016365725124379 0.20032822986596641 0 0.08500678235776557 0.2078556916800896 0 0.1008453307243844 0.2088744216204261 0 0.097271802425649243 0.22501157726732521 0 0.1136051687387328 0.2163328823572167 0 0.1008453307243844 0.2088744216204261 0 0.097271802425649243 0.22501157726732521 0 0.08500678235776557 0.2078556916800896 0 0.096780155488636443 0.19889267037827069 0 0.1008453307243844 0.2088744216204261 0 0.111064519155083 0.20092564539228561 0 0.1136051687387328 0.2163328823572167 0 0.1008453307243844 0.2088744216204261 0 0.1136051687387328 0.2163328823572167 0 0.097271802425649243 0.22501157726732521 0 0.11106126328605991 0.23812689655270849 0 0.1136051687387328 0.2163328823572167 0 0.11106126328605991 0.23812689655270849 0 0.13122443958997659 0.22473052344458869 0 0.11106126328605991 0.23812689655270849 0 0.1337942598672309 0.24999146204144321 0 0.1127245953623645 0.25546607531009391 0 0.11106126328605991 0.23812689655270849 0 0.1337942598672309 0.24999146204144321 0 0.093649627678486516 0.24667326851556401 0 0.11106126328605991 0.23812689655270849 0 0.1127245953623645 0.25546607531009391 0 0.093649627678486516 0.24667326851556401 0 0.097271802425649243 0.22501157726732521 0 0.11106126328605991 0.23812689655270849 0 0.091114149257719393 0.14572427777583449 0 0.080388488828379512 0.13618002646066599 0 0.083604311804375608 0.16624782058080251 0 0.080388488828379512 0.13618002646066599 0 0.083604311804375608 0.16624782058080251 0 0.091456264210061228 0.1217484887960897 0 0.080388488828379512 0.13618002646066599 0 0.1034990479576668 0.1336099282085785 0 0.080388488828379512 0.13618002646066599 0 0.1034990479576668 0.1336099282085785 0 0.091114149257719393 0.14572427777583449 0 0.080388488828379512 0.13618002646066599 0 0.1034990479576668 0.1336099282085785 0 0.066417694472592617 0.11678337387639599 0 0.0521716723850267 0.13931798561669809 0 0.080388488828379512 0.13618002646066599 0 0.0521716723850267 0.13931798561669809 0 0.080388488828379512 0.13618002646066599 0 0.080388488828379512 0.13618002646066599 0 0.067040501673529276 0.1541234785574529 0 0.083604311804375608 0.16624782058080251 0 0.0521716723850267 0.13931798561669809 0 0.080388488828379512 0.13618002646066599 0 0.067040501673529276 0.1541234785574529 0 0.067040501673529276 0.1541234785574529 0 0.064075796546363861 0.16878140576070139 0 0.083604311804375608 0.16624782058080251 0 0.067040501673529276 0.1541234785574529 0 0.083604311804375608 0.16624782058080251 0 0.064075796546363861 0.16878140576070139 0 0.070320237768311186 0.18311252994634891 0 0.083604311804375608 0.16624782058080251 0 0.085907702630118626 0.18778441685605529 0 0.083604311804375608 0.16624782058080251 0 0.096393199014163225 0.17560900266418611 0 0.085907702630118626 0.18778441685605529 0 0.070320237768311186 0.18311252994634891 0 0.083604311804375608 0.16624782058080251 0 0.085907702630118626 0.18778441685605529 0 0.083604311804375608 0.16624782058080251 0 0.085907702630118626 0.18778441685605529 0 0.08481466445272598 0.1905089603830723 0 0.070320237768311186 0.18311252994634891 0 0.091114149257719393 0.14572427777583449 0 0.083604311804375608 0.16624782058080251 0 0.094937729783130309 0.1573925412057425 0 0.083604311804375608 0.16624782058080251 0 0.096393199014163225 0.17560900266418611 0 0.083604311804375608 0.16624782058080251 0 0.097644391619902182 0.16563432166600289 0 0.096393199014163225 0.17560900266418611 0 0.083604311804375608 0.16624782058080251 0 0.094937729783130309 0.1573925412057425 0 0.097644391619902182 0.16563432166600289 0 0.094937729783130309 0.1573925412057425 0 0.097644391619902182 0.16563432166600289 0 0.1036698109006592 0.15785742467767119 0 0.097644391619902182 0.16563432166600289 0 0.1075245813634045 0.16950655194772341 0 0.096393199014163225 0.17560900266418611 0 0.097644391619902182 0.16563432166600289 0 0.1075245813634045 0.16950655194772341 0 0.1036698109006592 0.15785742467767119 0 0.1075245813634045 0.16950655194772341 0 0.1036698109006592 0.15785742467767119 0 0.1110122416877916 0.1617951949512913 0 0.085907702630118626 0.18778441685605529 0 0.096393199014163225 0.17560900266418611 0 0.1091820862239507 0.18497018474756979 0 0.1075245813634045 0.16950655194772341 0 0.096393199014163225 0.17560900266418611 0 0.1091820862239507 0.18497018474756979 0 0.096393199014163225 0.17560900266418611 0 0.1091820862239507 0.18497018474756979 0 0.1151728035585603 0.1751904374311892 0 0.1246574238361096 0.18145260197979779 0 0.1193271228107772 0.16483241104966459 0 0.1091820862239507 0.18497018474756979 0 0.1246574238361096 0.18145260197979779 0 0.1091820862239507 0.18497018474756979 0 0.1151728035585603 0.1751904374311892 0 0.1246574238361096 0.18145260197979779 0 0.1075245813634045 0.16950655194772341 0 0.1091820862239507 0.18497018474756979 0 0.1151728035585603 0.1751904374311892 0 0.1110122416877916 0.1617951949512913 0 0.1193271228107772 0.16483241104966459 0 0.11352745167632559 0.15498439213010601 0 0.1036698109006592 0.15785742467767119 0 0.1110122416877916 0.1617951949512913 0 0.11352745167632559 0.15498439213010601 0 0.1075245813634045 0.16950655194772341 0 0.1110122416877916 0.1617951949512913 0 0.1193271228107772 0.16483241104966459 0 0.1075245813634045 0.16950655194772341 0 0.1151728035585603 0.1751904374311892 0 0.1193271228107772 0.16483241104966459 0 0.1193271228107772 0.16483241104966459 0 0.1231561859428634 0.15680574017246671 0 0.11352745167632559 0.15498439213010601 0 0.1193271228107772 0.16483241104966459 0 0.1231561859428634 0.15680574017246671 0 0.13206619296676389 0.1645803653300624 0 0.1231561859428634 0.15680574017246671 0 0.1198649882177613 0.1487622099034559 0 0.13099517404268909 0.15086932244904441 0 0.1231561859428634 0.15680574017246671 0 0.1198649882177613 0.1487622099034559 0 0.11352745167632559 0.15498439213010601 0 0.1198649882177613 0.1487622099034559 0 0.1246690576436681 0.1416098970372574 0 0.1162483876830455 0.14249334282884091 0 0.1198649882177613 0.1487622099034559 0 0.1162483876830455 0.14249334282884091 0 0.1121319224560554 0.14615146402396961 0 0.1162483876830455 0.14249334282884091 0 0.1121319224560554 0.14615146402396961 0 0.1112792456411681 0.13954810344549831 0 0.1121319224560554 0.14615146402396961 0 0.1062160749053289 0.14202690675194701 0 0.1112792456411681 0.13954810344549831 0 0.1121319224560554 0.14615146402396961 0 0.11352745167632559 0.15498439213010601 0 0.10565538661270291 0.14909382908396979 0 0.1198649882177613 0.1487622099034559 0 0.1121319224560554 0.14615146402396961 0 0.11352745167632559 0.15498439213010601 0 0.1036698109006592 0.15785742467767119 0 0.11352745167632559 0.15498439213010601 0 0.10565538661270291 0.14909382908396979 0 0.1036698109006592 0.15785742467767119 0 0.10565538661270291 0.14909382908396979 0 0.099094036831901933 0.15119011257367229 0 0.10565538661270291 0.14909382908396979 0 0.1009692106031093 0.1452649926156854 0 0.099094036831901933 0.15119011257367229 0 0.1121319224560554 0.14615146402396961 0 0.10565538661270291 0.14909382908396979 0 0.1062160749053289 0.14202690675194701 0 0.1062160749053289 0.14202690675194701 0 0.1009692106031093 0.1452649926156854 0 0.1032044569067989 0.13798108813827481 0 0.10565538661270291 0.14909382908396979 0 0.1062160749053289 0.14202690675194701 0 0.1009692106031093 0.1452649926156854 0 0.091114149257719393 0.14572427777583449 0 0.1009692106031093 0.1452649926156854 0 0.1032044569067989 0.13798108813827481 0 0.091114149257719393 0.14572427777583449 0 0.1009692106031093 0.1452649926156854 0 0.099094036831901933 0.15119011257367229 0 0.091114149257719393 0.14572427777583449 0 0.094937729783130309 0.1573925412057425 0 0.099094036831901933 0.15119011257367229 0 0.094937729783130309 0.1573925412057425 0 0.1036698109006592 0.15785742467767119 0 0.099094036831901933 0.15119011257367229 0 0.10463459698087391 0.1167605827385602 0 0.1034990479576668 0.1336099282085785 0 0.10873661379897009 0.1247631392450078 0 0.10463459698087391 0.1167605827385602 0 0.1034990479576668 0.1336099282085785 0 0.091114149257719393 0.14572427777583449 0 0.1034990479576668 0.1336099282085785 0 0.1032044569067989 0.13798108813827481 0 0.1034990479576668 0.1336099282085785 0 0.1032044569067989 0.13798108813827481 0 0.1034990479576668 0.1336099282085785 0 0.1032044569067989 0.13798108813827481 0 0.10682890764757789 0.13677114770450921 0 0.1034990479576668 0.1336099282085785 0 0.10682890764757789 0.13677114770450921 0 0.1060059071747894 0.1333311433269096 0 0.1034990479576668 0.1336099282085785 0 0.1060059071747894 0.1333311433269096 0 0.1062160749053289 0.14202690675194701 0 0.1032044569067989 0.13798108813827481 0 0.10682890764757789 0.13677114770450921 0 0.1062160749053289 0.14202690675194701 0 0.10682890764757789 0.13677114770450921 0 0.1112792456411681 0.13954810344549831 0 0.10682890764757789 0.13677114770450921 0 0.1060059071747894 0.1333311433269096 0 0.1108119552265084 0.13436498483403689 0 0.10873661379897009 0.1247631392450078 0 0.1034990479576668 0.1336099282085785 0 0.1090158840100731 0.1295712988734363 0 0.1060059071747894 0.1333311433269096 0 0.1090158840100731 0.1295712988734363 0 0.1108119552265084 0.13436498483403689 0 0.1034990479576668 0.1336099282085785 0 0.1060059071747894 0.1333311433269096 0 0.1090158840100731 0.1295712988734363 0 0.10873661379897009 0.1247631392450078 0 0.1213978210768491 0.12325216397544481 0 0.1153377617021303 0.13008094563601921 0 0.10873661379897009 0.1247631392450078 0 0.1090158840100731 0.1295712988734363 0 0.1153377617021303 0.13008094563601921 0 0.1090158840100731 0.1295712988734363 0 0.1153377617021303 0.13008094563601921 0 0.1108119552265084 0.13436498483403689 0 0.10682890764757789 0.13677114770450921 0 0.1112792456411681 0.13954810344549831 0 0.1108119552265084 0.13436498483403689 0 0.1112792456411681 0.13954810344549831 0 0.1108119552265084 0.13436498483403689 0 0.1172787442337721 0.1367445595057579 0 0.1153377617021303 0.13008094563601921 0 0.1108119552265084 0.13436498483403689 0 0.1172787442337721 0.1367445595057579 0 0.1162483876830455 0.14249334282884091 0 0.1112792456411681 0.13954810344549831 0 0.1172787442337721 0.1367445595057579 0 0.1246690576436681 0.1416098970372574 0 0.1162483876830455 0.14249334282884091 0 0.1172787442337721 0.1367445595057579 0 0.1246690576436681 0.1416098970372574 0 0.1172787442337721 0.1367445595057579 0 0.1253260575061122 0.1323700832528947 0 0.1153377617021303 0.13008094563601921 0 0.1172787442337721 0.1367445595057579 0 0.1253260575061122 0.1323700832528947 0 0.1213978210768491 0.12325216397544481 0 0.1153377617021303 0.13008094563601921 0 0.1253260575061122 0.1323700832528947 0 0.13775703202670961 0.13844629651333179 0 0.13295646268684719 0.12623429253034751 0 0.15095963485761929 0.12441177551531531 0 0.1253260575061122 0.1323700832528947 0 0.13775703202670961 0.13844629651333179 0 0.13295646268684719 0.12623429253034751 0 0.1213978210768491 0.12325216397544481 0 0.1253260575061122 0.1323700832528947 0 0.13295646268684719 0.12623429253034751 0 0.1246690576436681 0.1416098970372574 0 0.1253260575061122 0.1323700832528947 0 0.13775703202670961 0.13844629651333179 0 0.13775703202670961 0.13844629651333179 0 0.1567035714336909 0.14765993881320191 0 0.15095963485761929 0.12441177551531531 0 0.13775703202670961 0.13844629651333179 0 0.1425653931893763 0.1532769900751309 0 0.1567035714336909 0.14765993881320191 0 0.1425653931893763 0.1532769900751309 0 0.1523822781703813 0.15945238659630259 0 0.1567035714336909 0.14765993881320191 0 0.1425653931893763 0.1532769900751309 0 0.13099517404268909 0.15086932244904441 0 0.13206619296676389 0.1645803653300624 0 0.13775703202670961 0.13844629651333179 0 0.1425653931893763 0.1532769900751309 0 0.13099517404268909 0.15086932244904441 0 0.1246690576436681 0.1416098970372574 0 0.13775703202670961 0.13844629651333179 0 0.13099517404268909 0.15086932244904441 0 0.1198649882177613 0.1487622099034559 0 0.1246690576436681 0.1416098970372574 0 0.13099517404268909 0.15086932244904441 0 0.1231561859428634 0.15680574017246671 0 0.13099517404268909 0.15086932244904441 0 0.13206619296676389 0.1645803653300624 0 0.1246574238361096 0.18145260197979779 0 0.1193271228107772 0.16483241104966459 0 0.13206619296676389 0.1645803653300624 0 0.13206619296676389 0.1645803653300624 0 0.14013276144826911 0.17793501921202801 0 0.1442344902657102 0.1654782804607639 0 0.1425653931893763 0.1532769900751309 0 0.13206619296676389 0.1645803653300624 0 0.1442344902657102 0.1654782804607639 0 0.1246574238361096 0.18145260197979779 0 0.14013276144826911 0.17793501921202801 0 0.1412307683720273 0.19183948388148539 0 0.1246574238361096 0.18145260197979779 0 0.13206619296676389 0.1645803653300624 0 0.14013276144826911 0.17793501921202801 0 0.1246574238361096 0.18145260197979779 0 0.14013276144826911 0.17793501921202801 0 0.14013276144826911 0.17793501921202801 0 0.15402582555376049 0.17214664109029551 0 0.15738588283191091 0.1898563663825778 0 0.14013276144826911 0.17793501921202801 0 0.1412307683720273 0.19183948388148539 0 0.15738588283191091 0.1898563663825778 0 0.1425653931893763 0.1532769900751309 0 0.1442344902657102 0.1654782804607639 0 0.1523822781703813 0.15945238659630259 0 0.14013276144826911 0.17793501921202801 0 0.15402582555376049 0.17214664109029551 0 0.1442344902657102 0.1654782804607639 0 0.15402582555376049 0.17214664109029551 0 0.1442344902657102 0.1654782804607639 0 0.1523822781703813 0.15945238659630259 0 0.1523822781703813 0.15945238659630259 0 0.16296594221498231 0.16343081989406291 0 0.1567035714336909 0.14765993881320191 0 0.16296594221498231 0.16343081989406291 0 0.17623705906762849 0.15774729038290641 0 0.1567035714336909 0.14765993881320191 0 0.16296594221498231 0.16343081989406291 0 0.16837621479738851 0.17668413820608669 0 0.17623705906762849 0.15774729038290641 0 0.15402582555376049 0.17214664109029551 0 0.16296594221498231 0.16343081989406291 0 0.16837621479738851 0.17668413820608669 0 0.15402582555376049 0.17214664109029551 0 0.1523822781703813 0.15945238659630259 0 0.16296594221498231 0.16343081989406291 0 0.15402582555376049 0.17214664109029551 0 0.16837621479738851 0.17668413820608669 0 0.15738588283191091 0.1898563663825778 0 0.16837621479738851 0.17668413820608669 0 0.15738588283191091 0.1898563663825778 0 0.17605549706991591 0.18994443209428291 0 0.18334675306663481 0.17622969664030799 0 0.17605549706991591 0.18994443209428291 0 0.19532952003379059 0.18521506413521369 0 0.16837621479738851 0.17668413820608669 0 0.18334675306663481 0.17622969664030799 0 0.17605549706991591 0.18994443209428291 0 0.16837621479738851 0.17668413820608669 0 0.18334675306663481 0.17622969664030799 0 0.17623705906762849 0.15774729038290641 0 0.18334675306663481 0.17622969664030799 0 0.17623705906762849 0.15774729038290641 0 0.19476244433637799 0.1665340519458291 0 0.17623705906762849 0.15774729038290641 0 0.17257750174829289 0.13613240763587969 0 0.19419536863896639 0.14785303975644451 0 0.17257750174829289 0.13613240763587969 0 0.19419536863896639 0.14785303975644451 0 0.1818687681156913 0.12763350460132089 0 0.17257750174829289 0.13613240763587969 0 0.19419536863896639 0.14785303975644451 0 0.1818687681156913 0.12763350460132089 0 0.17257750174829289 0.13613240763587969 0 0.16965409176979829 0.1223647242333188 0 0.17257750174829289 0.13613240763587969 0 0.15095963485761929 0.12441177551531531 0 0.17257750174829289 0.13613240763587969 0 0.1567035714336909 0.14765993881320191 0 0.15095963485761929 0.12441177551531531 0 0.17257750174829289 0.13613240763587969 0 0.15095963485761929 0.12441177551531531 0 0.16965409176979829 0.1223647242333188 0 0.17623705906762849 0.15774729038290641 0 0.17257750174829289 0.13613240763587969 0 0.1567035714336909 0.14765993881320191 0 0.14959044496937851 0.23688666639755759 0 0.1337942598672309 0.24999146204144321 0 0.15652725644840129 0.26185602753017878 0 0.14959044496937851 0.23688666639755759 0 0.1337942598672309 0.24999146204144321 0 0.13122443958997659 0.22473052344458869 0 0.11106126328605991 0.23812689655270849 0 0.1337942598672309 0.24999146204144321 0 0.13122443958997659 0.22473052344458869 0 0.14959044496937851 0.23688666639755759 0 0.13122443958997659 0.22473052344458869 0 0.1511452282785378 0.21568627498436191 0 0.1511452282785378 0.21568627498436191 0 0.13016365725124379 0.20032822986596641 0 0.13122443958997659 0.22473052344458869 0 0.1511452282785378 0.21568627498436191 0 0.13016365725124379 0.20032822986596641 0 0.1246574238361096 0.18145260197979779 0 0.13016365725124379 0.20032822986596641 0 0.1412307683720273 0.19183948388148539 0 0.1511452282785378 0.21568627498436191 0 0.1412307683720273 0.19183948388148539 0 0.15738588283191091 0.1898563663825778 0 0.1511452282785378 0.21568627498436191 0 0.13016365725124379 0.20032822986596641 0 0.1412307683720273 0.19183948388148539 0 0.15738588283191091 0.1898563663825778 0 0.17605549706991591 0.18994443209428291 0 0.1680883134312017 0.2069322171365931 0 0.17605549706991591 0.18994443209428291 0 0.18372815966981229 0.2081296921189858 0 0.1680883134312017 0.2069322171365931 0 0.17605549706991591 0.18994443209428291 0 0.18372815966981229 0.2081296921189858 0 0.19532952003379059 0.18521506413521369 0 0.18372815966981229 0.2081296921189858 0 0.1680883134312017 0.2069322171365931 0 0.17212679930583191 0.23104432010275691 0 0.1511452282785378 0.21568627498436191 0 0.1680883134312017 0.2069322171365931 0 0.17212679930583191 0.23104432010275691 0 0.1511452282785378 0.21568627498436191 0 0.15738588283191091 0.1898563663825778 0 0.1680883134312017 0.2069322171365931 0 0.14959044496937851 0.23688666639755759 0 0.1511452282785378 0.21568627498436191 0 0.17212679930583191 0.23104432010275691 0 0.1511452282785378 0.21568627498436191 0 0.17212679930583191 0.23104432010275691 0 0.18372815966981229 0.2081296921189858 0 0.18622317689028151 0.22439565309748391 0 0.17212679930583191 0.23104432010275691 0 0.18372815966981229 0.2081296921189858 0 0.17212679930583191 0.23104432010275691 0 0.18622317689028151 0.22439565309748391 0 0.17212679930583191 0.23104432010275691 0 0.18236044891295111 0.23853512487555209 0 0.17212679930583191 0.23104432010275691 0 0.18236044891295111 0.23853512487555209 0 0.16432702787711759 0.24645017381646839 0 0.18236044891295111 0.23853512487555209 0 0.16432702787711759 0.24645017381646839 0 0.1773186989433643 0.25563234473147572 0 0.17212679930583191 0.23104432010275691 0 0.18236044891295111 0.23853512487555209 0 0.14959044496937851 0.23688666639755759 0 0.16432702787711759 0.24645017381646839 0 0.15652725644840129 0.26185602753017878 0 0.14959044496937851 0.23688666639755759 0 0.17212679930583191 0.23104432010275691 0 0.16432702787711759 0.24645017381646839 0 0.17212679930583191 0.23104432010275691 0 0.16432702787711759 0.24645017381646839 0 0.21579211715261479 0.23782211043815199 0 0.19682381103061011 0.23444106421501129 0 0.21019685046771899 0.25079609985483631 0 0.21579211715261479 0.23782211043815199 0 0.2253267238992222 0.24953808168636099 0 0.21019685046771899 0.25079609985483631 0 0.19682381103061011 0.23444106421501129 0 0.19757095652901999 0.25905406425491012 0 0.21019685046771899 0.25079609985483631 0 0.19682381103061011 0.23444106421501129 0 0.19757095652901999 0.25905406425491012 0 0.18236044891295111 0.23853512487555209 0 0.19682381103061011 0.23444106421501129 0 0.19757095652901999 0.25905406425491012 0 0.19682381103061011 0.23444106421501129 0 0.19607666553220029 0.20982806417511249 0 0.18622317689028151 0.22439565309748391 0 0.19682381103061011 0.23444106421501129 0 0.19607666553220029 0.20982806417511249 0 0.18622317689028151 0.22439565309748391 0 0.18236044891295111 0.23853512487555209 0 0.19682381103061011 0.23444106421501129 0 0.19682381103061011 0.23444106421501129 0 0.21692606969725781 0.21575403636306531 0 0.19607666553220029 0.20982806417511249 0 0.21579211715261479 0.23782211043815199 0 0.19682381103061011 0.23444106421501129 0 0.21692606969725781 0.21575403636306531 0 0.21692606969725781 0.21575403636306531 0 0.19607666553220029 0.20982806417511249 0 0.2091542564201776 0.1938842988415207 0 0.18372815966981229 0.2081296921189858 0 0.18622317689028151 0.22439565309748391 0 0.19607666553220029 0.20982806417511249 0 0.18372815966981229 0.2081296921189858 0 0.19607666553220029 0.20982806417511249 0 0.19532952003379059 0.18521506413521369 0 0.19607666553220029 0.20982806417511249 0 0.19532952003379059 0.18521506413521369 0 0.19607666553220029 0.20982806417511249 0 0.2091542564201776 0.1938842988415207 0 0.19532952003379059 0.18521506413521369 0 0.18372815966981229 0.2081296921189858 0 0.19532952003379059 0.18521506413521369 0 0.21692606969725781 0.21575403636306531 0 0.2091542564201776 0.1938842988415207 0 0.22322858884141561 0.19541778200980461 0 0.2091542564201776 0.1938842988415207 0 0.22322858884141561 0.19541778200980461 0 0.21729508652043239 0.17982200165475681 0 0.22322858884141561 0.19541778200980461 0 0.2364762708639935 0.18817588444957051 0 0.23384850873885829 0.2046032858362575 0 0.22322858884141561 0.19541778200980461 0 0.2364762708639935 0.18817588444957051 0 0.22619236665138259 0.18482926798443111 0 0.2364762708639935 0.18817588444957051 0 0.24828978234282939 0.19779669924652041 0 0.23384850873885829 0.2046032858362575 0 0.2364762708639935 0.18817588444957051 0 0.24828978234282939 0.19779669924652041 0 0.25149728978901681 0.18628903406191061 0 0.24828978234282939 0.19779669924652041 0 0.2468767086260967 0.21195937714617599 0 0.23384850873885829 0.2046032858362575 0 0.2468767086260967 0.21195937714617599 0 0.23312831691735789 0.21854293867144109 0 0.23384850873885829 0.2046032858362575 0 0.21692606969725781 0.21575403636306531 0 0.22322858884141561 0.19541778200980461 0 0.23384850873885829 0.2046032858362575 0 0.21692606969725781 0.21575403636306531 0 0.23312831691735789 0.21854293867144109 0 0.23384850873885829 0.2046032858362575 0 0.21579211715261479 0.23782211043815199 0 0.21692606969725781 0.21575403636306531 0 0.23025523132522949 0.23320747179975751 0 0.21692606969725781 0.21575403636306531 0 0.23312831691735789 0.21854293867144109 0 0.23025523132522949 0.23320747179975751 0 0.2468767086260967 0.21195937714617599 0 0.23312831691735789 0.21854293867144109 0 0.24654155350719351 0.22732013598330689 0 0.23312831691735789 0.21854293867144109 0 0.23025523132522949 0.23320747179975751 0 0.24654155350719351 0.22732013598330689 0 0.23025523132522949 0.23320747179975751 0 0.24654155350719351 0.22732013598330689 0 0.24398959813062701 0.2460479105434944 0 0.23025523132522949 0.23320747179975751 0 0.24398959813062701 0.2460479105434944 0 0.2253267238992222 0.24953808168636099 0 0.21579211715261479 0.23782211043815199 0 0.23025523132522949 0.23320747179975751 0 0.2253267238992222 0.24953808168636099 0 0.19419536863896639 0.14785303975644451 0 0.21976972121417451 0.16171877312280769 0 0.20919590297267471 0.14473816090562491 0 0.19419536863896639 0.14785303975644451 0 0.21976972121417451 0.16171877312280769 0 0.20919590297267471 0.14473816090562491 0 0.21976972121417451 0.16171877312280769 0 0.22264621419091479 0.1434200899747641 0 0.20017230784664269 0.12596074076848371 0 0.22264621419091479 0.1434200899747641 0 0.21723541400908039 0.12794501989941889 0 0.20017230784664269 0.12596074076848371 0 0.2241627709276135 0.13776211110206851 0 0.20017230784664269 0.12596074076848371 0 0.22264621419091479 0.1434200899747641 0 0.2241627709276135 0.13776211110206851 0 0.21723541400908039 0.12794501989941889 0 0.20017230784664269 0.12596074076848371 0 0.2083807263190198 0.1213882122441349 0 0.20919590297267471 0.14473816090562491 0 0.20017230784664269 0.12596074076848371 0 0.22264621419091479 0.1434200899747641 0 0.20017230784664269 0.12596074076848371 0 0.2241627709276135 0.13776211110206851 0 0.1818687681156913 0.12763350460132089 0 0.19419536863896639 0.14785303975644451 0 0.19343013404313739 0.122644135764236 0 0.19419536863896639 0.14785303975644451 0 0.19343013404313739 0.122644135764236 0 0.20017230784664269 0.12596074076848371 0 0.19419536863896639 0.14785303975644451 0 0.19343013404313739 0.122644135764236 0 0.20919590297267471 0.14473816090562491 0 0.20017230784664269 0.12596074076848371 0 0.19419536863896639 0.14785303975644451 0 0.19419536863896639 0.14785303975644451 0 0.19476244433637799 0.1665340519458291 0 0.20490979920017849 0.1662924097058173 0 0.19419536863896639 0.14785303975644451 0 0.19476244433637799 0.1665340519458291 0 0.17623705906762849 0.15774729038290641 0 0.19419536863896639 0.14785303975644451 0 0.19476244433637799 0.1665340519458291 0 0.18334675306663481 0.17622969664030799 0 0.19476244433637799 0.1665340519458291 0 0.19532952003379059 0.18521506413521369 0 0.19532952003379059 0.18521506413521369 0 0.2076376856299465 0.1786741363359968 0 0.20490979920017849 0.1662924097058173 0 0.19532952003379059 0.18521506413521369 0 0.20490979920017849 0.1662924097058173 0 0.19476244433637799 0.1665340519458291 0 0.19532952003379059 0.18521506413521369 0 0.20490979920017849 0.1662924097058173 0 0.19476244433637799 0.1665340519458291 0 0.19532952003379059 0.18521506413521369 0 0.2091542564201776 0.1938842988415207 0 0.19532952003379059 0.18521506413521369 0 0.2076376856299465 0.1786741363359968 0 0.2076376856299465 0.1786741363359968 0 0.20490979920017849 0.1662924097058173 0 0.21463592144310781 0.1709674905923266 0 0.2076376856299465 0.1786741363359968 0 0.21729508652043239 0.17982200165475681 0 0.21463592144310781 0.1709674905923266 0 0.2091542564201776 0.1938842988415207 0 0.2076376856299465 0.1786741363359968 0 0.21729508652043239 0.17982200165475681 0 0.19419536863896639 0.14785303975644451 0 0.20490979920017849 0.1662924097058173 0 0.21976972121417451 0.16171877312280769 0 0.20490979920017849 0.1662924097058173 0 0.21463592144310781 0.1709674905923266 0 0.21976972121417451 0.16171877312280769 0 0.21976972121417451 0.16171877312280769 0 0.24534407378938231 0.1755845064891712 0 0.21976972121417451 0.16171877312280769 0 0.22776952037968909 0.17590140382359221 0 0.24534407378938231 0.1755845064891712 0 0.21463592144310781 0.1709674905923266 0 0.21976972121417451 0.16171877312280769 0 0.22776952037968909 0.17590140382359221 0 0.21729508652043239 0.17982200165475681 0 0.22619236665138259 0.18482926798443111 0 0.22776952037968909 0.17590140382359221 0 0.22322858884141561 0.19541778200980461 0 0.21729508652043239 0.17982200165475681 0 0.22619236665138259 0.18482926798443111 0 0.21729508652043239 0.17982200165475681 0 0.21463592144310781 0.1709674905923266 0 0.22776952037968909 0.17590140382359221 0 0.2364762708639935 0.18817588444957051 0 0.22619236665138259 0.18482926798443111 0 0.22776952037968909 0.17590140382359221 0 0.2364762708639935 0.18817588444957051 0 0.22776952037968909 0.17590140382359221 0 0.24534407378938231 0.1755845064891712 0 0.2364762708639935 0.18817588444957051 0 0.24534407378938231 0.1755845064891712 0 0.25149728978901681 0.18628903406191061 0 0.21976972121417451 0.16171877312280769 0 0.24534407378938231 0.1755845064891712 0 0.24512012053518681 0.1608794391810448 0 0.24815323400858449 0.14956348143565321 0 0.2241627709276135 0.13776211110206851 0 0.23954775909403089 0.13677191589741211 0 0.24815323400858449 0.14956348143565321 0 0.2241627709276135 0.13776211110206851 0 0.24512012053518681 0.1608794391810448 0 0.24815323400858449 0.14956348143565321 0 0.22264621419091479 0.1434200899747641 0 0.24815323400858449 0.14956348143565321 0 0.23954775909403089 0.13677191589741211 0 0.25182091587038291 0.13921848903949871 0 0.21976972121417451 0.16171877312280769 0 0.24512012053518681 0.1608794391810448 0 0.22264621419091479 0.1434200899747641 0 0.24815323400858449 0.14956348143565321 0 0.22264621419091479 0.1434200899747641 0 0.2241627709276135 0.13776211110206851 0 0.24512012053518681 0.1608794391810448 0 0.22264621419091479 0.1434200899747641 0 0.21723541400908039 0.12794501989941889 0 0.22719380431294339 0.126823393682785 0 0.2185514520315871 0.1222930536834306 0 0.21723541400908039 0.12794501989941889 0 0.22484980732208959 0.13127277140323421 0 0.2241627709276135 0.13776211110206851 0 0.21723541400908039 0.12794501989941889 0 0.22484980732208959 0.13127277140323421 0 0.22719380431294339 0.126823393682785 0 0.2241627709276135 0.13776211110206851 0 0.23080724003872119 0.13256056092866461 0 0.23954775909403089 0.13677191589741211 0 0.22484980732208959 0.13127277140323421 0 0.2241627709276135 0.13776211110206851 0 0.23080724003872119 0.13256056092866461 0 0.22719380431294339 0.126823393682785 0 0.23680886569706311 0.1287213066742012 0 0.23759630441296101 0.12008530744583711 0 0.23080724003872119 0.13256056092866461 0 0.22719380431294339 0.126823393682785 0 0.23680886569706311 0.1287213066742012 0 0.22484980732208959 0.13127277140323421 0 0.23080724003872119 0.13256056092866461 0 0.22719380431294339 0.126823393682785 0 0.23680886569706311 0.1287213066742012 0 0.2488992206266587 0.1273653554163072 0 0.23759630441296101 0.12008530744583711 0 0.23680886569706311 0.1287213066742012 0 0.23954775909403089 0.13677191589741211 0 0.2488992206266587 0.1273653554163072 0 0.23080724003872119 0.13256056092866461 0 0.23680886569706311 0.1287213066742012 0 0.23954775909403089 0.13677191589741211 0 0.23954775909403089 0.13677191589741211 0 0.2488992206266587 0.1273653554163072 0 0.25182091587038291 0.13921848903949871 0 0.2488992206266587 0.1273653554163072 0 0.24848955125739691 0.1112316272798903 0 0.23759630441296101 0.12008530744583711 0 0.24848955125739691 0.1112316272798903 0 0.2358132417607002 0.1094114255335845 0 0.23759630441296101 0.12008530744583711 0 0.24848955125739691 0.1112316272798903 0 0.2358132417607002 0.1094114255335845 0 0.24093893683224391 0.096778397730709384 0 0.2358132417607002 0.1094114255335845 0 0.24093893683224391 0.096778397730709384 0 0.22698107160607331 0.1034209591028304 0 0.24093893683224391 0.096778397730709384 0 0.22698107160607331 0.1034209591028304 0 0.2261643250953668 0.091525459176369464 0 0.22698107160607331 0.1034209591028304 0 0.22506034469482569 0.1155408361086553 0 0.21633570740182911 0.107005810722199 0 0.22698107160607331 0.1034209591028304 0 0.21633570740182911 0.107005810722199 0 0.21573193669657609 0.096800543120782859 0 0.22698107160607331 0.1034209591028304 0 0.21573193669657609 0.096800543120782859 0 0.2261643250953668 0.091525459176369464 0 0.22719380431294339 0.126823393682785 0 0.23759630441296101 0.12008530744583711 0 0.22506034469482569 0.1155408361086553 0 0.2358132417607002 0.1094114255335845 0 0.22698107160607331 0.1034209591028304 0 0.22506034469482569 0.1155408361086553 0 0.2358132417607002 0.1094114255335845 0 0.23759630441296101 0.12008530744583711 0 0.22506034469482569 0.1155408361086553 0 0.22506034469482569 0.1155408361086553 0 0.2185514520315871 0.1222930536834306 0 0.21286641356840991 0.1154842113516628 0 0.22719380431294339 0.126823393682785 0 0.22506034469482569 0.1155408361086553 0 0.2185514520315871 0.1222930536834306 0 0.2185514520315871 0.1222930536834306 0 0.2083807263190198 0.1213882122441349 0 0.21286641356840991 0.1154842113516628 0 0.21723541400908039 0.12794501989941889 0 0.2185514520315871 0.1222930536834306 0 0.2083807263190198 0.1213882122441349 0 0.2083807263190198 0.1213882122441349 0 0.19978376778860241 0.1201118975847804 0 0.202990113011527 0.1154865850553275 0 0.2083807263190198 0.1213882122441349 0 0.21286641356840991 0.1154842113516628 0 0.202990113011527 0.1154865850553275 0 0.21286641356840991 0.1154842113516628 0 0.20632611928312811 0.1088788236608537 0 0.202990113011527 0.1154865850553275 0 0.21286641356840991 0.1154842113516628 0 0.21633570740182911 0.107005810722199 0 0.20632611928312811 0.1088788236608537 0 0.22506034469482569 0.1155408361086553 0 0.21286641356840991 0.1154842113516628 0 0.21633570740182911 0.107005810722199 0 0.21633570740182911 0.107005810722199 0 0.21573193669657609 0.096800543120782859 0 0.2101100334118475 0.10208674042154629 0 0.2048941114801493 0.09714829492176684 0 0.2101100334118475 0.10208674042154629 0 0.19908009688856379 0.1021458447390878 0 0.21573193669657609 0.096800543120782859 0 0.2048941114801493 0.09714829492176684 0 0.20598654233977351 0.089635944665196088 0 0.21573193669657609 0.096800543120782859 0 0.2048941114801493 0.09714829492176684 0 0.2101100334118475 0.10208674042154629 0 0.2048941114801493 0.09714829492176684 0 0.20024214521020631 0.094617904721872897 0 0.20598654233977351 0.089635944665196088 0 0.2101100334118475 0.10208674042154629 0 0.20632611928312811 0.1088788236608537 0 0.19908009688856379 0.1021458447390878 0 0.21633570740182911 0.107005810722199 0 0.2101100334118475 0.10208674042154629 0 0.20632611928312811 0.1088788236608537 0 0.1926797718288249 0.097925168374160501 0 0.18862324180311749 0.1169885944058774 0 0.18559679172479029 0.1034861868523267 0 0.19609527982444569 0.1092076530727603 0 0.1926797718288249 0.097925168374160501 0 0.19337040604752179 0.1206765335212663 0 0.1926797718288249 0.097925168374160501 0 0.19337040604752179 0.1206765335212663 0 0.19908009688856379 0.1021458447390878 0 0.19609527982444569 0.1092076530727603 0 0.1926797718288249 0.097925168374160501 0 0.20632611928312811 0.1088788236608537 0 0.19908009688856379 0.1021458447390878 0 0.19609527982444569 0.1092076530727603 0 0.2048941114801493 0.09714829492176684 0 0.19908009688856379 0.1021458447390878 0 0.20024214521020631 0.094617904721872897 0 0.19908009688856379 0.1021458447390878 0 0.20024214521020631 0.094617904721872897 0 0.1926797718288249 0.097925168374160501 0 0.1926797718288249 0.097925168374160501 0 0.18862324180311749 0.1169885944058774 0 0.19337040604752179 0.1206765335212663 0 0.18862324180311749 0.1169885944058774 0 0.19337040604752179 0.1206765335212663 0 0.19343013404313739 0.122644135764236 0 0.19337040604752179 0.1206765335212663 0 0.18862324180311749 0.1169885944058774 0 0.19343013404313739 0.122644135764236 0 0.19337040604752179 0.1206765335212663 0 0.20017230784664269 0.12596074076848371 0 0.2083807263190198 0.1213882122441349 0 0.19978376778860241 0.1201118975847804 0 0.19337040604752179 0.1206765335212663 0 0.19978376778860241 0.1201118975847804 0 0.19805989166802421 0.1163706673085336 0 0.20017230784664269 0.12596074076848371 0 0.19343013404313739 0.122644135764236 0 0.19337040604752179 0.1206765335212663 0 0.20017230784664269 0.12596074076848371 0 0.19343013404313739 0.122644135764236 0 0.20017230784664269 0.12596074076848371 0 0.19337040604752179 0.1206765335212663 0 0.19978376778860241 0.1201118975847804 0 0.20017230784664269 0.12596074076848371 0 0.19337040604752179 0.1206765335212663 0 0.19978376778860241 0.1201118975847804 0 0.202990113011527 0.1154865850553275 0 0.19805989166802421 0.1163706673085336 0 0.20632611928312811 0.1088788236608537 0 0.19609527982444569 0.1092076530727603 0 0.202990113011527 0.1154865850553275 0 0.19609527982444569 0.1092076530727603 0 0.19337040604752179 0.1206765335212663 0 0.19805989166802421 0.1163706673085336 0 0.19609527982444569 0.1092076530727603 0 0.202990113011527 0.1154865850553275 0 0.19805989166802421 0.1163706673085336 0 0.19198913761012809 0.075173803227054636 0 0.18844764755811069 0.077954312466137723 0 0.1912985033914312 0.052422438079948751 0 0.18844764755811069 0.077954312466137723 0 0.1912985033914312 0.052422438079948751 0 0.18519237097864141 0.060501067620797433 0 0.19198913761012809 0.075173803227054636 0 0.1912985033914312 0.052422438079948751 0 0.1942047550235059 0.062272377808867303 0 0.18844764755811069 0.077954312466137723 0 0.1912985033914312 0.052422438079948751 0 0.19198913761012809 0.075173803227054636 0 0.1912985033914312 0.052422438079948751 0 0.1992526226206445 0.073355863038734745 0 0.19812641064295389 0.067595601984917167 0 0.19198913761012809 0.075173803227054636 0 0.1992526226206445 0.073355863038734745 0 0.19198913761012809 0.075173803227054636 0 0.19902608767890209 0.078620913413361623 0 0.20290087493454501 0.076406499570024891 0 0.1992526226206445 0.073355863038734745 0 0.19902608767890209 0.078620913413361623 0 0.20290087493454501 0.076406499570024891 0 0.1992526226206445 0.073355863038734745 0 0.20422060223669319 0.068982496998315393 0 0.1992526226206445 0.073355863038734745 0 0.19812641064295389 0.067595601984917167 0 0.20422060223669319 0.068982496998315393 0 0.19901050619008259 0.062928796887229493 0 0.19812641064295389 0.067595601984917167 0 0.20422060223669319 0.068982496998315393 0 0.19901050619008259 0.062928796887229493 0 0.19812641064295389 0.067595601984917167 0 0.1942047550235059 0.062272377808867303 0 0.19812641064295389 0.067595601984917167 0 0.19198913761012809 0.075173803227054636 0 0.1942047550235059 0.062272377808867303 0 0.1926797718288249 0.097925168374160501 0 0.18844764755811069 0.077954312466137723 0 0.18559679172479029 0.1034861868523267 0 0.1926797718288249 0.097925168374160501 0 0.19198913761012809 0.075173803227054636 0 0.1926797718288249 0.097925168374160501 0 0.19198913761012809 0.075173803227054636 0 0.18844764755811069 0.077954312466137723 0 0.1926797718288249 0.097925168374160501 0 0.19198913761012809 0.075173803227054636 0 0.19857020351371979 0.086234270909153171 0 0.20024214521020631 0.094617904721872897 0 0.19857020351371979 0.086234270909153171 0 0.20598654233977351 0.089635944665196088 0 0.20024214521020631 0.094617904721872897 0 0.1926797718288249 0.097925168374160501 0 0.19857020351371979 0.086234270909153171 0 0.19857020351371979 0.086234270909153171 0 0.20442287258010691 0.082108185427761757 0 0.20598654233977351 0.089635944665196088 0 0.19198913761012809 0.075173803227054636 0 0.19857020351371979 0.086234270909153171 0 0.19902608767890209 0.078620913413361623 0 0.19857020351371979 0.086234270909153171 0 0.19902608767890209 0.078620913413361623 0 0.20442287258010691 0.082108185427761757 0 0.20290087493454501 0.076406499570024891 0 0.19902608767890209 0.078620913413361623 0 0.20442287258010691 0.082108185427761757 0 0.20290087493454501 0.076406499570024891 0 0.20442287258010691 0.082108185427761757 0 0.21055423164808099 0.078290661676317819 0 0.20442287258010691 0.082108185427761757 0 0.21055423164808099 0.078290661676317819 0 0.214019284122973 0.086390145390384782 0 0.20442287258010691 0.082108185427761757 0 0.20598654233977351 0.089635944665196088 0 0.214019284122973 0.086390145390384782 0 0.21573193669657609 0.096800543120782859 0 0.20598654233977351 0.089635944665196088 0 0.214019284122973 0.086390145390384782 0 0.21573193669657609 0.096800543120782859 0 0.214019284122973 0.086390145390384782 0 0.2261643250953668 0.091525459176369464 0 0.21055423164808099 0.078290661676317819 0 0.214019284122973 0.086390145390384782 0 0.22330098833544471 0.081424739072791977 0 0.21055423164808099 0.078290661676317819 0 0.2146576492577649 0.069059494145492895 0 0.22330098833544471 0.081424739072791977 0 0.21055423164808099 0.078290661676317819 0 0.20422060223669319 0.068982496998315393 0 0.2146576492577649 0.069059494145492895 0 0.20290087493454501 0.076406499570024891 0 0.21055423164808099 0.078290661676317819 0 0.20422060223669319 0.068982496998315393 0 0.19901050619008259 0.062928796887229493 0 0.20422060223669319 0.068982496998315393 0 0.20694183703277499 0.062463573943399381 0 0.20422060223669319 0.068982496998315393 0 0.2146576492577649 0.069059494145492895 0 0.20694183703277499 0.062463573943399381 0 0.2146576492577649 0.069059494145492895 0 0.20694183703277499 0.062463573943399381 0 0.21647330487688829 0.0593067728377678 0 0.2146576492577649 0.069059494145492895 0 0.22664703507606429 0.063782221180677195 0 0.22330098833544471 0.081424739072791977 0 0.22664703507606429 0.063782221180677195 0 0.22330098833544471 0.081424739072791977 0 0.23670109202582951 0.072408714728560433 0 0.2146576492577649 0.069059494145492895 0 0.22664703507606429 0.063782221180677195 0 0.21647330487688829 0.0593067728377678 0 0.214019284122973 0.086390145390384782 0 0.2261643250953668 0.091525459176369464 0 0.22330098833544471 0.081424739072791977 0 0.22330098833544471 0.081424739072791977 0 0.23601373297888981 0.084337970640717408 0 0.23670109202582951 0.072408714728560433 0 0.2261643250953668 0.091525459176369464 0 0.22330098833544471 0.081424739072791977 0 0.23601373297888981 0.084337970640717408 0 0.24093893683224391 0.096778397730709384 0 0.2261643250953668 0.091525459176369464 0 0.23601373297888981 0.084337970640717408 0 0.24093893683224391 0.096778397730709384 0 0.23601373297888981 0.084337970640717408 0 0.24961641041208221 0.079201354345002056 0 0.23601373297888981 0.084337970640717408 0 0.24961641041208221 0.079201354345002056 0 0.23670109202582951 0.072408714728560433 0 0.24961641041208221 0.079201354345002056 0 0.23670109202582951 0.072408714728560433 0 0.2442044530661836 0.057548197832841243 0 0.22664703507606429 0.063782221180677195 0 0.23670109202582951 0.072408714728560433 0 0.2442044530661836 0.057548197832841243 0 0.2442044530661836 0.057548197832841243 0 0.2353520974601048 0.039205011774048719 0 0.24995965013082411 0.044676572322646747 0 0.2442044530661836 0.057548197832841243 0 0.2353520974601048 0.039205011774048719 0 0.22493259566839899 0.050357278542202129 0 0.2353520974601048 0.039205011774048719 0 0.24995965013082411 0.044676572322646747 0 0.24739028788927561 0.025315163976028111 0 0.2353520974601048 0.039205011774048719 0 0.22418912502344379 0.016731953109310652 0 0.2140280978748989 0.038771938621363647 0 0.2353520974601048 0.039205011774048719 0 0.22493259566839899 0.050357278542202129 0 0.2140280978748989 0.038771938621363647 0 0.22664703507606429 0.063782221180677195 0 0.2442044530661836 0.057548197832841243 0 0.22493259566839899 0.050357278542202129 0 0.22664703507606429 0.063782221180677195 0 0.22493259566839899 0.050357278542202129 0 0.21647330487688829 0.0593067728377678 0 0.24732928016819311 0.003842864563858316 0 0.24739028788927561 0.025315163976028111 0 0.22418912502344379 0.016731953109310652 0 0.2353520974601048 0.039205011774048719 0 0.24739028788927561 0.025315163976028111 0 0.22418912502344379 0.016731953109310652 0 0.22418912502344379 0.016731953109310652 0 0.20792237099143179 0.004933202875899512 0 0.2247972256564893 -0.014434078866188469 0 0.24732928016819311 0.003842864563858316 0 0.22418912502344379 0.016731953109310652 0 0.2247972256564893 -0.014434078866188469 0 0.22418912502344379 0.016731953109310652 0 0.20792237099143179 0.004933202875899512 0 0.1945317909177359 0.023465557829747529 0 0.22418912502344379 0.016731953109310652 0 0.1945317909177359 0.023465557829747529 0 0.2140280978748989 0.038771938621363647 0 0.20792237099143179 0.004933202875899512 0 0.1945317909177359 0.023465557829747529 0 0.1881713423680581 -0.0060306205692716641 0 0.22493259566839899 0.050357278542202129 0 0.20840942871355281 0.052413684480124761 0 0.21647330487688829 0.0593067728377678 0 0.22493259566839899 0.050357278542202129 0 0.20840942871355281 0.052413684480124761 0 0.2140280978748989 0.038771938621363647 0 0.20840942871355281 0.052413684480124761 0 0.20694183703277499 0.062463573943399381 0 0.20008355147323159 0.057630806939375938 0 0.20840942871355281 0.052413684480124761 0 0.20694183703277499 0.062463573943399381 0 0.21647330487688829 0.0593067728377678 0 0.1945317909177359 0.023465557829747529 0 0.2140280978748989 0.038771938621363647 0 0.20099393292471679 0.04406891758431275 0 0.20840942871355281 0.052413684480124761 0 0.2140280978748989 0.038771938621363647 0 0.20099393292471679 0.04406891758431275 0 0.1945317909177359 0.023465557829747529 0 0.19161704885480321 0.049569588538401703 0 0.18250677848117211 0.03577707349874245 0 0.1945317909177359 0.023465557829747529 0 0.20099393292471679 0.04406891758431275 0 0.19161704885480321 0.049569588538401703 0 0.1945317909177359 0.023465557829747529 0 0.19161704885480321 0.049569588538401703 0 0.20099393292471679 0.04406891758431275 0 0.1912985033914312 0.052422438079948751 0 0.19161704885480321 0.049569588538401703 0 0.1912985033914312 0.052422438079948751 0 0.19161704885480321 0.049569588538401703 0 0.1867251455639094 0.053606595933594257 0 0.1912985033914312 0.052422438079948751 0 0.19874062066647341 0.052221788855174027 0 0.19489903500363681 0.055559767795651208 0 0.1912985033914312 0.052422438079948751 0 0.19161704885480321 0.049569588538401703 0 0.20099393292471679 0.04406891758431275 0 0.1912985033914312 0.052422438079948751 0 0.19874062066647341 0.052221788855174027 0 0.20840942871355281 0.052413684480124761 0 0.20099393292471679 0.04406891758431275 0 0.19874062066647341 0.052221788855174027 0 0.20840942871355281 0.052413684480124761 0 0.19874062066647341 0.052221788855174027 0 0.20008355147323159 0.057630806939375938 0 0.19901050619008259 0.062928796887229493 0 0.20694183703277499 0.062463573943399381 0 0.20008355147323159 0.057630806939375938 0 0.19874062066647341 0.052221788855174027 0 0.20008355147323159 0.057630806939375938 0 0.19489903500363681 0.055559767795651208 0 0.20008355147323159 0.057630806939375938 0 0.19704946192261419 0.059597937357780982 0 0.19489903500363681 0.055559767795651208 0 0.19901050619008259 0.062928796887229493 0 0.19704946192261419 0.059597937357780982 0 0.1942047550235059 0.062272377808867303 0 0.19704946192261419 0.059597937357780982 0 0.1942047550235059 0.062272377808867303 0 0.19489903500363681 0.055559767795651208 0 0.19901050619008259 0.062928796887229493 0 0.20008355147323159 0.057630806939375938 0 0.19704946192261419 0.059597937357780982 0 0.1912985033914312 0.052422438079948751 0 0.1942047550235059 0.062272377808867303 0 0.19489903500363681 0.055559767795651208 0 0.1912985033914312 0.052422438079948751 0 0.18519237097864141 0.060501067620797433 0 0.1867251455639094 0.053606595933594257 0 0.18519237097864141 0.060501067620797433 0 0.1787512025954735 0.057687277528472899 0 0.1825183718132535 0.066185498531427842 0 0.18519237097864141 0.060501067620797433 0 0.18333608960702569 0.055529332268491147 0 0.1867251455639094 0.053606595933594257 0 0.18519237097864141 0.060501067620797433 0 0.18333608960702569 0.055529332268491147 0 0.1787512025954735 0.057687277528472899 0 0.1787512025954735 0.057687277528472899 0 0.17196294834453801 0.050602948455505788 0 0.17074942444343141 0.065440776890090938 0 0.1787512025954735 0.057687277528472899 0 0.17196294834453801 0.050602948455505788 0 0.1826756392900786 0.050322387991100018 0 0.19161704885480321 0.049569588538401703 0 0.1826756392900786 0.050322387991100018 0 0.1867251455639094 0.053606595933594257 0 0.18333608960702569 0.055529332268491147 0 0.1787512025954735 0.057687277528472899 0 0.1826756392900786 0.050322387991100018 0 0.18333608960702569 0.055529332268491147 0 0.1826756392900786 0.050322387991100018 0 0.1867251455639094 0.053606595933594257 0 0.17196294834453801 0.050602948455505788 0 0.18250677848117211 0.03577707349874245 0 0.16499669533003741 0.035489563982753658 0 0.19161704885480321 0.049569588538401703 0 0.1826756392900786 0.050322387991100018 0 0.18250677848117211 0.03577707349874245 0 0.17196294834453801 0.050602948455505788 0 0.1826756392900786 0.050322387991100018 0 0.18250677848117211 0.03577707349874245 0 0.17196294834453801 0.050602948455505788 0 0.16499669533003741 0.035489563982753658 0 0.16166621628774369 0.048884809624986321 0 0.16499669533003741 0.035489563982753658 0 0.16166621628774369 0.048884809624986321 0 0.14527737392337189 0.035206281314770722 0 0.16166621628774369 0.048884809624986321 0 0.16016311517887161 0.060547271663374917 0 0.1486030894432635 0.052176765216145587 0 0.17196294834453801 0.050602948455505788 0 0.16016311517887161 0.060547271663374917 0 0.17074942444343141 0.065440776890090938 0 0.17196294834453801 0.050602948455505788 0 0.16166621628774369 0.048884809624986321 0 0.16016311517887161 0.060547271663374917 0 0.1945317909177359 0.023465557829747529 0 0.16869778916343911 0.016139441201673429 0 0.1881713423680581 -0.0060306205692716641 0 0.16869778916343911 0.016139441201673429 0 0.16671696224836291 -0.0096910931753822552 0 0.1881713423680581 -0.0060306205692716641 0 0.1945317909177359 0.023465557829747529 0 0.18250677848117211 0.03577707349874245 0 0.16869778916343911 0.016139441201673429 0 0.18250677848117211 0.03577707349874245 0 0.16499669533003741 0.035489563982753658 0 0.16869778916343911 0.016139441201673429 0 0.16499669533003741 0.035489563982753658 0 0.16869778916343911 0.016139441201673429 0 0.14527737392337189 0.035206281314770722 0 0.16869778916343911 0.016139441201673429 0 0.14914929414019731 0.0058972064670669688 0 0.16671696224836291 -0.0096910931753822552 0 0.14914929414019731 0.0058972064670669688 0 0.13405124018761799 0.0139311533632366 0 0.14527737392337189 0.035206281314770722 0 0.16869778916343911 0.016139441201673429 0 0.14914929414019731 0.0058972064670669688 0 0.14527737392337189 0.035206281314770722 0 0.13405124018761799 0.0139311533632366 0 0.14527737392337189 0.035206281314770722 0 0.12819236272077719 0.032794415142888687 0 0.1171914316661455 0.01842873425314543 0 0.13405124018761799 0.0139311533632366 0 0.12819236272077719 0.032794415142888687 0 0.13405124018761799 0.0139311533632366 0 0.14527737392337189 0.035206281314770722 0 0.14914929414019731 0.0058972064670669688 0 0.13405124018761799 0.0139311533632366 0 0.12282510645186411 -0.0073439745882975596 0 0.13405124018761799 0.0139311533632366 0 0.12282510645186411 -0.0073439745882975596 0 0.1486030894432635 0.052176765216145587 0 0.13219795414921851 0.050865807536204018 0 0.14371078767711179 0.065379655941391973 0 0.16016311517887161 0.060547271663374917 0 0.1486030894432635 0.052176765216145587 0 0.14371078767711179 0.065379655941391973 0 0.16166621628774369 0.048884809624986321 0 0.1486030894432635 0.052176765216145587 0 0.14527737392337189 0.035206281314770722 0 0.1486030894432635 0.052176765216145587 0 0.14527737392337189 0.035206281314770722 0 0.13219795414921851 0.050865807536204018 0 0.1212396523092672 0.04301610155105557 0 0.12819236272077719 0.032794415142888687 0 0.13219795414921851 0.050865807536204018 0 0.14527737392337189 0.035206281314770722 0 0.12819236272077719 0.032794415142888687 0 0.13219795414921851 0.050865807536204018 0 0.13219795414921851 0.050865807536204018 0 0.12711863179355451 0.067545840930336137 0 0.14371078767711179 0.065379655941391973 0 0.11879537671154 0.054503452579204151 0 0.13219795414921851 0.050865807536204018 0 0.12711863179355451 0.067545840930336137 0 0.12711863179355451 0.067545840930336137 0 0.14371078767711179 0.065379655941391973 0 0.13875949913812019 0.081525971466686414 0 0.12135635699018291 0.084570390640513346 0 0.12711863179355451 0.067545840930336137 0 0.13875949913812019 0.081525971466686414 0 0.14371078767711179 0.065379655941391973 0 0.13875949913812019 0.081525971466686414 0 0.15932310097550781 0.078868246406952058 0 0.16016311517887161 0.060547271663374917 0 0.14371078767711179 0.065379655941391973 0 0.15932310097550781 0.078868246406952058 0 0.14950426153541271 0.093240247656510344 0 0.13875949913812019 0.081525971466686414 0 0.15932310097550781 0.078868246406952058 0 0.14950426153541271 0.093240247656510344 0 0.13875949913812019 0.081525971466686414 0 0.13582810011434429 0.09564347374703927 0 0.12135635699018291 0.084570390640513346 0 0.13875949913812019 0.081525971466686414 0 0.13582810011434429 0.09564347374703927 0 0.12017825096638279 0.098157197119779993 0 0.12135635699018291 0.084570390640513346 0 0.13582810011434429 0.09564347374703927 0 0.13582810011434429 0.09564347374703927 0 0.12934176796694591 0.11269114339475091 0 0.1487347275859493 0.10509971694691531 0 0.12017825096638279 0.098157197119779993 0 0.13582810011434429 0.09564347374703927 0 0.12934176796694591 0.11269114339475091 0 0.12934176796694591 0.11269114339475091 0 0.15095963485761929 0.12441177551531531 0 0.13295646268684719 0.12623429253034751 0 0.12934176796694591 0.11269114339475091 0 0.15095963485761929 0.12441177551531531 0 0.1213978210768491 0.12325216397544481 0 0.13295646268684719 0.12623429253034751 0 0.12934176796694591 0.11269114339475091 0 0.15095963485761929 0.12441177551531531 0 0.1487347275859493 0.10509971694691531 0 0.16409965807054611 0.1082159103546399 0 0.12934176796694591 0.11269114339475091 0 0.15095963485761929 0.12441177551531531 0 0.1487347275859493 0.10509971694691531 0 0.14950426153541271 0.093240247656510344 0 0.13582810011434429 0.09564347374703927 0 0.1487347275859493 0.10509971694691531 0 0.14950426153541271 0.093240247656510344 0 0.1487347275859493 0.10509971694691531 0 0.16199702472703251 0.096531819891573431 0 0.1487347275859493 0.10509971694691531 0 0.16199702472703251 0.096531819891573431 0 0.16409965807054611 0.1082159103546399 0 0.16409965807054611 0.1082159103546399 0 0.17022054951639121 0.098326117096423013 0 0.17470042771591329 0.1051792935276627 0 0.16199702472703251 0.096531819891573431 0 0.16409965807054611 0.1082159103546399 0 0.17022054951639121 0.098326117096423013 0 0.16199702472703251 0.096531819891573431 0 0.17022054951639121 0.098326117096423013 0 0.17122912077880781 0.08792648113855922 0 0.15095963485761929 0.12441177551531531 0 0.16409965807054611 0.1082159103546399 0 0.16965409176979829 0.1223647242333188 0 0.16409965807054611 0.1082159103546399 0 0.17876489605684159 0.1154300230594382 0 0.16409965807054611 0.1082159103546399 0 0.16965409176979829 0.1223647242333188 0 0.17876489605684159 0.1154300230594382 0 0.1818687681156913 0.12763350460132089 0 0.16965409176979829 0.1223647242333188 0 0.17876489605684159 0.1154300230594382 0 0.16409965807054611 0.1082159103546399 0 0.17876489605684159 0.1154300230594382 0 0.17470042771591329 0.1051792935276627 0 0.18862324180311749 0.1169885944058774 0 0.17876489605684159 0.1154300230594382 0 0.18559679172479029 0.1034861868523267 0 0.18862324180311749 0.1169885944058774 0 0.19343013404313739 0.122644135764236 0 0.17876489605684159 0.1154300230594382 0 0.19343013404313739 0.122644135764236 0 0.17876489605684159 0.1154300230594382 0 0.1818687681156913 0.12763350460132089 0 0.19343013404313739 0.122644135764236 0 0.17876489605684159 0.1154300230594382 0 0.17022054951639121 0.098326117096423013 0 0.17907651628965621 0.09377708056967976 0 0.17470042771591329 0.1051792935276627 0 0.17876489605684159 0.1154300230594382 0 0.17470042771591329 0.1051792935276627 0 0.18559679172479029 0.1034861868523267 0 0.17907651628965621 0.09377708056967976 0 0.17470042771591329 0.1051792935276627 0 0.18559679172479029 0.1034861868523267 0 0.18844764755811069 0.077954312466137723 0 0.17907651628965621 0.09377708056967976 0 0.1799070238739289 0.083832152369754914 0 0.18844764755811069 0.077954312466137723 0 0.17907651628965621 0.09377708056967976 0 0.18559679172479029 0.1034861868523267 0 0.18844764755811069 0.077954312466137723 0 0.18559679172479029 0.1034861868523267 0 0.17022054951639121 0.098326117096423013 0 0.17907651628965621 0.09377708056967976 0 0.17122912077880781 0.08792648113855922 0 0.17907651628965621 0.09377708056967976 0 0.1799070238739289 0.083832152369754914 0 0.17122912077880781 0.08792648113855922 0 0.1799070238739289 0.083832152369754914 0 0.17498129478511171 0.075875756888378207 0 0.17122912077880781 0.08792648113855922 0 0.18169316344896139 0.078218222513463248 0 0.1799070238739289 0.083832152369754914 0 0.17498129478511171 0.075875756888378207 0 0.18844764755811069 0.077954312466137723 0 0.18169316344896139 0.078218222513463248 0 0.1799070238739289 0.083832152369754914 0 0.18844764755811069 0.077954312466137723 0 0.18111668182992829 0.073442185806780982 0 0.1825183718132535 0.066185498531427842 0 0.18844764755811069 0.077954312466137723 0 0.18519237097864141 0.060501067620797433 0 0.1825183718132535 0.066185498531427842 0 0.18844764755811069 0.077954312466137723 0 0.18169316344896139 0.078218222513463248 0 0.18111668182992829 0.073442185806780982 0 0.18111668182992829 0.073442185806780982 0 0.1825183718132535 0.066185498531427842 0 0.177338763380463 0.068516596310851718 0 0.1787512025954735 0.057687277528472899 0 0.1825183718132535 0.066185498531427842 0 0.177338763380463 0.068516596310851718 0 0.1787512025954735 0.057687277528472899 0 0.177338763380463 0.068516596310851718 0 0.17074942444343141 0.065440776890090938 0 0.177338763380463 0.068516596310851718 0 0.17498129478511171 0.075875756888378207 0 0.17074942444343141 0.065440776890090938 0 0.18169316344896139 0.078218222513463248 0 0.18111668182992829 0.073442185806780982 0 0.17498129478511171 0.075875756888378207 0 0.18111668182992829 0.073442185806780982 0 0.177338763380463 0.068516596310851718 0 0.17498129478511171 0.075875756888378207 0 0.17498129478511171 0.075875756888378207 0 0.17074942444343141 0.065440776890090938 0 0.15932310097550781 0.078868246406952058 0 0.16016311517887161 0.060547271663374917 0 0.17074942444343141 0.065440776890090938 0 0.15932310097550781 0.078868246406952058 0 0.16199702472703251 0.096531819891573431 0 0.15932310097550781 0.078868246406952058 0 0.17122912077880781 0.08792648113855922 0 0.17498129478511171 0.075875756888378207 0 0.15932310097550781 0.078868246406952058 0 0.17122912077880781 0.08792648113855922 0 0.14950426153541271 0.093240247656510344 0 0.16199702472703251 0.096531819891573431 0 0.15932310097550781 0.078868246406952058 0 0.10743016229648659 0.48296842858701339 0 0.1092573718770876 0.46605983676920387 0 0.090389790964965064 0.47381127462751682 0 0.10743016229648659 0.48296842858701339 0 0.1190543491000554 0.5 0 0.089811371460399414 0.5 0 0.10743016229648659 0.48296842858701339 0 0.090389790964965064 0.47381127462751682 0 0.089811371460399414 0.5 0 0.10743016229648659 0.48296842858701339 0 0.1190543491000554 0.5 0 0.12941433290595469 0.47217502981942039 0 0.10743016229648659 0.48296842858701339 0 0.1092573718770876 0.46605983676920387 0 0.12941433290595469 0.47217502981942039 0 0.11990045370648129 0.45087942826817923 0 0.1092573718770876 0.46605983676920387 0 0.12941433290595469 0.47217502981942039 0 0.11990045370648129 0.45087942826817923 0 0.10894291453140011 0.4338133242278765 0 0.12783545089004961 0.43364185334063182 0 0.11990045370648129 0.45087942826817923 0 0.096692003449520128 0.44787126525357468 0 0.10894291453140011 0.4338133242278765 0 0.096692003449520128 0.44787126525357468 0 0.1092573718770876 0.46605983676920387 0 0.090389790964965064 0.47381127462751682 0 0.11990045370648129 0.45087942826817923 0 0.096692003449520128 0.44787126525357468 0 0.1092573718770876 0.46605983676920387 0 0.074893568852998971 0.44852123334571931 0 0.090389790964965064 0.47381127462751682 0 0.096692003449520128 0.44787126525357468 0 0.074893568852998971 0.44852123334571931 0 0.090389790964965064 0.47381127462751682 0 0.096692003449520128 0.44787126525357468 0 0.074893568852998971 0.44852123334571931 0 0.077806172855862471 0.43228589474138229 0 0.074893568852998971 0.44852123334571931 0 0.05494044058581244 0.44354832345509648 0 0.059397346741035667 0.42323119206392018 0 0.074893568852998971 0.44852123334571931 0 0.068289097347376274 0.47833385919604982 0 0.090389790964965064 0.47381127462751682 0 0.074893568852998971 0.44852123334571931 0 0.068289097347376274 0.47833385919604982 0 0.054910727193175322 0.4613380694692823 0 0.068289097347376274 0.47833385919604982 0 0.090389790964965064 0.47381127462751682 0 0.089811371460399414 0.5 0 0.068289097347376274 0.47833385919604982 0 0.089811371460399414 0.5 0 0.060568393820743527 0.5 0 0.068289097347376274 0.47833385919604982 0 0.060568393820743527 0.5 0 0.040797134695914478 0.47833565320399313 0 0.068289097347376274 0.47833385919604982 0 0.040797134695914478 0.47833565320399313 0 0.054910727193175322 0.4613380694692823 0 0.060568393820743527 0.5 0 0.040797134695914478 0.47833565320399313 0 0.031325416181087577 0.5 0 0.040797134695914478 0.47833565320399313 0 0.031325416181087577 0.5 0 0.01455058764316185 0.48444563841481147 0 0.031325416181087577 0.5 0 0.002082438541431642 0.5 0 0.01455058764316185 0.48444563841481147 0 0.040797134695914478 0.47833565320399313 0 0.01455058764316185 0.48444563841481147 0 0.019580218007617649 0.46590359474399851 0 -0.0020920793231286642 0.48358315206374081 0 0.001892583759287806 0.46891493070632789 0 0.01455058764316185 0.48444563841481147 0 0.001892583759287806 0.46891493070632789 0 0.01455058764316185 0.48444563841481147 0 0.019580218007617649 0.46590359474399851 0 -0.0020920793231286642 0.48358315206374081 0 0.002082438541431642 0.5 0 0.01455058764316185 0.48444563841481147 0 0.0075351656714072726 0.44152041939626258 0 0.006126683664170204 0.4551121289163319 0 0.021032932674281739 0.44853417494515518 0 -0.0040689949533659836 0.44571316907421982 0 0.0075351656714072726 0.44152041939626258 0 0.006126683664170204 0.4551121289163319 0 0.001892583759287806 0.46891493070632789 0 0.006126683664170204 0.4551121289163319 0 0.019580218007617649 0.46590359474399851 0 0.006126683664170204 0.4551121289163319 0 0.019580218007617649 0.46590359474399851 0 0.021032932674281739 0.44853417494515518 0 0.019580218007617649 0.46590359474399851 0 0.021032932674281739 0.44853417494515518 0 0.037446159970468282 0.45660332383804447 0 0.0075351656714072726 0.44152041939626258 0 0.021032932674281739 0.44853417494515518 0 0.021156278565755811 0.43361833714871573 0 0.021032932674281739 0.44853417494515518 0 0.03616256950127153 0.43925080444110992 0 0.021156278565755811 0.43361833714871573 0 0.021032932674281739 0.44853417494515518 0 0.03616256950127153 0.43925080444110992 0 0.037446159970468282 0.45660332383804447 0 0.03616256950127153 0.43925080444110992 0 0.037446159970468282 0.45660332383804447 0 0.05494044058581244 0.44354832345509648 0 0.040797134695914478 0.47833565320399313 0 0.037446159970468282 0.45660332383804447 0 0.054910727193175322 0.4613380694692823 0 0.040797134695914478 0.47833565320399313 0 0.019580218007617649 0.46590359474399851 0 0.037446159970468282 0.45660332383804447 0 0.037446159970468282 0.45660332383804447 0 0.054910727193175322 0.4613380694692823 0 0.05494044058581244 0.44354832345509648 0 0.074893568852998971 0.44852123334571931 0 0.054910727193175322 0.4613380694692823 0 0.05494044058581244 0.44354832345509648 0 0.03616256950127153 0.43925080444110992 0 0.059397346741035667 0.42323119206392018 0 0.03616256950127153 0.43925080444110992 0 0.05494044058581244 0.44354832345509648 0 0.059397346741035667 0.42323119206392018 0 0.059397346741035667 0.42323119206392018 0 0.055275366703107183 0.41650406563474118 0 0.043885176415469553 0.42684341546103932 0 0.055275366703107183 0.41650406563474118 0 0.045111187968010891 0.39991599029941921 0 0.055275366703107183 0.41650406563474118 0 0.045111187968010891 0.39991599029941921 0 0.065401576926520377 0.40731208312430628 0 0.055275366703107183 0.41650406563474118 0 0.042567083745131483 0.41550502295548342 0 0.045111187968010891 0.39991599029941921 0 0.055275366703107183 0.41650406563474118 0 0.065401576926520377 0.40731208312430628 0 0.055275366703107183 0.41650406563474118 0 0.06184995665851678 0.41620307694176922 0 0.065401576926520377 0.40731208312430628 0 0.059397346741035667 0.42323119206392018 0 0.055275366703107183 0.41650406563474118 0 0.06184995665851678 0.41620307694176922 0 0.059397346741035667 0.42323119206392018 0 0.055275366703107183 0.41650406563474118 0 0.055275366703107183 0.41650406563474118 0 0.042567083745131483 0.41550502295548342 0 0.043885176415469553 0.42684341546103932 0 0.055275366703107183 0.41650406563474118 0 0.043885176415469553 0.42684341546103932 0 0.042567083745131483 0.41550502295548342 0 0.031713351711209127 0.41058778132074442 0 0.045111187968010891 0.39991599029941921 0 0.042567083745131483 0.41550502295548342 0 0.031713351711209127 0.41058778132074442 0 0.03172831508164646 0.42495889604590042 0 0.03616256950127153 0.43925080444110992 0 0.059397346741035667 0.42323119206392018 0 0.043885176415469553 0.42684341546103932 0 0.042567083745131483 0.41550502295548342 0 0.043885176415469553 0.42684341546103932 0 0.03172831508164646 0.42495889604590042 0 0.03616256950127153 0.43925080444110992 0 0.043885176415469553 0.42684341546103932 0 0.03172831508164646 0.42495889604590042 0 0.03616256950127153 0.43925080444110992 0 0.03172831508164646 0.42495889604590042 0 0.021156278565755811 0.43361833714871573 0 0.021156278565755811 0.43361833714871573 0 0.01852996141111482 0.41863346684377462 0 0.010542736661773799 0.43123490750646792 0 0.03172831508164646 0.42495889604590042 0 0.021156278565755811 0.43361833714871573 0 0.01852996141111482 0.41863346684377462 0 0.031713351711209127 0.41058778132074442 0 0.03172831508164646 0.42495889604590042 0 0.01852996141111482 0.41863346684377462 0 0.031713351711209127 0.41058778132074442 0 0.01852996141111482 0.41863346684377462 0 0.02113026108868974 0.40589825942001401 0 0.01852996141111482 0.41863346684377462 0 0.008926101816531402 0.4054263395871166 0 0.02113026108868974 0.40589825942001401 0 0.01852996141111482 0.41863346684377462 0 0.004077199104086591 0.4164157587185795 0 0.008926101816531402 0.4054263395871166 0 -0.0062189795252348846 0.40611161009886648 0 0.004077199104086591 0.4164157587185795 0 0.008926101816531402 0.4054263395871166 0 0.004077199104086591 0.4164157587185795 0 0.0009558333416579321 0.42644653379215269 0 0.010542736661773799 0.43123490750646792 0 -0.0060715276852571108 0.43503514122775527 0 0.0075351656714072726 0.44152041939626258 0 0.0009558333416579321 0.42644653379215269 0 0.0075351656714072726 0.44152041939626258 0 0.0009558333416579321 0.42644653379215269 0 0.010542736661773799 0.43123490750646792 0 0.0075351656714072726 0.44152041939626258 0 0.021156278565755811 0.43361833714871573 0 0.010542736661773799 0.43123490750646792 0 0.01852996141111482 0.41863346684377462 0 0.004077199104086591 0.4164157587185795 0 0.010542736661773799 0.43123490750646792 0 9.4577485471350172e-06 0.3898325466449114 0 0.016178283779520429 0.39423554739797401 0 0.018573917521586599 0.3774918530926773 0 9.4577485471350172e-06 0.3898325466449114 0 0.018573917521586599 0.3774918530926773 0 0.0024647386837281168 0.37096252636441063 0 -0.0062189795252348846 0.40611161009886648 0 9.4577485471350172e-06 0.3898325466449114 0 0.008926101816531402 0.4054263395871166 0 9.4577485471350172e-06 0.3898325466449114 0 0.008926101816531402 0.4054263395871166 0 0.016178283779520429 0.39423554739797401 0 0.008926101816531402 0.4054263395871166 0 0.016178283779520429 0.39423554739797401 0 0.02113026108868974 0.40589825942001401 0 0.016178283779520429 0.39423554739797401 0 0.029860344935069189 0.39895810443226898 0 0.034947009232913898 0.38332791496409752 0 0.016178283779520429 0.39423554739797401 0 0.02113026108868974 0.40589825942001401 0 0.029860344935069189 0.39895810443226898 0 0.031713351711209127 0.41058778132074442 0 0.02113026108868974 0.40589825942001401 0 0.029860344935069189 0.39895810443226898 0 0.016178283779520429 0.39423554739797401 0 0.018573917521586599 0.3774918530926773 0 0.034947009232913898 0.38332791496409752 0 0.034947009232913898 0.38332791496409752 0 0.045111187968010891 0.39991599029941921 0 0.060327078670590797 0.37974230049107521 0 0.034947009232913898 0.38332791496409752 0 0.045111187968010891 0.39991599029941921 0 0.029860344935069189 0.39895810443226898 0 0.034947009232913898 0.38332791496409752 0 0.045111187968010891 0.39991599029941921 0 0.031713351711209127 0.41058778132074442 0 0.029860344935069189 0.39895810443226898 0 0.045111187968010891 0.39991599029941921 0 0.045111187968010891 0.39991599029941921 0 0.060327078670590797 0.37974230049107521 0 0.065401576926520377 0.40731208312430628 0 0.034947009232913898 0.38332791496409752 0 0.060327078670590797 0.37974230049107521 0 0.046058880995386263 0.36811660929349233 0 0.060327078670590797 0.37974230049107521 0 0.072831148204648227 0.37582501008154939 0 0.0781606600111584 0.38567970231874821 0 0.072831148204648227 0.37582501008154939 0 0.080263473669769519 0.37669406751243001 0 0.0781606600111584 0.38567970231874821 0 0.093508528766986565 0.39116013546751649 0 0.081667489121059936 0.39254683757737741 0 0.097933401315600285 0.37778159203044948 0 0.0781606600111584 0.38567970231874821 0 0.081667489121059936 0.39254683757737741 0 0.097933401315600285 0.37778159203044948 0 0.081667489121059936 0.39254683757737741 0 0.097933401315600285 0.37778159203044948 0 0.080263473669769519 0.37669406751243001 0 0.0781606600111584 0.38567970231874821 0 0.094657056351060559 0.36658864937297259 0 0.0781606600111584 0.38567970231874821 0 0.094657056351060559 0.36658864937297259 0 0.0781606600111584 0.38567970231874821 0 0.097933401315600285 0.37778159203044948 0 0.094657056351060559 0.36658864937297259 0 0.087252920298229758 0.40402569306878272 0 0.093508528766986565 0.39116013546751649 0 0.081667489121059936 0.39254683757737741 0 0.087252920298229758 0.40402569306878272 0 0.081667489121059936 0.39254683757737741 0 0.065401576926520377 0.40731208312430628 0 0.081667489121059936 0.39254683757737741 0 0.065401576926520377 0.40731208312430628 0 0.060327078670590797 0.37974230049107521 0 0.0781606600111584 0.38567970231874821 0 0.065401576926520377 0.40731208312430628 0 0.0781606600111584 0.38567970231874821 0 0.081667489121059936 0.39254683757737741 0 0.065401576926520377 0.40731208312430628 0 0.060327078670590797 0.37974230049107521 0 0.065401576926520377 0.40731208312430628 0 0.087252920298229758 0.40402569306878272 0 0.065401576926520377 0.40731208312430628 0 0.067325536263403346 0.41776496694410897 0 0.087252920298229758 0.40402569306878272 0 0.067325536263403346 0.41776496694410897 0 0.06184995665851678 0.41620307694176922 0 0.065401576926520377 0.40731208312430628 0 0.067325536263403346 0.41776496694410897 0 0.065401576926520377 0.40731208312430628 0 0.067325536263403346 0.41776496694410897 0 0.059397346741035667 0.42323119206392018 0 0.06184995665851678 0.41620307694176922 0 0.067325536263403346 0.41776496694410897 0 0.059397346741035667 0.42323119206392018 0 0.067325536263403346 0.41776496694410897 0 0.059397346741035667 0.42323119206392018 0 0.067611576577869495 0.41931902586706699 0 0.067325536263403346 0.41776496694410897 0 0.067611576577869495 0.41931902586706699 0 0.067325536263403346 0.41776496694410897 0 0.067611576577869495 0.41931902586706699 0 0.067325536263403346 0.41776496694410897 0 0.0808629099108025 0.41736255200557282 0 0.074893568852998971 0.44852123334571931 0 0.059397346741035667 0.42323119206392018 0 0.074893568852998971 0.44852123334571931 0 0.059397346741035667 0.42323119206392018 0 0.077806172855862471 0.43228589474138229 0 0.059397346741035667 0.42323119206392018 0 0.067611576577869495 0.41931902586706699 0 0.077806172855862471 0.43228589474138229 0 0.067611576577869495 0.41931902586706699 0 0.077806172855862471 0.43228589474138229 0 0.0808629099108025 0.41736255200557282 0 0.096692003449520128 0.44787126525357468 0 0.077806172855862471 0.43228589474138229 0 0.093512911022145095 0.42760032167932571 0 0.077806172855862471 0.43228589474138229 0 0.093512911022145095 0.42760032167932571 0 0.0808629099108025 0.41736255200557282 0 0.087252920298229758 0.40402569306878272 0 0.067325536263403346 0.41776496694410897 0 0.0808629099108025 0.41736255200557282 0 0.093512911022145095 0.42760032167932571 0 0.0808629099108025 0.41736255200557282 0 0.093017042760595608 0.41480296806728478 0 0.087252920298229758 0.40402569306878272 0 0.0808629099108025 0.41736255200557282 0 0.093017042760595608 0.41480296806728478 0 0.093017042760595608 0.41480296806728478 0 0.1012721025884941 0.40690138718169422 0 0.10422458511016471 0.41923536414184059 0 0.087252920298229758 0.40402569306878272 0 0.093017042760595608 0.41480296806728478 0 0.1012721025884941 0.40690138718169422 0 0.093512911022145095 0.42760032167932571 0 0.093017042760595608 0.41480296806728478 0 0.10422458511016471 0.41923536414184059 0 0.1012721025884941 0.40690138718169422 0 0.10422458511016471 0.41923536414184059 0 0.1146856604404239 0.40615649143710608 0 0.096692003449520128 0.44787126525357468 0 0.093512911022145095 0.42760032167932571 0 0.10894291453140011 0.4338133242278765 0 0.093512911022145095 0.42760032167932571 0 0.10422458511016471 0.41923536414184059 0 0.10894291453140011 0.4338133242278765 0 0.10894291453140011 0.4338133242278765 0 0.1194740661223945 0.41972072897325008 0 0.12783545089004961 0.43364185334063182 0 0.10422458511016471 0.41923536414184059 0 0.10894291453140011 0.4338133242278765 0 0.1194740661223945 0.41972072897325008 0 0.1194740661223945 0.41972072897325008 0 0.1146856604404239 0.40615649143710608 0 0.13226648721586309 0.40529132452426758 0 0.10422458511016471 0.41923536414184059 0 0.1194740661223945 0.41972072897325008 0 0.1146856604404239 0.40615649143710608 0 0.1146856604404239 0.40615649143710608 0 0.12088251483540111 0.39480513105265941 0 0.10718030433305629 0.39028641919345652 0 0.1146856604404239 0.40615649143710608 0 0.12088251483540111 0.39480513105265941 0 0.13226648721586309 0.40529132452426758 0 0.12088251483540111 0.39480513105265941 0 0.11875869923671931 0.38439154357958349 0 0.13152142295094299 0.3878998765288828 0 0.11875869923671931 0.38439154357958349 0 0.11626597403064511 0.37354604234719679 0 0.12623243759338121 0.37631401043276969 0 0.11875869923671931 0.38439154357958349 0 0.1088118889907462 0.37938671199941321 0 0.11626597403064511 0.37354604234719679 0 0.11875869923671931 0.38439154357958349 0 0.10718030433305629 0.39028641919345652 0 0.1088118889907462 0.37938671199941321 0 0.12088251483540111 0.39480513105265941 0 0.11875869923671931 0.38439154357958349 0 0.10718030433305629 0.39028641919345652 0 0.10718030433305629 0.39028641919345652 0 0.1088118889907462 0.37938671199941321 0 0.097933401315600285 0.37778159203044948 0 0.093508528766986565 0.39116013546751649 0 0.10718030433305629 0.39028641919345652 0 0.097933401315600285 0.37778159203044948 0 0.087252920298229758 0.40402569306878272 0 0.1012721025884941 0.40690138718169422 0 0.10718030433305629 0.39028641919345652 0 0.1012721025884941 0.40690138718169422 0 0.1146856604404239 0.40615649143710608 0 0.10718030433305629 0.39028641919345652 0 0.087252920298229758 0.40402569306878272 0 0.10718030433305629 0.39028641919345652 0 0.087252920298229758 0.40402569306878272 0 0.093508528766986565 0.39116013546751649 0 0.10718030433305629 0.39028641919345652 0 0.10214576750655439 0.35169631518797789 0 0.1108730756219355 0.34606906705108598 0 0.092806979076694079 0.34829710023804572 0 0.094657056351060559 0.36658864937297259 0 0.1111534526909627 0.34749759642719691 0 0.10214576750655439 0.35169631518797789 0 0.094657056351060559 0.36658864937297259 0 0.1111534526909627 0.34749759642719691 0 0.1108730756219355 0.34606906705108598 0 0.092806979076694079 0.34829710023804572 0 0.094657056351060559 0.36658864937297259 0 0.1141993135101402 0.36301634648352088 0 0.1111534526909627 0.34749759642719691 0 0.10214576750655439 0.35169631518797789 0 0.1108730756219355 0.34606906705108598 0 0.1111534526909627 0.34749759642719691 0 0.10214576750655439 0.35169631518797789 0 0.093614026397509542 0.3561721379605377 0 0.092806979076694079 0.34829710023804572 0 0.10214576750655439 0.35169631518797789 0 0.094657056351060559 0.36658864937297259 0 0.093614026397509542 0.3561721379605377 0 0.097933401315600285 0.37778159203044948 0 0.094657056351060559 0.36658864937297259 0 0.1141993135101402 0.36301634648352088 0 0.097933401315600285 0.37778159203044948 0 0.1141993135101402 0.36301634648352088 0 0.1088118889907462 0.37938671199941321 0 0.097933401315600285 0.37778159203044948 0 0.1141993135101402 0.36301634648352088 0 0.1088118889907462 0.37938671199941321 0 0.1141993135101402 0.36301634648352088 0 0.11626597403064511 0.37354604234719679 0 0.1141993135101402 0.36301634648352088 0 0.11626597403064511 0.37354604234719679 0 0.1141993135101402 0.36301634648352088 0 0.11626597403064511 0.37354604234719679 0 0.1217066074206179 0.36685144657453089 0 0.11626597403064511 0.37354604234719679 0 0.1217066074206179 0.36685144657453089 0 0.12623243759338121 0.37631401043276969 0 0.1141993135101402 0.36301634648352088 0 0.1217066074206179 0.36685144657453089 0 0.1223247659028195 0.35564053513504729 0 0.1217066074206179 0.36685144657453089 0 0.1223247659028195 0.35564053513504729 0 0.12951054606610321 0.36574029847411921 0 0.1141993135101402 0.36301634648352088 0 0.1223247659028195 0.35564053513504729 0 0.1223247659028195 0.35564053513504729 0 0.112568505567162 0.34585997516592548 0 0.1349204454541065 0.34310338279765601 0 0.112568505567162 0.34585997516592548 0 0.1349204454541065 0.34310338279765601 0 0.1141993135101402 0.36301634648352088 0 0.1223247659028195 0.35564053513504729 0 0.1111534526909627 0.34749759642719691 0 0.1141993135101402 0.36301634648352088 0 0.1111534526909627 0.34749759642719691 0 0.1223247659028195 0.35564053513504729 0 0.112568505567162 0.34585997516592548 0 0.1111534526909627 0.34749759642719691 0 0.112568505567162 0.34585997516592548 0 0.1108730756219355 0.34606906705108598 0 0.112568505567162 0.34585997516592548 0 0.1111534526909627 0.34749759642719691 0 0.112568505567162 0.34585997516592548 0 0.1108730756219355 0.34606906705108598 0 0.1111534526909627 0.34749759642719691 0 0.1108730756219355 0.34606906705108598 0 0.1111534526909627 0.34749759642719691 0 0.112568505567162 0.34585997516592548 0 0.1301507759590291 0.32551225509168069 0 0.1083607120500435 0.33326850109043382 0 0.1301507759590291 0.32551225509168069 0 0.112568505567162 0.34585997516592548 0 0.1083607120500435 0.33326850109043382 0 0.1301507759590291 0.32551225509168069 0 0.1108730756219355 0.34606906705108598 0 0.1083607120500435 0.33326850109043382 0 0.112568505567162 0.34585997516592548 0 0.1108730756219355 0.34606906705108598 0 0.1083607120500435 0.33326850109043382 0 0.115031954974937 0.32356314398019992 0 0.1049935887392998 0.31611290923302737 0 0.1083607120500435 0.33326850109043382 0 0.115031954974937 0.32356314398019992 0 0.1083607120500435 0.33326850109043382 0 0.1301507759590291 0.32551225509168069 0 0.1203407132176403 0.31305045998796183 0 0.1198279242949423 0.31902122911367181 0 0.11259725024726 0.31097143714882308 0 0.1203407132176403 0.31305045998796183 0 0.1257571129765549 0.31869791791757279 0 0.12619607839551461 0.3130358504436016 0 0.1203407132176403 0.31305045998796183 0 0.1198279242949423 0.31902122911367181 0 0.1257571129765549 0.31869791791757279 0 0.1198279242949423 0.31902122911367181 0 0.115031954974937 0.32356314398019992 0 0.1301507759590291 0.32551225509168069 0 0.1198279242949423 0.31902122911367181 0 0.115031954974937 0.32356314398019992 0 0.11259725024726 0.31097143714882308 0 0.115031954974937 0.32356314398019992 0 0.1049935887392998 0.31611290923302737 0 0.11259725024726 0.31097143714882308 0 0.1049935887392998 0.31611290923302737 0 0.1083607120500435 0.33326850109043382 0 0.1049935887392998 0.31611290923302737 0 0.1083607120500435 0.33326850109043382 0 0.093449729584919608 0.32005721924438302 0 0.1049935887392998 0.31611290923302737 0 0.093449729584919608 0.32005721924438302 0 0.094391500705662212 0.30898407534659722 0 0.1083607120500435 0.33326850109043382 0 0.088599891124946539 0.33125084834999552 0 0.093449729584919608 0.32005721924438302 0 0.1083607120500435 0.33326850109043382 0 0.082270614692193586 0.34189370469353408 0 0.092806979076694079 0.34829710023804572 0 0.1108730756219355 0.34606906705108598 0 0.1083607120500435 0.33326850109043382 0 0.092806979076694079 0.34829710023804572 0 0.1083607120500435 0.33326850109043382 0 0.082270614692193586 0.34189370469353408 0 0.088599891124946539 0.33125084834999552 0 0.077846243964742601 0.32274060398525561 0 0.068858415373821105 0.33438678422522972 0 0.1083607120500435 0.33326850109043382 0 0.088599891124946539 0.33125084834999552 0 0.082270614692193586 0.34189370469353408 0 0.088599891124946539 0.33125084834999552 0 0.068858415373821105 0.33438678422522972 0 0.088599891124946539 0.33125084834999552 0 0.082270614692193586 0.34189370469353408 0 0.068858415373821105 0.33438678422522972 0 0.093449729584919608 0.32005721924438302 0 0.081977196563509658 0.30949718410903099 0 0.094391500705662212 0.30898407534659722 0 0.088599891124946539 0.33125084834999552 0 0.093449729584919608 0.32005721924438302 0 0.077846243964742601 0.32274060398525561 0 0.093449729584919608 0.32005721924438302 0 0.077846243964742601 0.32274060398525561 0 0.081977196563509658 0.30949718410903099 0 0.065816721422900043 0.31391018835044071 0 0.077846243964742601 0.32274060398525561 0 0.081977196563509658 0.30949718410903099 0 0.065816721422900043 0.31391018835044071 0 0.077846243964742601 0.32274060398525561 0 0.068858415373821105 0.33438678422522972 0 0.082270614692193586 0.34189370469353408 0 0.068858415373821105 0.33438678422522972 0 0.064594019962958577 0.34156793356305692 0 0.082270614692193586 0.34189370469353408 0 0.068858415373821105 0.33438678422522972 0 0.082270614692193586 0.34189370469353408 0 0.064594019962958577 0.34156793356305692 0 0.055252580414660329 0.3521725178578442 0 0.074740882531452613 0.35052513342500552 0 0.065780097618785324 0.36061592554337152 0 0.055252580414660329 0.3521725178578442 0 0.082270614692193586 0.34189370469353408 0 0.055252580414660329 0.3521725178578442 0 0.082270614692193586 0.34189370469353408 0 0.074740882531452613 0.35052513342500552 0 0.055252580414660329 0.3521725178578442 0 0.074740882531452613 0.35052513342500552 0 0.07558212112184684 0.35977811699906609 0 0.065780097618785324 0.36061592554337152 0 0.074740882531452613 0.35052513342500552 0 0.092806979076694079 0.34829710023804572 0 0.074740882531452613 0.35052513342500552 0 0.08484630265572915 0.35810648704315479 0 0.092806979076694079 0.34829710023804572 0 0.082270614692193586 0.34189370469353408 0 0.074740882531452613 0.35052513342500552 0 0.092806979076694079 0.34829710023804572 0 0.074740882531452613 0.35052513342500552 0 0.08484630265572915 0.35810648704315479 0 0.07558212112184684 0.35977811699906609 0 0.08484630265572915 0.35810648704315479 0 0.093614026397509542 0.3561721379605377 0 0.092806979076694079 0.34829710023804572 0 0.080263473669769519 0.37669406751243001 0 0.094657056351060559 0.36658864937297259 0 0.084203389010073293 0.36735841214519249 0 0.094657056351060559 0.36658864937297259 0 0.08484630265572915 0.35810648704315479 0 0.084203389010073293 0.36735841214519249 0 0.094657056351060559 0.36658864937297259 0 0.08484630265572915 0.35810648704315479 0 0.093614026397509542 0.3561721379605377 0 0.08484630265572915 0.35810648704315479 0 0.077046723363733929 0.36804444465221298 0 0.07558212112184684 0.35977811699906609 0 0.08484630265572915 0.35810648704315479 0 0.084203389010073293 0.36735841214519249 0 0.077046723363733929 0.36804444465221298 0 0.080263473669769519 0.37669406751243001 0 0.084203389010073293 0.36735841214519249 0 0.077046723363733929 0.36804444465221298 0 0.060327078670590797 0.37974230049107521 0 0.070313433795921018 0.36880115955345499 0 0.065780097618785324 0.36061592554337152 0 0.072831148204648227 0.37582501008154939 0 0.080263473669769519 0.37669406751243001 0 0.077046723363733929 0.36804444465221298 0 0.072831148204648227 0.37582501008154939 0 0.077046723363733929 0.36804444465221298 0 0.070313433795921018 0.36880115955345499 0 0.070313433795921018 0.36880115955345499 0 0.07558212112184684 0.35977811699906609 0 0.065780097618785324 0.36061592554337152 0 0.077046723363733929 0.36804444465221298 0 0.070313433795921018 0.36880115955345499 0 0.07558212112184684 0.35977811699906609 0 0.060327078670590797 0.37974230049107521 0 0.072831148204648227 0.37582501008154939 0 0.070313433795921018 0.36880115955345499 0 0.060327078670590797 0.37974230049107521 0 0.055252580414660329 0.3521725178578442 0 0.060327078670590797 0.37974230049107521 0 0.055252580414660329 0.3521725178578442 0 0.046058880995386263 0.36811660929349233 0 0.060327078670590797 0.37974230049107521 0 0.065780097618785324 0.36061592554337152 0 0.055252580414660329 0.3521725178578442 0 0.055252580414660329 0.3521725178578442 0 0.052458437831000702 0.33699192269501532 0 0.055252580414660329 0.3521725178578442 0 0.040187458524648688 0.34758827594847808 0 0.052458437831000702 0.33699192269501532 0 0.040187458524648688 0.34758827594847808 0 0.028858659549193959 0.36156752211112658 0 0.024973848365168069 0.34135785314563311 0 0.055252580414660329 0.3521725178578442 0 0.028858659549193959 0.36156752211112658 0 0.055252580414660329 0.3521725178578442 0 0.040187458524648688 0.34758827594847808 0 0.028858659549193959 0.36156752211112658 0 0.034947009232913898 0.38332791496409752 0 0.046058880995386263 0.36811660929349233 0 0.028858659549193959 0.36156752211112658 0 0.055252580414660329 0.3521725178578442 0 0.046058880995386263 0.36811660929349233 0 0.028858659549193959 0.36156752211112658 0 0.018573917521586599 0.3774918530926773 0 0.034947009232913898 0.38332791496409752 0 0.028858659549193959 0.36156752211112658 0 0.018573917521586599 0.3774918530926773 0 0.028858659549193959 0.36156752211112658 0 0.0024647386837281168 0.37096252636441063 0 0.028858659549193959 0.36156752211112658 0 0.0024647386837281168 0.37096252636441063 0 0.028858659549193959 0.36156752211112658 0 0.013055161176395821 0.35434867133196751 0 0.024973848365168069 0.34135785314563311 0 -0.0025107411006645708 0.34572378359625211 0 0.013055161176395821 0.35434867133196751 0 0.0024647386837281168 0.37096252636441063 0 -0.0025107411006645708 0.34572378359625211 0 0.013055161176395821 0.35434867133196751 0 0.024973848365168069 0.34135785314563311 0 0.028858659549193959 0.36156752211112658 0 0.013055161176395821 0.35434867133196751 0 0.0024647386837281168 0.37096252636441063 0 -0.0025107411006645708 0.34572378359625211 0 0.0048746630775424772 0.32215067290176053 0 0.024973848365168069 0.34135785314563311 0 -0.0025107411006645708 0.34572378359625211 0 0.024973848365168069 0.34135785314563311 0 0.0048746630775424772 0.32215067290176053 0 0.024973848365168069 0.34135785314563311 0 0.022300720658112731 0.32579878489892161 0 0.024973848365168069 0.34135785314563311 0 0.022300720658112731 0.32579878489892161 0 0.036845745308030732 0.33116266474607392 0 0.0048746630775424772 0.32215067290176053 0 0.022300720658112731 0.32579878489892161 0 0.026168522413065168 0.3104928930259061 0 0.022300720658112731 0.32579878489892161 0 0.036845745308030732 0.33116266474607392 0 0.026168522413065168 0.3104928930259061 0 0.047513468893443177 0.3224398386255678 0 0.049710214784302757 0.30510620950358208 0 0.026168522413065168 0.3104928930259061 0 0.047513468893443177 0.3224398386255678 0 0.026168522413065168 0.3104928930259061 0 0.036845745308030732 0.33116266474607392 0 0.047513468893443177 0.3224398386255678 0 0.026168522413065168 0.3104928930259061 0 0.036845745308030732 0.33116266474607392 0 0.051005754195758958 0.32909948288352031 0 0.047513468893443177 0.3224398386255678 0 0.040187458524648688 0.34758827594847808 0 0.024973848365168069 0.34135785314563311 0 0.052458437831000702 0.33699192269501532 0 0.024973848365168069 0.34135785314563311 0 0.036845745308030732 0.33116266474607392 0 0.052458437831000702 0.33699192269501532 0 0.024973848365168069 0.34135785314563311 0 0.052458437831000702 0.33699192269501532 0 0.036845745308030732 0.33116266474607392 0 0.052458437831000702 0.33699192269501532 0 0.051005754195758958 0.32909948288352031 0 0.068858415373821105 0.33438678422522972 0 0.052458437831000702 0.33699192269501532 0 0.051005754195758958 0.32909948288352031 0 0.068858415373821105 0.33438678422522972 0 0.047513468893443177 0.3224398386255678 0 0.068858415373821105 0.33438678422522972 0 0.051005754195758958 0.32909948288352031 0 0.047513468893443177 0.3224398386255678 0 0.068858415373821105 0.33438678422522972 0 0.064594019962958577 0.34156793356305692 0 0.052458437831000702 0.33699192269501532 0 0.068858415373821105 0.33438678422522972 0 0.052458437831000702 0.33699192269501532 0 0.052458437831000702 0.33699192269501532 0 0.051005754195758958 0.32909948288352031 0 0.064594019962958577 0.34156793356305692 0 0.055252580414660329 0.3521725178578442 0 0.052458437831000702 0.33699192269501532 0 0.065816721422900043 0.31391018835044071 0 0.068858415373821105 0.33438678422522972 0 0.047513468893443177 0.3224398386255678 0 0.065816721422900043 0.31391018835044071 0 0.047513468893443177 0.3224398386255678 0 0.049710214784302757 0.30510620950358208 0 0.065816721422900043 0.31391018835044071 0 0.049710214784302757 0.30510620950358208 0 0.068735690824801493 0.28989307614428078 0 0.040316670367303888 0.28879505137171518 0 0.068735690824801493 0.28989307614428078 0 0.049710214784302757 0.30510620950358208 0 0.040316670367303888 0.28879505137171518 0 0.068735690824801493 0.28989307614428078 0 0.049710214784302757 0.30510620950358208 0 0.040316670367303888 0.28879505137171518 0 0.026168522413065168 0.3104928930259061 0 0.040316670367303888 0.28879505137171518 0 0.011897649909806339 0.28769702659914947 0 0.02214625704224385 0.26763071907828873 0 0.040316670367303888 0.28879505137171518 0 0.011897649909806339 0.28769702659914947 0 0.040316670367303888 0.28879505137171518 0 0.026168522413065168 0.3104928930259061 0 0.011897649909806339 0.28769702659914947 0 -0.01652137054769125 0.28659900182658321 0 0.011897649909806339 0.28769702659914947 0 0.0048235759326871047 0.29854594742624441 0 -0.0070763024001717382 0.30691980919720979 0 0.0048746630775424772 0.32215067290176053 0 0.0048235759326871047 0.29854594742624441 0 0.026168522413065168 0.3104928930259061 0 0.0048235759326871047 0.29854594742624441 0 0.0048746630775424772 0.32215067290176053 0 0.026168522413065168 0.3104928930259061 0 0.0048235759326871047 0.29854594742624441 0 0.026168522413065168 0.3104928930259061 0 0.011897649909806339 0.28769702659914947 0 0.0048235759326871047 0.29854594742624441 0 0.001071073268911413 0.25677565652066781 0 0.02214625704224385 0.26763071907828873 0 0.01591800352680944 0.25266184638829969 0 0.0033435243420843392 0.24550581269512031 0 0.001071073268911413 0.25677565652066781 0 0.01591800352680944 0.25266184638829969 0 0.001071073268911413 0.25677565652066781 0 0.0013692637925755099 0.27360342369342261 0 0.02214625704224385 0.26763071907828873 0 0.011897649909806339 0.28769702659914947 0 0.0013692637925755099 0.27360342369342261 0 0.02214625704224385 0.26763071907828873 0 0.02214625704224385 0.26763071907828873 0 0.01591800352680944 0.25266184638829969 0 0.033371124929654633 0.25067541080430228 0 0.040316670367303888 0.28879505137171518 0 0.02214625704224385 0.26763071907828873 0 0.054632320380536177 0.26411397417515048 0 0.033371124929654633 0.25067541080430228 0 0.054632320380536177 0.26411397417515048 0 0.02214625704224385 0.26763071907828873 0 0.033371124929654633 0.25067541080430228 0 0.054632320380536177 0.26411397417515048 0 0.040316670367303888 0.28879505137171518 0 0.054632320380536177 0.26411397417515048 0 0.068735690824801493 0.28989307614428078 0 0.058328838893199828 0.24486311732509269 0 0.054632320380536177 0.26411397417515048 0 0.073189528411794241 0.25034404403557708 0 0.058328838893199828 0.24486311732509269 0 0.033371124929654633 0.25067541080430228 0 0.054632320380536177 0.26411397417515048 0 0.054632320380536177 0.26411397417515048 0 0.073189528411794241 0.25034404403557708 0 0.081466025977729298 0.26303460469811529 0 0.093649627678486516 0.24667326851556401 0 0.073189528411794241 0.25034404403557708 0 0.081466025977729298 0.26303460469811529 0 0.093649627678486516 0.24667326851556401 0 0.081466025977729298 0.26303460469811529 0 0.099370017623480314 0.26394827202129489 0 0.081466025977729298 0.26303460469811529 0 0.092061145940660949 0.27557553189510692 0 0.099370017623480314 0.26394827202129489 0 0.081466025977729298 0.26303460469811529 0 0.092061145940660949 0.27557553189510692 0 0.075893515831417638 0.27755253754599862 0 0.054632320380536177 0.26411397417515048 0 0.081466025977729298 0.26303460469811529 0 0.075893515831417638 0.27755253754599862 0 0.054632320380536177 0.26411397417515048 0 0.075893515831417638 0.27755253754599862 0 0.054632320380536177 0.26411397417515048 0 0.075893515831417638 0.27755253754599862 0 0.068735690824801493 0.28989307614428078 0 0.065816721422900043 0.31391018835044071 0 0.068735690824801493 0.28989307614428078 0 0.081977196563509658 0.30949718410903099 0 0.068735690824801493 0.28989307614428078 0 0.081977196563509658 0.30949718410903099 0 0.08991052321202557 0.30029574677092408 0 0.081977196563509658 0.30949718410903099 0 0.08991052321202557 0.30029574677092408 0 0.094391500705662212 0.30898407534659722 0 0.068735690824801493 0.28989307614428078 0 0.097154711282299078 0.29099110091684671 0 0.092061145940660949 0.27557553189510692 0 0.075893515831417638 0.27755253754599862 0 0.097154711282299078 0.29099110091684671 0 0.075893515831417638 0.27755253754599862 0 0.097154711282299078 0.29099110091684671 0 0.068735690824801493 0.28989307614428078 0 0.08991052321202557 0.30029574677092408 0 0.097154711282299078 0.29099110091684671 0 0.075893515831417638 0.27755253754599862 0 0.068735690824801493 0.28989307614428078 0 0.097154711282299078 0.29099110091684671 0 0.097154711282299078 0.29099110091684671 0 0.1175686367613324 0.28407368973956248 0 0.10399851709922529 0.27699419656772511 0 0.08991052321202557 0.30029574677092408 0 0.097154711282299078 0.29099110091684671 0 0.1016264654285564 0.29895731737562081 0 0.097154711282299078 0.29099110091684671 0 0.1115599887458433 0.30009624434660931 0 0.097154711282299078 0.29099110091684671 0 0.1016264654285564 0.29895731737562081 0 0.1115599887458433 0.30009624434660931 0 0.1049935887392998 0.31611290923302737 0 0.1016264654285564 0.29895731737562081 0 0.11259725024726 0.31097143714882308 0 0.1049935887392998 0.31611290923302737 0 0.1016264654285564 0.29895731737562081 0 0.1049935887392998 0.31611290923302737 0 0.094391500705662212 0.30898407534659722 0 0.1016264654285564 0.29895731737562081 0 0.08991052321202557 0.30029574677092408 0 0.094391500705662212 0.30898407534659722 0 0.1016264654285564 0.29895731737562081 0 0.1016264654285564 0.29895731737562081 0 0.11259725024726 0.31097143714882308 0 0.1115599887458433 0.30009624434660931 0 0.11259725024726 0.31097143714882308 0 0.1115599887458433 0.30009624434660931 0 0.1189326920124657 0.30480185176572411 0 0.1115599887458433 0.30009624434660931 0 0.1189326920124657 0.30480185176572411 0 0.12570208261047081 0.29209408477784371 0 0.1189326920124657 0.30480185176572411 0 0.12570208261047081 0.29209408477784371 0 0.1267781265202354 0.30696681993556429 0 0.1203407132176403 0.31305045998796183 0 0.1189326920124657 0.30480185176572411 0 0.1267781265202354 0.30696681993556429 0 0.1203407132176403 0.31305045998796183 0 0.11259725024726 0.31097143714882308 0 0.1189326920124657 0.30480185176572411 0 0.1203407132176403 0.31305045998796183 0 0.1267781265202354 0.30696681993556429 0 0.12619607839551461 0.3130358504436016 0 0.097154711282299078 0.29099110091684671 0 0.1115599887458433 0.30009624434660931 0 0.12570208261047081 0.29209408477784371 0 0.097154711282299078 0.29099110091684671 0 0.12570208261047081 0.29209408477784371 0 0.097154711282299078 0.29099110091684671 0 0.1175686367613324 0.28407368973956248 0 0.12570208261047081 0.29209408477784371 0 0.1175686367613324 0.28407368973956248 0 0.12604700905419131 0.27737040616081182 0 0.12643001628294401 0.28428972833423211 0 0.1175686367613324 0.28407368973956248 0 0.12643001628294401 0.28428972833423211 0 0.12570208261047081 0.29209408477784371 0 0.1175686367613324 0.28407368973956248 0 0.12570208261047081 0.29209408477784371 0 0.1175686367613324 0.28407368973956248 0 0.1138380738883539 0.27038238826581479 0 0.12604700905419131 0.27737040616081182 0 0.1175686367613324 0.28407368973956248 0 0.1138380738883539 0.27038238826581479 0 0.10399851709922529 0.27699419656772511 0 0.1138380738883539 0.27038238826581479 0 0.12463432983057569 0.26367416446373809 0 0.12604700905419131 0.27737040616081182 0 0.1337942598672309 0.24999146204144321 0 0.12463432983057569 0.26367416446373809 0 0.1127245953623645 0.25546607531009391 0 0.1138380738883539 0.27038238826581479 0 0.12463432983057569 0.26367416446373809 0 0.1127245953623645 0.25546607531009391 0 0.1138380738883539 0.27038238826581479 0 0.1127245953623645 0.25546607531009391 0 0.099370017623480314 0.26394827202129489 0 0.093649627678486516 0.24667326851556401 0 0.1127245953623645 0.25546607531009391 0 0.099370017623480314 0.26394827202129489 0 0.092061145940660949 0.27557553189510692 0 0.099370017623480314 0.26394827202129489 0 0.10399851709922529 0.27699419656772511 0 0.092061145940660949 0.27557553189510692 0 0.097154711282299078 0.29099110091684671 0 0.10399851709922529 0.27699419656772511 0 0.1138380738883539 0.27038238826581479 0 0.099370017623480314 0.26394827202129489 0 0.10399851709922529 0.27699419656772511 0 0.14743632467798959 0.27981213896963097 0 0.13778341284603149 0.26664900586173629 0 0.15652725644840129 0.26185602753017878 0 0.14743632467798959 0.27981213896963097 0 0.15652725644840129 0.26185602753017878 0 0.1337942598672309 0.24999146204144321 0 0.15652725644840129 0.26185602753017878 0 0.1337942598672309 0.24999146204144321 0 0.13778341284603149 0.26664900586173629 0 0.15652725644840129 0.26185602753017878 0 0.1337942598672309 0.24999146204144321 0 0.12463432983057569 0.26367416446373809 0 0.13778341284603149 0.26664900586173629 0 0.12463432983057569 0.26367416446373809 0 0.13778341284603149 0.26664900586173629 0 0.12604700905419131 0.27737040616081182 0 0.14743632467798959 0.27981213896963097 0 0.13778341284603149 0.26664900586173629 0 0.12604700905419131 0.27737040616081182 0 0.14743632467798959 0.27981213896963097 0 0.12604700905419131 0.27737040616081182 0 0.1364023367057817 0.28362073265871041 0 0.14743632467798959 0.27981213896963097 0 0.12604700905419131 0.27737040616081182 0 0.12570208261047081 0.29209408477784371 0 0.14198333557767309 0.28699954159384689 0 0.15002121463158011 0.29303370229373971 0 0.12643001628294401 0.28428972833423211 0 0.12570208261047081 0.29209408477784371 0 0.1364023367057817 0.28362073265871041 0 0.12570208261047081 0.29209408477784371 0 0.1387424303564691 0.30495317824196838 0 0.15002121463158011 0.29303370229373971 0 0.12604700905419131 0.27737040616081182 0 0.12643001628294401 0.28428972833423211 0 0.1364023367057817 0.28362073265871041 0 0.12570208261047081 0.29209408477784371 0 0.15002121463158011 0.29303370229373971 0 0.12570208261047081 0.29209408477784371 0 0.1364023367057817 0.28362073265871041 0 0.14198333557767309 0.28699954159384689 0 0.1267781265202354 0.30696681993556429 0 0.1387424303564691 0.30495317824196838 0 0.131908360867628 0.31342820393330739 0 0.1267781265202354 0.30696681993556429 0 0.12619607839551461 0.3130358504436016 0 0.131908360867628 0.31342820393330739 0 0.12570208261047081 0.29209408477784371 0 0.1387424303564691 0.30495317824196838 0 0.12570208261047081 0.29209408477784371 0 0.1267781265202354 0.30696681993556429 0 0.1387424303564691 0.30495317824196838 0 0.1387424303564691 0.30495317824196838 0 0.1517827781024699 0.31781227170609061 0 0.131908360867628 0.31342820393330739 0 0.1387424303564691 0.30495317824196838 0 0.1517827781024699 0.31781227170609061 0 0.1387424303564691 0.30495317824196838 0 0.15022883968033879 0.30489629789611722 0 0.1517827781024699 0.31781227170609061 0 0.1387424303564691 0.30495317824196838 0 0.15022883968033879 0.30489629789611722 0 0.15002121463158011 0.29303370229373971 0 0.15022883968033879 0.30489629789611722 0 0.15002121463158011 0.29303370229373971 0 0.1603689356308366 0.30378603934267168 0 0.15022883968033879 0.30489629789611722 0 0.1603689356308366 0.30378603934267168 0 0.1517827781024699 0.31781227170609061 0 0.14743632467798959 0.27981213896963097 0 0.1364023367057817 0.28362073265871041 0 0.14198333557767309 0.28699954159384689 0 0.14198333557767309 0.28699954159384689 0 0.15002121463158011 0.29303370229373971 0 0.15183630905960591 0.28615392532081041 0 0.14743632467798959 0.27981213896963097 0 0.14198333557767309 0.28699954159384689 0 0.15183630905960591 0.28615392532081041 0 0.14743632467798959 0.27981213896963097 0 0.1729069674535747 0.28271978245017643 0 0.15002121463158011 0.29303370229373971 0 0.17434034665268949 0.2939733198096357 0 0.15183630905960591 0.28615392532081041 0 0.1729069674535747 0.28271978245017643 0 0.17434034665268949 0.2939733198096357 0 0.14743632467798959 0.27981213896963097 0 0.15183630905960591 0.28615392532081041 0 0.1729069674535747 0.28271978245017643 0 0.15002121463158011 0.29303370229373971 0 0.15183630905960591 0.28615392532081041 0 0.17434034665268949 0.2939733198096357 0 0.1603689356308366 0.30378603934267168 0 0.17531442666264679 0.30943610283612349 0 0.1517827781024699 0.31781227170609061 0 0.15002121463158011 0.29303370229373971 0 0.1603689356308366 0.30378603934267168 0 0.17434034665268949 0.2939733198096357 0 0.1603689356308366 0.30378603934267168 0 0.17531442666264679 0.30943610283612349 0 0.17434034665268949 0.2939733198096357 0 0.17531442666264679 0.30943610283612349 0 0.1988460752228258 0.30105993396616271 0 0.17531442666264679 0.30943610283612349 0 0.17434034665268949 0.2939733198096357 0 0.1988460752228258 0.30105993396616271 0 0.1729069674535747 0.28271978245017643 0 0.19837761022915951 0.28562742593072549 0 0.1729069674535747 0.28271978245017643 0 0.17434034665268949 0.2939733198096357 0 0.19837761022915951 0.28562742593072549 0 0.17434034665268949 0.2939733198096357 0 0.19865947867379879 0.29491293732553209 0 0.1729069674535747 0.28271978245017643 0 0.17742267923791849 0.2727615459124908 0 0.19831810202743261 0.2836670642948087 0 0.1729069674535747 0.28271978245017643 0 0.17742267923791849 0.2727615459124908 0 0.15652725644840129 0.26185602753017878 0 0.14743632467798959 0.27981213896963097 0 0.1729069674535747 0.28271978245017643 0 0.15652725644840129 0.26185602753017878 0 0.17742267923791849 0.2727615459124908 0 0.15652725644840129 0.26185602753017878 0 0.17742267923791849 0.2727615459124908 0 0.15652725644840129 0.26185602753017878 0 0.1773186989433643 0.25563234473147572 0 0.16432702787711759 0.24645017381646839 0 0.15652725644840129 0.26185602753017878 0 0.1773186989433643 0.25563234473147572 0 0.16432702787711759 0.24645017381646839 0 0.15652725644840129 0.26185602753017878 0 0.18236044891295111 0.23853512487555209 0 0.1773186989433643 0.25563234473147572 0 0.19757095652901999 0.25905406425491012 0 0.17742267923791849 0.2727615459124908 0 0.1773186989433643 0.25563234473147572 0 0.19757095652901999 0.25905406425491012 0 0.19757095652901999 0.25905406425491012 0 0.20904777146136849 0.27446707417574762 0 0.19831810202743261 0.2836670642948087 0 0.17742267923791849 0.2727615459124908 0 0.19757095652901999 0.25905406425491012 0 0.19831810202743261 0.2836670642948087 0 0.19757095652901999 0.25905406425491012 0 0.19831810202743261 0.2836670642948087 0 0.17742267923791849 0.2727615459124908 0 0.19831810202743261 0.2836670642948087 0 0.21959118367750821 0.26546038004836048 0 0.21375013932642789 0.28738230249206381 0 0.20904777146136849 0.27446707417574762 0 0.21359530402878041 0.26884066895525899 0 0.21375013932642789 0.28738230249206381 0 0.21359530402878041 0.26884066895525899 0 0.21959118367750821 0.26546038004836048 0 0.21375013932642789 0.28738230249206381 0 0.21959118367750821 0.26546038004836048 0 0.21992094036438881 0.26872193116999998 0 0.21375013932642789 0.28738230249206381 0 0.20904777146136849 0.27446707417574762 0 0.20749425810895211 0.28239526032456869 0 0.19831810202743261 0.2836670642948087 0 0.20904777146136849 0.27446707417574762 0 0.21359530402878041 0.26884066895525899 0 0.20929874778716459 0.26282463585822008 0 0.19757095652901999 0.25905406425491012 0 0.21019685046771899 0.25079609985483631 0 0.20929874778716459 0.26282463585822008 0 0.19757095652901999 0.25905406425491012 0 0.20904777146136849 0.27446707417574762 0 0.20929874778716459 0.26282463585822008 0 0.21359530402878041 0.26884066895525899 0 0.2174648780305414 0.25940754872544591 0 0.21959118367750821 0.26546038004836048 0 0.21359530402878041 0.26884066895525899 0 0.20929874778716459 0.26282463585822008 0 0.2174648780305414 0.25940754872544591 0 0.2253267238992222 0.24953808168636099 0 0.21019685046771899 0.25079609985483631 0 0.2174648780305414 0.25940754872544591 0 0.21019685046771899 0.25079609985483631 0 0.20929874778716459 0.26282463585822008 0 0.2174648780305414 0.25940754872544591 0 0.2253267238992222 0.24953808168636099 0 0.2174648780305414 0.25940754872544591 0 0.22519052997288239 0.25846762773900961 0 0.2253267238992222 0.24953808168636099 0 0.22519052997288239 0.25846762773900961 0 0.23438018566661431 0.25631078815607777 0 0.22908350787502829 0.26535201368132638 0 0.22519052997288239 0.25846762773900961 0 0.23438018566661431 0.25631078815607777 0 0.22908350787502829 0.26535201368132638 0 0.2229089485238481 0.26273846013992569 0 0.22519052997288239 0.25846762773900961 0 0.22908350787502829 0.26535201368132638 0 0.2229089485238481 0.26273846013992569 0 0.22367831774227431 0.26691498417818871 0 0.2174648780305414 0.25940754872544591 0 0.2229089485238481 0.26273846013992569 0 0.22519052997288239 0.25846762773900961 0 0.2229089485238481 0.26273846013992569 0 0.21959118367750821 0.26546038004836048 0 0.22367831774227431 0.26691498417818871 0 0.2174648780305414 0.25940754872544591 0 0.2229089485238481 0.26273846013992569 0 0.21959118367750821 0.26546038004836048 0 0.22908350787502829 0.26535201368132638 0 0.2258781155759465 0.27325241908838938 0 0.22367831774227431 0.26691498417818871 0 0.21992094036438881 0.26872193116999998 0 0.22632175426121251 0.28881743605061222 0 0.21992094036438881 0.26872193116999998 0 0.2258781155759465 0.27325241908838938 0 0.22632175426121251 0.28881743605061222 0 0.21959118367750821 0.26546038004836048 0 0.21992094036438881 0.26872193116999998 0 0.22367831774227431 0.26691498417818871 0 0.21992094036438881 0.26872193116999998 0 0.2258781155759465 0.27325241908838938 0 0.22367831774227431 0.26691498417818871 0 0.2258781155759465 0.27325241908838938 0 0.23038605763682871 0.27645573036182058 0 0.22632175426121251 0.28881743605061222 0 0.22908350787502829 0.26535201368132638 0 0.2258781155759465 0.27325241908838938 0 0.23038605763682871 0.27645573036182058 0 0.22908350787502829 0.26535201368132638 0 0.23038605763682871 0.27645573036182058 0 0.24253861414669159 0.26415637433626837 0 0.23038605763682871 0.27645573036182058 0 0.24253861414669159 0.26415637433626837 0 0.25889979196743268 0.27968361298993832 0 0.24398959813062701 0.2460479105434944 0 0.2253267238992222 0.24953808168636099 0 0.23438018566661431 0.25631078815607777 0 0.24398959813062701 0.2460479105434944 0 0.24253861414669159 0.26415637433626837 0 0.26209420568568409 0.25604433713168329 0 0.24398959813062701 0.2460479105434944 0 0.24253861414669159 0.26415637433626837 0 0.23438018566661431 0.25631078815607777 0 0.22908350787502829 0.26535201368132638 0 0.24253861414669159 0.26415637433626837 0 0.23438018566661431 0.25631078815607777 0 0.24400789250529489 0.30654560212132592 0 0.22863215418157651 0.29607099061793091 0 0.25653963196182239 0.29714925093265238 0 0.24400789250529489 0.30654560212132592 0 0.22863215418157651 0.29607099061793091 0 0.23639651945168219 0.32044739691489932 0 0.23155975864592429 0.28941538913073123 0 0.22863215418157651 0.29607099061793091 0 0.25653963196182239 0.29714925093265238 0 0.23155975864592429 0.28941538913073123 0 0.2571893546374926 0.29234117817934158 0 0.23038605763682871 0.27645573036182058 0 0.23155975864592429 0.28941538913073123 0 0.25889979196743268 0.27968361298993832 0 0.23155975864592429 0.28941538913073123 0 0.2571893546374926 0.29234117817934158 0 0.25889979196743268 0.27968361298993832 0 0.23155975864592429 0.28941538913073123 0 0.2571893546374926 0.29234117817934158 0 0.25653963196182239 0.29714925093265238 0 0.22863215418157651 0.29607099061793091 0 0.25653963196182239 0.29714925093265238 0 0.23155975864592429 0.28941538913073123 0 0.25889979196743268 0.27968361298993832 0 0.21992094036438881 0.26872193116999998 0 0.22632175426121251 0.28881743605061222 0 0.21375013932642789 0.28738230249206381 0 0.23155975864592429 0.28941538913073123 0 0.22702621846654561 0.29102911789368519 0 0.23155975864592429 0.28941538913073123 0 0.22702621846654561 0.29102911789368519 0 0.22863215418157651 0.29607099061793091 0 0.23155975864592429 0.28941538913073123 0 0.22702621846654561 0.29102911789368519 0 0.22632175426121251 0.28881743605061222 0 0.23155975864592429 0.28941538913073123 0 0.22632175426121251 0.28881743605061222 0 0.22702621846654561 0.29102911789368519 0 0.22632175426121251 0.28881743605061222 0 0.22702621846654561 0.29102911789368519 0 0.22863215418157651 0.29607099061793091 0 0.23038605763682871 0.27645573036182058 0 0.23155975864592429 0.28941538913073123 0 0.22632175426121251 0.28881743605061222 0 0.22632175426121251 0.28881743605061222 0 0.21375013932642789 0.28738230249206381 0 0.22632175426121251 0.28881743605061222 0 0.21375013932642789 0.28738230249206381 0 0.21834492619973431 0.29411925286023199 0 0.22702621846654561 0.29102911789368519 0 0.21834492619973431 0.29411925286023199 0 0.22702621846654561 0.29102911789368519 0 0.22863215418157651 0.29607099061793091 0 0.21834492619973431 0.29411925286023199 0 0.22702621846654561 0.29102911789368519 0 0.22632175426121251 0.28881743605061222 0 0.21834492619973431 0.29411925286023199 0 0.22863215418157651 0.29607099061793091 0 0.21834492619973431 0.29411925286023199 0 0.2144059787935014 0.29552133434042532 0 0.22863215418157651 0.29607099061793091 0 0.2144059787935014 0.29552133434042532 0 0.22863215418157651 0.29607099061793091 0 0.22000384665766309 0.30862055024816532 0 0.2144059787935014 0.29552133434042532 0 0.22863215418157651 0.29607099061793091 0 0.23639651945168219 0.32044739691489932 0 0.22863215418157651 0.29607099061793091 0 0.22000384665766309 0.30862055024816532 0 0.23639651945168219 0.32044739691489932 0 0.21161029436596179 0.29541331757179151 0 0.1988460752228258 0.30105993396616271 0 0.20564161533860059 0.31781426350965042 0 0.21161029436596179 0.29541331757179151 0 0.20564161533860059 0.31781426350965042 0 0.22000384665766309 0.30862055024816532 0 0.21161029436596179 0.29541331757179151 0 0.20564161533860059 0.31781426350965042 0 0.22000384665766309 0.30862055024816532 0 0.2144059787935014 0.29552133434042532 0 0.21161029436596179 0.29541331757179151 0 0.21161029436596179 0.29541331757179151 0 0.1988460752228258 0.30105993396616271 0 0.21375013932642789 0.28738230249206381 0 0.2127351929594849 0.29119148013279278 0 0.2127351929594849 0.29119148013279278 0 0.21834492619973431 0.29411925286023199 0 0.21375013932642789 0.28738230249206381 0 0.2127351929594849 0.29119148013279278 0 0.21834492619973431 0.29411925286023199 0 0.21834492619973431 0.29411925286023199 0 0.2144059787935014 0.29552133434042532 0 0.2127351929594849 0.29119148013279278 0 0.21834492619973431 0.29411925286023199 0 0.2144059787935014 0.29552133434042532 0 0.2144059787935014 0.29552133434042532 0 0.21161029436596179 0.29541331757179151 0 0.2127351929594849 0.29119148013279278 0 0.21161029436596179 0.29541331757179151 0 0.2127351929594849 0.29119148013279278 0 0.2144059787935014 0.29552133434042532 0 0.21161029436596179 0.29541331757179151 0 0.2127351929594849 0.29119148013279278 0 0.20632293789947129 0.29174373195178988 0 0.2031091628731071 0.28616756417219641 0 0.21161029436596179 0.29541331757179151 0 0.19865947867379879 0.29491293732553209 0 0.21161029436596179 0.29541331757179151 0 0.20632293789947129 0.29174373195178988 0 0.19865947867379879 0.29491293732553209 0 0.2127351929594849 0.29119148013279278 0 0.21161029436596179 0.29541331757179151 0 0.20632293789947129 0.29174373195178988 0 0.21375013932642789 0.28738230249206381 0 0.2127351929594849 0.29119148013279278 0 0.2031091628731071 0.28616756417219641 0 0.20904777146136849 0.27446707417574762 0 0.21375013932642789 0.28738230249206381 0 0.20749425810895211 0.28239526032456869 0 0.21375013932642789 0.28738230249206381 0 0.2031091628731071 0.28616756417219641 0 0.2127351929594849 0.29119148013279278 0 0.2031091628731071 0.28616756417219641 0 0.21375013932642789 0.28738230249206381 0 0.20749425810895211 0.28239526032456869 0 0.2031091628731071 0.28616756417219641 0 0.17434034665268949 0.2939733198096357 0 0.19837761022915951 0.28562742593072549 0 0.19865947867379879 0.29491293732553209 0 0.17434034665268949 0.2939733198096357 0 0.19865947867379879 0.29491293732553209 0 0.1988460752228258 0.30105993396616271 0 0.1729069674535747 0.28271978245017643 0 0.19831810202743261 0.2836670642948087 0 0.19837761022915951 0.28562742593072549 0 0.2031091628731071 0.28616756417219641 0 0.19837761022915951 0.28562742593072549 0 0.19865947867379879 0.29491293732553209 0 0.20749425810895211 0.28239526032456869 0 0.19831810202743261 0.2836670642948087 0 0.2031091628731071 0.28616756417219641 0 0.19831810202743261 0.2836670642948087 0 0.19837761022915951 0.28562742593072549 0 0.19831810202743261 0.2836670642948087 0 0.2031091628731071 0.28616756417219641 0 0.19831810202743261 0.2836670642948087 0 0.2031091628731071 0.28616756417219641 0 0.19837761022915951 0.28562742593072549 0 0.2031091628731071 0.28616756417219641 0 0.19837761022915951 0.28562742593072549 0 0.19837761022915951 0.28562742593072549 0 0.19865947867379879 0.29491293732553209 0 0.20632293789947129 0.29174373195178988 0 0.2031091628731071 0.28616756417219641 0 0.19865947867379879 0.29491293732553209 0 0.1988460752228258 0.30105993396616271 0 0.19942187079064261 0.3200282023473211 0 0.17531442666264679 0.30943610283612349 0 0.1988460752228258 0.30105993396616271 0 0.19942187079064261 0.3200282023473211 0 0.21161029436596179 0.29541331757179151 0 0.19865947867379879 0.29491293732553209 0 0.1988460752228258 0.30105993396616271 0 0.19865947867379879 0.29491293732553209 0 0.1988460752228258 0.30105993396616271 0 0.19942187079064261 0.3200282023473211 0 0.1911678955294501 0.33201369128086378 0 0.17903192419200961 0.32385047824931451 0 0.19942187079064261 0.3200282023473211 0 0.19999766635845689 0.3389964707284796 0 0.20564161533860059 0.31781426350965042 0 0.1988460752228258 0.30105993396616271 0 0.19942187079064261 0.3200282023473211 0 0.20564161533860059 0.31781426350965042 0 0.19942187079064261 0.3200282023473211 0 0.19999766635845689 0.3389964707284796 0 0.19999766635845689 0.3389964707284796 0 0.20564161533860059 0.31781426350965042 0 0.19942187079064261 0.3200282023473211 0 0.1911678955294501 0.33201369128086378 0 0.19999766635845689 0.3389964707284796 0 0.19193880929601559 0.34182828253621977 0 0.1911678955294501 0.33201369128086378 0 0.18372935812326111 0.33723673080428468 0 0.19193880929601559 0.34182828253621977 0 0.1911678955294501 0.33201369128086378 0 0.19999766635845689 0.3389964707284796 0 0.19999766635845689 0.3389964707284796 0 0.197565593562745 0.34812424103810879 0 0.19193880929601559 0.34182828253621977 0 0.19999766635845689 0.3389964707284796 0 0.197565593562745 0.34812424103810879 0 0.19999766635845689 0.3389964707284796 0 0.21295804744207961 0.33242742323349977 0 0.20564161533860059 0.31781426350965042 0 0.19999766635845689 0.3389964707284796 0 0.21295804744207961 0.33242742323349977 0 0.21377324676889931 0.34666347012720788 0 0.21295804744207961 0.33242742323349977 0 0.22529380117738171 0.33702022918735408 0 0.21377324676889931 0.34666347012720788 0 0.21295804744207961 0.33242742323349977 0 0.20564161533860059 0.31781426350965042 0 0.2200587660134814 0.32326597261871381 0 0.22000384665766309 0.30862055024816532 0 0.20564161533860059 0.31781426350965042 0 0.2200587660134814 0.32326597261871381 0 0.22000384665766309 0.30862055024816532 0 0.2200587660134814 0.32326597261871381 0 0.23639651945168219 0.32044739691489932 0 0.2200587660134814 0.32326597261871381 0 0.22529380117738171 0.33702022918735408 0 0.23639651945168219 0.32044739691489932 0 0.21295804744207961 0.33242742323349977 0 0.2200587660134814 0.32326597261871381 0 0.22529380117738171 0.33702022918735408 0 0.22529380117738171 0.33702022918735408 0 0.23639651945168219 0.32044739691489932 0 0.24416088472178729 0.34482380321186801 0 0.23639651945168219 0.32044739691489932 0 0.24416088472178729 0.34482380321186801 0 0.23639651945168219 0.32044739691489932 0 0.24416088472178729 0.34482380321186801 0 0.25238689689037419 0.32788028910698541 0 0.23639651945168219 0.32044739691489932 0 0.25446326442609829 0.31251477001981892 0 0.25238689689037419 0.32788028910698541 0 0.24400789250529489 0.30654560212132592 0 0.23639651945168219 0.32044739691489932 0 0.25446326442609829 0.31251477001981892 0 0.23612722761753629 0.36063718746288143 0 0.24386985605873099 0.37452817703195512 0 0.25153519114805228 0.35834531681273241 0 0.23612722761753629 0.36063718746288143 0 0.24386985605873099 0.37452817703195512 0 0.2300448309524219 0.37481157113047497 0 0.23612722761753629 0.36063718746288143 0 0.24416088472178729 0.34482380321186801 0 0.25153519114805228 0.35834531681273241 0 0.23612722761753629 0.36063718746288143 0 0.24416088472178729 0.34482380321186801 0 0.22711054661274799 0.35108748701343551 0 0.22529380117738171 0.33702022918735408 0 0.24416088472178729 0.34482380321186801 0 0.22711054661274799 0.35108748701343551 0 0.23612722761753629 0.36063718746288143 0 0.22711054661274799 0.35108748701343551 0 0.218392286599254 0.36091038156409461 0 0.22529380117738171 0.33702022918735408 0 0.22711054661274799 0.35108748701343551 0 0.21377324676889931 0.34666347012720788 0 0.22711054661274799 0.35108748701343551 0 0.218392286599254 0.36091038156409461 0 0.21377324676889931 0.34666347012720788 0 0.23612722761753629 0.36063718746288143 0 0.2300448309524219 0.37481157113047497 0 0.218392286599254 0.36091038156409461 0 0.218392286599254 0.36091038156409461 0 0.20495891030801469 0.37024928239099708 0 0.20660932818989111 0.38063619410987293 0 0.218392286599254 0.36091038156409461 0 0.20495891030801469 0.37024928239099708 0 0.20067580257088299 0.36133611763661022 0 0.19999766635845689 0.3389964707284796 0 0.21377324676889931 0.34666347012720788 0 0.20067580257088299 0.36133611763661022 0 0.218392286599254 0.36091038156409461 0 0.21377324676889931 0.34666347012720788 0 0.20067580257088299 0.36133611763661022 0 0.19999766635845689 0.3389964707284796 0 0.197565593562745 0.34812424103810879 0 0.20067580257088299 0.36133611763661022 0 0.19999766635845689 0.3389964707284796 0 0.20067580257088299 0.36133611763661022 0 0.197565593562745 0.34812424103810879 0 0.20067580257088299 0.36133611763661022 0 0.1872335329061656 0.3527702788293624 0 0.19193880929601559 0.34182828253621977 0 0.197565593562745 0.34812424103810879 0 0.1872335329061656 0.3527702788293624 0 0.19193880929601559 0.34182828253621977 0 0.1872335329061656 0.3527702788293624 0 0.18372935812326111 0.33723673080428468 0 0.20495891030801469 0.37024928239099708 0 0.18919886698873209 0.36907932361196649 0 0.19397337886704771 0.38314324263145472 0 0.20495891030801469 0.37024928239099708 0 0.1872335329061656 0.3527702788293624 0 0.20495891030801469 0.37024928239099708 0 0.20067580257088299 0.36133611763661022 0 0.1872335329061656 0.3527702788293624 0 0.20495891030801469 0.37024928239099708 0 0.18919886698873209 0.36907932361196649 0 0.1872335329061656 0.3527702788293624 0 0.18919886698873209 0.36907932361196649 0 0.17893312584429791 0.3621702265069599 0 0.17991755807318199 0.37791648914964748 0 0.18919886698873209 0.36907932361196649 0 0.17893312584429791 0.3621702265069599 0 0.1872335329061656 0.3527702788293624 0 0.17893312584429791 0.3621702265069599 0 0.17039253442124419 0.37007089768199841 0 0.17991755807318199 0.37791648914964748 0 0.17893312584429791 0.3621702265069599 0 0.17039253442124419 0.37007089768199841 0 0.16652116852788981 0.36038162668868501 0 0.16652116852788981 0.36038162668868501 0 0.1558281673071511 0.36683613345365967 0 0.15032374726740871 0.35575083131179558 0 0.17039253442124419 0.37007089768199841 0 0.16652116852788981 0.36038162668868501 0 0.1558281673071511 0.36683613345365967 0 0.17039253442124419 0.37007089768199841 0 0.1558281673071511 0.36683613345365967 0 0.1620529333072174 0.37891034361460518 0 0.16652116852788981 0.36038162668868501 0 0.1633296040555397 0.34877437358279711 0 0.15032374726740871 0.35575083131179558 0 0.1633296040555397 0.34877437358279711 0 0.17302256363703239 0.35210134421639072 0 0.1695081555043165 0.33529127526772767 0 0.1633296040555397 0.34877437358279711 0 0.1572723853410509 0.34034679042938598 0 0.15032374726740871 0.35575083131179558 0 0.16652116852788981 0.36038162668868501 0 0.1633296040555397 0.34877437358279711 0 0.17302256363703239 0.35210134421639072 0 0.17302256363703239 0.35210134421639072 0 0.1872335329061656 0.3527702788293624 0 0.1695081555043165 0.33529127526772767 0 0.1872335329061656 0.3527702788293624 0 0.1695081555043165 0.33529127526772767 0 0.17893312584429791 0.3621702265069599 0 0.16652116852788981 0.36038162668868501 0 0.17302256363703239 0.35210134421639072 0 0.17893312584429791 0.3621702265069599 0 0.17302256363703239 0.35210134421639072 0 0.1872335329061656 0.3527702788293624 0 0.1872335329061656 0.3527702788293624 0 0.18372935812326111 0.33723673080428468 0 0.1695081555043165 0.33529127526772767 0 0.1911678955294501 0.33201369128086378 0 0.18372935812326111 0.33723673080428468 0 0.17903192419200961 0.32385047824931451 0 0.18372935812326111 0.33723673080428468 0 0.17903192419200961 0.32385047824931451 0 0.1695081555043165 0.33529127526772767 0 0.17531442666264679 0.30943610283612349 0 0.19942187079064261 0.3200282023473211 0 0.17903192419200961 0.32385047824931451 0 0.1695081555043165 0.33529127526772767 0 0.1517827781024699 0.31781227170609061 0 0.17531442666264679 0.30943610283612349 0 0.17903192419200961 0.32385047824931451 0 0.1517827781024699 0.31781227170609061 0 0.17531442666264679 0.30943610283612349 0 0.1517827781024699 0.31781227170609061 0 0.17903192419200961 0.32385047824931451 0 0.1695081555043165 0.33529127526772767 0 0.1517827781024699 0.31781227170609061 0 0.1695081555043165 0.33529127526772767 0 0.1572723853410509 0.34034679042938598 0 0.1517827781024699 0.31781227170609061 0 0.1633296040555397 0.34877437358279711 0 0.1695081555043165 0.33529127526772767 0 0.1572723853410509 0.34034679042938598 0 0.1572723853410509 0.34034679042938598 0 0.14449074315281621 0.33150778394742952 0 0.1517827781024699 0.31781227170609061 0 0.1572723853410509 0.34034679042938598 0 0.14449074315281621 0.33150778394742952 0 0.1349204454541065 0.34310338279765601 0 0.1572723853410509 0.34034679042938598 0 0.1349204454541065 0.34310338279765601 0 0.1517827781024699 0.31781227170609061 0 0.1301507759590291 0.32551225509168069 0 0.14449074315281621 0.33150778394742952 0 0.1517827781024699 0.31781227170609061 0 0.1301507759590291 0.32551225509168069 0 0.1517827781024699 0.31781227170609061 0 0.1301507759590291 0.32551225509168069 0 0.131908360867628 0.31342820393330739 0 0.1198279242949423 0.31902122911367181 0 0.1301507759590291 0.32551225509168069 0 0.1257571129765549 0.31869791791757279 0 0.1301507759590291 0.32551225509168069 0 0.1257571129765549 0.31869791791757279 0 0.131908360867628 0.31342820393330739 0 0.1257571129765549 0.31869791791757279 0 0.12619607839551461 0.3130358504436016 0 0.131908360867628 0.31342820393330739 0 0.14449074315281621 0.33150778394742952 0 0.1301507759590291 0.32551225509168069 0 0.1349204454541065 0.34310338279765601 0 0.112568505567162 0.34585997516592548 0 0.1301507759590291 0.32551225509168069 0 0.1349204454541065 0.34310338279765601 0 0.1349204454541065 0.34310338279765601 0 0.1354389827289188 0.35622015692373138 0 0.15032374726740871 0.35575083131179558 0 0.1223247659028195 0.35564053513504729 0 0.1349204454541065 0.34310338279765601 0 0.1354389827289188 0.35622015692373138 0 0.1223247659028195 0.35564053513504729 0 0.1354389827289188 0.35622015692373138 0 0.12951054606610321 0.36574029847411921 0 0.1354389827289188 0.35622015692373138 0 0.12951054606610321 0.36574029847411921 0 0.1420713059527417 0.37235008551999182 0 0.12951054606610321 0.36574029847411921 0 0.1420713059527417 0.37235008551999182 0 0.12623243759338121 0.37631401043276969 0 0.1217066074206179 0.36685144657453089 0 0.12951054606610321 0.36574029847411921 0 0.12623243759338121 0.37631401043276969 0 0.1354389827289188 0.35622015692373138 0 0.1420713059527417 0.37235008551999182 0 0.15032374726740871 0.35575083131179558 0 0.1420713059527417 0.37235008551999182 0 0.1558281673071511 0.36683613345365967 0 0.1620529333072174 0.37891034361460518 0 0.1420713059527417 0.37235008551999182 0 0.1558281673071511 0.36683613345365967 0 0.15032374726740871 0.35575083131179558 0 0.1572723853410509 0.34034679042938598 0 0.1349204454541065 0.34310338279765601 0 0.15032374726740871 0.35575083131179558 0 0.1467949482117398 0.38949029706688038 0 0.13226648721586309 0.40529132452426758 0 0.14683706154472231 0.40653885569794379 0 0.1467949482117398 0.38949029706688038 0 0.14683706154472231 0.40653885569794379 0 0.16070242721985681 0.39797669411266601 0 0.1420713059527417 0.37235008551999182 0 0.1467949482117398 0.38949029706688038 0 0.1620529333072174 0.37891034361460518 0 0.1420713059527417 0.37235008551999182 0 0.1467949482117398 0.38949029706688038 0 0.13152142295094299 0.3878998765288828 0 0.1420713059527417 0.37235008551999182 0 0.12623243759338121 0.37631401043276969 0 0.13152142295094299 0.3878998765288828 0 0.11875869923671931 0.38439154357958349 0 0.12623243759338121 0.37631401043276969 0 0.13152142295094299 0.3878998765288828 0 0.12088251483540111 0.39480513105265941 0 0.13152142295094299 0.3878998765288828 0 0.13226648721586309 0.40529132452426758 0 0.1467949482117398 0.38949029706688038 0 0.13152142295094299 0.3878998765288828 0 0.13226648721586309 0.40529132452426758 0 0.1194740661223945 0.41972072897325008 0 0.13226648721586309 0.40529132452426758 0 0.1334506832342543 0.41895278859297669 0 0.13226648721586309 0.40529132452426758 0 0.1334506832342543 0.41895278859297669 0 0.14683706154472231 0.40653885569794379 0 0.1334506832342543 0.41895278859297669 0 0.12783545089004961 0.43364185334063182 0 0.14563971857714619 0.42675802329568979 0 0.12783545089004961 0.43364185334063182 0 0.14563971857714619 0.42675802329568979 0 0.14089284673024199 0.44861488312590098 0 0.1194740661223945 0.41972072897325008 0 0.1334506832342543 0.41895278859297669 0 0.12783545089004961 0.43364185334063182 0 0.14563971857714619 0.42675802329568979 0 0.15946366758580419 0.41541173275639798 0 0.1587332987752553 0.42860649683705992 0 0.14563971857714619 0.42675802329568979 0 0.1587332987752553 0.42860649683705992 0 0.15310322966776271 0.43941621950274429 0 0.14563971857714619 0.42675802329568979 0 0.14683706154472231 0.40653885569794379 0 0.15946366758580419 0.41541173275639798 0 0.1334506832342543 0.41895278859297669 0 0.14563971857714619 0.42675802329568979 0 0.14683706154472231 0.40653885569794379 0 0.14683706154472231 0.40653885569794379 0 0.15946366758580419 0.41541173275639798 0 0.16070242721985681 0.39797669411266601 0 0.15946366758580419 0.41541173275639798 0 0.1710620420937719 0.42544598544322859 0 0.17347346211035719 0.40923821590016252 0 0.15946366758580419 0.41541173275639798 0 0.17347346211035719 0.40923821590016252 0 0.16070242721985681 0.39797669411266601 0 0.1587332987752553 0.42860649683705992 0 0.1657599727323304 0.43868852532215219 0 0.15310322966776271 0.43941621950274429 0 0.15946366758580419 0.41541173275639798 0 0.1587332987752553 0.42860649683705992 0 0.1710620420937719 0.42544598544322859 0 0.1587332987752553 0.42860649683705992 0 0.1710620420937719 0.42544598544322859 0 0.1657599727323304 0.43868852532215219 0 0.1710620420937719 0.42544598544322859 0 0.18022755298788939 0.43440380520329402 0 0.1657599727323304 0.43868852532215219 0 0.1710620420937719 0.42544598544322859 0 0.18022755298788939 0.43440380520329402 0 0.1858162734663916 0.42019218516562751 0 0.18022755298788939 0.43440380520329402 0 0.1858162734663916 0.42019218516562751 0 0.1941464687824081 0.43220563823031388 0 0.18022755298788939 0.43440380520329402 0 0.1941464687824081 0.43220563823031388 0 0.18711645815854591 0.4419119057807061 0 0.1710620420937719 0.42544598544322859 0 0.17347346211035719 0.40923821590016252 0 0.1858162734663916 0.42019218516562751 0 0.17347346211035719 0.40923821590016252 0 0.1858162734663916 0.42019218516562751 0 0.18766921277696411 0.40395045940350183 0 0.17639335059576311 0.39220164524931089 0 0.19397337886704771 0.38314324263145472 0 0.18766921277696411 0.40395045940350183 0 0.17347346211035719 0.40923821590016252 0 0.17639335059576311 0.39220164524931089 0 0.18766921277696411 0.40395045940350183 0 0.17347346211035719 0.40923821590016252 0 0.17639335059576311 0.39220164524931089 0 0.16070242721985681 0.39797669411266601 0 0.17639335059576311 0.39220164524931089 0 0.16070242721985681 0.39797669411266601 0 0.1620529333072174 0.37891034361460518 0 0.17039253442124419 0.37007089768199841 0 0.1620529333072174 0.37891034361460518 0 0.17991755807318199 0.37791648914964748 0 0.1467949482117398 0.38949029706688038 0 0.16070242721985681 0.39797669411266601 0 0.1620529333072174 0.37891034361460518 0 0.17639335059576311 0.39220164524931089 0 0.1620529333072174 0.37891034361460518 0 0.17991755807318199 0.37791648914964748 0 0.17639335059576311 0.39220164524931089 0 0.17991755807318199 0.37791648914964748 0 0.19397337886704771 0.38314324263145472 0 0.18919886698873209 0.36907932361196649 0 0.17991755807318199 0.37791648914964748 0 0.19397337886704771 0.38314324263145472 0 0.19397337886704771 0.38314324263145472 0 0.2008677817822779 0.3963335955034864 0 0.20660932818989111 0.38063619410987293 0 0.20495891030801469 0.37024928239099708 0 0.19397337886704771 0.38314324263145472 0 0.20660932818989111 0.38063619410987293 0 0.19397337886704771 0.38314324263145472 0 0.18766921277696411 0.40395045940350183 0 0.2008677817822779 0.3963335955034864 0 0.21480761088710629 0.39017729759097519 0 0.21122293517495869 0.41944421361785561 0 0.2008677817822779 0.3963335955034864 0 0.21480761088710629 0.39017729759097519 0 0.21122293517495869 0.41944421361785561 0 0.218392286599254 0.36091038156409461 0 0.21480761088710629 0.39017729759097519 0 0.20660932818989111 0.38063619410987293 0 0.2008677817822779 0.3963335955034864 0 0.21480761088710629 0.39017729759097519 0 0.20660932818989111 0.38063619410987293 0 0.218392286599254 0.36091038156409461 0 0.21480761088710629 0.39017729759097519 0 0.2300448309524219 0.37481157113047497 0 0.21480761088710629 0.39017729759097519 0 0.23702717359948169 0.38780481200246852 0 0.2300448309524219 0.37481157113047497 0 0.218392286599254 0.36091038156409461 0 0.21480761088710629 0.39017729759097519 0 0.21480761088710629 0.39017729759097519 0 0.23584224864641179 0.4054722807643939 0 0.21122293517495869 0.41944421361785561 0 0.21480761088710629 0.39017729759097519 0 0.23584224864641179 0.4054722807643939 0 0.23702717359948169 0.38780481200246852 0 0.23584224864641179 0.4054722807643939 0 0.23702717359948169 0.38780481200246852 0 0.25086830119811648 0.39289521304076219 0 0.23584224864641179 0.4054722807643939 0 0.26083914878552872 0.41949439768764218 0 0.25086830119811648 0.39289521304076219 0 0.24386985605873099 0.37452817703195512 0 0.23702717359948169 0.38780481200246852 0 0.25086830119811648 0.39289521304076219 0 0.24386985605873099 0.37452817703195512 0 0.2300448309524219 0.37481157113047497 0 0.23702717359948169 0.38780481200246852 0 0.23902554865678721 0.42509465657486661 0 0.23079637842112599 0.44527141487251448 0 0.25395449737944192 0.44183170010029321 0 0.23584224864641179 0.4054722807643939 0 0.23902554865678721 0.42509465657486661 0 0.26083914878552872 0.41949439768764218 0 0.23584224864641179 0.4054722807643939 0 0.23902554865678721 0.42509465657486661 0 0.21122293517495869 0.41944421361785561 0 0.23902554865678721 0.42509465657486661 0 0.21122293517495869 0.41944421361785561 0 0.23079637842112599 0.44527141487251448 0 0.21122293517495869 0.41944421361785561 0 0.20763825946281039 0.44871112964473631 0 0.21122293517495869 0.41944421361785561 0 0.1941464687824081 0.43220563823031388 0 0.20763825946281039 0.44871112964473631 0 0.18766921277696411 0.40395045940350183 0 0.2008677817822779 0.3963335955034864 0 0.21122293517495869 0.41944421361785561 0 0.1858162734663916 0.42019218516562751 0 0.18766921277696411 0.40395045940350183 0 0.21122293517495869 0.41944421361785561 0 0.1858162734663916 0.42019218516562751 0 0.21122293517495869 0.41944421361785561 0 0.1941464687824081 0.43220563823031388 0 0.19068124256958149 0.45122978418681547 0 0.20666785668488899 0.45663393742270358 0 0.20763825946281039 0.44871112964473631 0 0.1941464687824081 0.43220563823031388 0 0.19596990670458669 0.44448206087325792 0 0.18711645815854591 0.4419119057807061 0 0.19068124256958149 0.45122978418681547 0 0.19596990670458669 0.44448206087325792 0 0.20763825946281039 0.44871112964473631 0 0.1941464687824081 0.43220563823031388 0 0.19596990670458669 0.44448206087325792 0 0.20763825946281039 0.44871112964473631 0 0.19068124256958149 0.45122978418681547 0 0.20763825946281039 0.44871112964473631 0 0.19596990670458669 0.44448206087325792 0 0.18711645815854591 0.4419119057807061 0 0.18603447105311749 0.45191997705857118 0 0.19068124256958149 0.45122978418681547 0 0.19596990670458669 0.44448206087325792 0 0.18603447105311749 0.45191997705857118 0 0.19068124256958149 0.45122978418681547 0 0.18603447105311749 0.45191997705857118 0 0.1959516566498864 0.4622474695972989 0 0.20666785668488899 0.45663393742270358 0 0.20425570960823911 0.47632779862681768 0 0.19068124256958149 0.45122978418681547 0 0.1959516566498864 0.4622474695972989 0 0.20666785668488899 0.45663393742270358 0 0.19068124256958149 0.45122978418681547 0 0.20666785668488899 0.45663393742270358 0 0.18774821394057919 0.45917205363014041 0 0.1959516566498864 0.4622474695972989 0 0.18803167694129039 0.4695241467483906 0 0.19068124256958149 0.45122978418681547 0 0.18774821394057919 0.45917205363014041 0 0.18603447105311749 0.45191997705857118 0 0.19068124256958149 0.45122978418681547 0 0.18774821394057919 0.45917205363014041 0 0.1959516566498864 0.4622474695972989 0 0.20666785668488899 0.45663393742270358 0 0.2181454320650659 0.45401890347679841 0 0.22618611632488181 0.46261660873924049 0 0.20666785668488899 0.45663393742270358 0 0.22618611632488181 0.46261660873924049 0 0.21400489984724089 0.46752724759255732 0 0.20666785668488899 0.45663393742270358 0 0.20425570960823911 0.47632779862681768 0 0.20666785668488899 0.45663393742270358 0 0.20425570960823911 0.47632779862681768 0 0.21400489984724089 0.46752724759255732 0 0.20666785668488899 0.45663393742270358 0 0.22618611632488181 0.46261660873924049 0 0.21122293517495869 0.41944421361785561 0 0.20763825946281039 0.44871112964473631 0 0.23079637842112599 0.44527141487251448 0 0.20666785668488899 0.45663393742270358 0 0.2181454320650659 0.45401890347679841 0 0.20763825946281039 0.44871112964473631 0 0.20666785668488899 0.45663393742270358 0 0.20763825946281039 0.44871112964473631 0 0.2181454320650659 0.45401890347679841 0 0.20763825946281039 0.44871112964473631 0 0.23079637842112599 0.44527141487251448 0 0.20763825946281039 0.44871112964473631 0 0.23079637842112599 0.44527141487251448 0 0.23079637842112599 0.44527141487251448 0 0.22618611632488181 0.46261660873924049 0 0.23916034202258091 0.45457975094195768 0 0.2181454320650659 0.45401890347679841 0 0.23079637842112599 0.44527141487251448 0 0.22618611632488181 0.46261660873924049 0 0.21400489984724089 0.46752724759255732 0 0.22618611632488181 0.46261660873924049 0 0.23354252268391801 0.47344674714511359 0 0.22618611632488181 0.46261660873924049 0 0.23916034202258091 0.45457975094195768 0 0.24570437596487341 0.46859928005578111 0 0.24570437596487341 0.46859928005578111 0 0.25395449737944192 0.44183170010029321 0 0.22618611632488181 0.46261660873924049 0 0.24570437596487341 0.46859928005578111 0 0.23354252268391801 0.47344674714511359 0 0.23916034202258091 0.45457975094195768 0 0.24570437596487341 0.46859928005578111 0 0.25395449737944192 0.44183170010029321 0 0.22618611632488181 0.46261660873924049 0 0.24570437596487341 0.46859928005578111 0 0.23079637842112599 0.44527141487251448 0 0.25395449737944192 0.44183170010029321 0 0.23079637842112599 0.44527141487251448 0 0.23916034202258091 0.45457975094195768 0 0.25395449737944192 0.44183170010029321 0 0.23602625965867899 0.50000000000000244 0 0.24086531781177661 0.48429964002789189 0 0.26289668780775621 0.5 0 0.23602625965867899 0.50000000000000244 0 0.24086531781177661 0.48429964002789189 0 0.24570437596487341 0.46859928005578111 0 0.24086531781177661 0.48429964002789189 0 0.25499705048435312 0.48005931576506611 0 0.24570437596487341 0.46859928005578111 0 0.24086531781177661 0.48429964002789189 0 0.23354252268391801 0.47344674714511359 0 0.24570437596487341 0.46859928005578111 0 0.24086531781177661 0.48429964002789189 0 0.21400489984724089 0.46752724759255732 0 0.23354252268391801 0.47344674714511359 0 0.2225796652714794 0.48360023889872999 0 0.24086531781177661 0.48429964002789189 0 0.23354252268391801 0.47344674714511359 0 0.2225796652714794 0.48360023889872999 0 0.23602625965867899 0.50000000000000244 0 0.2225796652714794 0.48360023889872999 0 0.2067832820190231 0.5 0 0.23602625965867899 0.50000000000000244 0 0.24086531781177661 0.48429964002789189 0 0.2225796652714794 0.48360023889872999 0 0.2225796652714794 0.48360023889872999 0 0.2067832820190231 0.5 0 0.20425570960823911 0.47632779862681768 0 0.21400489984724089 0.46752724759255732 0 0.2225796652714794 0.48360023889872999 0 0.20425570960823911 0.47632779862681768 0 0.20425570960823911 0.47632779862681768 0 0.18803167694129039 0.4695241467483906 0 0.189467982112659 0.48459076640094989 0 0.1959516566498864 0.4622474695972989 0 0.20425570960823911 0.47632779862681768 0 0.18803167694129039 0.4695241467483906 0 0.2067832820190231 0.5 0 0.20425570960823911 0.47632779862681768 0 0.189467982112659 0.48459076640094989 0 0.2067832820190231 0.5 0 0.189467982112659 0.48459076640094989 0 0.17754030437936719 0.5 0 0.189467982112659 0.48459076640094989 0 0.17754030437936719 0.5 0 0.170728937615375 0.47710188662954123 0 0.17754030437936719 0.5 0 0.170728937615375 0.47710188662954123 0 0.1482973267397113 0.5 0 0.170728937615375 0.47710188662954123 0 0.1482973267397113 0.5 0 0.15108817888083159 0.46878646392624562 0 0.18803167694129039 0.4695241467483906 0 0.170728937615375 0.47710188662954123 0 0.17939479643875739 0.46256937770781043 0 0.18803167694129039 0.4695241467483906 0 0.189467982112659 0.48459076640094989 0 0.170728937615375 0.47710188662954123 0 0.18603447105311749 0.45191997705857118 0 0.16443068264342511 0.45512882447240832 0 0.17939479643875739 0.46256937770781043 0 0.18603447105311749 0.45191997705857118 0 0.16443068264342511 0.45512882447240832 0 0.18774821394057919 0.45917205363014041 0 0.18803167694129039 0.4695241467483906 0 0.17939479643875739 0.46256937770781043 0 0.18774821394057919 0.45917205363014041 0 0.17939479643875739 0.46256937770781043 0 0.18603447105311749 0.45191997705857118 0 0.18603447105311749 0.45191997705857118 0 0.17645472791619229 0.44458374404047729 0 0.16443068264342511 0.45512882447240832 0 0.18022755298788939 0.43440380520329402 0 0.18711645815854591 0.4419119057807061 0 0.17645472791619229 0.44458374404047729 0 0.18711645815854591 0.4419119057807061 0 0.18603447105311749 0.45191997705857118 0 0.17645472791619229 0.44458374404047729 0 0.18022755298788939 0.43440380520329402 0 0.17645472791619229 0.44458374404047729 0 0.1657599727323304 0.43868852532215219 0 0.17645472791619229 0.44458374404047729 0 0.1657599727323304 0.43868852532215219 0 0.16443068264342511 0.45512882447240832 0 0.1657599727323304 0.43868852532215219 0 0.16443068264342511 0.45512882447240832 0 0.15310322966776271 0.43941621950274429 0 0.170728937615375 0.47710188662954123 0 0.17939479643875739 0.46256937770781043 0 0.16443068264342511 0.45512882447240832 0 0.170728937615375 0.47710188662954123 0 0.16443068264342511 0.45512882447240832 0 0.15108817888083159 0.46878646392624562 0 0.16443068264342511 0.45512882447240832 0 0.14089284673024199 0.44861488312590098 0 0.15108817888083159 0.46878646392624562 0 0.14563971857714619 0.42675802329568979 0 0.14089284673024199 0.44861488312590098 0 0.15310322966776271 0.43941621950274429 0 0.16443068264342511 0.45512882447240832 0 0.14089284673024199 0.44861488312590098 0 0.15310322966776271 0.43941621950274429 0 0.11990045370648129 0.45087942826817923 0 0.12783545089004961 0.43364185334063182 0 0.14089284673024199 0.44861488312590098 0 0.11990045370648129 0.45087942826817923 0 0.14089284673024199 0.44861488312590098 0 0.12941433290595469 0.47217502981942039 0 0.14089284673024199 0.44861488312590098 0 0.12941433290595469 0.47217502981942039 0 0.15108817888083159 0.46878646392624562 0 0.1190543491000554 0.5 0 0.12941433290595469 0.47217502981942039 0 0.1482973267397113 0.5 0 0.12941433290595469 0.47217502981942039 0 0.1482973267397113 0.5 0 0.15108817888083159 0.46878646392624562 0 0.34702461418665059 0.48080923951644888 0 0.36651099604711479 0.48177514862228799 0 0.36004252665445191 0.45609476604768789 0 0.34702461418665059 0.48080923951644888 0 0.36651099604711479 0.48177514862228799 0 0.34350797225498803 0.5 0 0.37037840040406528 0.5 0 0.36651099604711479 0.48177514862228799 0 0.34350797225498803 0.5 0 0.37246603769086117 0.46662032854883773 0 0.36004252665445191 0.45609476604768789 0 0.38643665273345862 0.45825653707792119 0 0.36651099604711479 0.48177514862228799 0 0.37246603769086117 0.46662032854883773 0 0.36004252665445191 0.45609476604768789 0 0.36004252665445191 0.45609476604768789 0 0.37762472033449418 0.43629098835606778 0 0.38643665273345862 0.45825653707792119 0 0.36004252665445191 0.45609476604768789 0 0.34951903245082938 0.4346018986254776 0 0.37762472033449418 0.43629098835606778 0 0.36004252665445191 0.45609476604768789 0 0.34013421141357242 0.44829395194323179 0 0.34951903245082938 0.4346018986254776 0 0.34702461418665059 0.48080923951644888 0 0.36004252665445191 0.45609476604768789 0 0.33490873822643569 0.46551683590781823 0 0.36004252665445191 0.45609476604768789 0 0.33490873822643569 0.46551683590781823 0 0.34013421141357242 0.44829395194323179 0 0.33490873822643569 0.46551683590781823 0 0.34013421141357242 0.44829395194323179 0 0.32320634464219389 0.44915412983732939 0 0.34013421141357242 0.44829395194323179 0 0.32583772052003029 0.43115476278269621 0 0.34951903245082938 0.4346018986254776 0 0.34013421141357242 0.44829395194323179 0 0.32320634464219389 0.44915412983732939 0 0.32583772052003029 0.43115476278269621 0 0.32320634464219389 0.44915412983732939 0 0.30187664613983423 0.43471374188856238 0 0.32583772052003029 0.43115476278269621 0 0.33490873822643569 0.46551683590781823 0 0.32320634464219389 0.44915412983732939 0 0.30844259916286898 0.46180134963880681 0 0.33490873822643569 0.46551683590781823 0 0.31339937979100491 0.48023314784608839 0 0.33109564971299799 0.48531184465407112 0 0.33490873822643569 0.46551683590781823 0 0.31339937979100491 0.48023314784608839 0 0.30844259916286898 0.46180134963880681 0 0.34702461418665059 0.48080923951644888 0 0.33490873822643569 0.46551683590781823 0 0.33109564971299799 0.48531184465407112 0 0.34702461418665059 0.48080923951644888 0 0.33109564971299799 0.48531184465407112 0 0.34350797225498803 0.5 0 0.33109564971299799 0.48531184465407112 0 0.34350797225498803 0.5 0 0.31663754410591072 0.5 0 0.31339937979100491 0.48023314784608839 0 0.33109564971299799 0.48531184465407112 0 0.31663754410591072 0.5 0 0.31663754410591072 0.5 0 0.29252676259447158 0.4829511205696071 0 0.28976711595683352 0.5 0 0.31339937979100491 0.48023314784608839 0 0.31663754410591072 0.5 0 0.29252676259447158 0.4829511205696071 0 0.31339937979100491 0.48023314784608839 0 0.29252676259447158 0.4829511205696071 0 0.30844259916286898 0.46180134963880681 0 0.29252676259447158 0.4829511205696071 0 0.26911556927967312 0.47577520031269233 0 0.28550909151500292 0.45960129210800871 0 0.29252676259447158 0.4829511205696071 0 0.28976711595683352 0.5 0 0.27777210430463428 0.48931061926874247 0 0.27777210430463428 0.48931061926874247 0 0.26911556927967312 0.47577520031269233 0 0.26289668780775621 0.5 0 0.28976711595683352 0.5 0 0.27777210430463428 0.48931061926874247 0 0.26289668780775621 0.5 0 0.29252676259447158 0.4829511205696071 0 0.26911556927967312 0.47577520031269233 0 0.29252676259447158 0.4829511205696071 0 0.27777210430463428 0.48931061926874247 0 0.26911556927967312 0.47577520031269233 0 0.24570437596487341 0.46859928005578111 0 0.26911556927967312 0.47577520031269233 0 0.24570437596487341 0.46859928005578111 0 0.26911556927967312 0.47577520031269233 0 0.25499705048435312 0.48005931576506611 0 0.24086531781177661 0.48429964002789189 0 0.25499705048435312 0.48005931576506611 0 0.26289668780775621 0.5 0 0.26911556927967312 0.47577520031269233 0 0.25499705048435312 0.48005931576506611 0 0.26289668780775621 0.5 0 0.24570437596487341 0.46859928005578111 0 0.25395449737944192 0.44183170010029321 0 0.26643982117972598 0.45681603871424109 0 0.24570437596487341 0.46859928005578111 0 0.26911556927967312 0.47577520031269233 0 0.26643982117972598 0.45681603871424109 0 0.26911556927967312 0.47577520031269233 0 0.26643982117972598 0.45681603871424109 0 0.28550909151500292 0.45960129210800871 0 0.25395449737944192 0.44183170010029321 0 0.26643982117972598 0.45681603871424109 0 0.2779155717596381 0.43827272099442871 0 0.26643982117972598 0.45681603871424109 0 0.2779155717596381 0.43827272099442871 0 0.28550909151500292 0.45960129210800871 0 0.25395449737944192 0.44183170010029321 0 0.2779155717596381 0.43827272099442871 0 0.2779155717596381 0.43827272099442871 0 0.28550909151500292 0.45960129210800871 0 0.30187664613983423 0.43471374188856238 0 0.29252676259447158 0.4829511205696071 0 0.28550909151500292 0.45960129210800871 0 0.30844259916286898 0.46180134963880681 0 0.32320634464219389 0.44915412983732939 0 0.30844259916286898 0.46180134963880681 0 0.30187664613983423 0.43471374188856238 0 0.28550909151500292 0.45960129210800871 0 0.30844259916286898 0.46180134963880681 0 0.30187664613983423 0.43471374188856238 0 0.30187664613983423 0.43471374188856238 0 0.28438235481939611 0.41545503130444023 0 0.30711613505180979 0.4057044058306849 0 0.30187664613983423 0.43471374188856238 0 0.30711613505180979 0.4057044058306849 0 0.32193842213225032 0.41542630309610667 0 0.2779155717596381 0.43827272099442871 0 0.30187664613983423 0.43471374188856238 0 0.28438235481939611 0.41545503130444023 0 0.2779155717596381 0.43827272099442871 0 0.30187664613983423 0.43471374188856238 0 0.2779155717596381 0.43827272099442871 0 0.28438235481939611 0.41545503130444023 0 0.26083914878552872 0.41949439768764218 0 0.28438235481939611 0.41545503130444023 0 0.26083914878552872 0.41949439768764218 0 0.26772380019161951 0.39715709527499238 0 0.26083914878552872 0.41949439768764218 0 0.26772380019161951 0.39715709527499238 0 0.25395449737944192 0.44183170010029321 0 0.2779155717596381 0.43827272099442871 0 0.26083914878552872 0.41949439768764218 0 0.23902554865678721 0.42509465657486661 0 0.25395449737944192 0.44183170010029321 0 0.26083914878552872 0.41949439768764218 0 0.25395449737944192 0.44183170010029321 0 0.26083914878552872 0.41949439768764218 0 0.24386985605873099 0.37452817703195512 0 0.25963149773230892 0.37566582603884818 0 0.25086830119811648 0.39289521304076219 0 0.25963149773230892 0.37566582603884818 0 0.25086830119811648 0.39289521304076219 0 0.26772380019161951 0.39715709527499238 0 0.26083914878552872 0.41949439768764218 0 0.25086830119811648 0.39289521304076219 0 0.26772380019161951 0.39715709527499238 0 0.28438235481939611 0.41545503130444023 0 0.26772380019161951 0.39715709527499238 0 0.29006115440967828 0.39469152603070551 0 0.26772380019161951 0.39715709527499238 0 0.27670110298931672 0.37792067106962068 0 0.29006115440967828 0.39469152603070551 0 0.25963149773230892 0.37566582603884818 0 0.26772380019161951 0.39715709527499238 0 0.27670110298931672 0.37792067106962068 0 0.27670110298931672 0.37792067106962068 0 0.29372369551518202 0.37711707181966758 0 0.29006115440967828 0.39469152603070551 0 0.28438235481939611 0.41545503130444023 0 0.29006115440967828 0.39469152603070551 0 0.30711613505180979 0.4057044058306849 0 0.29006115440967828 0.39469152603070551 0 0.30711613505180979 0.4057044058306849 0 0.30978469096560568 0.38821489777825208 0 0.29372369551518202 0.37711707181966758 0 0.30978469096560568 0.38821489777825208 0 0.31025300552715002 0.36981489328913231 0 0.29372369551518202 0.37711707181966758 0 0.29006115440967828 0.39469152603070551 0 0.30978469096560568 0.38821489777825208 0 0.30978469096560568 0.38821489777825208 0 0.32538913800740032 0.38257236775440301 0 0.33216501728241388 0.39938912194491999 0 0.30978469096560568 0.38821489777825208 0 0.32538913800740032 0.38257236775440301 0 0.31025300552715002 0.36981489328913231 0 0.33863445200563957 0.37857602917689792 0 0.33216501728241388 0.39938912194491999 0 0.34809612531211509 0.38967864478961811 0 0.32538913800740032 0.38257236775440301 0 0.33863445200563957 0.37857602917689792 0 0.33216501728241388 0.39938912194491999 0 0.30711613505180979 0.4057044058306849 0 0.30978469096560568 0.38821489777825208 0 0.33216501728241388 0.39938912194491999 0 0.30711613505180979 0.4057044058306849 0 0.33216501728241388 0.39938912194491999 0 0.32193842213225032 0.41542630309610667 0 0.30187664613983423 0.43471374188856238 0 0.32193842213225032 0.41542630309610667 0 0.32583772052003029 0.43115476278269621 0 0.32193842213225032 0.41542630309610667 0 0.32583772052003029 0.43115476278269621 0 0.33653862133561929 0.41995743910148797 0 0.30187664613983423 0.43471374188856238 0 0.32583772052003029 0.43115476278269621 0 0.32583772052003029 0.43115476278269621 0 0.33653862133561929 0.41995743910148797 0 0.34951903245082938 0.4346018986254776 0 0.33216501728241388 0.39938912194491999 0 0.32193842213225032 0.41542630309610667 0 0.33653862133561929 0.41995743910148797 0 0.33216501728241388 0.39938912194491999 0 0.33653862133561929 0.41995743910148797 0 0.34814725461332902 0.41265115585860979 0 0.34814725461332902 0.41265115585860979 0 0.3688127879355298 0.41432543963421442 0 0.3513841857826534 0.40184339355854809 0 0.34814725461332902 0.41265115585860979 0 0.34951903245082938 0.4346018986254776 0 0.3688127879355298 0.41432543963421442 0 0.33653862133561929 0.41995743910148797 0 0.34814725461332902 0.41265115585860979 0 0.34951903245082938 0.4346018986254776 0 0.34951903245082938 0.4346018986254776 0 0.3688127879355298 0.41432543963421442 0 0.37762472033449418 0.43629098835606778 0 0.3688127879355298 0.41432543963421442 0 0.37762472033449418 0.43629098835606778 0 0.3688127879355298 0.41432543963421442 0 0.37103211254345692 0.40007926267040422 0 0.38388577029907128 0.40985443827646689 0 0.3688127879355298 0.41432543963421442 0 0.37103211254345692 0.40007926267040422 0 0.36046074212865398 0.39111863562622401 0 0.3688127879355298 0.41432543963421442 0 0.36046074212865398 0.39111863562622401 0 0.3596997437698789 0.39317260556537792 0 0.3688127879355298 0.41432543963421442 0 0.36046074212865398 0.39111863562622401 0 0.3688127879355298 0.41432543963421442 0 0.3596997437698789 0.39317260556537792 0 0.3513841857826534 0.40184339355854809 0 0.37103211254345692 0.40007926267040422 0 0.36046074212865398 0.39111863562622401 0 0.3821866939029222 0.39364885325736299 0 0.36046074212865398 0.39111863562622401 0 0.3821866939029222 0.39364885325736299 0 0.36046074212865398 0.39111863562622401 0 0.3596997437698789 0.39317260556537792 0 0.36046074212865398 0.39111863562622401 0 0.36867518601452831 0.36894746979662879 0 0.36046074212865398 0.39111863562622401 0 0.37477399257497079 0.38192782219324189 0 0.36867518601452831 0.36894746979662879 0 0.36046074212865398 0.39111863562622401 0 0.35029194791220969 0.3681584474827877 0 0.36867518601452831 0.36894746979662879 0 0.36046074212865398 0.39111863562622401 0 0.37477399257497079 0.38192782219324189 0 0.3821866939029222 0.39364885325736299 0 0.36046074212865398 0.39111863562622401 0 0.34809612531211509 0.38967864478961811 0 0.35029194791220969 0.3681584474827877 0 0.36046074212865398 0.39111863562622401 0 0.34809612531211509 0.38967864478961811 0 0.36046074212865398 0.39111863562622401 0 0.35029194791220969 0.3681584474827877 0 0.33863445200563957 0.37857602917689792 0 0.34809612531211509 0.38967864478961811 0 0.35029194791220969 0.3681584474827877 0 0.33216501728241388 0.39938912194491999 0 0.34809612531211509 0.38967864478961811 0 0.3513841857826534 0.40184339355854809 0 0.33216501728241388 0.39938912194491999 0 0.34814725461332902 0.41265115585860979 0 0.3513841857826534 0.40184339355854809 0 0.3596997437698789 0.39317260556537792 0 0.34809612531211509 0.38967864478961811 0 0.3513841857826534 0.40184339355854809 0 0.36046074212865398 0.39111863562622401 0 0.3596997437698789 0.39317260556537792 0 0.34809612531211509 0.38967864478961811 0 0.35029194791220969 0.3681584474827877 0 0.34112793959136722 0.34531527731927242 0 0.35740855042640818 0.34977082452435732 0 0.34964852186134082 0.33884512437535491 0 0.34112793959136722 0.34531527731927242 0 0.35740855042640818 0.34977082452435732 0 0.35029194791220969 0.3681584474827877 0 0.34112793959136722 0.34531527731927242 0 0.35740855042640818 0.34977082452435732 0 0.35029194791220969 0.3681584474827877 0 0.36867518601452831 0.36894746979662879 0 0.35740855042640818 0.34977082452435732 0 0.36867518601452831 0.36894746979662879 0 0.37688962990040248 0.34677630396703357 0 0.36867518601452831 0.36894746979662879 0 0.37688962990040248 0.34677630396703357 0 0.35949144223090229 0.33367363438484637 0 0.37101449863609298 0.32634946200939818 0 0.37688962990040248 0.34677630396703357 0 0.35740855042640818 0.34977082452435732 0 0.35949144223090229 0.33367363438484637 0 0.37688962990040248 0.34677630396703357 0 0.35949144223090229 0.33367363438484637 0 0.37101449863609298 0.32634946200939818 0 0.36336531525851501 0.31438916153912733 0 0.37101449863609298 0.32634946200939818 0 0.36336531525851501 0.31438916153912733 0 0.37641209075030729 0.31687533087281888 0 0.36336531525851501 0.31438916153912733 0 0.34056615519668559 0.32662076127294321 0 0.34768040040613157 0.31191640441525481 0 0.35949144223090229 0.33367363438484637 0 0.36336531525851501 0.31438916153912733 0 0.34056615519668559 0.32662076127294321 0 0.36336531525851501 0.31438916153912733 0 0.34056615519668559 0.32662076127294321 0 0.35740855042640818 0.34977082452435732 0 0.35949144223090229 0.33367363438484637 0 0.34964852186134082 0.33884512437535491 0 0.35949144223090229 0.33367363438484637 0 0.34964852186134082 0.33884512437535491 0 0.34056615519668559 0.32662076127294321 0 0.34964852186134082 0.33884512437535491 0 0.34056615519668559 0.32662076127294321 0 0.34112793959136722 0.34531527731927242 0 0.32977233351615037 0.34250552735530571 0 0.33196393127052509 0.32247210715575703 0 0.33196393127052509 0.32247210715575703 0 0.34112793959136722 0.34531527731927242 0 0.34056615519668559 0.32662076127294321 0 0.33196393127052509 0.32247210715575703 0 0.34112793959136722 0.34531527731927242 0 0.32977233351615037 0.34250552735530571 0 0.33196393127052509 0.32247210715575703 0 0.34112793959136722 0.34531527731927242 0 0.33978070612139261 0.31725671601770478 0 0.33196393127052509 0.32247210715575703 0 0.33440505852926161 0.30015773489589592 0 0.33978070612139261 0.31725671601770478 0 0.34056615519668559 0.32662076127294321 0 0.34768040040613157 0.31191640441525481 0 0.33978070612139261 0.31725671601770478 0 0.34056615519668559 0.32662076127294321 0 0.33196393127052509 0.32247210715575703 0 0.33196393127052509 0.32247210715575703 0 0.31466104102768389 0.31599105246252168 0 0.32014469956665043 0.3314858303409583 0 0.33196393127052509 0.32247210715575703 0 0.31466104102768389 0.31599105246252168 0 0.3228326892187442 0.29971061363782148 0 0.31466104102768389 0.31599105246252168 0 0.32014469956665043 0.3314858303409583 0 0.30708768022053312 0.32988730512925452 0 0.32977233351615037 0.34250552735530571 0 0.33196393127052509 0.32247210715575703 0 0.32014469956665043 0.3314858303409583 0 0.32977233351615037 0.34250552735530571 0 0.32014469956665043 0.3314858303409583 0 0.30901723749694282 0.34715726937654512 0 0.32977233351615037 0.34250552735530571 0 0.32758073576177538 0.36253894755485427 0 0.30901723749694282 0.34715726937654512 0 0.35029194791220969 0.3681584474827877 0 0.34112793959136722 0.34531527731927242 0 0.32758073576177538 0.36253894755485427 0 0.32977233351615037 0.34250552735530571 0 0.34112793959136722 0.34531527731927242 0 0.32758073576177538 0.36253894755485427 0 0.32977233351615037 0.34250552735530571 0 0.32758073576177538 0.36253894755485427 0 0.32538913800740032 0.38257236775440301 0 0.33863445200563957 0.37857602917689792 0 0.32758073576177538 0.36253894755485427 0 0.33863445200563957 0.37857602917689792 0 0.35029194791220969 0.3681584474827877 0 0.32758073576177538 0.36253894755485427 0 0.32538913800740032 0.38257236775440301 0 0.32758073576177538 0.36253894755485427 0 0.32758073576177538 0.36253894755485427 0 0.31025300552715002 0.36981489328913231 0 0.30901723749694282 0.34715726937654512 0 0.32538913800740032 0.38257236775440301 0 0.32758073576177538 0.36253894755485427 0 0.31025300552715002 0.36981489328913231 0 0.29372369551518202 0.37711707181966758 0 0.31025300552715002 0.36981489328913231 0 0.29678730148801308 0.36101050156533249 0 0.30901723749694282 0.34715726937654512 0 0.2886324278376835 0.34814152893564221 0 0.29678730148801308 0.36101050156533249 0 0.31025300552715002 0.36981489328913231 0 0.30901723749694282 0.34715726937654512 0 0.29678730148801308 0.36101050156533249 0 0.2886324278376835 0.34814152893564221 0 0.29678730148801308 0.36101050156533249 0 0.28231014106310748 0.36282174440567527 0 0.2886324278376835 0.34814152893564221 0 0.28231014106310748 0.36282174440567527 0 0.27621094050168549 0.35269440851054901 0 0.27670110298931672 0.37792067106962068 0 0.29372369551518202 0.37711707181966758 0 0.28231014106310748 0.36282174440567527 0 0.29372369551518202 0.37711707181966758 0 0.29678730148801308 0.36101050156533249 0 0.28231014106310748 0.36282174440567527 0 0.25963149773230892 0.37566582603884818 0 0.27670110298931672 0.37792067106962068 0 0.2664281375889348 0.35975162833676988 0 0.27670110298931672 0.37792067106962068 0 0.28231014106310748 0.36282174440567527 0 0.2664281375889348 0.35975162833676988 0 0.2664281375889348 0.35975162833676988 0 0.27621094050168549 0.35269440851054901 0 0.26747305551701639 0.3400627323641085 0 0.28231014106310748 0.36282174440567527 0 0.2664281375889348 0.35975162833676988 0 0.27621094050168549 0.35269440851054901 0 0.2886324278376835 0.34814152893564221 0 0.27621094050168549 0.35269440851054901 0 0.26747305551701639 0.3400627323641085 0 0.2664281375889348 0.35975162833676988 0 0.25153519114805228 0.35834531681273241 0 0.26747305551701639 0.3400627323641085 0 0.24416088472178729 0.34482380321186801 0 0.25153519114805228 0.35834531681273241 0 0.26747305551701639 0.3400627323641085 0 0.24386985605873099 0.37452817703195512 0 0.25963149773230892 0.37566582603884818 0 0.25153519114805228 0.35834531681273241 0 0.25963149773230892 0.37566582603884818 0 0.2664281375889348 0.35975162833676988 0 0.25153519114805228 0.35834531681273241 0 0.26432821565739029 0.32313969453182001 0 0.25446326442609829 0.31251477001981892 0 0.27008236062656221 0.3111584646374293 0 0.25446326442609829 0.31251477001981892 0 0.25238689689037419 0.32788028910698541 0 0.26432821565739029 0.32313969453182001 0 0.25446326442609829 0.31251477001981892 0 0.25238689689037419 0.32788028910698541 0 0.24416088472178729 0.34482380321186801 0 0.25238689689037419 0.32788028910698541 0 0.26747305551701639 0.3400627323641085 0 0.26432821565739029 0.32313969453182001 0 0.25238689689037419 0.32788028910698541 0 0.26747305551701639 0.3400627323641085 0 0.26747305551701639 0.3400627323641085 0 0.27723550082690052 0.32408221653075758 0 0.29108295842785231 0.33216268720430242 0 0.26432821565739029 0.32313969453182001 0 0.26747305551701639 0.3400627323641085 0 0.27723550082690052 0.32408221653075758 0 0.27723550082690052 0.32408221653075758 0 0.29129111414721981 0.31561706933188532 0 0.27008236062656221 0.3111584646374293 0 0.26432821565739029 0.32313969453182001 0 0.27723550082690052 0.32408221653075758 0 0.27008236062656221 0.3111584646374293 0 0.27723550082690052 0.32408221653075758 0 0.29129111414721981 0.31561706933188532 0 0.29108295842785231 0.33216268720430242 0 0.29129111414721981 0.31561706933188532 0 0.29108295842785231 0.33216268720430242 0 0.30708768022053312 0.32988730512925452 0 0.2886324278376835 0.34814152893564221 0 0.26747305551701639 0.3400627323641085 0 0.29108295842785231 0.33216268720430242 0 0.30901723749694282 0.34715726937654512 0 0.2886324278376835 0.34814152893564221 0 0.29108295842785231 0.33216268720430242 0 0.30901723749694282 0.34715726937654512 0 0.29108295842785231 0.33216268720430242 0 0.30708768022053312 0.32988730512925452 0 0.32014469956665043 0.3314858303409583 0 0.30901723749694282 0.34715726937654512 0 0.30708768022053312 0.32988730512925452 0 0.31466104102768389 0.31599105246252168 0 0.29129111414721981 0.31561706933188532 0 0.30708768022053312 0.32988730512925452 0 0.300735003466437 0.29885682606943093 0 0.3228326892187442 0.29971061363782148 0 0.31466104102768389 0.31599105246252168 0 0.29129111414721981 0.31561706933188532 0 0.300735003466437 0.29885682606943093 0 0.300735003466437 0.29885682606943093 0 0.2998886084732626 0.2779440269043425 0 0.31532316675668848 0.2809915887917584 0 0.300735003466437 0.29885682606943093 0 0.28836281424609511 0.28597277899015061 0 0.2998886084732626 0.2779440269043425 0 0.300735003466437 0.29885682606943093 0 0.28836281424609511 0.28597277899015061 0 0.2786373177141297 0.29800303850104182 0 0.29129111414721981 0.31561706933188532 0 0.300735003466437 0.29885682606943093 0 0.2786373177141297 0.29800303850104182 0 0.300735003466437 0.29885682606943093 0 0.2786373177141297 0.29800303850104182 0 0.29129111414721981 0.31561706933188532 0 0.27008236062656221 0.3111584646374293 0 0.2786373177141297 0.29800303850104182 0 0.27008236062656221 0.3111584646374293 0 0.2786373177141297 0.29800303850104182 0 0.25653963196182239 0.29714925093265238 0 0.2786373177141297 0.29800303850104182 0 0.25653963196182239 0.29714925093265238 0 0.2786373177141297 0.29800303850104182 0 0.26330155703252089 0.29303892678357851 0 0.25653963196182239 0.29714925093265238 0 0.27488540379150422 0.28342328475707868 0 0.26521435687292111 0.28557906868314481 0 0.25889979196743268 0.27968361298993832 0 0.28836281424609511 0.28597277899015061 0 0.2786373177141297 0.29800303850104182 0 0.27488540379150422 0.28342328475707868 0 0.27488540379150422 0.28342328475707868 0 0.26330155703252089 0.29303892678357851 0 0.26521435687292111 0.28557906868314481 0 0.2786373177141297 0.29800303850104182 0 0.27488540379150422 0.28342328475707868 0 0.26330155703252089 0.29303892678357851 0 0.26330155703252089 0.29303892678357851 0 0.26521435687292111 0.28557906868314481 0 0.2571893546374926 0.29234117817934158 0 0.26330155703252089 0.29303892678357851 0 0.2571893546374926 0.29234117817934158 0 0.26330155703252089 0.29303892678357851 0 0.2571893546374926 0.29234117817934158 0 0.25653963196182239 0.29714925093265238 0 0.2571893546374926 0.29234117817934158 0 0.25889979196743268 0.27968361298993832 0 0.26521435687292111 0.28557906868314481 0 0.2571893546374926 0.29234117817934158 0 0.25889979196743268 0.27968361298993832 0 0.2571893546374926 0.29234117817934158 0 0.25653963196182239 0.29714925093265238 0 0.24400789250529489 0.30654560212132592 0 0.25446326442609829 0.31251477001981892 0 0.25653963196182239 0.29714925093265238 0 0.25446326442609829 0.31251477001981892 0 0.25653963196182239 0.29714925093265238 0 0.25446326442609829 0.31251477001981892 0 0.27008236062656221 0.3111584646374293 0 0.25653963196182239 0.29714925093265238 0 0.24253861414669159 0.26415637433626837 0 0.26209420568568409 0.25604433713168329 0 0.25889979196743268 0.27968361298993832 0 0.26209420568568409 0.25604433713168329 0 0.25889979196743268 0.27968361298993832 0 0.27488540379150422 0.28342328475707868 0 0.25889979196743268 0.27968361298993832 0 0.28335671813103491 0.2709780884678164 0 0.26209420568568409 0.25604433713168329 0 0.25889979196743268 0.27968361298993832 0 0.28335671813103491 0.2709780884678164 0 0.25889979196743268 0.27968361298993832 0 0.28335671813103491 0.2709780884678164 0 0.26209420568568409 0.25604433713168329 0 0.28815450863723102 0.25327697612913169 0 0.28335671813103491 0.2709780884678164 0 0.28815450863723102 0.25327697612913169 0 0.28335671813103491 0.2709780884678164 0 0.30781364429463659 0.26227256394569393 0 0.28836281424609511 0.28597277899015061 0 0.28335671813103491 0.2709780884678164 0 0.2998886084732626 0.2779440269043425 0 0.28335671813103491 0.2709780884678164 0 0.30781364429463659 0.26227256394569393 0 0.28836281424609511 0.28597277899015061 0 0.27488540379150422 0.28342328475707868 0 0.28335671813103491 0.2709780884678164 0 0.30781364429463659 0.26227256394569393 0 0.31532316675668848 0.2809915887917584 0 0.28335671813103491 0.2709780884678164 0 0.2998886084732626 0.2779440269043425 0 0.30781364429463659 0.26227256394569393 0 0.2998886084732626 0.2779440269043425 0 0.30781364429463659 0.26227256394569393 0 0.31532316675668848 0.2809915887917584 0 0.28815450863723102 0.25327697612913169 0 0.30020936556153333 0.25251933025261097 0 0.30781364429463659 0.26227256394569393 0 0.30020936556153333 0.25251933025261097 0 0.30753047011456419 0.25992793350222199 0 0.30716404224505339 0.24414329086701411 0 0.30020936556153333 0.25251933025261097 0 0.30753047011456419 0.25992793350222199 0 0.30781364429463659 0.26227256394569393 0 0.30753047011456419 0.25992793350222199 0 0.31201141460791221 0.25907248868053939 0 0.31744432938067518 0.25479033738529899 0 0.30753047011456419 0.25992793350222199 0 0.30781364429463659 0.26227256394569393 0 0.31201141460791221 0.25907248868053939 0 0.30781364429463659 0.26227256394569393 0 0.31201141460791221 0.25907248868053939 0 0.31423062845945871 0.25966453666799533 0 0.30753047011456419 0.25992793350222199 0 0.32193184813895392 0.2411014656226422 0 0.30753047011456419 0.25992793350222199 0 0.31744432938067518 0.25479033738529899 0 0.32193184813895392 0.2411014656226422 0 0.30781364429463659 0.26227256394569393 0 0.31660022811964711 0.26463812535133763 0 0.31423062845945871 0.25966453666799533 0 0.31744432938067518 0.25479033738529899 0 0.31660022811964711 0.26463812535133763 0 0.31423062845945871 0.25966453666799533 0 0.31744432938067518 0.25479033738529899 0 0.31660022811964711 0.26463812535133763 0 0.32676645062394338 0.2609366822287566 0 0.31201141460791221 0.25907248868053939 0 0.31744432938067518 0.25479033738529899 0 0.31423062845945871 0.25966453666799533 0 0.31744432938067518 0.25479033738529899 0 0.32676645062394338 0.2609366822287566 0 0.32638010458252181 0.25263534044757108 0 0.32676645062394338 0.2609366822287566 0 0.32638010458252181 0.25263534044757108 0 0.33407636727912687 0.25759586123004641 0 0.32638010458252181 0.25263534044757108 0 0.33407636727912687 0.25759586123004641 0 0.3353635226254858 0.24873662419451709 0 0.32676645062394338 0.2609366822287566 0 0.33407636727912687 0.25759586123004641 0 0.33687814011074679 0.26542806340022468 0 0.33687814011074679 0.26542806340022468 0 0.3443376629253021 0.25725650978514841 0 0.34910594188870492 0.26800680007420219 0 0.33407636727912687 0.25759586123004641 0 0.33687814011074679 0.26542806340022468 0 0.3443376629253021 0.25725650978514841 0 0.33407636727912687 0.25759586123004641 0 0.3443376629253021 0.25725650978514841 0 0.3353635226254858 0.24873662419451709 0 0.33623438378555048 0.27574637068651731 0 0.33609362783807728 0.28559595915188951 0 0.34624581182304393 0.27979649344210938 0 0.33687814011074679 0.26542806340022468 0 0.33623438378555048 0.27574637068651731 0 0.34910594188870492 0.26800680007420219 0 0.32676645062394338 0.2609366822287566 0 0.33687814011074679 0.26542806340022468 0 0.32578314684517617 0.27190402127321878 0 0.33687814011074679 0.26542806340022468 0 0.33623438378555048 0.27574637068651731 0 0.32578314684517617 0.27190402127321878 0 0.33623438378555048 0.27574637068651731 0 0.32814477761521849 0.28072867945635771 0 0.32578314684517617 0.27190402127321878 0 0.33623438378555048 0.27574637068651731 0 0.32814477761521849 0.28072867945635771 0 0.33609362783807728 0.28559595915188951 0 0.30781364429463659 0.26227256394569393 0 0.31660022811964711 0.26463812535133763 0 0.31532316675668848 0.2809915887917584 0 0.31660022811964711 0.26463812535133763 0 0.32578314684517617 0.27190402127321878 0 0.31532316675668848 0.2809915887917584 0 0.32814477761521849 0.28072867945635771 0 0.32578314684517617 0.27190402127321878 0 0.31532316675668848 0.2809915887917584 0 0.31660022811964711 0.26463812535133763 0 0.32676645062394338 0.2609366822287566 0 0.32578314684517617 0.27190402127321878 0 0.31532316675668848 0.2809915887917584 0 0.32728956285060012 0.28940545737840417 0 0.3228326892187442 0.29971061363782148 0 0.31532316675668848 0.2809915887917584 0 0.3228326892187442 0.29971061363782148 0 0.300735003466437 0.29885682606943093 0 0.31532316675668848 0.2809915887917584 0 0.3228326892187442 0.29971061363782148 0 0.32814477761521849 0.28072867945635771 0 0.31532316675668848 0.2809915887917584 0 0.32728956285060012 0.28940545737840417 0 0.33196393127052509 0.32247210715575703 0 0.3228326892187442 0.29971061363782148 0 0.31466104102768389 0.31599105246252168 0 0.300735003466437 0.29885682606943093 0 0.3228326892187442 0.29971061363782148 0 0.33196393127052509 0.32247210715575703 0 0.3228326892187442 0.29971061363782148 0 0.33440505852926161 0.30015773489589592 0 0.33978070612139261 0.31725671601770478 0 0.33440505852926161 0.30015773489589592 0 0.34768040040613157 0.31191640441525481 0 0.33196393127052509 0.32247210715575703 0 0.33440505852926161 0.30015773489589592 0 0.3228326892187442 0.29971061363782148 0 0.33440505852926161 0.30015773489589592 0 0.33470630030411769 0.29740408037825738 0 0.3228326892187442 0.29971061363782148 0 0.33440505852926161 0.30015773489589592 0 0.33440505852926161 0.30015773489589592 0 0.33470630030411769 0.29740408037825738 0 0.32814477761521849 0.28072867945635771 0 0.32728956285060012 0.28940545737840417 0 0.33609362783807728 0.28559595915188951 0 0.32728956285060012 0.28940545737840417 0 0.33470630030411769 0.29740408037825738 0 0.33609362783807728 0.28559595915188951 0 0.32728956285060012 0.28940545737840417 0 0.3228326892187442 0.29971061363782148 0 0.33470630030411769 0.29740408037825738 0 0.33440505852926161 0.30015773489589592 0 0.33470630030411769 0.29740408037825738 0 0.34491277717432389 0.29121254901619181 0 0.33470630030411769 0.29740408037825738 0 0.33609362783807728 0.28559595915188951 0 0.34491277717432389 0.29121254901619181 0 0.33609362783807728 0.28559595915188951 0 0.34491277717432389 0.29121254901619181 0 0.34624581182304393 0.27979649344210938 0 0.34491277717432389 0.29121254901619181 0 0.35502400573930792 0.28560818931485182 0 0.34624581182304393 0.27979649344210938 0 0.34491277717432389 0.29121254901619181 0 0.35502400573930792 0.28560818931485182 0 0.36028476692480299 0.30115764835060349 0 0.36336531525851501 0.31438916153912733 0 0.34768040040613157 0.31191640441525481 0 0.36028476692480299 0.30115764835060349 0 0.33440505852926161 0.30015773489589592 0 0.34768040040613157 0.31191640441525481 0 0.36028476692480299 0.30115764835060349 0 0.33440505852926161 0.30015773489589592 0 0.36028476692480299 0.30115764835060349 0 0.33440505852926161 0.30015773489589592 0 0.34491277717432389 0.29121254901619181 0 0.36028476692480299 0.30115764835060349 0 0.36336531525851501 0.31438916153912733 0 0.38616447532034448 0.3021575618053115 0 0.36336531525851501 0.31438916153912733 0 0.36028476692480299 0.30115764835060349 0 0.38616447532034448 0.3021575618053115 0 0.36028476692480299 0.30115764835060349 0 0.38616447532034448 0.3021575618053115 0 0.36028476692480299 0.30115764835060349 0 0.36778834215711348 0.28105458269074413 0 0.37981081093231039 0.28736248547651499 0 0.35502400573930792 0.28560818931485182 0 0.36028476692480299 0.30115764835060349 0 0.36778834215711348 0.28105458269074413 0 0.36778834215711348 0.28105458269074413 0 0.37445134229794041 0.26793712586679941 0 0.37981081093231039 0.28736248547651499 0 0.36778834215711348 0.28105458269074413 0 0.36256816194543212 0.26774877713060941 0 0.35588833061725522 0.27481967307461003 0 0.35502400573930792 0.28560818931485182 0 0.36778834215711348 0.28105458269074413 0 0.35588833061725522 0.27481967307461003 0 0.36778834215711348 0.28105458269074413 0 0.36256816194543212 0.26774877713060941 0 0.37445134229794041 0.26793712586679941 0 0.36106866797830017 0.25633021158225711 0 0.3816707290707696 0.2528369008378113 0 0.3645563033821877 0.24268260694936711 0 0.37445134229794041 0.26793712586679941 0 0.36106866797830017 0.25633021158225711 0 0.3816707290707696 0.2528369008378113 0 0.36256816194543212 0.26774877713060941 0 0.37445134229794041 0.26793712586679941 0 0.36106866797830017 0.25633021158225711 0 0.36106866797830017 0.25633021158225711 0 0.3443376629253021 0.25725650978514841 0 0.35048540294880992 0.24333871206296781 0 0.36256816194543212 0.26774877713060941 0 0.36106866797830017 0.25633021158225711 0 0.34910594188870492 0.26800680007420219 0 0.36106866797830017 0.25633021158225711 0 0.3443376629253021 0.25725650978514841 0 0.34910594188870492 0.26800680007420219 0 0.3443376629253021 0.25725650978514841 0 0.35048540294880992 0.24333871206296781 0 0.33623438378555048 0.27574637068651731 0 0.34910594188870492 0.26800680007420219 0 0.34624581182304393 0.27979649344210938 0 0.34910594188870492 0.26800680007420219 0 0.34624581182304393 0.27979649344210938 0 0.35588833061725522 0.27481967307461003 0 0.35502400573930792 0.28560818931485182 0 0.34624581182304393 0.27979649344210938 0 0.35588833061725522 0.27481967307461003 0 0.36256816194543212 0.26774877713060941 0 0.34910594188870492 0.26800680007420219 0 0.35588833061725522 0.27481967307461003 0 0.39205527334884432 0.26569870167778509 0 0.40587772736418098 0.27107836809875441 0 0.39025725320790211 0.27723324325825172 0 0.40587772736418098 0.27107836809875441 0 0.39025725320790211 0.27723324325825172 0 0.40074258732213047 0.28239606327504668 0 0.39508804571461031 0.2553169400753697 0 0.3816707290707696 0.2528369008378113 0 0.39798372082256839 0.2439770222975968 0 0.39205527334884432 0.26569870167778509 0 0.40587772736418098 0.27107836809875441 0 0.40716896968573679 0.25769485578380308 0 0.39508804571461031 0.2553169400753697 0 0.40716896968573679 0.25769485578380308 0 0.39798372082256839 0.2439770222975968 0 0.39205527334884432 0.26569870167778509 0 0.39508804571461031 0.2553169400753697 0 0.40716896968573679 0.25769485578380308 0 0.37445134229794041 0.26793712586679941 0 0.39205527334884432 0.26569870167778509 0 0.3816707290707696 0.2528369008378113 0 0.39205527334884432 0.26569870167778509 0 0.39508804571461031 0.2553169400753697 0 0.3816707290707696 0.2528369008378113 0 0.37445134229794041 0.26793712586679941 0 0.39025725320790211 0.27723324325825172 0 0.37981081093231039 0.28736248547651499 0 0.37445134229794041 0.26793712586679941 0 0.39205527334884432 0.26569870167778509 0 0.39025725320790211 0.27723324325825172 0 0.37981081093231039 0.28736248547651499 0 0.38817021743984748 0.29361596603425061 0 0.3914844501793433 0.28764509262843552 0 0.37981081093231039 0.28736248547651499 0 0.38817021743984748 0.29361596603425061 0 0.38616447532034448 0.3021575618053115 0 0.39025725320790211 0.27723324325825172 0 0.37981081093231039 0.28736248547651499 0 0.3914844501793433 0.28764509262843552 0 0.36028476692480299 0.30115764835060349 0 0.37981081093231039 0.28736248547651499 0 0.38616447532034448 0.3021575618053115 0 0.38616447532034448 0.3021575618053115 0 0.39331851767215242 0.30243397230784402 0 0.38510407378627681 0.32460513813743852 0 0.36336531525851501 0.31438916153912733 0 0.38616447532034448 0.3021575618053115 0 0.37641209075030729 0.31687533087281888 0 0.38817021743984748 0.29361596603425061 0 0.38616447532034448 0.3021575618053115 0 0.39522113332739123 0.29729872422673947 0 0.38616447532034448 0.3021575618053115 0 0.39331851767215242 0.30243397230784402 0 0.39331851767215242 0.30243397230784402 0 0.40456576986558118 0.30961814049439418 0 0.41247714116443529 0.30317420342293072 0 0.39331851767215242 0.30243397230784402 0 0.41247714116443529 0.30317420342293072 0 0.39331851767215242 0.30243397230784402 0 0.39522113332739123 0.29729872422673947 0 0.41247714116443529 0.30317420342293072 0 0.39331851767215242 0.30243397230784402 0 0.40456576986558118 0.30961814049439418 0 0.40067969074700832 0.31818368422146309 0 0.38616447532034448 0.3021575618053115 0 0.39331851767215242 0.30243397230784402 0 0.39522113332739123 0.29729872422673947 0 0.38616447532034448 0.3021575618053115 0 0.39522113332739123 0.29729872422673947 0 0.39331851767215242 0.30243397230784402 0 0.39522113332739123 0.29729872422673947 0 0.39522113332739123 0.29729872422673947 0 0.41419033399928529 0.28712187256817928 0 0.39522113332739123 0.29729872422673947 0 0.40074258732213047 0.28239606327504668 0 0.41419033399928529 0.28712187256817928 0 0.39025725320790211 0.27723324325825172 0 0.3914844501793433 0.28764509262843552 0 0.40074258732213047 0.28239606327504668 0 0.38817021743984748 0.29361596603425061 0 0.39522113332739123 0.29729872422673947 0 0.3914844501793433 0.28764509262843552 0 0.39522113332739123 0.29729872422673947 0 0.3914844501793433 0.28764509262843552 0 0.40074258732213047 0.28239606327504668 0 0.39522113332739123 0.29729872422673947 0 0.40074258732213047 0.28239606327504668 0 0.39522113332739123 0.29729872422673947 0 0.41419033399928529 0.28712187256817928 0 0.41247714116443529 0.30317420342293072 0 0.40074258732213047 0.28239606327504668 0 0.41419033399928529 0.28712187256817928 0 0.41598304666503222 0.27686722824588139 0 0.41419033399928529 0.28712187256817928 0 0.41247714116443529 0.30317420342293072 0 0.42224558084282787 0.30355162631026172 0 0.40456576986558118 0.30961814049439418 0 0.41247714116443529 0.30317420342293072 0 0.41178772987873041 0.31468070202533982 0 0.41247714116443529 0.30317420342293072 0 0.42224558084282787 0.30355162631026172 0 0.41247714116443529 0.30317420342293072 0 0.42115326973401779 0.30905074384804848 0 0.41178772987873041 0.31468070202533982 0 0.41247714116443529 0.30317420342293072 0 0.42115326973401779 0.30905074384804848 0 0.42224558084282787 0.30355162631026172 0 0.42115326973401779 0.30905074384804848 0 0.42224558084282787 0.30355162631026172 0 0.43163576465671832 0.30391443453801248 0 0.42115326973401779 0.30905074384804848 0 0.42742213561146808 0.30974907704490379 0 0.43163576465671832 0.30391443453801248 0 0.42742213561146808 0.30974907704490379 0 0.43334248650400642 0.31180986243359821 0 0.42754412162454208 0.31506176866591179 0 0.42115326973401779 0.30905074384804848 0 0.42742213561146808 0.30974907704490379 0 0.42754412162454208 0.31506176866591179 0 0.42224558084282787 0.30355162631026172 0 0.43163576465671832 0.30391443453801248 0 0.42224558084282787 0.30355162631026172 0 0.43163576465671832 0.30391443453801248 0 0.43683488537988679 0.29189666778266948 0 0.43121007509018899 0.30610632533974491 0 0.43334248650400642 0.31180986243359821 0 0.44127012368375063 0.30670486578175532 0 0.42742213561146808 0.30974907704490379 0 0.43163576465671832 0.30391443453801248 0 0.43121007509018899 0.30610632533974491 0 0.42742213561146808 0.30974907704490379 0 0.43121007509018899 0.30610632533974491 0 0.43334248650400642 0.31180986243359821 0 0.41419033399928529 0.28712187256817928 0 0.42224558084282787 0.30355162631026172 0 0.43322154359697718 0.27693485874247142 0 0.42224558084282787 0.30355162631026172 0 0.43683488537988679 0.29189666778266948 0 0.43322154359697718 0.27693485874247142 0 0.41419033399928529 0.28712187256817928 0 0.43322154359697718 0.27693485874247142 0 0.42224558084282787 0.30355162631026172 0 0.43322154359697718 0.27693485874247142 0 0.43322154359697718 0.27693485874247142 0 0.41598304666503222 0.27686722824588139 0 0.42017387754988939 0.26733787961267003 0 0.43322154359697718 0.27693485874247142 0 0.44170341293161153 0.25655924287046161 0 0.43322154359697718 0.27693485874247142 0 0.42017387754988939 0.26733787961267003 0 0.43322154359697718 0.27693485874247142 0 0.42017387754988939 0.26733787961267003 0 0.42652955362642719 0.26200890931043519 0 0.41419033399928529 0.28712187256817928 0 0.43322154359697718 0.27693485874247142 0 0.41598304666503222 0.27686722824588139 0 0.40587772736418098 0.27107836809875441 0 0.41598304666503222 0.27686722824588139 0 0.42017387754988939 0.26733787961267003 0 0.40587772736418098 0.27107836809875441 0 0.40074258732213047 0.28239606327504668 0 0.41598304666503222 0.27686722824588139 0 0.40716896968573679 0.25769485578380308 0 0.41865900974769332 0.2512550762760013 0 0.39798372082256839 0.2439770222975968 0 0.42017387754988939 0.26733787961267003 0 0.40716896968573679 0.25769485578380308 0 0.40587772736418098 0.27107836809875441 0 0.42017387754988939 0.26733787961267003 0 0.40716896968573679 0.25769485578380308 0 0.42017387754988939 0.26733787961267003 0 0.40716896968573679 0.25769485578380308 0 0.41940694219528851 0.25859083837230962 0 0.41940694219528851 0.25859083837230962 0 0.41865900974769332 0.2512550762760013 0 0.42700699583846108 0.25103027760885283 0 0.40716896968573679 0.25769485578380308 0 0.41940694219528851 0.25859083837230962 0 0.41865900974769332 0.2512550762760013 0 0.41940694219528851 0.25859083837230962 0 0.42700699583846108 0.25103027760885283 0 0.42652955362642719 0.26200890931043519 0 0.43322154359697718 0.27693485874247142 0 0.42652955362642719 0.26200890931043519 0 0.44170341293161153 0.25655924287046161 0 0.42017387754988939 0.26733787961267003 0 0.41940694219528851 0.25859083837230962 0 0.42652955362642719 0.26200890931043519 0 0.42700699583846108 0.25103027760885283 0 0.42652955362642719 0.26200890931043519 0 0.43833603885486938 0.24911929050397569 0 0.42652955362642719 0.26200890931043519 0 0.43833603885486938 0.24911929050397569 0 0.42652955362642719 0.26200890931043519 0 0.44170341293161153 0.25655924287046161 0 0.43833603885486938 0.24911929050397569 0 0.43322154359697718 0.27693485874247142 0 0.44170341293161153 0.25655924287046161 0 0.44933652033524252 0.25926056364446892 0 0.44933652033524252 0.25926056364446892 0 0.45442140526327968 0.25165413839784601 0 0.45450528576643462 0.26549316554710589 0 0.44170341293161153 0.25655924287046161 0 0.44933652033524252 0.25926056364446892 0 0.44969712660805761 0.2496796817576695 0 0.44933652033524252 0.25926056364446892 0 0.45442140526327968 0.25165413839784601 0 0.44969712660805761 0.2496796817576695 0 0.43322154359697718 0.27693485874247142 0 0.45412870552230561 0.27715519806562933 0 0.45450528576643462 0.26549316554710589 0 0.43322154359697718 0.27693485874247142 0 0.44933652033524252 0.25926056364446892 0 0.45450528576643462 0.26549316554710589 0 0.43322154359697718 0.27693485874247142 0 0.45450528576643462 0.26549316554710589 0 0.45412870552230561 0.27715519806562933 0 0.47626266424193459 0.27486657444727641 0 0.45252532848387628 0.2913261935256628 0 0.45412870552230561 0.27715519806562933 0 0.45450528576643462 0.26549316554710589 0 0.47626266424193459 0.27486657444727641 0 0.45450528576643462 0.26549316554710589 0 0.47574626975295681 0.25409751705080402 0 0.46576285555457803 0.24780483854819199 0 0.45450528576643462 0.26549316554710589 0 0.47574626975295681 0.25409751705080402 0 0.45442140526327968 0.25165413839784601 0 0.45450528576643462 0.26549316554710589 0 0.46576285555457803 0.24780483854819199 0 0.47574626975295681 0.25409751705080402 0 0.47626266424193459 0.27486657444727641 0 0.49999999999999589 0.25840695536889408 0 0.45450528576643462 0.26549316554710589 0 0.47574626975295681 0.25409751705080402 0 0.47626266424193459 0.27486657444727641 0 0.47626266424193459 0.27486657444727641 0 0.49999999999999589 0.25840695536889408 0 0.47626266424193459 0.27486657444727641 0 0.5 0.28111405069881701 0 0.49999999999999589 0.25840695536889408 0 0.47574626975295681 0.25409751705080402 0 0.49999999999999589 0.25840695536889408 0 0.49698725373947911 0.24270186855450199 0 0.5 0.30382114602873989 0 0.48639218943060658 0.30019640476118092 0 0.4828795565171724 0.31383358437298892 0 0.5 0.28111405069881701 0 0.48639218943060658 0.30019640476118092 0 0.47400385503392478 0.29104520592967692 0 0.5 0.28111405069881701 0 0.5 0.30382114602873989 0 0.48639218943060658 0.30019640476118092 0 0.47626266424193459 0.27486657444727641 0 0.5 0.28111405069881701 0 0.47400385503392478 0.29104520592967692 0 0.46575911303434231 0.30113892738731612 0 0.48287955651717113 0.32360016763526012 0 0.48639218943060658 0.30019640476118092 0 0.47400385503392478 0.29104520592967692 0 0.46575911303434231 0.30113892738731612 0 0.48639218943060658 0.30019640476118092 0 0.46575911303434231 0.30113892738731612 0 0.4828795565171724 0.31383358437298892 0 0.46575911303434231 0.30113892738731612 0 0.4828795565171724 0.31383358437298892 0 0.46575911303434231 0.30113892738731612 0 0.45252532848387628 0.2913261935256628 0 0.4493255556120761 0.30947164687129508 0 0.46575911303434231 0.30113892738731612 0 0.4493255556120761 0.30947164687129508 0 0.46298794815493588 0.3202694874313361 0 0.46575911303434231 0.30113892738731612 0 0.46308383501278988 0.29762908475780769 0 0.47400385503392478 0.29104520592967692 0 0.46308383501278988 0.29762908475780769 0 0.45252532848387628 0.2913261935256628 0 0.47626266424193459 0.27486657444727641 0 0.47400385503392478 0.29104520592967692 0 0.45252532848387628 0.2913261935256628 0 0.47626266424193459 0.27486657444727641 0 0.45252532848387628 0.2913261935256628 0 0.47400385503392478 0.29104520592967692 0 0.46575911303434231 0.30113892738731612 0 0.46308383501278988 0.29762908475780769 0 0.46575911303434231 0.30113892738731612 0 0.46308383501278988 0.29762908475780769 0 0.45252532848387628 0.2913261935256628 0 0.46575911303434231 0.30113892738731612 0 0.45252532848387628 0.2913261935256628 0 0.43683488537988679 0.29189666778266948 0 0.43322154359697718 0.27693485874247142 0 0.45252532848387628 0.2913261935256628 0 0.43322154359697718 0.27693485874247142 0 0.45252532848387628 0.2913261935256628 0 0.43322154359697718 0.27693485874247142 0 0.45412870552230561 0.27715519806562933 0 0.45252532848387628 0.2913261935256628 0 0.43163576465671832 0.30391443453801248 0 0.43683488537988679 0.29189666778266948 0 0.45252532848387628 0.2913261935256628 0 0.43121007509018899 0.30610632533974491 0 0.45252532848387628 0.2913261935256628 0 0.44127012368375063 0.30670486578175532 0 0.45252532848387628 0.2913261935256628 0 0.4493255556120761 0.30947164687129508 0 0.44127012368375063 0.30670486578175532 0 0.43163576465671832 0.30391443453801248 0 0.43121007509018899 0.30610632533974491 0 0.45252532848387628 0.2913261935256628 0 0.43121007509018899 0.30610632533974491 0 0.45252532848387628 0.2913261935256628 0 0.43334248650400642 0.31180986243359821 0 0.44127012368375063 0.30670486578175532 0 0.43994717272860567 0.31481030073847521 0 0.4493255556120761 0.30947164687129508 0 0.44127012368375063 0.30670486578175532 0 0.43994717272860567 0.31481030073847521 0 0.4493255556120761 0.30947164687129508 0 0.43994717272860567 0.31481030073847521 0 0.44735305380223911 0.32867924215987171 0 0.43994717272860567 0.31481030073847521 0 0.44735305380223911 0.32867924215987171 0 0.43389135919831567 0.32148712835397519 0 0.44735305380223911 0.32867924215987171 0 0.43156598401593721 0.33570479724605051 0 0.43389135919831567 0.32148712835397519 0 0.44735305380223911 0.32867924215987171 0 0.44396552919502119 0.35158157770343162 0 0.43156598401593721 0.33570479724605051 0 0.44735305380223911 0.32867924215987171 0 0.46298794815493588 0.3202694874313361 0 0.46815057258625059 0.34400365871582228 0 0.44735305380223911 0.32867924215987171 0 0.46815057258625059 0.34400365871582228 0 0.44396552919502119 0.35158157770343162 0 0.4493255556120761 0.30947164687129508 0 0.44735305380223911 0.32867924215987171 0 0.46298794815493588 0.3202694874313361 0 0.46575911303434231 0.30113892738731612 0 0.48287955651717113 0.32360016763526012 0 0.4828795565171724 0.31383358437298892 0 0.46575911303434231 0.30113892738731612 0 0.46298794815493588 0.3202694874313361 0 0.48287955651717113 0.32360016763526012 0 0.48287955651717113 0.32360016763526012 0 0.50000000000000011 0.34606140788320389 0 0.46815057258625059 0.34400365871582228 0 0.46298794815493588 0.3202694874313361 0 0.48287955651717113 0.32360016763526012 0 0.46815057258625059 0.34400365871582228 0 0.48287955651717113 0.32360016763526012 0 0.50000000000000011 0.34606140788320389 0 0.48287955651717113 0.32360016763526012 0 0.50000000000000167 0.32652824135866282 0 0.50000000000000011 0.34606140788320389 0 0.4828795565171724 0.31383358437298892 0 0.50000000000000167 0.32652824135866282 0 0.48287955651717113 0.32360016763526012 0 0.4828795565171724 0.31383358437298892 0 0.50000000000000167 0.32652824135866282 0 0.5 0.30382114602873989 0 0.4828795565171724 0.31383358437298892 0 0.50000000000000167 0.32652824135866282 0 0.50000000000000011 0.34606140788320389 0 0.48071230269372239 0.36451692142955111 0 0.46815057258625059 0.34400365871582228 0 0.5 0.37318988212282672 0 0.48071230269372239 0.36451692142955111 0 0.47875325790499612 0.38434700029570118 0 0.5 0.37318988212282672 0 0.50000000000000011 0.34606140788320389 0 0.48071230269372239 0.36451692142955111 0 0.48071230269372239 0.36451692142955111 0 0.45665768297736509 0.37498265813020121 0 0.47875325790499612 0.38434700029570118 0 0.48071230269372239 0.36451692142955111 0 0.45665768297736509 0.37498265813020121 0 0.46815057258625059 0.34400365871582228 0 0.45665768297736509 0.37498265813020121 0 0.46815057258625059 0.34400365871582228 0 0.44396552919502119 0.35158157770343162 0 0.45665768297736509 0.37498265813020121 0 0.43435482800098302 0.36578422175223779 0 0.43083261154041519 0.3817682793185998 0 0.45665768297736509 0.37498265813020121 0 0.44396552919502119 0.35158157770343162 0 0.43435482800098302 0.36578422175223779 0 0.43435482800098302 0.36578422175223779 0 0.41817754440917537 0.36823324908789901 0 0.42493119815867281 0.35257840853693379 0 0.43435482800098302 0.36578422175223779 0 0.41817754440917537 0.36823324908789901 0 0.43083261154041519 0.3817682793185998 0 0.41817754440917537 0.36823324908789901 0 0.40399320067485861 0.35557294416410001 0 0.40617029043030622 0.37620248500720588 0 0.42493119815867281 0.35257840853693379 0 0.41679617696826471 0.33688762553471308 0 0.40399320067485861 0.35557294416410001 0 0.41817754440917537 0.36823324908789901 0 0.42493119815867281 0.35257840853693379 0 0.40399320067485861 0.35557294416410001 0 0.44396552919502119 0.35158157770343162 0 0.43435482800098302 0.36578422175223779 0 0.42493119815867281 0.35257840853693379 0 0.44396552919502119 0.35158157770343162 0 0.42493119815867281 0.35257840853693379 0 0.43156598401593721 0.33570479724605051 0 0.42493119815867281 0.35257840853693379 0 0.43156598401593721 0.33570479724605051 0 0.41679617696826471 0.33688762553471308 0 0.43156598401593721 0.33570479724605051 0 0.42245858677310949 0.32301480118737791 0 0.41679617696826471 0.33688762553471308 0 0.43334248650400642 0.31180986243359821 0 0.43389135919831567 0.32148712835397519 0 0.42754412162454208 0.31506176866591179 0 0.43334248650400642 0.31180986243359821 0 0.43994717272860567 0.31481030073847521 0 0.43389135919831567 0.32148712835397519 0 0.43156598401593721 0.33570479724605051 0 0.43389135919831567 0.32148712835397519 0 0.42245858677310949 0.32301480118737791 0 0.43389135919831567 0.32148712835397519 0 0.42245858677310949 0.32301480118737791 0 0.42754412162454208 0.31506176866591179 0 0.42115326973401779 0.30905074384804848 0 0.42245858677310949 0.32301480118737791 0 0.42754412162454208 0.31506176866591179 0 0.42115326973401779 0.30905074384804848 0 0.42245858677310949 0.32301480118737791 0 0.41178772987873041 0.31468070202533982 0 0.42245858677310949 0.32301480118737791 0 0.41004644392190781 0.32589566987061941 0 0.41178772987873041 0.31468070202533982 0 0.41004644392190781 0.32589566987061941 0 0.41178772987873041 0.31468070202533982 0 0.40067969074700832 0.31818368422146309 0 0.41679617696826471 0.33688762553471308 0 0.39888680517229708 0.33481186678268759 0 0.40399320067485861 0.35557294416410001 0 0.41004644392190781 0.32589566987061941 0 0.41679617696826471 0.33688762553471308 0 0.39888680517229708 0.33481186678268759 0 0.42245858677310949 0.32301480118737791 0 0.41004644392190781 0.32589566987061941 0 0.41679617696826471 0.33688762553471308 0 0.39888680517229708 0.33481186678268759 0 0.40067969074700832 0.31818368422146309 0 0.38510407378627681 0.32460513813743852 0 0.39331851767215242 0.30243397230784402 0 0.40067969074700832 0.31818368422146309 0 0.38510407378627681 0.32460513813743852 0 0.41004644392190781 0.32589566987061941 0 0.39888680517229708 0.33481186678268759 0 0.40067969074700832 0.31818368422146309 0 0.40456576986558118 0.30961814049439418 0 0.41178772987873041 0.31468070202533982 0 0.40067969074700832 0.31818368422146309 0 0.38616447532034448 0.3021575618053115 0 0.38510407378627681 0.32460513813743852 0 0.37641209075030729 0.31687533087281888 0 0.39331851767215242 0.30243397230784402 0 0.38510407378627681 0.32460513813743852 0 0.37101449863609298 0.32634946200939818 0 0.38510407378627681 0.32460513813743852 0 0.37641209075030729 0.31687533087281888 0 0.37101449863609298 0.32634946200939818 0 0.38510407378627681 0.32460513813743852 0 0.37688962990040248 0.34677630396703357 0 0.38510407378627681 0.32460513813743852 0 0.37688962990040248 0.34677630396703357 0 0.39888680517229708 0.33481186678268759 0 0.38510407378627681 0.32460513813743852 0 0.37688962990040248 0.34677630396703357 0 0.37688962990040248 0.34677630396703357 0 0.38777334825377913 0.37399633009275179 0 0.40399320067485861 0.35557294416410001 0 0.37477399257497079 0.38192782219324189 0 0.36867518601452831 0.36894746979662879 0 0.38777334825377913 0.37399633009275179 0 0.36867518601452831 0.36894746979662879 0 0.37688962990040248 0.34677630396703357 0 0.38777334825377913 0.37399633009275179 0 0.38777334825377913 0.37399633009275179 0 0.40399320067485861 0.35557294416410001 0 0.40617029043030622 0.37620248500720588 0 0.39888680517229708 0.33481186678268759 0 0.37688962990040248 0.34677630396703357 0 0.40399320067485861 0.35557294416410001 0 0.40391264567719037 0.39617907088850218 0 0.3821866939029222 0.39364885325736299 0 0.38777334825377913 0.37399633009275179 0 0.40391264567719037 0.39617907088850218 0 0.40617029043030622 0.37620248500720588 0 0.38777334825377913 0.37399633009275179 0 0.40391264567719037 0.39617907088850218 0 0.3821866939029222 0.39364885325736299 0 0.37477399257497079 0.38192782219324189 0 0.38777334825377913 0.37399633009275179 0 0.3821866939029222 0.39364885325736299 0 0.37103211254345692 0.40007926267040422 0 0.3821866939029222 0.39364885325736299 0 0.38388577029907128 0.40985443827646689 0 0.40391264567719037 0.39617907088850218 0 0.3821866939029222 0.39364885325736299 0 0.38388577029907128 0.40985443827646689 0 0.38388577029907128 0.40985443827646689 0 0.37762472033449418 0.43629098835606778 0 0.39974566140083451 0.41860301485225071 0 0.3688127879355298 0.41432543963421442 0 0.38388577029907128 0.40985443827646689 0 0.37762472033449418 0.43629098835606778 0 0.37762472033449418 0.43629098835606778 0 0.39974566140083451 0.41860301485225071 0 0.40040594386599998 0.44298753354361348 0 0.40391264567719037 0.39617907088850218 0 0.39974566140083451 0.41860301485225071 0 0.41367465174392037 0.40689776066431932 0 0.40391264567719037 0.39617907088850218 0 0.38388577029907128 0.40985443827646689 0 0.39974566140083451 0.41860301485225071 0 0.39974566140083451 0.41860301485225071 0 0.41367465174392037 0.40689776066431932 0 0.4191565235697885 0.42031924173914259 0 0.41367465174392037 0.40689776066431932 0 0.4191565235697885 0.42031924173914259 0 0.42563859745145871 0.39870928851964132 0 0.4191565235697885 0.42031924173914259 0 0.40040594386599998 0.44298753354361348 0 0.39974566140083451 0.41860301485225071 0 0.4191565235697885 0.42031924173914259 0 0.40040594386599998 0.44298753354361348 0 0.4191565235697885 0.42031924173914259 0 0.41953711443340619 0.43824761646961968 0 0.40040594386599998 0.44298753354361348 0 0.4191565235697885 0.42031924173914259 0 0.43729583528432431 0.43677784701540762 0 0.41953711443340619 0.43824761646961968 0 0.4191565235697885 0.42031924173914259 0 0.43729583528432431 0.43677784701540762 0 0.43844405032875639 0.41698611493849091 0 0.4191565235697885 0.42031924173914259 0 0.43790710327357679 0.39765094993467193 0 0.4191565235697885 0.42031924173914259 0 0.43790710327357679 0.39765094993467193 0 0.43844405032875639 0.41698611493849091 0 0.4191565235697885 0.42031924173914259 0 0.42563859745145871 0.39870928851964132 0 0.43790710327357679 0.39765094993467193 0 0.42563859745145871 0.39870928851964132 0 0.43083261154041519 0.3817682793185998 0 0.43790710327357679 0.39765094993467193 0 0.40391264567719037 0.39617907088850218 0 0.42563859745145871 0.39870928851964132 0 0.41601333009853603 0.38681647891108473 0 0.40391264567719037 0.39617907088850218 0 0.41367465174392037 0.40689776066431932 0 0.42563859745145871 0.39870928851964132 0 0.40391264567719037 0.39617907088850218 0 0.42563859745145871 0.39870928851964132 0 0.41817754440917537 0.36823324908789901 0 0.41601333009853603 0.38681647891108473 0 0.43083261154041519 0.3817682793185998 0 0.41817754440917537 0.36823324908789901 0 0.40617029043030622 0.37620248500720588 0 0.41601333009853603 0.38681647891108473 0 0.40391264567719037 0.39617907088850218 0 0.40617029043030622 0.37620248500720588 0 0.41601333009853603 0.38681647891108473 0 0.42563859745145871 0.39870928851964132 0 0.41601333009853603 0.38681647891108473 0 0.43083261154041519 0.3817682793185998 0 0.45665768297736509 0.37498265813020121 0 0.43790710327357679 0.39765094993467193 0 0.46075423310902403 0.39403151653106328 0 0.45665768297736509 0.37498265813020121 0 0.43790710327357679 0.39765094993467193 0 0.45665768297736509 0.37498265813020121 0 0.43083261154041519 0.3817682793185998 0 0.43790710327357679 0.39765094993467193 0 0.43790710327357679 0.39765094993467193 0 0.46075423310902403 0.39403151653106328 0 0.45500586004735699 0.40699394917175952 0 0.46075423310902403 0.39403151653106328 0 0.47544726134182452 0.40618302512298249 0 0.45500586004735699 0.40699394917175952 0 0.45665768297736509 0.37498265813020121 0 0.46075423310902403 0.39403151653106328 0 0.47875325790499612 0.38434700029570118 0 0.46075423310902403 0.39403151653106328 0 0.47875325790499612 0.38434700029570118 0 0.47544726134182452 0.40618302512298249 0 0.47875325790499612 0.38434700029570118 0 0.47544726134182452 0.40618302512298249 0 0.5 0.40031835636244928 0 0.5 0.37318988212282672 0 0.47875325790499612 0.38434700029570118 0 0.5 0.40031835636244928 0 0.4887255606810148 0.43047606355478479 0 0.49031137175953099 0.41388259348226059 0 0.47732526000216741 0.42139929183657798 0 0.4887255606810148 0.43047606355478479 0 0.5 0.427446830602072 0 0.49031137175953099 0.41388259348226059 0 0.4887255606810148 0.43047606355478479 0 0.5 0.427446830602072 0 0.48952044403135198 0.44514063966772521 0 0.47544726134182452 0.40618302512298249 0 0.5 0.40031835636244928 0 0.49031137175953099 0.41388259348226059 0 0.5 0.40031835636244928 0 0.5 0.427446830602072 0 0.49031137175953099 0.41388259348226059 0 0.47544726134182452 0.40618302512298249 0 0.49031137175953099 0.41388259348226059 0 0.47732526000216741 0.42139929183657798 0 0.47544726134182452 0.40618302512298249 0 0.47732526000216741 0.42139929183657798 0 0.46399769190749618 0.41765786358832691 0 0.47732526000216741 0.42139929183657798 0 0.4696228037785195 0.43418006569928091 0 0.46399769190749618 0.41765786358832691 0 0.4887255606810148 0.43047606355478479 0 0.47732526000216741 0.42139929183657798 0 0.4696228037785195 0.43418006569928091 0 0.4696228037785195 0.43418006569928091 0 0.45529835748337111 0.42647659691797241 0 0.45212347571555822 0.4384349299313266 0 0.4696228037785195 0.43418006569928091 0 0.45529835748337111 0.42647659691797241 0 0.46399769190749618 0.41765786358832691 0 0.47544726134182452 0.40618302512298249 0 0.46399769190749618 0.41765786358832691 0 0.45500586004735699 0.40699394917175952 0 0.46399769190749618 0.41765786358832691 0 0.45500586004735699 0.40699394917175952 0 0.45186117385533148 0.41904264688300369 0 0.45529835748337111 0.42647659691797241 0 0.46399769190749618 0.41765786358832691 0 0.45186117385533148 0.41904264688300369 0 0.43790710327357679 0.39765094993467193 0 0.45500586004735699 0.40699394917175952 0 0.43844405032875639 0.41698611493849091 0 0.45500586004735699 0.40699394917175952 0 0.45186117385533148 0.41904264688300369 0 0.43844405032875639 0.41698611493849091 0 0.45186117385533148 0.41904264688300369 0 0.43844405032875639 0.41698611493849091 0 0.44655990950967689 0.42709870979846909 0 0.43729583528432431 0.43677784701540762 0 0.43844405032875639 0.41698611493849091 0 0.44655990950967689 0.42709870979846909 0 0.43729583528432431 0.43677784701540762 0 0.44655990950967689 0.42709870979846909 0 0.45212347571555822 0.4384349299313266 0 0.45529835748337111 0.42647659691797241 0 0.44655990950967689 0.42709870979846909 0 0.45212347571555822 0.4384349299313266 0 0.45529835748337111 0.42647659691797241 0 0.45186117385533148 0.41904264688300369 0 0.44655990950967689 0.42709870979846909 0 0.43729583528432431 0.43677784701540762 0 0.45097592483169519 0.45213468287612291 0 0.43616606769434613 0.46004181528381871 0 0.43729583528432431 0.43677784701540762 0 0.45097592483169519 0.45213468287612291 0 0.45212347571555822 0.4384349299313266 0 0.45129430359450579 0.46437940187148707 0 0.44038191325580028 0.47607684009128992 0 0.43616606769434613 0.46004181528381871 0 0.45097592483169519 0.45213468287612291 0 0.45129430359450579 0.46437940187148707 0 0.43616606769434613 0.46004181528381871 0 0.45129430359450579 0.46437940187148707 0 0.46157074410885862 0.45844678806134859 0 0.46500555232536189 0.47417740391428947 0 0.46157074410885862 0.45844678806134859 0 0.47686555650318813 0.45232673373453708 0 0.46500555232536189 0.47417740391428947 0 0.45097592483169519 0.45213468287612291 0 0.45129430359450579 0.46437940187148707 0 0.46157074410885862 0.45844678806134859 0 0.4696228037785195 0.43418006569928091 0 0.45212347571555822 0.4384349299313266 0 0.46268014280966352 0.44623390151618481 0 0.45097592483169519 0.45213468287612291 0 0.45212347571555822 0.4384349299313266 0 0.46268014280966352 0.44623390151618481 0 0.45097592483169519 0.45213468287612291 0 0.46157074410885862 0.45844678806134859 0 0.46268014280966352 0.44623390151618481 0 0.46157074410885862 0.45844678806134859 0 0.46268014280966352 0.44623390151618481 0 0.47686555650318813 0.45232673373453708 0 0.4887255606810148 0.43047606355478479 0 0.47686555650318813 0.45232673373453708 0 0.4696228037785195 0.43418006569928091 0 0.46268014280966352 0.44623390151618481 0 0.47686555650318813 0.45232673373453708 0 0.4887255606810148 0.43047606355478479 0 0.4696228037785195 0.43418006569928091 0 0.47686555650318813 0.45232673373453708 0 0.47686555650318813 0.45232673373453708 0 0.47134426955029279 0.47368844333544141 0 0.46500555232536189 0.47417740391428947 0 0.47686555650318813 0.45232673373453708 0 0.48567213477514781 0.46413187408856832 0 0.48952044403135198 0.44514063966772521 0 0.47686555650318813 0.45232673373453708 0 0.48567213477514781 0.46413187408856832 0 0.47134426955029279 0.47368844333544141 0 0.47686555650318813 0.45232673373453708 0 0.46500555232536189 0.47417740391428947 0 0.48567213477514781 0.46413187408856832 0 0.50000000000000244 0.45457530484169473 0 0.48952044403135198 0.44514063966772521 0 0.48567213477514781 0.46413187408856832 0 0.50000000000000244 0.45457530484169473 0 0.50000000000000167 0.47147797676140107 0 0.48567213477514781 0.46413187408856832 0 0.50000000000000244 0.45457530484169473 0 0.4887255606810148 0.43047606355478479 0 0.47686555650318813 0.45232673373453708 0 0.48952044403135198 0.44514063966772521 0 0.5 0.427446830602072 0 0.50000000000000244 0.45457530484169473 0 0.48952044403135198 0.44514063966772521 0 0.5 0.5 0 0.47406498196629487 0.48735179518140798 0 0.45098968485129709 0.50000000000000144 0 0.5 0.5 0 0.50000000000000167 0.47147797676140107 0 0.48616639699321762 0.48303251956615723 0 0.5 0.5 0 0.48616639699321762 0.48303251956615723 0 0.47406498196629487 0.48735179518140798 0 0.50000000000000167 0.47147797676140107 0 0.48616639699321762 0.48303251956615723 0 0.47134426955029279 0.47368844333544141 0 0.50000000000000167 0.47147797676140107 0 0.47134426955029279 0.47368844333544141 0 0.48567213477514781 0.46413187408856832 0 0.50000000000000167 0.47147797676140107 0 0.47134426955029279 0.47368844333544141 0 0.48616639699321762 0.48303251956615723 0 0.47134426955029279 0.47368844333544141 0 0.47406498196629487 0.48735179518140798 0 0.48567213477514781 0.46413187408856832 0 0.47134426955029279 0.47368844333544141 0 0.47134426955029279 0.47368844333544141 0 0.47406498196629487 0.48735179518140798 0 0.46182455843666692 0.48003801300544052 0 0.47406498196629487 0.48735179518140798 0 0.46182455843666692 0.48003801300544052 0 0.45098968485129709 0.50000000000000144 0 0.46182455843666692 0.48003801300544052 0 0.45098968485129709 0.50000000000000144 0 0.46500555232536189 0.47417740391428947 0 0.46182455843666692 0.48003801300544052 0 0.44038191325580028 0.47607684009128992 0 0.47134426955029279 0.47368844333544141 0 0.46500555232536189 0.47417740391428947 0 0.46182455843666692 0.48003801300544052 0 0.47134426955029279 0.47368844333544141 0 0.46500555232536189 0.47417740391428947 0 0.47134426955029279 0.47368844333544141 0 0.46182455843666692 0.48003801300544052 0 0.46500555232536189 0.47417740391428947 0 0.46182455843666692 0.48003801300544052 0 0.45129430359450579 0.46437940187148707 0 0.46500555232536189 0.47417740391428947 0 0.44038191325580028 0.47607684009128992 0 0.46182455843666692 0.48003801300544052 0 0.44038191325580028 0.47607684009128992 0 0.43848230781037462 0.49560710379372003 0 0.46500555232536189 0.47417740391428947 0 0.44038191325580028 0.47607684009128992 0 0.45098968485129709 0.50000000000000144 0 0.43848230781037462 0.49560710379372003 0 0.42411925670221978 0.5 0 0.46182455843666692 0.48003801300544052 0 0.45098968485129709 0.50000000000000144 0 0.43848230781037462 0.49560710379372003 0 0.46182455843666692 0.48003801300544052 0 0.43848230781037462 0.49560710379372003 0 0.43848230781037462 0.49560710379372003 0 0.42821911553439862 0.48639832608641909 0 0.42411925670221978 0.5 0 0.42821911553439862 0.48639832608641909 0 0.42411925670221978 0.5 0 0.41575827418623862 0.47797627626828931 0 0.44038191325580028 0.47607684009128992 0 0.43848230781037462 0.49560710379372003 0 0.42821911553439862 0.48639832608641909 0 0.42411925670221978 0.5 0 0.41575827418623862 0.47797627626828931 0 0.39724882855314259 0.5 0 0.44038191325580028 0.47607684009128992 0 0.42821911553439862 0.48639832608641909 0 0.41575827418623862 0.47797627626828931 0 0.44038191325580028 0.47607684009128992 0 0.41575827418623862 0.47797627626828931 0 0.43616606769434613 0.46004181528381871 0 0.44038191325580028 0.47607684009128992 0 0.41575827418623862 0.47797627626828931 0 0.41575827418623862 0.47797627626828931 0 0.43616606769434613 0.46004181528381871 0 0.42129015501351241 0.45290584358031521 0 0.43729583528432431 0.43677784701540762 0 0.43616606769434613 0.46004181528381871 0 0.42129015501351241 0.45290584358031521 0 0.43729583528432431 0.43677784701540762 0 0.42129015501351241 0.45290584358031521 0 0.41953711443340619 0.43824761646961968 0 0.42129015501351241 0.45290584358031521 0 0.40418206940323181 0.46197230675396961 0 0.40040594386599998 0.44298753354361348 0 0.42129015501351241 0.45290584358031521 0 0.41953711443340619 0.43824761646961968 0 0.40040594386599998 0.44298753354361348 0 0.41575827418623862 0.47797627626828931 0 0.42129015501351241 0.45290584358031521 0 0.40418206940323181 0.46197230675396961 0 0.40418206940323181 0.46197230675396961 0 0.40040594386599998 0.44298753354361348 0 0.38643665273345862 0.45825653707792119 0 0.40418206940323181 0.46197230675396961 0 0.38643665273345862 0.45825653707792119 0 0.39113463511667668 0.47987571244528859 0 0.37762472033449418 0.43629098835606778 0 0.40040594386599998 0.44298753354361348 0 0.38643665273345862 0.45825653707792119 0 0.37762472033449418 0.43629098835606778 0 0.38643665273345862 0.45825653707792119 0 0.37246603769086117 0.46662032854883773 0 0.38643665273345862 0.45825653707792119 0 0.39113463511667668 0.47987571244528859 0 0.36651099604711479 0.48177514862228799 0 0.39113463511667668 0.47987571244528859 0 0.36651099604711479 0.48177514862228799 0 0.37246603769086117 0.46662032854883773 0 0.39113463511667668 0.47987571244528859 0 0.37037840040406528 0.5 0 0.39724882855314259 0.5 0 0.39113463511667668 0.47987571244528859 0 0.37037840040406528 0.5 0 0.36651099604711479 0.48177514862228799 0 0.39113463511667668 0.47987571244528859 0 0.41575827418623862 0.47797627626828931 0 0.39724882855314259 0.5 0 0.39113463511667668 0.47987571244528859 0 0.41575827418623862 0.47797627626828931 0 0.40418206940323181 0.46197230675396961 0 0.39113463511667668 0.47987571244528859 0 0.41575827418623862 0.47797627626828931 0 0.39113463511667668 0.47987571244528859 0 0.33183232550549391 0.092546048983542795 0 0.33512989108126678 0.074954655991794156 0 0.3496322816662481 0.087471909442182763 0 0.33183232550549391 0.092546048983542795 0 0.33512989108126678 0.074954655991794156 0 0.31838555977113409 0.076855326398205415 0 0.33512989108126678 0.074954655991794156 0 0.35099269979647801 0.054258115843171341 0 0.33512989108126678 0.074954655991794156 0 0.31838555977113409 0.076855326398205415 0 0.3332530564755371 0.056962774100586699 0 0.31838555977113409 0.076855326398205415 0 0.3332530564755371 0.056962774100586699 0 0.31482842755732687 0.054047871131739159 0 0.33183232550549391 0.092546048983542795 0 0.31838555977113409 0.076855326398205415 0 0.33183232550549391 0.092546048983542795 0 0.31838555977113409 0.076855326398205415 0 0.3150511116243383 0.09332013123180366 0 0.33183232550549391 0.092546048983542795 0 0.3150511116243383 0.09332013123180366 0 0.32099998476762009 0.10978351816781851 0 0.3150511116243383 0.09332013123180366 0 0.32099998476762009 0.10978351816781851 0 0.30229534200748698 0.10425167659986399 0 0.31971276993101799 0.1244230326331304 0 0.32099998476762009 0.10978351816781851 0 0.30185590029962761 0.1210714196444433 0 0.31971276993101799 0.1244230326331304 0 0.32099998476762009 0.10978351816781851 0 0.3326780516248819 0.12161491972370291 0 0.3326780516248819 0.12161491972370291 0 0.34527909123985367 0.1082367715688802 0 0.34516675227937188 0.1245666799755922 0 0.32099998476762009 0.10978351816781851 0 0.3326780516248819 0.12161491972370291 0 0.34527909123985367 0.1082367715688802 0 0.33183232550549391 0.092546048983542795 0 0.34527909123985367 0.1082367715688802 0 0.33183232550549391 0.092546048983542795 0 0.32099998476762009 0.10978351816781851 0 0.34527909123985367 0.1082367715688802 0 0.33183232550549391 0.092546048983542795 0 0.34527909123985367 0.1082367715688802 0 0.3496322816662481 0.087471909442182763 0 0.34527909123985367 0.1082367715688802 0 0.3644611438199572 0.100803704501796 0 0.3496322816662481 0.087471909442182763 0 0.34527909123985367 0.1082367715688802 0 0.35872585697421422 0.12392749415421681 0 0.3644611438199572 0.100803704501796 0 0.34527909123985367 0.1082367715688802 0 0.35872585697421422 0.12392749415421681 0 0.34527909123985367 0.1082367715688802 0 0.34516675227937188 0.1245666799755922 0 0.35872585697421422 0.12392749415421681 0 0.35872585697421422 0.12392749415421681 0 0.36915976594833949 0.1199798001985428 0 0.3644611438199572 0.100803704501796 0 0.35872585697421422 0.12392749415421681 0 0.3644611438199572 0.100803704501796 0 0.36915976594833949 0.1199798001985428 0 0.3644611438199572 0.100803704501796 0 0.37791396880342493 0.1153271289745038 0 0.36915976594833949 0.1199798001985428 0 0.37753456423920267 0.12606772520011819 0 0.37791396880342493 0.1153271289745038 0 0.3644611438199572 0.100803704501796 0 0.38239048044551732 0.10105814789166991 0 0.37791396880342493 0.1153271289745038 0 0.3644611438199572 0.100803704501796 0 0.3496322816662481 0.087471909442182763 0 0.37019643066569818 0.077679914849374587 0 0.3644611438199572 0.100803704501796 0 0.37019643066569818 0.077679914849374587 0 0.38007945782092589 0.088591357148056354 0 0.3644611438199572 0.100803704501796 0 0.37019643066569818 0.077679914849374587 0 0.3496322816662481 0.087471909442182763 0 0.354627969189385 0.070477193278171812 0 0.37019643066569818 0.077679914849374587 0 0.33512989108126678 0.074954655991794156 0 0.354627969189385 0.070477193278171812 0 0.35099269979647801 0.054258115843171341 0 0.33512989108126678 0.074954655991794156 0 0.3496322816662481 0.087471909442182763 0 0.354627969189385 0.070477193278171812 0 0.37019643066569818 0.077679914849374587 0 0.36718854273723422 0.058021370264336257 0 0.38348814788765401 0.061306227086249519 0 0.354627969189385 0.070477193278171812 0 0.37019643066569818 0.077679914849374587 0 0.36718854273723422 0.058021370264336257 0 0.36718854273723422 0.058021370264336257 0 0.36685550851168908 0.033561575694548471 0 0.35099269979647801 0.054258115843171341 0 0.36718854273723422 0.058021370264336257 0 0.36685550851168908 0.033561575694548471 0 0.37834334897691152 0.04591186500673252 0 0.36685550851168908 0.033561575694548471 0 0.35099269979647801 0.054258115843171341 0 0.36685550851168908 0.033561575694548471 0 0.34613699640871681 0.034109200698285137 0 0.35099269979647801 0.054258115843171341 0 0.354627969189385 0.070477193278171812 0 0.36718854273723422 0.058021370264336257 0 0.35099269979647801 0.054258115843171341 0 0.38271831722690208 0.01286503554592695 0 0.36705046236217842 -0.010151413808299909 0 0.36364914110051888 0.01467678976719604 0 0.38271831722690208 0.01286503554592695 0 0.36705046236217842 -0.010151413808299909 0 0.36685550851168908 0.033561575694548471 0 0.38271831722690208 0.01286503554592695 0 0.36685550851168908 0.033561575694548471 0 0.36364914110051888 0.01467678976719604 0 0.38271831722690208 0.01286503554592695 0 0.36685550851168908 0.033561575694548471 0 0.34613699640871681 0.034109200698285137 0 0.36364914110051888 0.01467678976719604 0 0.34613699640871681 0.034109200698285137 0 0.36364914110051888 0.01467678976719604 0 0.34507599742959921 0.0099912518389839687 0 0.36364914110051888 0.01467678976719604 0 0.34507599742959921 0.0099912518389839687 0 0.36705046236217842 -0.010151413808299909 0 0.34507599742959921 0.0099912518389839687 0 0.3213405256380108 0.01287573289299193 0 0.33358620685756429 -0.010514286594233299 0 0.34613699640871681 0.034109200698285137 0 0.3213405256380108 0.01287573289299193 0 0.32544537807402929 0.038810323446622018 0 0.34613699640871681 0.034109200698285137 0 0.34507599742959921 0.0099912518389839687 0 0.3213405256380108 0.01287573289299193 0 0.3213405256380108 0.01287573289299193 0 0.32544537807402929 0.038810323446622018 0 0.30781755710343461 0.033208664015647087 0 0.33512989108126678 0.074954655991794156 0 0.35099269979647801 0.054258115843171341 0 0.3332530564755371 0.056962774100586699 0 0.34613699640871681 0.034109200698285137 0 0.35099269979647801 0.054258115843171341 0 0.3332530564755371 0.056962774100586699 0 0.34613699640871681 0.034109200698285137 0 0.3332530564755371 0.056962774100586699 0 0.32544537807402929 0.038810323446622018 0 0.32544537807402929 0.038810323446622018 0 0.31482842755732687 0.054047871131739159 0 0.30781755710343461 0.033208664015647087 0 0.3332530564755371 0.056962774100586699 0 0.32544537807402929 0.038810323446622018 0 0.31482842755732687 0.054047871131739159 0 0.31482842755732687 0.054047871131739159 0 0.2964426925299054 0.047527027651343749 0 0.29864955932488568 0.066661355343028861 0 0.31482842755732687 0.054047871131739159 0 0.30781755710343461 0.033208664015647087 0 0.2964426925299054 0.047527027651343749 0 0.30781755710343461 0.033208664015647087 0 0.29323796508649991 0.034310924148814863 0 0.2964426925299054 0.047527027651343749 0 0.29323796508649991 0.034310924148814863 0 0.2964426925299054 0.047527027651343749 0 0.28052720537299319 0.037439746061064802 0 0.29323796508649991 0.034310924148814863 0 0.28458433088718371 0.0233148795233265 0 0.28052720537299319 0.037439746061064802 0 0.2964426925299054 0.047527027651343749 0 0.28042089888318139 0.055986092853604487 0 0.28052720537299319 0.037439746061064802 0 0.2964426925299054 0.047527027651343749 0 0.28042089888318139 0.055986092853604487 0 0.29864955932488568 0.066661355343028861 0 0.3213405256380108 0.01287573289299193 0 0.30074794684224537 0.016015283002501511 0 0.29747716901056448 -0.002932566790178141 0 0.3213405256380108 0.01287573289299193 0 0.30781755710343461 0.033208664015647087 0 0.30074794684224537 0.016015283002501511 0 0.30781755710343461 0.033208664015647087 0 0.29323796508649991 0.034310924148814863 0 0.30074794684224537 0.016015283002501511 0 0.29323796508649991 0.034310924148814863 0 0.30074794684224537 0.016015283002501511 0 0.28458433088718371 0.0233148795233265 0 0.30074794684224537 0.016015283002501511 0 0.28458433088718371 0.0233148795233265 0 0.27854720245428283 0.0066886364103462149 0 0.30074794684224537 0.016015283002501511 0 0.27854720245428283 0.0066886364103462149 0 0.29747716901056448 -0.002932566790178141 0 0.28458433088718371 0.0233148795233265 0 0.27854720245428283 0.0066886364103462149 0 0.26986133467989698 0.022119807993905099 0 0.28458433088718371 0.0233148795233265 0 0.26986133467989698 0.022119807993905099 0 0.28052720537299319 0.037439746061064802 0 0.24732928016819311 0.003842864563858316 0 0.24739028788927561 0.025315163976028111 0 0.26986133467989698 0.022119807993905099 0 0.24739028788927561 0.025315163976028111 0 0.26986133467989698 0.022119807993905099 0 0.26136463905208401 0.03638638147843426 0 0.24732928016819311 0.003842864563858316 0 0.26986133467989698 0.022119807993905099 0 0.24732928016819311 0.003842864563858316 0 0.27854720245428283 0.0066886364103462149 0 0.26986133467989698 0.022119807993905099 0 0.28042089888318139 0.055986092853604487 0 0.26136463905208401 0.03638638147843426 0 0.26203950398062897 0.064114028225092073 0 0.26986133467989698 0.022119807993905099 0 0.28052720537299319 0.037439746061064802 0 0.26136463905208401 0.03638638147843426 0 0.28042089888318139 0.055986092853604487 0 0.28052720537299319 0.037439746061064802 0 0.26136463905208401 0.03638638147843426 0 0.24995965013082411 0.044676572322646747 0 0.24739028788927561 0.025315163976028111 0 0.26136463905208401 0.03638638147843426 0 0.26136463905208401 0.03638638147843426 0 0.26203950398062897 0.064114028225092073 0 0.24995965013082411 0.044676572322646747 0 0.26136463905208401 0.03638638147843426 0 0.26203950398062897 0.064114028225092073 0 0.2442044530661836 0.057548197832841243 0 0.24995965013082411 0.044676572322646747 0 0.26203950398062897 0.064114028225092073 0 0.24961641041208221 0.079201354345002056 0 0.2442044530661836 0.057548197832841243 0 0.26203950398062897 0.064114028225092073 0 0.26203950398062897 0.064114028225092073 0 0.2627143689091741 0.091841674971749984 0 0.24961641041208221 0.079201354345002056 0 0.26203950398062897 0.064114028225092073 0 0.2627143689091741 0.091841674971749984 0 0.24093893683224391 0.096778397730709384 0 0.24961641041208221 0.079201354345002056 0 0.2627143689091741 0.091841674971749984 0 0.2627143689091741 0.091841674971749984 0 0.28217333546728729 0.077299058617215477 0 0.28589819068595579 0.09511510904366155 0 0.28042089888318139 0.055986092853604487 0 0.26203950398062897 0.064114028225092073 0 0.28217333546728729 0.077299058617215477 0 0.26203950398062897 0.064114028225092073 0 0.2627143689091741 0.091841674971749984 0 0.28217333546728729 0.077299058617215477 0 0.28217333546728729 0.077299058617215477 0 0.30040884981351468 0.085583776205629819 0 0.29864955932488568 0.066661355343028861 0 0.28042089888318139 0.055986092853604487 0 0.28217333546728729 0.077299058617215477 0 0.29864955932488568 0.066661355343028861 0 0.28217333546728729 0.077299058617215477 0 0.30040884981351468 0.085583776205629819 0 0.28589819068595579 0.09511510904366155 0 0.31838555977113409 0.076855326398205415 0 0.3150511116243383 0.09332013123180366 0 0.30040884981351468 0.085583776205629819 0 0.31838555977113409 0.076855326398205415 0 0.30040884981351468 0.085583776205629819 0 0.29864955932488568 0.066661355343028861 0 0.31838555977113409 0.076855326398205415 0 0.31482842755732687 0.054047871131739159 0 0.29864955932488568 0.066661355343028861 0 0.32099998476762009 0.10978351816781851 0 0.30185590029962761 0.1210714196444433 0 0.30229534200748698 0.10425167659986399 0 0.3150511116243383 0.09332013123180366 0 0.30040884981351468 0.085583776205629819 0 0.30229534200748698 0.10425167659986399 0 0.30040884981351468 0.085583776205629819 0 0.30229534200748698 0.10425167659986399 0 0.28589819068595579 0.09511510904366155 0 0.30229534200748698 0.10425167659986399 0 0.28589819068595579 0.09511510904366155 0 0.28266146530535158 0.1139303796234135 0 0.30185590029962761 0.1210714196444433 0 0.28266146530535158 0.1139303796234135 0 0.28680838442989492 0.1356207464722306 0 0.30185590029962761 0.1210714196444433 0 0.30229534200748698 0.10425167659986399 0 0.28266146530535158 0.1139303796234135 0 0.28266146530535158 0.1139303796234135 0 0.26338923383771912 0.1195693217184077 0 0.27413243832545092 0.12631831418113509 0 0.2627143689091741 0.091841674971749984 0 0.28589819068595579 0.09511510904366155 0 0.28266146530535158 0.1139303796234135 0 0.2627143689091741 0.091841674971749984 0 0.28266146530535158 0.1139303796234135 0 0.26338923383771912 0.1195693217184077 0 0.2627143689091741 0.091841674971749984 0 0.26338923383771912 0.1195693217184077 0 0.24848955125739691 0.1112316272798903 0 0.24093893683224391 0.096778397730709384 0 0.2627143689091741 0.091841674971749984 0 0.24848955125739691 0.1112316272798903 0 0.2627143689091741 0.091841674971749984 0 0.26338923383771912 0.1195693217184077 0 0.2488992206266587 0.1273653554163072 0 0.24848955125739691 0.1112316272798903 0 0.26338923383771912 0.1195693217184077 0 0.2488992206266587 0.1273653554163072 0 0.26338923383771912 0.1195693217184077 0 0.26367066972883779 0.13615280891048859 0 0.2488992206266587 0.1273653554163072 0 0.25182091587038291 0.13921848903949871 0 0.26367066972883779 0.13615280891048859 0 0.28266146530535158 0.1139303796234135 0 0.27413243832545092 0.12631831418113509 0 0.28680838442989492 0.1356207464722306 0 0.26367066972883779 0.13615280891048859 0 0.28680838442989492 0.1356207464722306 0 0.26367066972883779 0.13615280891048859 0 0.27413243832545092 0.12631831418113509 0 0.28680838442989492 0.1356207464722306 0 0.26367066972883779 0.13615280891048859 0 0.27543847534084059 0.1445384091226814 0 0.28680838442989492 0.1356207464722306 0 0.26338923383771912 0.1195693217184077 0 0.26367066972883779 0.13615280891048859 0 0.27413243832545092 0.12631831418113509 0 0.26367066972883779 0.13615280891048859 0 0.27543847534084059 0.1445384091226814 0 0.2610794264551477 0.14786087154855951 0 0.27543847534084059 0.1445384091226814 0 0.2610794264551477 0.14786087154855951 0 0.26954420693236192 0.15890660189558681 0 0.2610794264551477 0.14786087154855951 0 0.25784905684987869 0.15878543888744859 0 0.26954420693236192 0.15890660189558681 0 0.25182091587038291 0.13921848903949871 0 0.26367066972883779 0.13615280891048859 0 0.2610794264551477 0.14786087154855951 0 0.24815323400858449 0.14956348143565321 0 0.25182091587038291 0.13921848903949871 0 0.2610794264551477 0.14786087154855951 0 0.24815323400858449 0.14956348143565321 0 0.2610794264551477 0.14786087154855951 0 0.25784905684987869 0.15878543888744859 0 0.24534407378938231 0.1755845064891712 0 0.24512012053518681 0.1608794391810448 0 0.26759402687945821 0.17833878838732611 0 0.24512012053518681 0.1608794391810448 0 0.26759402687945821 0.17833878838732611 0 0.24512012053518681 0.1608794391810448 0 0.25784905684987869 0.15878543888744859 0 0.26759402687945821 0.17833878838732611 0 0.24512012053518681 0.1608794391810448 0 0.24815323400858449 0.14956348143565321 0 0.25784905684987869 0.15878543888744859 0 0.25784905684987869 0.15878543888744859 0 0.26759402687945821 0.17833878838732611 0 0.26954420693236192 0.15890660189558681 0 0.24534407378938231 0.1755845064891712 0 0.25149728978901681 0.18628903406191061 0 0.26759402687945821 0.17833878838732611 0 0.25149728978901681 0.18628903406191061 0 0.26759402687945821 0.17833878838732611 0 0.26384666387446942 0.191022089341298 0 0.25149728978901681 0.18628903406191061 0 0.26759402687945821 0.17833878838732611 0 0.26759402687945821 0.17833878838732611 0 0.26384666387446942 0.191022089341298 0 0.28403888348501533 0.1911143374941591 0 0.26759402687945821 0.17833878838732611 0 0.28940643715016889 0.16756554785835329 0 0.28403888348501533 0.1911143374941591 0 0.26759402687945821 0.17833878838732611 0 0.28403888348501533 0.1911143374941591 0 0.26759402687945821 0.17833878838732611 0 0.28940643715016889 0.16756554785835329 0 0.27543847534084059 0.1445384091226814 0 0.26954420693236192 0.15890660189558681 0 0.28940643715016889 0.16756554785835329 0 0.26759402687945821 0.17833878838732611 0 0.26954420693236192 0.15890660189558681 0 0.28940643715016889 0.16756554785835329 0 0.28940643715016889 0.16756554785835329 0 0.30258359316967243 0.1842151342630822 0 0.28403888348501533 0.1911143374941591 0 0.30258359316967243 0.1842151342630822 0 0.3091366354721799 0.17142053400200019 0 0.3212962424816791 0.18145938292715361 0 0.28940643715016889 0.16756554785835329 0 0.30258359316967243 0.1842151342630822 0 0.3091366354721799 0.17142053400200019 0 0.28940643715016889 0.16756554785835329 0 0.31121884742087952 0.15679230732937999 0 0.28940643715016889 0.16756554785835329 0 0.31121884742087952 0.15679230732937999 0 0.29472330454262918 0.14990824132579311 0 0.28940643715016889 0.16756554785835329 0 0.3091366354721799 0.17142053400200019 0 0.31121884742087952 0.15679230732937999 0 0.31121884742087952 0.15679230732937999 0 0.30994609913095178 0.13508868403397259 0 0.29472330454262918 0.14990824132579311 0 0.31971276993101799 0.1244230326331304 0 0.30185590029962761 0.1210714196444433 0 0.30994609913095178 0.13508868403397259 0 0.30994609913095178 0.13508868403397259 0 0.28680838442989492 0.1356207464722306 0 0.29472330454262918 0.14990824132579311 0 0.30185590029962761 0.1210714196444433 0 0.30994609913095178 0.13508868403397259 0 0.28680838442989492 0.1356207464722306 0 0.30994609913095178 0.13508868403397259 0 0.28680838442989492 0.1356207464722306 0 0.27543847534084059 0.1445384091226814 0 0.28940643715016889 0.16756554785835329 0 0.29472330454262918 0.14990824132579311 0 0.27543847534084059 0.1445384091226814 0 0.28680838442989492 0.1356207464722306 0 0.29472330454262918 0.14990824132579311 0 0.26209420568568409 0.25604433713168329 0 0.27879395484657771 0.23991099963477919 0 0.26528861940393611 0.2324050612734283 0 0.26209420568568409 0.25604433713168329 0 0.28815450863723102 0.25327697612913169 0 0.27879395484657771 0.23991099963477919 0 0.26209420568568409 0.25604433713168329 0 0.26528861940393611 0.2324050612734283 0 0.24398959813062701 0.2460479105434944 0 0.26209420568568409 0.25604433713168329 0 0.26528861940393611 0.2324050612734283 0 0.24654155350719351 0.22732013598330689 0 0.24398959813062701 0.2460479105434944 0 0.26528861940393611 0.2324050612734283 0 0.24654155350719351 0.22732013598330689 0 0.26528861940393611 0.2324050612734283 0 0.25971809707417748 0.21829270572930759 0 0.2468767086260967 0.21195937714617599 0 0.24654155350719351 0.22732013598330689 0 0.25971809707417748 0.21829270572930759 0 0.27879395484657771 0.23991099963477919 0 0.26528861940393611 0.2324050612734283 0 0.28142682961601118 0.2185340047711572 0 0.26528861940393611 0.2324050612734283 0 0.25971809707417748 0.21829270572930759 0 0.28142682961601118 0.2185340047711572 0 0.26547792562793449 0.20414641171130521 0 0.28403888348501533 0.1911143374941591 0 0.28142682961601118 0.2185340047711572 0 0.26547792562793449 0.20414641171130521 0 0.25971809707417748 0.21829270572930759 0 0.28142682961601118 0.2185340047711572 0 0.2468767086260967 0.21195937714617599 0 0.26547792562793449 0.20414641171130521 0 0.25971809707417748 0.21829270572930759 0 0.24828978234282939 0.19779669924652041 0 0.2468767086260967 0.21195937714617599 0 0.26547792562793449 0.20414641171130521 0 0.24828978234282939 0.19779669924652041 0 0.26547792562793449 0.20414641171130521 0 0.26384666387446942 0.191022089341298 0 0.24828978234282939 0.19779669924652041 0 0.25149728978901681 0.18628903406191061 0 0.26384666387446942 0.191022089341298 0 0.26547792562793449 0.20414641171130521 0 0.26384666387446942 0.191022089341298 0 0.28403888348501533 0.1911143374941591 0 0.30258359316967243 0.1842151342630822 0 0.28403888348501533 0.1911143374941591 0 0.30048374009057199 0.20388988660099269 0 0.28403888348501533 0.1911143374941591 0 0.30048374009057199 0.20388988660099269 0 0.30258359316967243 0.1842151342630822 0 0.30048374009057199 0.20388988660099269 0 0.32297832611295252 0.20264319381846951 0 0.30048374009057199 0.20388988660099269 0 0.31692859669612861 0.21666543570782629 0 0.30048374009057199 0.20388988660099269 0 0.30231316980984252 0.22092176915558001 0 0.31692859669612861 0.21666543570782629 0 0.28403888348501533 0.1911143374941591 0 0.30048374009057199 0.20388988660099269 0 0.28142682961601118 0.2185340047711572 0 0.30048374009057199 0.20388988660099269 0 0.28142682961601118 0.2185340047711572 0 0.30231316980984252 0.22092176915558001 0 0.28142682961601118 0.2185340047711572 0 0.30231316980984252 0.22092176915558001 0 0.29652036204432891 0.23709605687043009 0 0.27879395484657771 0.23991099963477919 0 0.28142682961601118 0.2185340047711572 0 0.29652036204432891 0.23709605687043009 0 0.30231316980984252 0.22092176915558001 0 0.29652036204432891 0.23709605687043009 0 0.31571431184121018 0.22964427945032109 0 0.30231316980984252 0.22092176915558001 0 0.31571431184121018 0.22964427945032109 0 0.31692859669612861 0.21666543570782629 0 0.30716404224505339 0.24414329086701411 0 0.29652036204432891 0.23709605687043009 0 0.31571431184121018 0.22964427945032109 0 0.30753047011456419 0.25992793350222199 0 0.30716404224505339 0.24414329086701411 0 0.32193184813895392 0.2411014656226422 0 0.30020936556153333 0.25251933025261097 0 0.30716404224505339 0.24414329086701411 0 0.29652036204432891 0.23709605687043009 0 0.28815450863723102 0.25327697612913169 0 0.30020936556153333 0.25251933025261097 0 0.29652036204432891 0.23709605687043009 0 0.28815450863723102 0.25327697612913169 0 0.27879395484657771 0.23991099963477919 0 0.29652036204432891 0.23709605687043009 0 0.33980541711523921 0.23722399945718201 0 0.3353635226254858 0.24873662419451709 0 0.32193184813895392 0.2411014656226422 0 0.33980541711523921 0.23722399945718201 0 0.3353635226254858 0.24873662419451709 0 0.35048540294880992 0.24333871206296781 0 0.3443376629253021 0.25725650978514841 0 0.3353635226254858 0.24873662419451709 0 0.35048540294880992 0.24333871206296781 0 0.32638010458252181 0.25263534044757108 0 0.3353635226254858 0.24873662419451709 0 0.32193184813895392 0.2411014656226422 0 0.31744432938067518 0.25479033738529899 0 0.32638010458252181 0.25263534044757108 0 0.32193184813895392 0.2411014656226422 0 0.30716404224505339 0.24414329086701411 0 0.32193184813895392 0.2411014656226422 0 0.31571431184121018 0.22964427945032109 0 0.32193184813895392 0.2411014656226422 0 0.33633322616334338 0.22227499774306211 0 0.32466384532353793 0.21816717685822451 0 0.32193184813895392 0.2411014656226422 0 0.31571431184121018 0.22964427945032109 0 0.32466384532353793 0.21816717685822451 0 0.31571431184121018 0.22964427945032109 0 0.32466384532353793 0.21816717685822451 0 0.31692859669612861 0.21666543570782629 0 0.32193184813895392 0.2411014656226422 0 0.33633322616334338 0.22227499774306211 0 0.33980541711523921 0.23722399945718201 0 0.32193184813895392 0.2411014656226422 0 0.33633322616334338 0.22227499774306211 0 0.33633322616334338 0.22227499774306211 0 0.32466384532353793 0.21816717685822451 0 0.33687340868483318 0.2100950761519598 0 0.32466384532353793 0.21816717685822451 0 0.33649375624495942 0.19553294473934041 0 0.33633322616334338 0.22227499774306211 0 0.33687340868483318 0.2100950761519598 0 0.35000280700749159 0.20440518526721221 0 0.33633322616334338 0.22227499774306211 0 0.35000280700749159 0.20440518526721221 0 0.32466384532353793 0.21816717685822451 0 0.33649375624495942 0.19553294473934041 0 0.33687340868483318 0.2100950761519598 0 0.33649375624495942 0.19553294473934041 0 0.35000280700749159 0.20440518526721221 0 0.33633322616334338 0.22227499774306211 0 0.33687340868483318 0.2100950761519598 0 0.32466384532353793 0.21816717685822451 0 0.32466384532353793 0.21816717685822451 0 0.32297832611295252 0.20264319381846951 0 0.33649375624495942 0.19553294473934041 0 0.32466384532353793 0.21816717685822451 0 0.31692859669612861 0.21666543570782629 0 0.32297832611295252 0.20264319381846951 0 0.30048374009057199 0.20388988660099269 0 0.31692859669612861 0.21666543570782629 0 0.32297832611295252 0.20264319381846951 0 0.32297832611295252 0.20264319381846951 0 0.33649375624495942 0.19553294473934041 0 0.3212962424816791 0.18145938292715361 0 0.30258359316967243 0.1842151342630822 0 0.32297832611295252 0.20264319381846951 0 0.3212962424816791 0.18145938292715361 0 0.35000280700749159 0.20440518526721221 0 0.36367238785163869 0.18653537279136129 0 0.36224424258144222 0.1994072308652631 0 0.35000280700749159 0.20440518526721221 0 0.36367238785163869 0.18653537279136129 0 0.34975910316672248 0.1900555579900193 0 0.35000280700749159 0.20440518526721221 0 0.36367238785163869 0.18653537279136129 0 0.33649375624495942 0.19553294473934041 0 0.34975910316672248 0.1900555579900193 0 0.35000280700749159 0.20440518526721221 0 0.37222141481831961 0.1941308055265791 0 0.36442727889531967 0.2117758599336837 0 0.37222141481831961 0.1941308055265791 0 0.36224424258144222 0.1994072308652631 0 0.36367238785163869 0.18653537279136129 0 0.37222141481831961 0.1941308055265791 0 0.36224424258144222 0.1994072308652631 0 0.36442727889531967 0.2117758599336837 0 0.37222141481831961 0.1941308055265791 0 0.36367238785163869 0.18653537279136129 0 0.33633322616334338 0.22227499774306211 0 0.35261114299035651 0.2171003932795354 0 0.35000280700749159 0.20440518526721221 0 0.36442727889531967 0.2117758599336837 0 0.35261114299035651 0.2171003932795354 0 0.35000280700749159 0.20440518526721221 0 0.36224424258144222 0.1994072308652631 0 0.36442727889531967 0.2117758599336837 0 0.35000280700749159 0.20440518526721221 0 0.33633322616334338 0.22227499774306211 0 0.35663314297231857 0.22942091434078771 0 0.33633322616334338 0.22227499774306211 0 0.35261114299035651 0.2171003932795354 0 0.35663314297231857 0.22942091434078771 0 0.36442727889531967 0.2117758599336837 0 0.35261114299035651 0.2171003932795354 0 0.35663314297231857 0.22942091434078771 0 0.33980541711523921 0.23722399945718201 0 0.33633322616334338 0.22227499774306211 0 0.35663314297231857 0.22942091434078771 0 0.35663314297231857 0.22942091434078771 0 0.37730843189744362 0.23669896831919229 0 0.35663314297231857 0.22942091434078771 0 0.37471279923894252 0.22343008836101261 0 0.37730843189744362 0.23669896831919229 0 0.36442727889531967 0.2117758599336837 0 0.35663314297231857 0.22942091434078771 0 0.37471279923894252 0.22343008836101261 0 0.36442727889531967 0.2117758599336837 0 0.35663314297231857 0.22942091434078771 0 0.35663314297231857 0.22942091434078771 0 0.3645563033821877 0.24268260694936711 0 0.37730843189744362 0.23669896831919229 0 0.3816707290707696 0.2528369008378113 0 0.3645563033821877 0.24268260694936711 0 0.37730843189744362 0.23669896831919229 0 0.36106866797830017 0.25633021158225711 0 0.3645563033821877 0.24268260694936711 0 0.35048540294880992 0.24333871206296781 0 0.33980541711523921 0.23722399945718201 0 0.35663314297231857 0.22942091434078771 0 0.35048540294880992 0.24333871206296781 0 0.35663314297231857 0.22942091434078771 0 0.3645563033821877 0.24268260694936711 0 0.35048540294880992 0.24333871206296781 0 0.35663314297231857 0.22942091434078771 0 0.35048540294880992 0.24333871206296781 0 0.33303125769158998 0.1460190668004068 0 0.34090986837642878 0.14305533949781549 0 0.33308381383200869 0.13455662159571449 0 0.33303125769158998 0.1460190668004068 0 0.33308381383200869 0.13455662159571449 0 0.31917684744159669 0.14543650264450059 0 0.33303125769158998 0.1460190668004068 0 0.32913166611181199 0.1558474676504312 0 0.34050532358316982 0.15567046999998299 0 0.34050532358316982 0.15567046999998299 0 0.34054864459786199 0.1480192993411481 0 0.34774812874025979 0.14733232106638719 0 0.33303125769158998 0.1460190668004068 0 0.34050532358316982 0.15567046999998299 0 0.34054864459786199 0.1480192993411481 0 0.33303125769158998 0.1460190668004068 0 0.34054864459786199 0.1480192993411481 0 0.34090986837642878 0.14305533949781549 0 0.34054864459786199 0.1480192993411481 0 0.34090986837642878 0.14305533949781549 0 0.34774812874025979 0.14733232106638719 0 0.34090986837642878 0.14305533949781549 0 0.33308381383200869 0.13455662159571449 0 0.34449083487044069 0.13974221032934339 0 0.3326780516248819 0.12161491972370291 0 0.34516675227937188 0.1245666799755922 0 0.33308381383200869 0.13455662159571449 0 0.31971276993101799 0.1244230326331304 0 0.3326780516248819 0.12161491972370291 0 0.33308381383200869 0.13455662159571449 0 0.30994609913095178 0.13508868403397259 0 0.33308381383200869 0.13455662159571449 0 0.30994609913095178 0.13508868403397259 0 0.33308381383200869 0.13455662159571449 0 0.31917684744159669 0.14543650264450059 0 0.31971276993101799 0.1244230326331304 0 0.30994609913095178 0.13508868403397259 0 0.33308381383200869 0.13455662159571449 0 0.31121884742087952 0.15679230732937999 0 0.33303125769158998 0.1460190668004068 0 0.31121884742087952 0.15679230732937999 0 0.33303125769158998 0.1460190668004068 0 0.31917684744159669 0.14543650264450059 0 0.31121884742087952 0.15679230732937999 0 0.30994609913095178 0.13508868403397259 0 0.31917684744159669 0.14543650264450059 0 0.31121884742087952 0.15679230732937999 0 0.33303125769158998 0.1460190668004068 0 0.32913166611181199 0.1558474676504312 0 0.31121884742087952 0.15679230732937999 0 0.32913166611181199 0.1558474676504312 0 0.32117805713849967 0.16707029763203191 0 0.32913166611181199 0.1558474676504312 0 0.32117805713849967 0.16707029763203191 0 0.33219797967443071 0.17305705081131029 0 0.3091366354721799 0.17142053400200019 0 0.31121884742087952 0.15679230732937999 0 0.32117805713849967 0.16707029763203191 0 0.3091366354721799 0.17142053400200019 0 0.32117805713849967 0.16707029763203191 0 0.3212962424816791 0.18145938292715361 0 0.32117805713849967 0.16707029763203191 0 0.3212962424816791 0.18145938292715361 0 0.33219797967443071 0.17305705081131029 0 0.33649375624495942 0.19553294473934041 0 0.34832366716638141 0.17289871262045661 0 0.33649375624495942 0.19553294473934041 0 0.3212962424816791 0.18145938292715361 0 0.33219797967443071 0.17305705081131029 0 0.33649375624495942 0.19553294473934041 0 0.33219797967443071 0.17305705081131029 0 0.34832366716638141 0.17289871262045661 0 0.32913166611181199 0.1558474676504312 0 0.34832366716638141 0.17289871262045661 0 0.32913166611181199 0.1558474676504312 0 0.33219797967443071 0.17305705081131029 0 0.34832366716638141 0.17289871262045661 0 0.32913166611181199 0.1558474676504312 0 0.34050532358316982 0.15567046999998299 0 0.34832366716638141 0.17289871262045661 0 0.34832366716638141 0.17289871262045661 0 0.36126422970393501 0.14813946479775411 0 0.34896739671965149 0.16327209684407809 0 0.34832366716638141 0.17289871262045661 0 0.36126422970393501 0.14813946479775411 0 0.34050532358316982 0.15567046999998299 0 0.34896739671965149 0.16327209684407809 0 0.34832366716638141 0.17289871262045661 0 0.34832366716638141 0.17289871262045661 0 0.36423237714154749 0.1670180019941363 0 0.36126422970393501 0.14813946479775411 0 0.33649375624495942 0.19553294473934041 0 0.34975910316672248 0.1900555579900193 0 0.34832366716638141 0.17289871262045661 0 0.34832366716638141 0.17289871262045661 0 0.36367238785163869 0.18653537279136129 0 0.36423237714154749 0.1670180019941363 0 0.34975910316672248 0.1900555579900193 0 0.34832366716638141 0.17289871262045661 0 0.36367238785163869 0.18653537279136129 0 0.34832366716638141 0.17289871262045661 0 0.36367238785163869 0.18653537279136129 0 0.36367238785163869 0.18653537279136129 0 0.37515835008674581 0.17152013614393311 0 0.38015778555882329 0.17616374735688389 0 0.37222141481831961 0.1941308055265791 0 0.36367238785163869 0.18653537279136129 0 0.38015778555882329 0.17616374735688389 0 0.36367238785163869 0.18653537279136129 0 0.36423237714154749 0.1670180019941363 0 0.37515835008674581 0.17152013614393311 0 0.36367238785163869 0.18653537279136129 0 0.37515835008674581 0.17152013614393311 0 0.36423237714154749 0.1670180019941363 0 0.37089251303179588 0.15539109011888119 0 0.37515835008674581 0.17152013614393311 0 0.36423237714154749 0.1670180019941363 0 0.37089251303179588 0.15539109011888119 0 0.36126422970393501 0.14813946479775411 0 0.37089251303179588 0.15539109011888119 0 0.36126422970393501 0.14813946479775411 0 0.36716329590489949 0.13377294816207841 0 0.37089251303179588 0.15539109011888119 0 0.36716329590489949 0.13377294816207841 0 0.38664431232185259 0.15650489949650459 0 0.34050532358316982 0.15567046999998299 0 0.34896739671965149 0.16327209684407809 0 0.34774812874025979 0.14733232106638719 0 0.34896739671965149 0.16327209684407809 0 0.3562215285330656 0.13402455915745731 0 0.34896739671965149 0.16327209684407809 0 0.36126422970393501 0.14813946479775411 0 0.3562215285330656 0.13402455915745731 0 0.34896739671965149 0.16327209684407809 0 0.34774812874025979 0.14733232106638719 0 0.3562215285330656 0.13402455915745731 0 0.34090986837642878 0.14305533949781549 0 0.34774812874025979 0.14733232106638719 0 0.34449083487044069 0.13974221032934339 0 0.34516675227937188 0.1245666799755922 0 0.33308381383200869 0.13455662159571449 0 0.3562215285330656 0.13402455915745731 0 0.33308381383200869 0.13455662159571449 0 0.3562215285330656 0.13402455915745731 0 0.33308381383200869 0.13455662159571449 0 0.34449083487044069 0.13974221032934339 0 0.3562215285330656 0.13402455915745731 0 0.34774812874025979 0.14733232106638719 0 0.34449083487044069 0.13974221032934339 0 0.3562215285330656 0.13402455915745731 0 0.34516675227937188 0.1245666799755922 0 0.35872585697421422 0.12392749415421681 0 0.3562215285330656 0.13402455915745731 0 0.35872585697421422 0.12392749415421681 0 0.3562215285330656 0.13402455915745731 0 0.35872585697421422 0.12392749415421681 0 0.36915976594833949 0.1199798001985428 0 0.36716329590489949 0.13377294816207841 0 0.35872585697421422 0.12392749415421681 0 0.3562215285330656 0.13402455915745731 0 0.36716329590489949 0.13377294816207841 0 0.35872585697421422 0.12392749415421681 0 0.36716329590489949 0.13377294816207841 0 0.3562215285330656 0.13402455915745731 0 0.36716329590489949 0.13377294816207841 0 0.36126422970393501 0.14813946479775411 0 0.3562215285330656 0.13402455915745731 0 0.36716329590489949 0.13377294816207841 0 0.36915976594833949 0.1199798001985428 0 0.36716329590489949 0.13377294816207841 0 0.37753456423920267 0.12606772520011819 0 0.36716329590489949 0.13377294816207841 0 0.38801518445112498 0.13329344935221171 0 0.3840530039770414 0.1436090404046492 0 0.36716329590489949 0.13377294816207841 0 0.37753456423920267 0.12606772520011819 0 0.38801518445112498 0.13329344935221171 0 0.36716329590489949 0.13377294816207841 0 0.38801518445112498 0.13329344935221171 0 0.38801518445112498 0.13329344935221171 0 0.3950438134842178 0.1424634404538348 0 0.3840530039770414 0.1436090404046492 0 0.37753456423920267 0.12606772520011819 0 0.38801518445112498 0.13329344935221171 0 0.38603097931252928 0.1230784595495979 0 0.38801518445112498 0.13329344935221171 0 0.38603097931252928 0.1230784595495979 0 0.39819014705471523 0.12213929996890741 0 0.38801518445112498 0.13329344935221171 0 0.40886707299735048 0.1328139505423451 0 0.38801518445112498 0.13329344935221171 0 0.3950438134842178 0.1424634404538348 0 0.40886707299735048 0.1328139505423451 0 0.38801518445112498 0.13329344935221171 0 0.40886707299735048 0.1328139505423451 0 0.39819014705471523 0.12213929996890741 0 0.3950438134842178 0.1424634404538348 0 0.40886707299735048 0.1328139505423451 0 0.40745851948413142 0.14549878257243989 0 0.3950438134842178 0.1424634404538348 0 0.38892012933468539 0.15352979559885299 0 0.38809415629932292 0.15819668918718699 0 0.39877997474722449 0.15121272373588721 0 0.3950438134842178 0.1424634404538348 0 0.38809415629932292 0.15819668918718699 0 0.39877997474722449 0.15121272373588721 0 0.38809415629932292 0.15819668918718699 0 0.40452340972122658 0.1586919827300865 0 0.3950438134842178 0.1424634404538348 0 0.38809415629932292 0.15819668918718699 0 0.39877997474722449 0.15121272373588721 0 0.40452340972122658 0.1586919827300865 0 0.40745851948413142 0.14549878257243989 0 0.39877997474722449 0.15121272373588721 0 0.3950438134842178 0.1424634404538348 0 0.40745851948413142 0.14549878257243989 0 0.38892012933468539 0.15352979559885299 0 0.3840530039770414 0.1436090404046492 0 0.38664431232185259 0.15650489949650459 0 0.36716329590489949 0.13377294816207841 0 0.3840530039770414 0.1436090404046492 0 0.38664431232185259 0.15650489949650459 0 0.36716329590489949 0.13377294816207841 0 0.38664431232185259 0.15650489949650459 0 0.38892012933468539 0.15352979559885299 0 0.38809415629932292 0.15819668918718699 0 0.38664431232185259 0.15650489949650459 0 0.38892012933468539 0.15352979559885299 0 0.38664431232185259 0.15650489949650459 0 0.3950438134842178 0.1424634404538348 0 0.38892012933468539 0.15352979559885299 0 0.3840530039770414 0.1436090404046492 0 0.38809415629932292 0.15819668918718699 0 0.38015778555882329 0.17616374735688389 0 0.37515835008674581 0.17152013614393311 0 0.38809415629932292 0.15819668918718699 0 0.38015778555882329 0.17616374735688389 0 0.38809415629932292 0.15819668918718699 0 0.38015778555882329 0.17616374735688389 0 0.40047070050072697 0.17263859480715299 0 0.37515835008674581 0.17152013614393311 0 0.38664431232185259 0.15650489949650459 0 0.37089251303179588 0.15539109011888119 0 0.37515835008674581 0.17152013614393311 0 0.38664431232185259 0.15650489949650459 0 0.37515835008674581 0.17152013614393311 0 0.38809415629932292 0.15819668918718699 0 0.38664431232185259 0.15650489949650459 0 0.38809415629932292 0.15819668918718699 0 0.38664431232185259 0.15650489949650459 0 0.37222141481831961 0.1941308055265791 0 0.38015778555882329 0.17616374735688389 0 0.37222141481831961 0.1941308055265791 0 0.38015778555882329 0.17616374735688389 0 0.39435768033027002 0.19017022674268841 0 0.40047070050072697 0.17263859480715299 0 0.41284724470213169 0.18708050042711841 0 0.39435768033027002 0.19017022674268841 0 0.38015778555882329 0.17616374735688389 0 0.40047070050072697 0.17263859480715299 0 0.39435768033027002 0.19017022674268841 0 0.38809415629932292 0.15819668918718699 0 0.40047070050072697 0.17263859480715299 0 0.40452340972122658 0.1586919827300865 0 0.38809415629932292 0.15819668918718699 0 0.40047070050072697 0.17263859480715299 0 0.40047070050072697 0.17263859480715299 0 0.40452340972122658 0.1586919827300865 0 0.41307107782247982 0.16994210829564371 0 0.40452340972122658 0.1586919827300865 0 0.41307107782247982 0.16994210829564371 0 0.42284890683298237 0.15726498400151681 0 0.41307107782247982 0.16994210829564371 0 0.42466512735533091 0.1740344795123438 0 0.42284890683298237 0.15726498400151681 0 0.41307107782247982 0.16994210829564371 0 0.41284724470213169 0.18708050042711841 0 0.42466512735533091 0.1740344795123438 0 0.40047070050072697 0.17263859480715299 0 0.41307107782247982 0.16994210829564371 0 0.41284724470213169 0.18708050042711841 0 0.40047070050072697 0.17263859480715299 0 0.41284724470213169 0.18708050042711841 0 0.42466512735533091 0.1740344795123438 0 0.43675658933864381 0.184788916277277 0 0.43681308752224052 0.16773842278749321 0 0.41284724470213169 0.18708050042711841 0 0.42466512735533091 0.1740344795123438 0 0.43675658933864381 0.184788916277277 0 0.42466512735533091 0.1740344795123438 0 0.43681308752224052 0.16773842278749321 0 0.42284890683298237 0.15726498400151681 0 0.43681308752224052 0.16773842278749321 0 0.42284890683298237 0.15726498400151681 0 0.44719886262975062 0.15018522011558519 0 0.42284890683298237 0.15726498400151681 0 0.42493610681773503 0.13989144436705489 0 0.44719886262975062 0.15018522011558519 0 0.42493610681773503 0.13989144436705489 0 0.44091582039847049 0.1305950391239534 0 0.42366000266713089 0.1228445275503523 0 0.42493610681773503 0.13989144436705489 0 0.40886707299735048 0.1328139505423451 0 0.40745851948413142 0.14549878257243989 0 0.42493610681773503 0.13989144436705489 0 0.40886707299735048 0.1328139505423451 0 0.42366000266713089 0.1228445275503523 0 0.40452340972122658 0.1586919827300865 0 0.42284890683298237 0.15726498400151681 0 0.40745851948413142 0.14549878257243989 0 0.42284890683298237 0.15726498400151681 0 0.42493610681773503 0.13989144436705489 0 0.40745851948413142 0.14549878257243989 0 0.39798372082256839 0.2439770222975968 0 0.39510821727830558 0.2269700278130887 0 0.40926708219655239 0.23365577142783081 0 0.39798372082256839 0.2439770222975968 0 0.37730843189744362 0.23669896831919229 0 0.3816707290707696 0.2528369008378113 0 0.39798372082256839 0.2439770222975968 0 0.37730843189744362 0.23669896831919229 0 0.39798372082256839 0.2439770222975968 0 0.37730843189744362 0.23669896831919229 0 0.39510821727830558 0.2269700278130887 0 0.37471279923894252 0.22343008836101261 0 0.37730843189744362 0.23669896831919229 0 0.39510821727830558 0.2269700278130887 0 0.37471279923894252 0.22343008836101261 0 0.39510821727830558 0.2269700278130887 0 0.38971159319660931 0.20967005624096299 0 0.39510821727830558 0.2269700278130887 0 0.4058153679914912 0.2149735365994947 0 0.41447501496961209 0.22400841249435899 0 0.39510821727830558 0.2269700278130887 0 0.4058153679914912 0.2149735365994947 0 0.38971159319660931 0.20967005624096299 0 0.4058153679914912 0.2149735365994947 0 0.38971159319660931 0.20967005624096299 0 0.41073734320500671 0.2013376560974319 0 0.36442727889531967 0.2117758599336837 0 0.37471279923894252 0.22343008836101261 0 0.38971159319660931 0.20967005624096299 0 0.37222141481831961 0.1941308055265791 0 0.36442727889531967 0.2117758599336837 0 0.38971159319660931 0.20967005624096299 0 0.37222141481831961 0.1941308055265791 0 0.38971159319660931 0.20967005624096299 0 0.37222141481831961 0.1941308055265791 0 0.38971159319660931 0.20967005624096299 0 0.39435768033027002 0.19017022674268841 0 0.41284724470213169 0.18708050042711841 0 0.39435768033027002 0.19017022674268841 0 0.41073734320500671 0.2013376560974319 0 0.38971159319660931 0.20967005624096299 0 0.39435768033027002 0.19017022674268841 0 0.41073734320500671 0.2013376560974319 0 0.41284724470213169 0.18708050042711841 0 0.41073734320500671 0.2013376560974319 0 0.42871891365593068 0.20116084263986331 0 0.41284724470213169 0.18708050042711841 0 0.43675658933864381 0.184788916277277 0 0.42871891365593068 0.20116084263986331 0 0.43675658933864381 0.184788916277277 0 0.42871891365593068 0.20116084263986331 0 0.4448866527527342 0.197792041890129 0 0.42871891365593068 0.20116084263986331 0 0.4336061741501181 0.2154931410657534 0 0.41999673244059788 0.21360181040439311 0 0.42871891365593068 0.20116084263986331 0 0.4336061741501181 0.2154931410657534 0 0.44207635447082788 0.20892284809896189 0 0.4336061741501181 0.2154931410657534 0 0.41999673244059788 0.21360181040439311 0 0.42662758067142881 0.2246372735294567 0 0.41073734320500671 0.2013376560974319 0 0.42871891365593068 0.20116084263986331 0 0.41999673244059788 0.21360181040439311 0 0.4058153679914912 0.2149735365994947 0 0.41073734320500671 0.2013376560974319 0 0.41999673244059788 0.21360181040439311 0 0.4058153679914912 0.2149735365994947 0 0.41999673244059788 0.21360181040439311 0 0.41447501496961209 0.22400841249435899 0 0.39510821727830558 0.2269700278130887 0 0.40926708219655239 0.23365577142783081 0 0.41447501496961209 0.22400841249435899 0 0.42042027467328752 0.23307380617324919 0 0.41447501496961209 0.22400841249435899 0 0.42662758067142881 0.2246372735294567 0 0.40926708219655239 0.23365577142783081 0 0.42042027467328752 0.23307380617324919 0 0.41447501496961209 0.22400841249435899 0 0.41999673244059788 0.21360181040439311 0 0.41447501496961209 0.22400841249435899 0 0.42662758067142881 0.2246372735294567 0 0.4336061741501181 0.2154931410657534 0 0.42662758067142881 0.2246372735294567 0 0.43925294859795389 0.22758626612667521 0 0.42662758067142881 0.2246372735294567 0 0.43078574161313637 0.23415775253742491 0 0.43925294859795389 0.22758626612667521 0 0.43078574161313637 0.23415775253742491 0 0.43903286203971842 0.23697084840781851 0 0.43925294859795389 0.22758626612667521 0 0.42042027467328752 0.23307380617324919 0 0.42662758067142881 0.2246372735294567 0 0.43078574161313637 0.23415775253742491 0 0.42042027467328752 0.23307380617324919 0 0.43078574161313637 0.23415775253742491 0 0.42598084512385481 0.24134817954256799 0 0.43078574161313637 0.23415775253742491 0 0.42598084512385481 0.24134817954256799 0 0.4330159271134576 0.2427328353983044 0 0.43078574161313637 0.23415775253742491 0 0.4330159271134576 0.2427328353983044 0 0.43903286203971842 0.23697084840781851 0 0.4330159271134576 0.2427328353983044 0 0.43833603885486938 0.24911929050397569 0 0.43903286203971842 0.23697084840781851 0 0.42700699583846108 0.25103027760885283 0 0.4330159271134576 0.2427328353983044 0 0.43833603885486938 0.24911929050397569 0 0.42700699583846108 0.25103027760885283 0 0.42598084512385481 0.24134817954256799 0 0.4330159271134576 0.2427328353983044 0 0.41865900974769332 0.2512550762760013 0 0.42700699583846108 0.25103027760885283 0 0.42598084512385481 0.24134817954256799 0 0.39798372082256839 0.2439770222975968 0 0.40926708219655239 0.23365577142783081 0 0.41538538346514081 0.24063544750785579 0 0.41865900974769332 0.2512550762760013 0 0.39798372082256839 0.2439770222975968 0 0.41538538346514081 0.24063544750785579 0 0.41865900974769332 0.2512550762760013 0 0.42598084512385481 0.24134817954256799 0 0.41538538346514081 0.24063544750785579 0 0.41865900974769332 0.2512550762760013 0 0.39798372082256839 0.2439770222975968 0 0.40926708219655239 0.23365577142783081 0 0.42042027467328752 0.23307380617324919 0 0.41538538346514081 0.24063544750785579 0 0.42042027467328752 0.23307380617324919 0 0.42598084512385481 0.24134817954256799 0 0.41538538346514081 0.24063544750785579 0 0.46576285555457803 0.24780483854819199 0 0.45929834121580088 0.2395573482819324 0 0.47047263312485349 0.23570462604083661 0 0.45929834121580088 0.2395573482819324 0 0.45288177042684191 0.2446947921780542 0 0.45014252408331201 0.2362296716975166 0 0.45442140526327968 0.25165413839784601 0 0.46576285555457803 0.24780483854819199 0 0.45929834121580088 0.2395573482819324 0 0.45442140526327968 0.25165413839784601 0 0.45929834121580088 0.2395573482819324 0 0.45288177042684191 0.2446947921780542 0 0.44170341293161153 0.25655924287046161 0 0.44969712660805761 0.2496796817576695 0 0.45014252408331201 0.2362296716975166 0 0.44170341293161153 0.25655924287046161 0 0.43833603885486938 0.24911929050397569 0 0.45014252408331201 0.2362296716975166 0 0.44969712660805761 0.2496796817576695 0 0.45288177042684191 0.2446947921780542 0 0.45014252408331201 0.2362296716975166 0 0.44170341293161153 0.25655924287046161 0 0.45014252408331201 0.2362296716975166 0 0.45442140526327968 0.25165413839784601 0 0.44969712660805761 0.2496796817576695 0 0.45288177042684191 0.2446947921780542 0 0.43833603885486938 0.24911929050397569 0 0.45014252408331201 0.2362296716975166 0 0.43833603885486938 0.24911929050397569 0 0.44306346639713939 0.23835197072086911 0 0.45014252408331201 0.2362296716975166 0 0.43833603885486938 0.24911929050397569 0 0.43903286203971842 0.23697084840781851 0 0.44306346639713939 0.23835197072086911 0 0.43903286203971842 0.23697084840781851 0 0.44306346639713939 0.23835197072086911 0 0.44474244061065787 0.2310880722741655 0 0.44306346639713939 0.23835197072086911 0 0.45014252408331201 0.2362296716975166 0 0.44474244061065787 0.2310880722741655 0 0.45014252408331201 0.2362296716975166 0 0.45219624605665271 0.23128231571701879 0 0.45219624605665271 0.23128231571701879 0 0.44474244061065787 0.2310880722741655 0 0.44759693087914598 0.22591187730876719 0 0.45014252408331201 0.2362296716975166 0 0.45219624605665271 0.23128231571701879 0 0.44474244061065787 0.2310880722741655 0 0.44474244061065787 0.2310880722741655 0 0.43925294859795389 0.22758626612667521 0 0.44759693087914598 0.22591187730876719 0 0.43903286203971842 0.23697084840781851 0 0.44474244061065787 0.2310880722741655 0 0.43925294859795389 0.22758626612667521 0 0.4336061741501181 0.2154931410657534 0 0.43925294859795389 0.22758626612667521 0 0.44637937786006032 0.21815188256668161 0 0.43925294859795389 0.22758626612667521 0 0.44759693087914598 0.22591187730876719 0 0.44637937786006032 0.21815188256668161 0 0.44759693087914598 0.22591187730876719 0 0.45425687230258821 0.2212826255287442 0 0.44637937786006032 0.21815188256668161 0 0.45219624605665271 0.23128231571701879 0 0.44759693087914598 0.22591187730876719 0 0.45425687230258821 0.2212826255287442 0 0.45929834121580088 0.2395573482819324 0 0.46391551647547757 0.22119313725696871 0 0.47047263312485349 0.23570462604083661 0 0.45219624605665271 0.23128231571701879 0 0.45425687230258821 0.2212826255287442 0 0.46391551647547757 0.22119313725696871 0 0.45929834121580088 0.2395573482819324 0 0.45014252408331201 0.2362296716975166 0 0.46391551647547757 0.22119313725696871 0 0.45014252408331201 0.2362296716975166 0 0.46391551647547757 0.22119313725696871 0 0.45014252408331201 0.2362296716975166 0 0.45219624605665271 0.23128231571701879 0 0.46391551647547757 0.22119313725696871 0 0.46391551647547757 0.22119313725696871 0 0.45564379919608061 0.2090664380076416 0 0.47768850886764358 0.20615660281642109 0 0.45425687230258821 0.2212826255287442 0 0.46391551647547757 0.22119313725696871 0 0.45564379919608061 0.2090664380076416 0 0.45425687230258821 0.2212826255287442 0 0.45564379919608061 0.2090664380076416 0 0.44637937786006032 0.21815188256668161 0 0.45564379919608061 0.2090664380076416 0 0.44637937786006032 0.21815188256668161 0 0.44207635447082788 0.20892284809896189 0 0.4336061741501181 0.2154931410657534 0 0.44637937786006032 0.21815188256668161 0 0.44207635447082788 0.20892284809896189 0 0.45564379919608061 0.2090664380076416 0 0.44207635447082788 0.20892284809896189 0 0.4448866527527342 0.197792041890129 0 0.42871891365593068 0.20116084263986331 0 0.44207635447082788 0.20892284809896189 0 0.4448866527527342 0.197792041890129 0 0.43675658933864381 0.184788916277277 0 0.4448866527527342 0.197792041890129 0 0.4585962625631067 0.19105468754875349 0 0.45564379919608061 0.2090664380076416 0 0.4448866527527342 0.197792041890129 0 0.4585962625631067 0.19105468754875349 0 0.45564379919608061 0.2090664380076416 0 0.4585962625631067 0.19105468754875349 0 0.47768850886764358 0.20615660281642109 0 0.47555832690325478 0.18823538290912059 0 0.4914615012598097 0.1911200683758735 0 0.47768850886764358 0.20615660281642109 0 0.4585962625631067 0.19105468754875349 0 0.47555832690325478 0.18823538290912059 0 0.47768850886764358 0.20615660281642109 0 0.4914615012598097 0.1911200683758735 0 0.5 0.20279497211699629 0 0.47768850886764358 0.20615660281642109 0 0.4914615012598097 0.1911200683758735 0 0.5 0.20279497211699629 0 0.5 0.1749889804910473 0 0.4914615012598097 0.1911200683758735 0 0.47768850886764358 0.20615660281642109 0 0.5 0.20279497211699629 0 0.47768850886764358 0.20615660281642109 0 0.48985415516916531 0.22009823148343469 0 0.5 0.20279497211699629 0 0.48985415516916531 0.22009823148343469 0 0.5 0.23060096374294509 0 0.47768850886764358 0.20615660281642109 0 0.48106495073075622 0.22627305409446269 0 0.48985415516916531 0.22009823148343469 0 0.46391551647547757 0.22119313725696871 0 0.47768850886764358 0.20615660281642109 0 0.48106495073075622 0.22627305409446269 0 0.46391551647547757 0.22119313725696871 0 0.47768850886764358 0.20615660281642109 0 0.46391551647547757 0.22119313725696871 0 0.48106495073075622 0.22627305409446269 0 0.47047263312485349 0.23570462604083661 0 0.48106495073075622 0.22627305409446269 0 0.4801331982041428 0.24032223597062741 0 0.47047263312485349 0.23570462604083661 0 0.48106495073075622 0.22627305409446269 0 0.48960791156870859 0.23199927076919441 0 0.4801331982041428 0.24032223597062741 0 0.48106495073075622 0.22627305409446269 0 0.48985415516916531 0.22009823148343469 0 0.48960791156870859 0.23199927076919441 0 0.48985415516916531 0.22009823148343469 0 0.5 0.23060096374294509 0 0.48960791156870859 0.23199927076919441 0 0.48960791156870859 0.23199927076919441 0 0.49698725373947911 0.24270186855450199 0 0.4801331982041428 0.24032223597062741 0 0.47574626975295681 0.25409751705080402 0 0.49698725373947911 0.24270186855450199 0 0.49999999999999589 0.25840695536889408 0 0.5 0.23060096374294509 0 0.49698725373947911 0.24270186855450199 0 0.5 0.23060096374294509 0 0.48960791156870859 0.23199927076919441 0 0.49698725373947911 0.24270186855450199 0 0.47574626975295681 0.25409751705080402 0 0.49698725373947911 0.24270186855450199 0 0.4801331982041428 0.24032223597062741 0 0.46576285555457803 0.24780483854819199 0 0.4801331982041428 0.24032223597062741 0 0.47047263312485349 0.23570462604083661 0 0.47574626975295681 0.25409751705080402 0 0.46576285555457803 0.24780483854819199 0 0.4801331982041428 0.24032223597062741 0 0.44719886262975062 0.15018522011558519 0 0.46671447303658592 0.16278773414982031 0 0.47175778739831692 0.1449914706745159 0 0.45974972085404342 0.1291025469127296 0 0.44719886262975062 0.15018522011558519 0 0.47175778739831692 0.1449914706745159 0 0.42493610681773503 0.13989144436705489 0 0.44091582039847049 0.1305950391239534 0 0.44719886262975062 0.15018522011558519 0 0.45974972085404342 0.1291025469127296 0 0.44091582039847049 0.1305950391239534 0 0.44719886262975062 0.15018522011558519 0 0.43681308752224052 0.16773842278749321 0 0.44719886262975062 0.15018522011558519 0 0.45259595145449483 0.17241851403074321 0 0.43675658933864381 0.184788916277277 0 0.4585962625631067 0.19105468754875349 0 0.45259595145449483 0.17241851403074321 0 0.43675658933864381 0.184788916277277 0 0.43681308752224052 0.16773842278749321 0 0.45259595145449483 0.17241851403074321 0 0.4585962625631067 0.19105468754875349 0 0.45259595145449483 0.17241851403074321 0 0.46611115286410087 0.17753686563652779 0 0.4585962625631067 0.19105468754875349 0 0.47555832690325478 0.18823538290912059 0 0.46611115286410087 0.17753686563652779 0 0.44719886262975062 0.15018522011558519 0 0.45259595145449483 0.17241851403074321 0 0.46671447303658592 0.16278773414982031 0 0.45259595145449483 0.17241851403074321 0 0.46611115286410087 0.17753686563652779 0 0.46671447303658592 0.16278773414982031 0 0.46671447303658592 0.16278773414982031 0 0.4770907503630627 0.17318800954420141 0 0.48671769491954059 0.16218631786039589 0 0.46671447303658592 0.16278773414982031 0 0.48671769491954059 0.16218631786039589 0 0.47175778739831692 0.1449914706745159 0 0.4770907503630627 0.17318800954420141 0 0.48743048666182748 0.17864362022235389 0 0.48671769491954059 0.16218631786039589 0 0.46611115286410087 0.17753686563652779 0 0.46671447303658592 0.16278773414982031 0 0.4770907503630627 0.17318800954420141 0 0.47555832690325478 0.18823538290912059 0 0.46611115286410087 0.17753686563652779 0 0.4770907503630627 0.17318800954420141 0 0.47555832690325478 0.18823538290912059 0 0.4770907503630627 0.17318800954420141 0 0.48743048666182748 0.17864362022235389 0 0.5 0.1749889804910473 0 0.48743048666182748 0.17864362022235389 0 0.48671769491954059 0.16218631786039589 0 0.4914615012598097 0.1911200683758735 0 0.5 0.1749889804910473 0 0.48743048666182748 0.17864362022235389 0 0.47555832690325478 0.18823538290912059 0 0.4914615012598097 0.1911200683758735 0 0.48743048666182748 0.17864362022235389 0 0.5 0.1749889804910473 0 0.48671769491954059 0.16218631786039589 0 0.5 0.14718298886509831 0 0.48671769491954059 0.16218631786039589 0 0.5 0.14718298886509831 0 0.47175778739831692 0.1449914706745159 0 0.5 0.14718298886509831 0 0.47175778739831692 0.1449914706745159 0 0.48342499682499679 0.13002170414321829 0 0.45974972085404342 0.1291025469127296 0 0.47175778739831692 0.1449914706745159 0 0.48342499682499679 0.13002170414321829 0 0.5 0.14718298886509831 0 0.48342499682499679 0.13002170414321829 0 0.5 0.1193769972391493 0 0.48342499682499679 0.13002170414321829 0 0.5 0.1193769972391493 0 0.47379112580283639 0.109811100409862 0 0.5 0.1193769972391493 0 0.47379112580283639 0.109811100409862 0 0.5 0.091571005613200418 0 0.47379112580283639 0.109811100409862 0 0.5 0.091571005613200418 0 0.47061892702199848 0.0881377332227605 0 0.45974972085404342 0.1291025469127296 0 0.48342499682499679 0.13002170414321829 0 0.47379112580283639 0.109811100409862 0 0.5 0.063765013987251651 0 0.5 0.091571005613200418 0 0.48009406866108062 0.070313893351344942 0 0.5 0.091571005613200418 0 0.47061892702199848 0.0881377332227605 0 0.48009406866108062 0.070313893351344942 0 0.48009406866108062 0.070313893351344942 0 0.46231178563193692 0.073381201424685072 0 0.46406104374095691 0.057570807932983331 0 0.47061892702199848 0.0881377332227605 0 0.48009406866108062 0.070313893351344942 0 0.46231178563193692 0.073381201424685072 0 0.46231178563193692 0.073381201424685072 0 0.44529157173994238 0.067392317992688397 0 0.46406104374095691 0.057570807932983331 0 0.47061892702199848 0.0881377332227605 0 0.46231178563193692 0.073381201424685072 0 0.45149331699570611 0.083491254623648203 0 0.47061892702199848 0.0881377332227605 0 0.45149331699570611 0.083491254623648203 0 0.45703220220168161 0.097813229342281274 0 0.45149331699570611 0.083491254623648203 0 0.45703220220168161 0.097813229342281274 0 0.43859324697559682 0.094946628835839 0 0.44047505886254212 0.080761007376139227 0 0.45149331699570611 0.083491254623648203 0 0.43859324697559682 0.094946628835839 0 0.44047505886254212 0.080761007376139227 0 0.45149331699570611 0.083491254623648203 0 0.44529157173994238 0.067392317992688397 0 0.46231178563193692 0.073381201424685072 0 0.45149331699570611 0.083491254623648203 0 0.44529157173994238 0.067392317992688397 0 0.45974972085404342 0.1291025469127296 0 0.47379112580283639 0.109811100409862 0 0.45066439421227028 0.11267942961929669 0 0.47379112580283639 0.109811100409862 0 0.47061892702199848 0.0881377332227605 0 0.45703220220168161 0.097813229342281274 0 0.47379112580283639 0.109811100409862 0 0.45703220220168161 0.097813229342281274 0 0.45066439421227028 0.11267942961929669 0 0.45703220220168161 0.097813229342281274 0 0.43859324697559682 0.094946628835839 0 0.45066439421227028 0.11267942961929669 0 0.43859324697559682 0.094946628835839 0 0.45066439421227028 0.11267942961929669 0 0.43859324697559682 0.094946628835839 0 0.45066439421227028 0.11267942961929669 0 0.42730349028420711 0.1072618860299494 0 0.45974972085404342 0.1291025469127296 0 0.44091582039847049 0.1305950391239534 0 0.45066439421227028 0.11267942961929669 0 0.44091582039847049 0.1305950391239534 0 0.45066439421227028 0.11267942961929669 0 0.42730349028420711 0.1072618860299494 0 0.44091582039847049 0.1305950391239534 0 0.42730349028420711 0.1072618860299494 0 0.44091582039847049 0.1305950391239534 0 0.42366000266713089 0.1228445275503523 0 0.42730349028420711 0.1072618860299494 0 0.42366000266713089 0.1228445275503523 0 0.41698748814197611 0.1106449428495324 0 0.42730349028420711 0.1072618860299494 0 0.40886707299735048 0.1328139505423451 0 0.42366000266713089 0.1228445275503523 0 0.41207362981193391 0.1189207857971802 0 0.42366000266713089 0.1228445275503523 0 0.41698748814197611 0.1106449428495324 0 0.41207362981193391 0.1189207857971802 0 0.41698748814197611 0.1106449428495324 0 0.41207362981193391 0.1189207857971802 0 0.40766043207986208 0.10884782960580359 0 0.40886707299735048 0.1328139505423451 0 0.41207362981193391 0.1189207857971802 0 0.39819014705471523 0.12213929996890741 0 0.41262444710444479 0.1001882685023667 0 0.4214145106535227 0.097153351155836773 0 0.41370535456349539 0.08392045206751679 0 0.41262444710444479 0.1001882685023667 0 0.40766043207986208 0.10884782960580359 0 0.40264185679986381 0.1008596839320124 0 0.41698748814197611 0.1106449428495324 0 0.41262444710444479 0.1001882685023667 0 0.40766043207986208 0.10884782960580359 0 0.41698748814197611 0.1106449428495324 0 0.41262444710444479 0.1001882685023667 0 0.42730349028420711 0.1072618860299494 0 0.41262444710444479 0.1001882685023667 0 0.4214145106535227 0.097153351155836773 0 0.42730349028420711 0.1072618860299494 0 0.43859324697559682 0.094946628835839 0 0.4214145106535227 0.097153351155836773 0 0.42730349028420711 0.1072618860299494 0 0.4214145106535227 0.097153351155836773 0 0.42730349028420711 0.1072618860299494 0 0.43859324697559682 0.094946628835839 0 0.42576064443862038 0.087934303465431421 0 0.42652209973892208 0.077213828052382139 0 0.44047505886254212 0.080761007376139227 0 0.43859324697559682 0.094946628835839 0 0.42652209973892208 0.077213828052382139 0 0.43859324697559682 0.094946628835839 0 0.4214145106535227 0.097153351155836773 0 0.42576064443862038 0.087934303465431421 0 0.43859324697559682 0.094946628835839 0 0.42652209973892208 0.077213828052382139 0 0.42576064443862038 0.087934303465431421 0 0.42652209973892208 0.077213828052382139 0 0.41603999652512241 0.082698802917733114 0 0.44529157173994238 0.067392317992688397 0 0.42652209973892208 0.077213828052382139 0 0.43081837116012489 0.058280421764194047 0 0.44047505886254212 0.080761007376139227 0 0.44529157173994238 0.067392317992688397 0 0.42652209973892208 0.077213828052382139 0 0.42652209973892208 0.077213828052382139 0 0.41179744459391121 0.055582961393880533 0 0.43081837116012489 0.058280421764194047 0 0.44529157173994238 0.067392317992688397 0 0.42652209973892208 0.077213828052382139 0 0.41603999652512241 0.082698802917733114 0 0.40249941679823298 0.064744753463738924 0 0.40624632114125858 0.05894981173438766 0 0.41603999652512241 0.082698802917733114 0 0.41370535456349539 0.08392045206751679 0 0.40249941679823298 0.064744753463738924 0 0.42652209973892208 0.077213828052382139 0 0.41603999652512241 0.082698802917733114 0 0.40624632114125858 0.05894981173438766 0 0.41370535456349539 0.08392045206751679 0 0.40249941679823298 0.064744753463738924 0 0.42652209973892208 0.077213828052382139 0 0.40624632114125858 0.05894981173438766 0 0.41179744459391121 0.055582961393880533 0 0.42652209973892208 0.077213828052382139 0 0.41179744459391121 0.055582961393880533 0 0.41603999652512241 0.082698802917733114 0 0.40624632114125858 0.05894981173438766 0 0.41262444710444479 0.1001882685023667 0 0.41370535456349539 0.08392045206751679 0 0.40295604101800397 0.091389210170692625 0 0.4214145106535227 0.097153351155836773 0 0.42576064443862038 0.087934303465431421 0 0.41603999652512241 0.082698802917733114 0 0.4214145106535227 0.097153351155836773 0 0.41370535456349539 0.08392045206751679 0 0.4214145106535227 0.097153351155836773 0 0.41603999652512241 0.082698802917733114 0 0.4214145106535227 0.097153351155836773 0 0.41603999652512241 0.082698802917733114 0 0.41370535456349539 0.08392045206751679 0 0.42652209973892208 0.077213828052382139 0 0.41603999652512241 0.082698802917733114 0 0.41603999652512241 0.082698802917733114 0 0.41370535456349539 0.08392045206751679 0 0.41370535456349539 0.08392045206751679 0 0.40295604101800397 0.091389210170692625 0 0.40017150268674218 0.079609090244892891 0 0.40017150268674218 0.079609090244892891 0 0.39126292950851033 0.085543472663492812 0 0.38847212457982472 0.075047256688389158 0 0.40295604101800397 0.091389210170692625 0 0.40017150268674218 0.079609090244892891 0 0.39126292950851033 0.085543472663492812 0 0.40295604101800397 0.091389210170692625 0 0.39126292950851033 0.085543472663492812 0 0.39295086309513477 0.096784749946011203 0 0.40249941679823298 0.064744753463738924 0 0.38847212457982472 0.075047256688389158 0 0.38348814788765401 0.061306227086249519 0 0.41370535456349539 0.08392045206751679 0 0.40017150268674218 0.079609090244892891 0 0.40249941679823298 0.064744753463738924 0 0.40017150268674218 0.079609090244892891 0 0.40249941679823298 0.064744753463738924 0 0.38847212457982472 0.075047256688389158 0 0.37019643066569818 0.077679914849374587 0 0.38847212457982472 0.075047256688389158 0 0.38348814788765401 0.061306227086249519 0 0.37019643066569818 0.077679914849374587 0 0.38847212457982472 0.075047256688389158 0 0.38007945782092589 0.088591357148056354 0 0.39126292950851033 0.085543472663492812 0 0.38007945782092589 0.088591357148056354 0 0.39295086309513477 0.096784749946011203 0 0.39126292950851033 0.085543472663492812 0 0.38847212457982472 0.075047256688389158 0 0.38007945782092589 0.088591357148056354 0 0.3644611438199572 0.100803704501796 0 0.38007945782092589 0.088591357148056354 0 0.38239048044551732 0.10105814789166991 0 0.38007945782092589 0.088591357148056354 0 0.38239048044551732 0.10105814789166991 0 0.39295086309513477 0.096784749946011203 0 0.38239048044551732 0.10105814789166991 0 0.38868045444247928 0.1144764634657689 0 0.39701750070187303 0.10708836143518791 0 0.37753456423920267 0.12606772520011819 0 0.37791396880342493 0.1153271289745038 0 0.38603097931252928 0.1230784595495979 0 0.37791396880342493 0.1153271289745038 0 0.38603097931252928 0.1230784595495979 0 0.38868045444247928 0.1144764634657689 0 0.38239048044551732 0.10105814789166991 0 0.37791396880342493 0.1153271289745038 0 0.38868045444247928 0.1144764634657689 0 0.38868045444247928 0.1144764634657689 0 0.39819014705471523 0.12213929996890741 0 0.39701750070187303 0.10708836143518791 0 0.38603097931252928 0.1230784595495979 0 0.38868045444247928 0.1144764634657689 0 0.39819014705471523 0.12213929996890741 0 0.40766043207986208 0.10884782960580359 0 0.39819014705471523 0.12213929996890741 0 0.39701750070187303 0.10708836143518791 0 0.41207362981193391 0.1189207857971802 0 0.40766043207986208 0.10884782960580359 0 0.39819014705471523 0.12213929996890741 0 0.40766043207986208 0.10884782960580359 0 0.40264185679986381 0.1008596839320124 0 0.39701750070187303 0.10708836143518791 0 0.40295604101800397 0.091389210170692625 0 0.40264185679986381 0.1008596839320124 0 0.39295086309513477 0.096784749946011203 0 0.41262444710444479 0.1001882685023667 0 0.40295604101800397 0.091389210170692625 0 0.40264185679986381 0.1008596839320124 0 0.38239048044551732 0.10105814789166991 0 0.39295086309513477 0.096784749946011203 0 0.39701750070187303 0.10708836143518791 0 0.40264185679986381 0.1008596839320124 0 0.39295086309513477 0.096784749946011203 0 0.39701750070187303 0.10708836143518791 0 0.39713978872470701 0.018036416383949299 0 0.39419329435479722 0.029722048339664051 0 0.39707278944890068 0.033952094735378711 0 0.39713978872470701 0.018036416383949299 0 0.39419329435479722 0.029722048339664051 0 0.38682312672805558 0.011849897270041831 0 0.39713978872470701 0.018036416383949299 0 0.39707278944890068 0.033952094735378711 0 0.40984434716759188 0.0082351938816782704 0 0.39707278944890068 0.033952094735378711 0 0.40984434716759188 0.0082351938816782704 0 0.39707278944890068 0.033952094735378711 0 0.4093317545172071 0.024277402314433379 0 0.40984434716759188 0.0082351938816782704 0 0.39776538592419108 0.0064228476929828462 0 0.38682312672805558 0.011849897270041831 0 0.39699898505056619 -0.0057672521067791867 0 0.39713978872470701 0.018036416383949299 0 0.39776538592419108 0.0064228476929828462 0 0.40984434716759188 0.0082351938816782704 0 0.39776538592419108 0.0064228476929828462 0 0.40984434716759188 0.0082351938816782704 0 0.39699898505056619 -0.0057672521067791867 0 0.39713978872470701 0.018036416383949299 0 0.39776538592419108 0.0064228476929828462 0 0.38682312672805558 0.011849897270041831 0 0.38271831722690208 0.01286503554592695 0 0.39699898505056619 -0.0057672521067791867 0 0.38271831722690208 0.01286503554592695 0 0.38682312672805558 0.011849897270041831 0 0.39699898505056619 -0.0057672521067791867 0 0.36685550851168908 0.033561575694548471 0 0.38271831722690208 0.01286503554592695 0 0.38287687232145767 0.03110937799699599 0 0.39419329435479722 0.029722048339664051 0 0.38271831722690208 0.01286503554592695 0 0.39419329435479722 0.029722048339664051 0 0.38682312672805558 0.011849897270041831 0 0.39419329435479722 0.029722048339664051 0 0.38271831722690208 0.01286503554592695 0 0.38682312672805558 0.011849897270041831 0 0.39419329435479722 0.029722048339664051 0 0.38271831722690208 0.01286503554592695 0 0.38287687232145767 0.03110937799699599 0 0.36685550851168908 0.033561575694548471 0 0.38287687232145767 0.03110937799699599 0 0.37834334897691152 0.04591186500673252 0 0.38287687232145767 0.03110937799699599 0 0.37834334897691152 0.04591186500673252 0 0.3913076734265224 0.045560773991532348 0 0.38287687232145767 0.03110937799699599 0 0.3913076734265224 0.045560773991532348 0 0.38287687232145767 0.03110937799699599 0 0.39707278944890068 0.033952094735378711 0 0.3913076734265224 0.045560773991532348 0 0.37834334897691152 0.04591186500673252 0 0.38348814788765401 0.061306227086249519 0 0.3913076734265224 0.045560773991532348 0 0.36718854273723422 0.058021370264336257 0 0.37834334897691152 0.04591186500673252 0 0.38348814788765401 0.061306227086249519 0 0.38348814788765401 0.061306227086249519 0 0.3913076734265224 0.045560773991532348 0 0.40249941679823298 0.064744753463738924 0 0.40624632114125858 0.05894981173438766 0 0.3913076734265224 0.045560773991532348 0 0.40249941679823298 0.064744753463738924 0 0.3913076734265224 0.045560773991532348 0 0.40624632114125858 0.05894981173438766 0 0.39707278944890068 0.033952094735378711 0 0.41179744459391121 0.055582961393880533 0 0.40249941679823298 0.064744753463738924 0 0.38348814788765401 0.061306227086249519 0 0.3913076734265224 0.045560773991532348 0 0.40624632114125858 0.05894981173438766 0 0.39707278944890068 0.033952094735378711 0 0.40624632114125858 0.05894981173438766 0 0.39707278944890068 0.033952094735378711 0 0.3913076734265224 0.045560773991532348 0 0.39707278944890068 0.033952094735378711 0 0.41179744459391121 0.055582961393880533 0 0.39419329435479722 0.029722048339664051 0 0.38287687232145767 0.03110937799699599 0 0.39707278944890068 0.033952094735378711 0 0.39419329435479722 0.029722048339664051 0 0.39707278944890068 0.033952094735378711 0 0.39707278944890068 0.033952094735378711 0 0.3913076734265224 0.045560773991532348 0 0.39707278944890068 0.033952094735378711 0 0.41154129832948461 0.03968126870318972 0 0.4093317545172071 0.024277402314433379 0 0.39707278944890068 0.033952094735378711 0 0.41154129832948461 0.03968126870318972 0 0.41179744459391121 0.055582961393880533 0 0.41154129832948461 0.03968126870318972 0 0.41179744459391121 0.055582961393880533 0 0.42555688906251621 0.038772342059998521 0 0.41154129832948461 0.03968126870318972 0 0.42555688906251621 0.038772342059998521 0 0.4093317545172071 0.024277402314433379 0 0.43081837116012489 0.058280421764194047 0 0.42555688906251621 0.038772342059998521 0 0.44727006181555762 0.048251295851492411 0 0.41179744459391121 0.055582961393880533 0 0.43081837116012489 0.058280421764194047 0 0.42555688906251621 0.038772342059998521 0 0.42555688906251621 0.038772342059998521 0 0.43850451071181717 0.028448399324779491 0 0.44727006181555762 0.048251295851492411 0 0.42555688906251621 0.038772342059998521 0 0.42679473467257301 0.015816280597756201 0 0.43850451071181717 0.028448399324779491 0 0.42679473467257301 0.015816280597756201 0 0.44259485422073502 0.01197967335213217 0 0.43850451071181717 0.028448399324779491 0 0.42555688906251621 0.038772342059998521 0 0.42679473467257301 0.015816280597756201 0 0.4093317545172071 0.024277402314433379 0 0.42679473467257301 0.015816280597756201 0 0.4093317545172071 0.024277402314433379 0 0.40984434716759188 0.0082351938816782704 0 0.42679473467257301 0.015816280597756201 0 0.4093317545172071 0.024277402314433379 0 0.42679473467257301 0.015816280597756201 0 0.40984434716759188 0.0082351938816782704 0 0.42339056673071968 0.0021825346760754099 0 0.42679473467257301 0.015816280597756201 0 0.43430728019643411 0.0021603711968910342 0 0.44425771482793841 0.0073551588810779793 0 0.42679473467257301 0.015816280597756201 0 0.42339056673071968 0.0021825346760754099 0 0.43430728019643411 0.0021603711968910342 0 0.42679473467257301 0.015816280597756201 0 0.44425771482793841 0.0073551588810779793 0 0.42679473467257301 0.015816280597756201 0 0.44425771482793841 0.0073551588810779793 0 0.44259485422073502 0.01197967335213217 0 0.43430728019643411 0.0021603711968910342 0 0.44528735278671711 0.0044916743414265582 0 0.44282671919620797 -0.0051482625720636332 0 0.43430728019643411 0.0021603711968910342 0 0.44528735278671711 0.0044916743414265582 0 0.44425771482793841 0.0073551588810779793 0 0.44528735278671711 0.0044916743414265582 0 0.44425771482793841 0.0073551588810779793 0 0.44582449703004418 0.0065960252854621844 0 0.44528735278671711 0.0044916743414265582 0 0.44425771482793841 0.0073551588810779793 0 0.44425771482793841 0.0073551588810779793 0 0.44582449703004418 0.0065960252854621844 0 0.44528735278671711 0.0044916743414265582 0 0.45488122831561378 0.002207879328662793 0 0.447687129129547 -0.0021822467176459931 0 0.44582449703004418 0.0065960252854621844 0 0.45488122831561378 0.002207879328662793 0 0.45444041976487259 0.0099720507091970428 0 0.44582449703004418 0.0065960252854621844 0 0.45488122831561378 0.002207879328662793 0 0.44528735278671711 0.0044916743414265582 0 0.447687129129547 -0.0021822467176459931 0 0.44528735278671711 0.0044916743414265582 0 0.44582449703004418 0.0065960252854621844 0 0.45488122831561378 0.002207879328662793 0 0.44528735278671711 0.0044916743414265582 0 0.44582449703004418 0.0065960252854621844 0 0.45488122831561378 0.002207879328662793 0 0.447687129129547 -0.0021822467176459931 0 0.44582449703004418 0.0065960252854621844 0 0.45604812849759591 0.01792603803550635 0 0.45444041976487259 0.0099720507091970428 0 0.44425771482793841 0.0073551588810779793 0 0.44259485422073502 0.01197967335213217 0 0.44425771482793841 0.0073551588810779793 0 0.44582449703004418 0.0065960252854621844 0 0.44259485422073502 0.01197967335213217 0 0.44259485422073502 0.01197967335213217 0 0.43850451071181717 0.028448399324779491 0 0.45250549802266088 0.032769945830239462 0 0.44582449703004418 0.0065960252854621844 0 0.45250549802266088 0.032769945830239462 0 0.44582449703004418 0.0065960252854621844 0 0.44259485422073502 0.01197967335213217 0 0.45250549802266088 0.032769945830239462 0 0.44582449703004418 0.0065960252854621844 0 0.45604812849759591 0.01792603803550635 0 0.45250549802266088 0.032769945830239462 0 0.45604812849759591 0.01792603803550635 0 0.45250549802266088 0.032769945830239462 0 0.46957819545837831 0.02845649598902723 0 0.45604812849759591 0.01792603803550635 0 0.46980160283170241 0.01131288651436691 0 0.46957819545837831 0.02845649598902723 0 0.45488122831561378 0.002207879328662793 0 0.46980160283170241 0.01131288651436691 0 0.47744061415780481 -0.0087225407809669551 0 0.45488122831561378 0.002207879328662793 0 0.46980160283170241 0.01131288651436691 0 0.45488122831561378 0.002207879328662793 0 0.45444041976487259 0.0099720507091970428 0 0.46980160283170241 0.01131288651436691 0 0.45604812849759591 0.01792603803550635 0 0.45444041976487259 0.0099720507091970428 0 0.46980160283170241 0.01131288651436691 0 0.44529157173994238 0.067392317992688397 0 0.44727006181555762 0.048251295851492411 0 0.46406104374095691 0.057570807932983331 0 0.44529157173994238 0.067392317992688397 0 0.43081837116012489 0.058280421764194047 0 0.44727006181555762 0.048251295851492411 0 0.43850451071181717 0.028448399324779491 0 0.44727006181555762 0.048251295851492411 0 0.45250549802266088 0.032769945830239462 0 0.44727006181555762 0.048251295851492411 0 0.45250549802266088 0.032769945830239462 0 0.46324906295590501 0.042959568695404141 0 0.45250549802266088 0.032769945830239462 0 0.46324906295590501 0.042959568695404141 0 0.46957819545837831 0.02845649598902723 0 0.44727006181555762 0.048251295851492411 0 0.46324906295590501 0.042959568695404141 0 0.46406104374095691 0.057570807932983331 0 0.44529157173994238 0.067392317992688397 0 0.46406104374095691 0.057570807932983331 0 0.48009406866108062 0.070313893351344942 0 0.46406104374095691 0.057570807932983331 0 0.48283051574197122 0.047749297873278272 0 0.46406104374095691 0.057570807932983331 0 0.48283051574197122 0.047749297873278272 0 0.46324906295590501 0.042959568695404141 0 0.46406104374095691 0.057570807932983331 0 0.48283051574197122 0.047749297873278272 0 0.46324906295590501 0.042959568695404141 0 0.48283051574197122 0.047749297873278272 0 0.46957819545837831 0.02845649598902723 0 0.48283051574197122 0.047749297873278272 0 0.46957819545837831 0.02845649598902723 0 0.4847219773477911 0.020417893700070671 0 0.48283051574197122 0.047749297873278272 0 0.5 0.035959022361302877 0 0.4847219773477911 0.020417893700070671 0 0.5 0.063765013987251651 0 0.48009406866108062 0.070313893351344942 0 0.48283051574197122 0.047749297873278272 0 0.5 0.063765013987251651 0 0.48283051574197122 0.047749297873278272 0 0.5 0.035959022361302877 0 0.46980160283170241 0.01131288651436691 0 0.4847219773477911 0.020417893700070671 0 0.48564850500683038 0.003121595799808155 0 0.46980160283170241 0.01131288651436691 0 0.48564850500683038 0.003121595799808155 0 0.47744061415780481 -0.0087225407809669551 0 0.46980160283170241 0.01131288651436691 0 0.46957819545837831 0.02845649598902723 0 0.4847219773477911 0.020417893700070671 0 0.46980160283170241 0.01131288651436691 0 0.4847219773477911 0.020417893700070671 0 0.5 0.035959022361302877 0 0.4847219773477911 0.020417893700070671 0 0.5 0.0081530307353540055 0 0.4847219773477911 0.020417893700070671 0 0.5 0.0081530307353540055 0 0.48564850500683038 0.003121595799808155 0 0.5 0.0081530307353540055 0 0.48564850500683038 0.003121595799808155 0 0.49999999999999672 -0.019652960890594751 0 0.48564850500683038 0.003121595799808155 0 0.47744061415780481 -0.0087225407809669551 0 0.49999999999999672 -0.019652960890594751 0 0.47744061415780481 -0.0087225407809669551 0 0.49999999999999672 -0.019652960890594751 0 0.47744061415780481 -0.0087225407809669551 0 0.47724869012457272 -0.030655281675191531 0 0.45985831065114779 -0.011965048684304499 0 0.47744061415780481 -0.0087225407809669551 0 0.47724869012457272 -0.030655281675191531 0 0.49999999999999672 -0.019652960890594751 0 0.47724869012457272 -0.030655281675191531 0 0.49999999999999672 -0.019652960890594751 0 0.5 -0.046886020315634942 0 0.47724869012457272 -0.030655281675191531 0 0.5 -0.046886020315634942 0 0.48244065842716588 -0.054856804403181213 0 0.5 -0.046886020315634942 0 0.48244065842716588 -0.054856804403181213 0 0.5 -0.074119079740675164 0 0.48244065842716588 -0.054856804403181213 0 0.46428786587377419 -0.048349885166302523 0 0.47258823424588797 -0.071433704390630723 0 0.47724869012457272 -0.030655281675191531 0 0.48244065842716588 -0.054856804403181213 0 0.46428786587377419 -0.048349885166302523 0 0.46428786587377419 -0.048349885166302523 0 0.45598749750166051 -0.02526606594197435 0 0.46428786587377419 -0.048349885166302523 0 0.44765134042966859 -0.037759680641894278 0 0.45598749750166051 -0.02526606594197435 0 0.47724869012457272 -0.030655281675191531 0 0.46428786587377419 -0.048349885166302523 0 0.45598749750166051 -0.02526606594197435 0 0.46428786587377419 -0.048349885166302523 0 0.44715869158702493 -0.050503923234746853 0 0.45495503501471207 -0.06640217842775481 0 0.46428786587377419 -0.048349885166302523 0 0.47258823424588797 -0.071433704390630723 0 0.46428786587377419 -0.048349885166302523 0 0.47258823424588797 -0.071433704390630723 0 0.45495503501471207 -0.06640217842775481 0 0.44715869158702493 -0.050503923234746853 0 0.45495503501471207 -0.06640217842775481 0 0.43401482423754789 -0.060095634355563227 0 0.44715869158702493 -0.050503923234746853 0 0.43356571300131158 -0.041429777958426457 0 0.43401482423754789 -0.060095634355563227 0 0.46428786587377419 -0.048349885166302523 0 0.44715869158702493 -0.050503923234746853 0 0.44765134042966859 -0.037759680641894278 0 0.44765134042966859 -0.037759680641894278 0 0.43819621609876008 -0.023289020265245128 0 0.43356571300131158 -0.041429777958426457 0 0.44715869158702493 -0.050503923234746853 0 0.44765134042966859 -0.037759680641894278 0 0.43356571300131158 -0.041429777958426457 0 0.44765134042966859 -0.037759680641894278 0 0.43819621609876008 -0.023289020265245128 0 0.45598749750166051 -0.02526606594197435 0 0.43819621609876008 -0.023289020265245128 0 0.44282671919620797 -0.0051482625720636332 0 0.45598749750166051 -0.02526606594197435 0 0.447687129129547 -0.0021822467176459931 0 0.45598749750166051 -0.02526606594197435 0 0.43819621609876008 -0.023289020265245128 0 0.44282671919620797 -0.0051482625720636332 0 0.44282671919620797 -0.0051482625720636332 0 0.447687129129547 -0.0021822467176459931 0 0.45598749750166051 -0.02526606594197435 0 0.44528735278671711 0.0044916743414265582 0 0.44282671919620797 -0.0051482625720636332 0 0.447687129129547 -0.0021822467176459931 0 0.44528735278671711 0.0044916743414265582 0 0.44282671919620797 -0.0051482625720636332 0 0.44282671919620797 -0.0051482625720636332 0 0.447687129129547 -0.0021822467176459931 0 0.45488122831561378 0.002207879328662793 0 0.47744061415780481 -0.0087225407809669551 0 0.447687129129547 -0.0021822467176459931 0 0.45985831065114779 -0.011965048684304499 0 0.45598749750166051 -0.02526606594197435 0 0.45488122831561378 0.002207879328662793 0 0.47744061415780481 -0.0087225407809669551 0 0.45985831065114779 -0.011965048684304499 0 0.45488122831561378 0.002207879328662793 0 0.447687129129547 -0.0021822467176459931 0 0.45985831065114779 -0.011965048684304499 0 0.47724869012457272 -0.030655281675191531 0 0.45985831065114779 -0.011965048684304499 0 0.45598749750166051 -0.02526606594197435 0 0.47939819449689902 -0.1132275866134279 0 0.5 -0.10135213916571539 0 0.5 -0.12858519859075559 0 0.47939819449689902 -0.1132275866134279 0 0.5 -0.10135213916571539 0 0.48151261848075938 -0.090773810073917591 0 0.47939819449689902 -0.1132275866134279 0 0.48151261848075938 -0.090773810073917591 0 0.46105071078657189 -0.096689438132449262 0 0.48151261848075938 -0.090773810073917591 0 0.47258823424588797 -0.071433704390630723 0 0.46105071078657189 -0.096689438132449262 0 0.5 -0.10135213916571539 0 0.48151261848075938 -0.090773810073917591 0 0.5 -0.074119079740675164 0 0.48151261848075938 -0.090773810073917591 0 0.5 -0.074119079740675164 0 0.47258823424588797 -0.071433704390630723 0 0.48244065842716588 -0.054856804403181213 0 0.5 -0.074119079740675164 0 0.47258823424588797 -0.071433704390630723 0 0.45495503501471207 -0.06640217842775481 0 0.44303429013955381 -0.080081517853788892 0 0.43401482423754789 -0.060095634355563227 0 0.45495503501471207 -0.06640217842775481 0 0.44303429013955381 -0.080081517853788892 0 0.46105071078657189 -0.096689438132449262 0 0.44303429013955381 -0.080081517853788892 0 0.46105071078657189 -0.096689438132449262 0 0.4460286652241513 -0.094624262834058046 0 0.44303429013955381 -0.080081517853788892 0 0.4460286652241513 -0.094624262834058046 0 0.43371681745398721 -0.088591292474842639 0 0.47258823424588797 -0.071433704390630723 0 0.45495503501471207 -0.06640217842775481 0 0.46105071078657189 -0.096689438132449262 0 0.46105071078657189 -0.096689438132449262 0 0.4460286652241513 -0.094624262834058046 0 0.4555790363616935 -0.1232335355056378 0 0.4460286652241513 -0.094624262834058046 0 0.43539956772732002 -0.10543856301000019 0 0.43371681745398721 -0.088591292474842639 0 0.4460286652241513 -0.094624262834058046 0 0.4555790363616935 -0.1232335355056378 0 0.43539956772732002 -0.10543856301000019 0 0.4555790363616935 -0.1232335355056378 0 0.43539956772732002 -0.10543856301000019 0 0.4555790363616935 -0.1232335355056378 0 0.43539956772732002 -0.10543856301000019 0 0.43664862519858522 -0.12523873688129941 0 0.47939819449689902 -0.1132275866134279 0 0.46105071078657189 -0.096689438132449262 0 0.4555790363616935 -0.1232335355056378 0 0.41892522507171598 -0.1241200010935793 0 0.40748473697506882 -0.1060304495468663 0 0.3928290236412163 -0.1219032059513412 0 0.41892522507171598 -0.1241200010935793 0 0.42939927241057391 -0.10241356719625901 0 0.40748473697506882 -0.1060304495468663 0 0.41892522507171598 -0.1241200010935793 0 0.42939927241057391 -0.10241356719625901 0 0.41892522507171598 -0.1241200010935793 0 0.43539956772732002 -0.10543856301000019 0 0.42939927241057391 -0.10241356719625901 0 0.41892522507171598 -0.1241200010935793 0 0.43539956772732002 -0.10543856301000019 0 0.43664862519858522 -0.12523873688129941 0 0.43539956772732002 -0.10543856301000019 0 0.41522009909294638 -0.087643590514362574 0 0.43539956772732002 -0.10543856301000019 0 0.41522009909294638 -0.087643590514362574 0 0.43371681745398721 -0.088591292474842639 0 0.43539956772732002 -0.10543856301000019 0 0.42939927241057391 -0.10241356719625901 0 0.41522009909294638 -0.087643590514362574 0 0.42939927241057391 -0.10241356719625901 0 0.40748473697506882 -0.1060304495468663 0 0.41522009909294638 -0.087643590514362574 0 0.41522009909294638 -0.087643590514362574 0 0.43371681745398721 -0.088591292474842639 0 0.42891547199704178 -0.076678539878925145 0 0.44303429013955381 -0.080081517853788892 0 0.43371681745398721 -0.088591292474842639 0 0.42891547199704178 -0.076678539878925145 0 0.44303429013955381 -0.080081517853788892 0 0.42891547199704178 -0.076678539878925145 0 0.43401482423754789 -0.060095634355563227 0 0.42891547199704178 -0.076678539878925145 0 0.4185913290611733 -0.066980664196068435 0 0.43401482423754789 -0.060095634355563227 0 0.41522009909294638 -0.087643590514362574 0 0.4185913290611733 -0.066980664196068435 0 0.40671795084001111 -0.071757620184326021 0 0.41522009909294638 -0.087643590514362574 0 0.42891547199704178 -0.076678539878925145 0 0.4185913290611733 -0.066980664196068435 0 0.4185913290611733 -0.066980664196068435 0 0.40671795084001111 -0.071757620184326021 0 0.40927703257625608 -0.059722927481571653 0 0.41522009909294638 -0.087643590514362574 0 0.40671795084001111 -0.071757620184326021 0 0.39504063045857318 -0.069848618018724884 0 0.40671795084001111 -0.071757620184326021 0 0.40088731579895848 -0.063310719884264843 0 0.39679692089357349 -0.068349719474519691 0 0.40671795084001111 -0.071757620184326021 0 0.39504063045857318 -0.069848618018724884 0 0.39679692089357349 -0.068349719474519691 0 0.40671795084001111 -0.071757620184326021 0 0.40088731579895848 -0.063310719884264843 0 0.40927703257625608 -0.059722927481571653 0 0.39504063045857318 -0.069848618018724884 0 0.39345546089451239 -0.065608188376808929 0 0.39039020157369853 -0.061919415571994652 0 0.39504063045857318 -0.069848618018724884 0 0.39679692089357349 -0.068349719474519691 0 0.39345546089451239 -0.065608188376808929 0 0.39504063045857318 -0.069848618018724884 0 0.39679692089357349 -0.068349719474519691 0 0.39660859286596167 -0.064654896577829968 0 0.39345546089451239 -0.065608188376808929 0 0.39569273287578549 -0.061112349427330438 0 0.40088731579895848 -0.063310719884264843 0 0.39660859286596167 -0.064654896577829968 0 0.39569273287578549 -0.061112349427330438 0 0.40088731579895848 -0.063310719884264843 0 0.39679692089357349 -0.068349719474519691 0 0.39660859286596167 -0.064654896577829968 0 0.39679692089357349 -0.068349719474519691 0 0.39660859286596167 -0.064654896577829968 0 0.39345546089451239 -0.065608188376808929 0 0.39345546089451239 -0.065608188376808929 0 0.39569273287578549 -0.061112349427330438 0 0.39039020157369853 -0.061919415571994652 0 0.39504063045857318 -0.069848618018724884 0 0.37847011931385921 -0.070063584383212182 0 0.37565360421553201 -0.086394392472092171 0 0.39504063045857318 -0.069848618018724884 0 0.37847011931385921 -0.070063584383212182 0 0.3766105745449283 -0.053596339823563661 0 0.39504063045857318 -0.069848618018724884 0 0.37565360421553201 -0.086394392472092171 0 0.39504063045857318 -0.069848618018724884 0 0.37565360421553201 -0.086394392472092171 0 0.3950026090555111 -0.091536817036382556 0 0.41522009909294638 -0.087643590514362574 0 0.39504063045857318 -0.069848618018724884 0 0.41522009909294638 -0.087643590514362574 0 0.39504063045857318 -0.069848618018724884 0 0.3950026090555111 -0.091536817036382556 0 0.37728204214865568 -0.1073227606761247 0 0.3928290236412163 -0.1219032059513412 0 0.36082883912689939 -0.1217620611446468 0 0.40748473697506882 -0.1060304495468663 0 0.41522009909294638 -0.087643590514362574 0 0.3950026090555111 -0.091536817036382556 0 0.40748473697506882 -0.1060304495468663 0 0.3950026090555111 -0.091536817036382556 0 0.39325891427606618 -0.10723179607027709 0 0.37565360421553201 -0.086394392472092171 0 0.3950026090555111 -0.091536817036382556 0 0.37728204214865568 -0.1073227606761247 0 0.3950026090555111 -0.091536817036382556 0 0.39325891427606618 -0.10723179607027709 0 0.37728204214865568 -0.1073227606761247 0 0.39325891427606618 -0.10723179607027709 0 0.37728204214865568 -0.1073227606761247 0 0.3928290236412163 -0.1219032059513412 0 0.40748473697506882 -0.1060304495468663 0 0.39325891427606618 -0.10723179607027709 0 0.3928290236412163 -0.1219032059513412 0 0.41127965287423152 -0.024399539759484331 0 0.42518608979669531 -0.02265704986853841 0 0.42261590488627993 -0.017481706972023781 0 0.41127965287423152 -0.024399539759484331 0 0.42261590488627993 -0.017481706972023781 0 0.41127965287423152 -0.024399539759484331 0 0.41018472249466748 -0.0098533262391521815 0 0.42261590488627993 -0.017481706972023781 0 0.41127965287423152 -0.024399539759484331 0 0.42518608979669531 -0.02265704986853841 0 0.41909809078586302 -0.034600420135884033 0 0.41127965287423152 -0.024399539759484331 0 0.41909809078586302 -0.034600420135884033 0 0.40984434716759188 0.0082351938816782704 0 0.41018472249466748 -0.0098533262391521815 0 0.42261590488627993 -0.017481706972023781 0 0.40984434716759188 0.0082351938816782704 0 0.42339056673071968 0.0021825346760754099 0 0.42261590488627993 -0.017481706972023781 0 0.40984434716759188 0.0082351938816782704 0 0.42261590488627993 -0.017481706972023781 0 0.42339056673071968 0.0021825346760754099 0 0.43430728019643411 0.0021603711968910342 0 0.42261590488627993 -0.017481706972023781 0 0.44282671919620797 -0.0051482625720636332 0 0.42261590488627993 -0.017481706972023781 0 0.43430728019643411 0.0021603711968910342 0 0.44282671919620797 -0.0051482625720636332 0 0.42261590488627993 -0.017481706972023781 0 0.43819621609876008 -0.023289020265245128 0 0.44282671919620797 -0.0051482625720636332 0 0.42261590488627993 -0.017481706972023781 0 0.43819621609876008 -0.023289020265245128 0 0.42518608979669531 -0.02265704986853841 0 0.42261590488627993 -0.017481706972023781 0 0.42518608979669531 -0.02265704986853841 0 0.42261590488627993 -0.017481706972023781 0 0.42518608979669531 -0.02265704986853841 0 0.42901152742065751 -0.0304940670570235 0 0.41909809078586302 -0.034600420135884033 0 0.43819621609876008 -0.023289020265245128 0 0.42518608979669531 -0.02265704986853841 0 0.42901152742065751 -0.0304940670570235 0 0.43819621609876008 -0.023289020265245128 0 0.42901152742065751 -0.0304940670570235 0 0.43356571300131158 -0.041429777958426457 0 0.43356571300131158 -0.041429777958426457 0 0.42049685165517059 -0.051622799809273513 0 0.41909809078586302 -0.034600420135884033 0 0.43819621609876008 -0.023289020265245128 0 0.43356571300131158 -0.041429777958426457 0 0.42901152742065751 -0.0304940670570235 0 0.43356571300131158 -0.041429777958426457 0 0.41909809078586302 -0.034600420135884033 0 0.43356571300131158 -0.041429777958426457 0 0.43401482423754789 -0.060095634355563227 0 0.42049685165517059 -0.051622799809273513 0 0.4185913290611733 -0.066980664196068435 0 0.43401482423754789 -0.060095634355563227 0 0.42049685165517059 -0.051622799809273513 0 0.4185913290611733 -0.066980664196068435 0 0.42049685165517059 -0.051622799809273513 0 0.40927703257625608 -0.059722927481571653 0 0.42049685165517059 -0.051622799809273513 0 0.40935430208728529 -0.048928790267427143 0 0.40927703257625608 -0.059722927481571653 0 0.42049685165517059 -0.051622799809273513 0 0.40935430208728529 -0.048928790267427143 0 0.41909809078586302 -0.034600420135884033 0 0.40935430208728529 -0.048928790267427143 0 0.41909809078586302 -0.034600420135884033 0 0.40707717027401641 -0.035988559751571038 0 0.41127965287423152 -0.024399539759484331 0 0.41909809078586302 -0.034600420135884033 0 0.40707717027401641 -0.035988559751571038 0 0.41127965287423152 -0.024399539759484331 0 0.40707717027401641 -0.035988559751571038 0 0.39405884178494388 -0.034908365026745478 0 0.40935430208728529 -0.048928790267427143 0 0.39405884178494388 -0.034908365026745478 0 0.39197299157947429 -0.048274211113751971 0 0.40935430208728529 -0.048928790267427143 0 0.40707717027401641 -0.035988559751571038 0 0.39405884178494388 -0.034908365026745478 0 0.40935430208728529 -0.048928790267427143 0 0.39405884178494388 -0.034908365026745478 0 0.40935430208728529 -0.048928790267427143 0 0.3996144460149379 -0.055736970548069989 0 0.39197299157947429 -0.048274211113751971 0 0.40088731579895848 -0.063310719884264843 0 0.40927703257625608 -0.059722927481571653 0 0.3996144460149379 -0.055736970548069989 0 0.40935430208728529 -0.048928790267427143 0 0.40927703257625608 -0.059722927481571653 0 0.3996144460149379 -0.055736970548069989 0 0.40088731579895848 -0.063310719884264843 0 0.3996144460149379 -0.055736970548069989 0 0.39569273287578549 -0.061112349427330438 0 0.3996144460149379 -0.055736970548069989 0 0.39197299157947429 -0.048274211113751971 0 0.39140584045318438 -0.055971047377980733 0 0.3996144460149379 -0.055736970548069989 0 0.39140584045318438 -0.055971047377980733 0 0.39569273287578549 -0.061112349427330438 0 0.39140584045318438 -0.055971047377980733 0 0.39569273287578549 -0.061112349427330438 0 0.39039020157369853 -0.061919415571994652 0 0.37847011931385921 -0.070063584383212182 0 0.3766105745449283 -0.053596339823563661 0 0.37050166054777439 -0.063639530699426253 0 0.39504063045857318 -0.069848618018724884 0 0.39039020157369853 -0.061919415571994652 0 0.3766105745449283 -0.053596339823563661 0 0.39504063045857318 -0.069848618018724884 0 0.3766105745449283 -0.053596339823563661 0 0.39039020157369853 -0.061919415571994652 0 0.38611894638933408 -0.0558387438719921 0 0.3766105745449283 -0.053596339823563661 0 0.39140584045318438 -0.055971047377980733 0 0.39039020157369853 -0.061919415571994652 0 0.38611894638933408 -0.0558387438719921 0 0.39197299157947429 -0.048274211113751971 0 0.38531318192092229 -0.051377750698835191 0 0.38045755663769021 -0.043208411306887497 0 0.39140584045318438 -0.055971047377980733 0 0.38611894638933408 -0.0558387438719921 0 0.38531318192092229 -0.051377750698835191 0 0.39197299157947429 -0.048274211113751971 0 0.39140584045318438 -0.055971047377980733 0 0.38531318192092229 -0.051377750698835191 0 0.38531318192092229 -0.051377750698835191 0 0.3766105745449283 -0.053596339823563661 0 0.38045755663769021 -0.043208411306887497 0 0.38611894638933408 -0.0558387438719921 0 0.38531318192092229 -0.051377750698835191 0 0.3766105745449283 -0.053596339823563661 0 0.38045755663769021 -0.043208411306887497 0 0.3805546520735637 -0.02252988941751994 0 0.36945734403846398 -0.029623916631636289 0 0.39405884178494388 -0.034908365026745478 0 0.38045755663769021 -0.043208411306887497 0 0.3805546520735637 -0.02252988941751994 0 0.39405884178494388 -0.034908365026745478 0 0.38045755663769021 -0.043208411306887497 0 0.39405884178494388 -0.034908365026745478 0 0.39197299157947429 -0.048274211113751971 0 0.38045755663769021 -0.043208411306887497 0 0.3805546520735637 -0.02252988941751994 0 0.39503506805700089 -0.020287982874940519 0 0.38323668702588259 -0.00833062909200619 0 0.39405884178494388 -0.034908365026745478 0 0.3805546520735637 -0.02252988941751994 0 0.39405884178494388 -0.034908365026745478 0 0.3805546520735637 -0.02252988941751994 0 0.39503506805700089 -0.020287982874940519 0 0.41127965287423152 -0.024399539759484331 0 0.39405884178494388 -0.034908365026745478 0 0.39503506805700089 -0.020287982874940519 0 0.41127965287423152 -0.024399539759484331 0 0.39503506805700089 -0.020287982874940519 0 0.39699898505056619 -0.0057672521067791867 0 0.41127965287423152 -0.024399539759484331 0 0.39405884178494388 -0.034908365026745478 0 0.41127965287423152 -0.024399539759484331 0 0.41018472249466748 -0.0098533262391521815 0 0.39699898505056619 -0.0057672521067791867 0 0.40984434716759188 0.0082351938816782704 0 0.41018472249466748 -0.0098533262391521815 0 0.39699898505056619 -0.0057672521067791867 0 0.41127965287423152 -0.024399539759484331 0 0.39699898505056619 -0.0057672521067791867 0 0.39503506805700089 -0.020287982874940519 0 0.39699898505056619 -0.0057672521067791867 0 0.38323668702588259 -0.00833062909200619 0 0.38271831722690208 0.01286503554592695 0 0.39699898505056619 -0.0057672521067791867 0 0.38323668702588259 -0.00833062909200619 0 0.3805546520735637 -0.02252988941751994 0 0.38323668702588259 -0.00833062909200619 0 0.36705046236217842 -0.010151413808299909 0 0.38271831722690208 0.01286503554592695 0 0.38323668702588259 -0.00833062909200619 0 0.36705046236217842 -0.010151413808299909 0 0.36705046236217842 -0.010151413808299909 0 0.35478160668705361 -0.028174652963811709 0 0.3805546520735637 -0.02252988941751994 0 0.36705046236217842 -0.010151413808299909 0 0.36945734403846398 -0.029623916631636289 0 0.36705046236217842 -0.010151413808299909 0 0.36945734403846398 -0.029623916631636289 0 0.35478160668705361 -0.028174652963811709 0 0.3805546520735637 -0.02252988941751994 0 0.36705046236217842 -0.010151413808299909 0 0.35478160668705361 -0.028174652963811709 0 0.3488765124727064 -0.01318930833572199 0 0.3409660938062456 -0.029551969808235771 0 0.36705046236217842 -0.010151413808299909 0 0.35478160668705361 -0.028174652963811709 0 0.3488765124727064 -0.01318930833572199 0 0.34507599742959921 0.0099912518389839687 0 0.36705046236217842 -0.010151413808299909 0 0.34507599742959921 0.0099912518389839687 0 0.36705046236217842 -0.010151413808299909 0 0.3488765124727064 -0.01318930833572199 0 0.34507599742959921 0.0099912518389839687 0 0.3488765124727064 -0.01318930833572199 0 0.33358620685756429 -0.010514286594233299 0 0.33358620685756429 -0.010514286594233299 0 0.3409660938062456 -0.029551969808235771 0 0.32752725050965847 -0.02815425865735895 0 0.3488765124727064 -0.01318930833572199 0 0.33358620685756429 -0.010514286594233299 0 0.3409660938062456 -0.029551969808235771 0 0.3409660938062456 -0.029551969808235771 0 0.32752725050965847 -0.02815425865735895 0 0.33586572589147029 -0.035846062913531311 0 0.32752725050965847 -0.02815425865735895 0 0.31418516747306452 -0.014854236649722409 0 0.31223388580653022 -0.034888355953539729 0 0.33358620685756429 -0.010514286594233299 0 0.32752725050965847 -0.02815425865735895 0 0.31418516747306452 -0.014854236649722409 0 0.3213405256380108 0.01287573289299193 0 0.33358620685756429 -0.010514286594233299 0 0.31418516747306452 -0.014854236649722409 0 0.32752725050965847 -0.02815425865735895 0 0.33060268708456908 -0.040857089185939922 0 0.31223388580653022 -0.034888355953539729 0 0.32160859256327518 -0.050107989406451628 0 0.33060268708456908 -0.040857089185939922 0 0.31223388580653022 -0.034888355953539729 0 0.32160859256327518 -0.050107989406451628 0 0.33060268708456908 -0.040857089185939922 0 0.34251275101192918 -0.04619789211932375 0 0.32752725050965847 -0.02815425865735895 0 0.33060268708456908 -0.040857089185939922 0 0.33586572589147029 -0.035846062913531311 0 0.3409660938062456 -0.029551969808235771 0 0.33586572589147029 -0.035846062913531311 0 0.34183666263882562 -0.043408647178999858 0 0.33060268708456908 -0.040857089185939922 0 0.33586572589147029 -0.035846062913531311 0 0.34183666263882562 -0.043408647178999858 0 0.33060268708456908 -0.040857089185939922 0 0.34183666263882562 -0.043408647178999858 0 0.34251275101192918 -0.04619789211932375 0 0.34183666263882562 -0.043408647178999858 0 0.34251275101192918 -0.04619789211932375 0 0.32160859256327518 -0.050107989406451628 0 0.34251275101192918 -0.04619789211932375 0 0.32708199651976971 -0.068866035418628263 0 0.34251275101192918 -0.04619789211932375 0 0.32708199651976971 -0.068866035418628263 0 0.34251275101192918 -0.04619789211932375 0 0.36131690726066801 -0.059274612355873231 0 0.34938966449221048 -0.074569029522392277 0 0.34251275101192918 -0.04619789211932375 0 0.36444244243183488 -0.0440552156616629 0 0.36131690726066801 -0.059274612355873231 0 0.34251275101192918 -0.04619789211932375 0 0.34938966449221048 -0.074569029522392277 0 0.35478160668705361 -0.028174652963811709 0 0.34183666263882562 -0.043408647178999858 0 0.34251275101192918 -0.04619789211932375 0 0.35478160668705361 -0.028174652963811709 0 0.34251275101192918 -0.04619789211932375 0 0.35478160668705361 -0.028174652963811709 0 0.34251275101192918 -0.04619789211932375 0 0.36444244243183488 -0.0440552156616629 0 0.35478160668705361 -0.028174652963811709 0 0.3409660938062456 -0.029551969808235771 0 0.34183666263882562 -0.043408647178999858 0 0.36945734403846398 -0.029623916631636289 0 0.35478160668705361 -0.028174652963811709 0 0.36444244243183488 -0.0440552156616629 0 0.38045755663769021 -0.043208411306887497 0 0.36945734403846398 -0.029623916631636289 0 0.36444244243183488 -0.0440552156616629 0 0.3766105745449283 -0.053596339823563661 0 0.38045755663769021 -0.043208411306887497 0 0.36444244243183488 -0.0440552156616629 0 0.3766105745449283 -0.053596339823563661 0 0.36444244243183488 -0.0440552156616629 0 0.36131690726066801 -0.059274612355873231 0 0.3766105745449283 -0.053596339823563661 0 0.36131690726066801 -0.059274612355873231 0 0.37050166054777439 -0.063639530699426253 0 0.37847011931385921 -0.070063584383212182 0 0.37050166054777439 -0.063639530699426253 0 0.36500534245641181 -0.075588332862002353 0 0.36131690726066801 -0.059274612355873231 0 0.37050166054777439 -0.063639530699426253 0 0.36500534245641181 -0.075588332862002353 0 0.37847011931385921 -0.070063584383212182 0 0.37565360421553201 -0.086394392472092171 0 0.36500534245641181 -0.075588332862002353 0 0.37565360421553201 -0.086394392472092171 0 0.36500534245641181 -0.075588332862002353 0 0.35626657797249178 -0.10294016692546069 0 0.36500534245641181 -0.075588332862002353 0 0.34938966449221048 -0.074569029522392277 0 0.35626657797249178 -0.10294016692546069 0 0.34938966449221048 -0.074569029522392277 0 0.35626657797249178 -0.10294016692546069 0 0.33623562714616451 -0.092776472448836564 0 0.34938966449221048 -0.074569029522392277 0 0.35626657797249178 -0.10294016692546069 0 0.36131690726066801 -0.059274612355873231 0 0.36500534245641181 -0.075588332862002353 0 0.34938966449221048 -0.074569029522392277 0 0.37728204214865568 -0.1073227606761247 0 0.36082883912689939 -0.1217620611446468 0 0.35626657797249178 -0.10294016692546069 0 0.37565360421553201 -0.086394392472092171 0 0.37728204214865568 -0.1073227606761247 0 0.35626657797249178 -0.10294016692546069 0 0.37565360421553201 -0.086394392472092171 0 0.35626657797249178 -0.10294016692546069 0 0.35626657797249178 -0.10294016692546069 0 0.34312495661441839 -0.1141558273478683 0 0.33623562714616451 -0.092776472448836564 0 0.35626657797249178 -0.10294016692546069 0 0.34312495661441839 -0.1141558273478683 0 0.36082883912689939 -0.1217620611446468 0 0.35626657797249178 -0.10294016692546069 0 0.36082883912689939 -0.1217620611446468 0 0.35626657797249178 -0.10294016692546069 0 0.34312495661441839 -0.1141558273478683 0 0.36082883912689939 -0.1217620611446468 0 0.34312495661441839 -0.1141558273478683 0 0.34638130094824232 -0.13283779787547481 0 0.34312495661441839 -0.1141558273478683 0 0.32794348257509981 -0.1084744740709294 0 0.32998333525634532 -0.1253714877702761 0 0.34312495661441839 -0.1141558273478683 0 0.32998333525634532 -0.1253714877702761 0 0.34638130094824232 -0.13283779787547481 0 0.34312495661441839 -0.1141558273478683 0 0.32998333525634532 -0.1253714877702761 0 0.34312495661441839 -0.1141558273478683 0 0.32794348257509981 -0.1084744740709294 0 0.33623562714616451 -0.092776472448836564 0 0.32794348257509981 -0.1084744740709294 0 0.33623562714616451 -0.092776472448836564 0 0.31165124202760969 -0.091534178717932568 0 0.32794348257509981 -0.1084744740709294 0 0.31621549421697631 -0.1141820818077072 0 0.31165124202760969 -0.091534178717932568 0 0.31621549421697631 -0.1141820818077072 0 0.31527892369037702 -0.13132794646216109 0 0.32998333525634532 -0.1253714877702761 0 0.32794348257509981 -0.1084744740709294 0 0.31621549421697631 -0.1141820818077072 0 0.32998333525634532 -0.1253714877702761 0 0.34251275101192918 -0.04619789211932375 0 0.34938966449221048 -0.074569029522392277 0 0.32708199651976971 -0.068866035418628263 0 0.34938966449221048 -0.074569029522392277 0 0.33623562714616451 -0.092776472448836564 0 0.32708199651976971 -0.068866035418628263 0 0.33623562714616451 -0.092776472448836564 0 0.32708199651976971 -0.068866035418628263 0 0.31165124202760969 -0.091534178717932568 0 0.32708199651976971 -0.068866035418628263 0 0.31165124202760969 -0.091534178717932568 0 0.32708199651976971 -0.068866035418628263 0 0.30137112103148528 -0.069895119382292495 0 0.31165124202760969 -0.091534178717932568 0 0.32160859256327518 -0.050107989406451628 0 0.32708199651976971 -0.068866035418628263 0 0.30137112103148528 -0.069895119382292495 0 0.30137112103148528 -0.069895119382292495 0 0.31165124202760969 -0.091534178717932568 0 0.28310987352980022 -0.090598951921933915 0 0.30137112103148528 -0.069895119382292495 0 0.28310987352980022 -0.090598951921933915 0 0.27080690316157202 -0.068661796115025597 0 0.30137112103148528 -0.069895119382292495 0 0.27080690316157202 -0.068661796115025597 0 0.29396811838688541 -0.049601764713783081 0 0.31621549421697631 -0.1141820818077072 0 0.29622048753544977 -0.114202322017237 0 0.31527892369037702 -0.13132794646216109 0 0.31165124202760969 -0.091534178717932568 0 0.28310987352980022 -0.090598951921933915 0 0.29622048753544977 -0.114202322017237 0 0.31621549421697631 -0.1141820818077072 0 0.31165124202760969 -0.091534178717932568 0 0.29622048753544977 -0.114202322017237 0 0.31165124202760969 -0.091534178717932568 0 0.29622048753544977 -0.114202322017237 0 0.28310987352980022 -0.090598951921933915 0 0.29622048753544977 -0.114202322017237 0 0.26803891018201309 -0.1115324088276283 0 0.29622048753544977 -0.114202322017237 0 0.26803891018201309 -0.1115324088276283 0 0.28078973304328969 -0.13687046531654151 0 0.28310987352980022 -0.090598951921933915 0 0.26803891018201309 -0.1115324088276283 0 0.24764568793625849 -0.087721827516268114 0 0.26803891018201309 -0.1115324088276283 0 0.24764568793625849 -0.087721827516268114 0 0.24678342630617159 -0.1145367174117326 0 0.26803891018201309 -0.1115324088276283 0 0.26105437232912282 -0.13059646526394561 0 0.24678342630617159 -0.1145367174117326 0 0.27080690316157202 -0.068661796115025597 0 0.25296892350641031 -0.054513079160722427 0 0.24764568793625849 -0.087721827516268114 0 0.28310987352980022 -0.090598951921933915 0 0.27080690316157202 -0.068661796115025597 0 0.24764568793625849 -0.087721827516268114 0 0.27080690316157202 -0.068661796115025597 0 0.24764568793625849 -0.087721827516268114 0 0.27080690316157202 -0.068661796115025597 0 0.25296892350641031 -0.054513079160722427 0 0.27319268538364611 -0.039287856491534177 0 0.27080690316157202 -0.068661796115025597 0 0.27319268538364611 -0.039287856491534177 0 0.29396811838688541 -0.049601764713783081 0 0.25296892350641031 -0.054513079160722427 0 0.27319268538364611 -0.039287856491534177 0 0.25197428176290781 -0.026616330140016908 0 0.24732928016819311 0.003842864563858316 0 0.25197428176290781 -0.026616330140016908 0 0.27470925908522409 -0.0136313110371924 0 0.24732928016819311 0.003842864563858316 0 0.27854720245428283 0.0066886364103462149 0 0.27470925908522409 -0.0136313110371924 0 0.27319268538364611 -0.039287856491534177 0 0.25197428176290781 -0.026616330140016908 0 0.27470925908522409 -0.0136313110371924 0 0.27319268538364611 -0.039287856491534177 0 0.27470925908522409 -0.0136313110371924 0 0.29429438085765242 -0.025866015272658319 0 0.27854720245428283 0.0066886364103462149 0 0.27470925908522409 -0.0136313110371924 0 0.29747716901056448 -0.002932566790178141 0 0.27470925908522409 -0.0136313110371924 0 0.29429438085765242 -0.025866015272658319 0 0.29747716901056448 -0.002932566790178141 0 0.31418516747306452 -0.014854236649722409 0 0.29429438085765242 -0.025866015272658319 0 0.29747716901056448 -0.002932566790178141 0 0.3213405256380108 0.01287573289299193 0 0.31418516747306452 -0.014854236649722409 0 0.29747716901056448 -0.002932566790178141 0 0.31418516747306452 -0.014854236649722409 0 0.29429438085765242 -0.025866015272658319 0 0.31223388580653022 -0.034888355953539729 0 0.29429438085765242 -0.025866015272658319 0 0.31223388580653022 -0.034888355953539729 0 0.29396811838688541 -0.049601764713783081 0 0.32160859256327518 -0.050107989406451628 0 0.31223388580653022 -0.034888355953539729 0 0.29396811838688541 -0.049601764713783081 0 0.32160859256327518 -0.050107989406451628 0 0.30137112103148528 -0.069895119382292495 0 0.29396811838688541 -0.049601764713783081 0 0.27080690316157202 -0.068661796115025597 0 0.29396811838688541 -0.049601764713783081 0 0.27319268538364611 -0.039287856491534177 0 0.29429438085765242 -0.025866015272658319 0 0.29396811838688541 -0.049601764713783081 0 0.28181839303987433 -0.20358024617226059 0 0.29812760946858541 -0.20096400495160441 0 0.30009179971313632 -0.21497445273809029 0 0.28181839303987433 -0.20358024617226059 0 0.30009179971313632 -0.21497445273809029 0 0.28798195436289281 -0.22309428378759941 0 0.28181839303987433 -0.20358024617226059 0 0.29055859355895619 -0.19101210867064791 0 0.29812760946858541 -0.20096400495160441 0 0.28181839303987433 -0.20358024617226059 0 0.29055859355895619 -0.19101210867064791 0 0.2790068335279941 -0.1873822474504914 0 0.30326915919262271 -0.18554095882442559 0 0.31897724507280811 -0.18445821287254879 0 0.31381621970539653 -0.20729739837581149 0 0.29812760946858541 -0.20096400495160441 0 0.30326915919262271 -0.18554095882442559 0 0.31381621970539653 -0.20729739837581149 0 0.29055859355895619 -0.19101210867064791 0 0.29812760946858541 -0.20096400495160441 0 0.30326915919262271 -0.18554095882442559 0 0.30865519433798511 -0.23013658387907421 0 0.31381621970539653 -0.20729739837581149 0 0.29812760946858541 -0.20096400495160441 0 0.30009179971313632 -0.21497445273809029 0 0.31381621970539653 -0.20729739837581149 0 0.30009179971313632 -0.21497445273809029 0 0.30865519433798511 -0.23013658387907421 0 0.31381621970539653 -0.20729739837581149 0 0.30865519433798511 -0.23013658387907421 0 0.28798195436289281 -0.22309428378759941 0 0.30865519433798511 -0.23013658387907421 0 0.29809701074916778 -0.23326573369134959 0 0.28798195436289281 -0.22309428378759941 0 0.30009179971313632 -0.21497445273809029 0 0.30865519433798511 -0.23013658387907421 0 0.28798195436289281 -0.22309428378759941 0 0.30865519433798511 -0.23013658387907421 0 0.31350263735423062 -0.2301372525870953 0 0.31446777903251921 -0.22746950327864229 0 0.30865519433798511 -0.23013658387907421 0 0.30674623202070278 -0.23858435178938961 0 0.31297647973393983 -0.2334010086676821 0 0.30865519433798511 -0.23013658387907421 0 0.30674623202070278 -0.23858435178938961 0 0.30865519433798511 -0.23013658387907421 0 0.31297647973393983 -0.2334010086676821 0 0.31350263735423062 -0.2301372525870953 0 0.30865519433798511 -0.23013658387907421 0 0.29809701074916778 -0.23326573369134959 0 0.30674623202070278 -0.23858435178938961 0 0.30555096608421928 -0.24652165195996231 0 0.31220663878437371 -0.24324972987698351 0 0.31411864482200891 -0.25042558310994151 0 0.30555096608421928 -0.24652165195996231 0 0.31220663878437371 -0.24324972987698351 0 0.30674623202070278 -0.23858435178938961 0 0.31220663878437371 -0.24324972987698351 0 0.30674623202070278 -0.23858435178938961 0 0.31623446313343689 -0.23751638341286291 0 0.30674623202070278 -0.23858435178938961 0 0.31623446313343689 -0.23751638341286291 0 0.31297647973393983 -0.2334010086676821 0 0.30555096608421928 -0.24652165195996231 0 0.30674623202070278 -0.23858435178938961 0 0.29610028694506479 -0.24142391760317261 0 0.29809701074916778 -0.23326573369134959 0 0.30674623202070278 -0.23858435178938961 0 0.29610028694506479 -0.24142391760317261 0 0.30555096608421928 -0.24652165195996231 0 0.29610028694506479 -0.24142391760317261 0 0.29946581785159798 -0.25169865608409547 0 0.29610028694506479 -0.24142391760317261 0 0.28582829497852708 -0.2489698592912391 0 0.29946581785159798 -0.25169865608409547 0 0.29809701074916778 -0.23326573369134959 0 0.29610028694506479 -0.24142391760317261 0 0.28944567895533663 -0.23399899495601939 0 0.29610028694506479 -0.24142391760317261 0 0.28524008515362859 -0.24042439619552769 0 0.28944567895533663 -0.23399899495601939 0 0.28524008515362859 -0.24042439619552769 0 0.28944567895533663 -0.23399899495601939 0 0.27669764331821439 -0.23360557061946199 0 0.28524008515362859 -0.24042439619552769 0 0.28582829497852708 -0.2489698592912391 0 0.2765728144471431 -0.2450331020662524 0 0.29610028694506479 -0.24142391760317261 0 0.28524008515362859 -0.24042439619552769 0 0.28582829497852708 -0.2489698592912391 0 0.29809701074916778 -0.23326573369134959 0 0.28944567895533663 -0.23399899495601939 0 0.28798195436289281 -0.22309428378759941 0 0.28944567895533663 -0.23399899495601939 0 0.28798195436289281 -0.22309428378759941 0 0.27669764331821439 -0.23360557061946199 0 0.28798195436289281 -0.22309428378759941 0 0.26730871438780029 -0.2160519836961253 0 0.27669764331821439 -0.23360557061946199 0 0.26411022222340758 -0.23318921974787579 0 0.26730871438780029 -0.2160519836961253 0 0.28798195436289281 -0.22309428378759941 0 0.27669764331821439 -0.23360557061946199 0 0.26730871438780029 -0.2160519836961253 0 0.28582829497852708 -0.2489698592912391 0 0.2765728144471431 -0.2450331020662524 0 0.27304168428005932 -0.25511452468494911 0 0.28524008515362859 -0.24042439619552769 0 0.27669764331821439 -0.23360557061946199 0 0.2765728144471431 -0.2450331020662524 0 0.27669764331821439 -0.23360557061946199 0 0.2765728144471431 -0.2450331020662524 0 0.26515546647560329 -0.2452269789710273 0 0.27669764331821439 -0.23360557061946199 0 0.26515546647560329 -0.2452269789710273 0 0.26411022222340758 -0.23318921974787579 0 0.2765728144471431 -0.2450331020662524 0 0.26515546647560329 -0.2452269789710273 0 0.27304168428005932 -0.25511452468494911 0 0.26515546647560329 -0.2452269789710273 0 0.25475906612319699 -0.24139413636627971 0 0.25592431973638508 -0.25133284336755879 0 0.26515546647560329 -0.2452269789710273 0 0.25475906612319699 -0.24139413636627971 0 0.26411022222340758 -0.23318921974787579 0 0.25475906612319699 -0.24139413636627971 0 0.26411022222340758 -0.23318921974787579 0 0.25140627590533687 -0.2319232051496454 0 0.25475906612319699 -0.24139413636627971 0 0.25140627590533687 -0.2319232051496454 0 0.24580781773274579 -0.23745599548454119 0 0.25475906612319699 -0.24139413636627971 0 0.25592431973638508 -0.25133284336755879 0 0.2470672804731909 -0.24755278856537619 0 0.25781880813153318 -0.2256999301015114 0 0.26730871438780029 -0.2160519836961253 0 0.2484500200095881 -0.2216353118123992 0 0.25781880813153318 -0.2256999301015114 0 0.26411022222340758 -0.23318921974787579 0 0.26730871438780029 -0.2160519836961253 0 0.25781880813153318 -0.2256999301015114 0 0.26411022222340758 -0.23318921974787579 0 0.25140627590533687 -0.2319232051496454 0 0.25781880813153318 -0.2256999301015114 0 0.25140627590533687 -0.2319232051496454 0 0.2484500200095881 -0.2216353118123992 0 0.26730871438780029 -0.2160519836961253 0 0.24663547441270761 -0.20900968360465191 0 0.2484500200095881 -0.2216353118123992 0 0.26730871438780029 -0.2160519836961253 0 0.24663547441270761 -0.20900968360465191 0 0.26730871438780029 -0.2160519836961253 0 0.26185065847554301 -0.2019059339874299 0 0.24663547441270761 -0.20900968360465191 0 0.28181839303987433 -0.20358024617226059 0 0.28798195436289281 -0.22309428378759941 0 0.26730871438780029 -0.2160519836961253 0 0.28181839303987433 -0.20358024617226059 0 0.26730871438780029 -0.2160519836961253 0 0.26185065847554301 -0.2019059339874299 0 0.28181839303987433 -0.20358024617226059 0 0.27051624290150988 -0.19385006099097091 0 0.26185065847554301 -0.2019059339874299 0 0.28181839303987433 -0.20358024617226059 0 0.27051624290150988 -0.19385006099097091 0 0.2790068335279941 -0.1873822474504914 0 0.27051624290150988 -0.19385006099097091 0 0.26214414993373131 -0.19076488167466521 0 0.26849587142956499 -0.18527371061523379 0 0.27051624290150988 -0.19385006099097091 0 0.2790068335279941 -0.1873822474504914 0 0.26849587142956499 -0.18527371061523379 0 0.27051624290150988 -0.19385006099097091 0 0.26214414993373131 -0.19076488167466521 0 0.26185065847554301 -0.2019059339874299 0 0.26214414993373131 -0.19076488167466521 0 0.26185065847554301 -0.2019059339874299 0 0.2524003079384961 -0.1947869229672409 0 0.26185065847554301 -0.2019059339874299 0 0.2524003079384961 -0.1947869229672409 0 0.24663547441270761 -0.20900968360465191 0 0.26214414993373131 -0.19076488167466521 0 0.2524003079384961 -0.1947869229672409 0 0.2581651414642846 -0.18056416232982991 0 0.2524003079384961 -0.1947869229672409 0 0.2581651414642846 -0.18056416232982991 0 0.2524003079384961 -0.1947869229672409 0 0.2581651414642846 -0.18056416232982991 0 0.24992822405896969 -0.18220675191515051 0 0.2581651414642846 -0.18056416232982991 0 0.26535897855112972 -0.15953860861584601 0 0.24992822405896969 -0.18220675191515051 0 0.26214414993373131 -0.19076488167466521 0 0.2581651414642846 -0.18056416232982991 0 0.26849587142956499 -0.18527371061523379 0 0.26535897855112972 -0.15953860861584601 0 0.24992822405896969 -0.18220675191515051 0 0.26535897855112972 -0.15953860861584601 0 0.2362814284028576 -0.16240917716207301 0 0.24992822405896969 -0.18220675191515051 0 0.26535897855112972 -0.15953860861584601 0 0.27354225139772842 -0.17440030752508709 0 0.28501019906549369 -0.15911524352599621 0 0.2581651414642846 -0.18056416232982991 0 0.26535897855112972 -0.15953860861584601 0 0.27354225139772842 -0.17440030752508709 0 0.27354225139772842 -0.17440030752508709 0 0.2790068335279941 -0.1873822474504914 0 0.2891096488403308 -0.17617705072874801 0 0.27354225139772842 -0.17440030752508709 0 0.2790068335279941 -0.1873822474504914 0 0.26849587142956499 -0.18527371061523379 0 0.2581651414642846 -0.18056416232982991 0 0.27354225139772842 -0.17440030752508709 0 0.26849587142956499 -0.18527371061523379 0 0.26535897855112972 -0.15953860861584601 0 0.26105437232912282 -0.13059646526394561 0 0.2410969503534677 -0.13612356642675211 0 0.26535897855112972 -0.15953860861584601 0 0.28078973304328969 -0.13687046531654151 0 0.28501019906549369 -0.15911524352599621 0 0.26535897855112972 -0.15953860861584601 0 0.28078973304328969 -0.13687046531654151 0 0.26535897855112972 -0.15953860861584601 0 0.26105437232912282 -0.13059646526394561 0 0.28078973304328969 -0.13687046531654151 0 0.26803891018201309 -0.1115324088276283 0 0.26105437232912282 -0.13059646526394561 0 0.28078973304328969 -0.13687046531654151 0 0.29622048753544977 -0.114202322017237 0 0.28078973304328969 -0.13687046531654151 0 0.29923889142075921 -0.14280310113739669 0 0.29622048753544977 -0.114202322017237 0 0.28078973304328969 -0.13687046531654151 0 0.28078973304328969 -0.13687046531654151 0 0.29923889142075921 -0.14280310113739669 0 0.28501019906549369 -0.15911524352599621 0 0.29923889142075921 -0.14280310113739669 0 0.28501019906549369 -0.15911524352599621 0 0.30188807863618028 -0.1651946069372357 0 0.29923889142075921 -0.14280310113739669 0 0.31527892369037702 -0.13132794646216109 0 0.31518028865391412 -0.1480396525138146 0 0.29923889142075921 -0.14280310113739669 0 0.30188807863618028 -0.1651946069372357 0 0.31518028865391412 -0.1480396525138146 0 0.29622048753544977 -0.114202322017237 0 0.29923889142075921 -0.14280310113739669 0 0.31527892369037702 -0.13132794646216109 0 0.29055859355895619 -0.19101210867064791 0 0.2891096488403308 -0.17617705072874801 0 0.30326915919262271 -0.18554095882442559 0 0.29055859355895619 -0.19101210867064791 0 0.2790068335279941 -0.1873822474504914 0 0.2891096488403308 -0.17617705072874801 0 0.2891096488403308 -0.17617705072874801 0 0.28501019906549369 -0.15911524352599621 0 0.30188807863618028 -0.1651946069372357 0 0.27354225139772842 -0.17440030752508709 0 0.2891096488403308 -0.17617705072874801 0 0.28501019906549369 -0.15911524352599621 0 0.30188807863618028 -0.1651946069372357 0 0.31092729088212762 -0.17405880468095641 0 0.3241382704402197 -0.16161902736928621 0 0.30188807863618028 -0.1651946069372357 0 0.31092729088212762 -0.17405880468095641 0 0.30326915919262271 -0.18554095882442559 0 0.31092729088212762 -0.17405880468095641 0 0.30326915919262271 -0.18554095882442559 0 0.31897724507280811 -0.18445821287254879 0 0.2891096488403308 -0.17617705072874801 0 0.30188807863618028 -0.1651946069372357 0 0.30326915919262271 -0.18554095882442559 0 0.31897724507280811 -0.18445821287254879 0 0.3241382704402197 -0.16161902736928621 0 0.3330654240927412 -0.176141099733404 0 0.31092729088212762 -0.17405880468095641 0 0.31897724507280811 -0.18445821287254879 0 0.3241382704402197 -0.16161902736928621 0 0.31897724507280811 -0.18445821287254879 0 0.3241382704402197 -0.16161902736928621 0 0.30188807863618028 -0.1651946069372357 0 0.3241382704402197 -0.16161902736928621 0 0.31518028865391412 -0.1480396525138146 0 0.3241382704402197 -0.16161902736928621 0 0.34136892510665179 -0.1672618715491688 0 0.34622734014481887 -0.1551724761479768 0 0.3241382704402197 -0.16161902736928621 0 0.34136892510665179 -0.1672618715491688 0 0.3330654240927412 -0.176141099733404 0 0.31897724507280811 -0.18445821287254879 0 0.3330654240927412 -0.176141099733404 0 0.33719213869681491 -0.19197212577859579 0 0.3330654240927412 -0.176141099733404 0 0.34945130757104742 -0.17787715558332101 0 0.33719213869681491 -0.19197212577859579 0 0.34136892510665179 -0.1672618715491688 0 0.3330654240927412 -0.176141099733404 0 0.34945130757104742 -0.17787715558332101 0 0.31527892369037702 -0.13132794646216109 0 0.31518028865391412 -0.1480396525138146 0 0.32929929580763129 -0.13877984186602371 0 0.31527892369037702 -0.13132794646216109 0 0.32929929580763129 -0.13877984186602371 0 0.32998333525634532 -0.1253714877702761 0 0.3241382704402197 -0.16161902736928621 0 0.31518028865391412 -0.1480396525138146 0 0.32929929580763129 -0.13877984186602371 0 0.3241382704402197 -0.16161902736928621 0 0.32929929580763129 -0.13877984186602371 0 0.3241382704402197 -0.16161902736928621 0 0.34036303370359461 -0.1443757890006945 0 0.34622734014481887 -0.1551724761479768 0 0.3241382704402197 -0.16161902736928621 0 0.34036303370359461 -0.1443757890006945 0 0.32929929580763129 -0.13877984186602371 0 0.32929929580763129 -0.13877984186602371 0 0.32998333525634532 -0.1253714877702761 0 0.34638130094824232 -0.13283779787547481 0 0.34036303370359461 -0.1443757890006945 0 0.32929929580763129 -0.13877984186602371 0 0.34638130094824232 -0.13283779787547481 0 0.36082883912689939 -0.1217620611446468 0 0.34638130094824232 -0.13283779787547481 0 0.36539110028130639 -0.140583955363833 0 0.34638130094824232 -0.13283779787547481 0 0.35187910430627389 -0.14565587677875649 0 0.36539110028130639 -0.140583955363833 0 0.34036303370359461 -0.1443757890006945 0 0.34638130094824232 -0.13283779787547481 0 0.35187910430627389 -0.14565587677875649 0 0.34036303370359461 -0.1443757890006945 0 0.35187910430627389 -0.14565587677875649 0 0.34622734014481887 -0.1551724761479768 0 0.35187910430627389 -0.14565587677875649 0 0.34622734014481887 -0.1551724761479768 0 0.36103274645340733 -0.1553093655058034 0 0.36103274645340733 -0.1553093655058034 0 0.36539110028130639 -0.140583955363833 0 0.38080320633489367 -0.15612251461207169 0 0.35187910430627389 -0.14565587677875649 0 0.36103274645340733 -0.1553093655058034 0 0.36539110028130639 -0.140583955363833 0 0.36082883912689939 -0.1217620611446468 0 0.36539110028130639 -0.140583955363833 0 0.36082883912689939 -0.1217620611446468 0 0.36539110028130639 -0.140583955363833 0 0.38150296378111709 -0.13760518613207651 0 0.34945130757104742 -0.17787715558332101 0 0.36635515889596881 -0.17072312924991731 0 0.36090575486544368 -0.18453318216985731 0 0.34945130757104742 -0.17787715558332101 0 0.36090575486544368 -0.18453318216985731 0 0.35461709219507481 -0.1956623993563737 0 0.34945130757104742 -0.17787715558332101 0 0.35396228328443158 -0.1654995989118562 0 0.36635515889596881 -0.17072312924991731 0 0.34136892510665179 -0.1672618715491688 0 0.34945130757104742 -0.17787715558332101 0 0.35396228328443158 -0.1654995989118562 0 0.34136892510665179 -0.1672618715491688 0 0.34622734014481887 -0.1551724761479768 0 0.35396228328443158 -0.1654995989118562 0 0.34622734014481887 -0.1551724761479768 0 0.36103274645340733 -0.1553093655058034 0 0.35396228328443158 -0.1654995989118562 0 0.36103274645340733 -0.1553093655058034 0 0.36635515889596881 -0.17072312924991731 0 0.38080320633489367 -0.15612251461207169 0 0.36103274645340733 -0.1553093655058034 0 0.35396228328443158 -0.1654995989118562 0 0.36635515889596881 -0.17072312924991731 0 0.36635515889596881 -0.17072312924991731 0 0.37285945820305139 -0.18372742453938021 0 0.38469101671576877 -0.1745021429383955 0 0.36635515889596881 -0.17072312924991731 0 0.36090575486544368 -0.18453318216985731 0 0.37285945820305139 -0.18372742453938021 0 0.36090575486544368 -0.18453318216985731 0 0.37204204569333499 -0.19935267293415029 0 0.35461709219507481 -0.1956623993563737 0 0.37204204569333499 -0.19935267293415029 0 0.35461709219507481 -0.1956623993563737 0 0.37204204569333499 -0.19935267293415029 0 0.34917155573606867 -0.20673986329495861 0 0.36090575486544368 -0.18453318216985731 0 0.37285945820305139 -0.18372742453938021 0 0.37204204569333499 -0.19935267293415029 0 0.37204204569333499 -0.19935267293415029 0 0.36336660934760268 -0.21416079488855411 0 0.37642222244583712 -0.21745036530537021 0 0.37204204569333499 -0.19935267293415029 0 0.36336660934760268 -0.21416079488855411 0 0.34917155573606867 -0.20673986329495861 0 0.36336660934760268 -0.21416079488855411 0 0.34917155573606867 -0.20673986329495861 0 0.35259837485594647 -0.22232486791767991 0 0.34917155573606867 -0.20673986329495861 0 0.34035866194391812 -0.21853460451538659 0 0.35259837485594647 -0.22232486791767991 0 0.34917155573606867 -0.20673986329495861 0 0.35461709219507481 -0.1956623993563737 0 0.33719213869681491 -0.19197212577859579 0 0.37204204569333499 -0.19935267293415029 0 0.34917155573606867 -0.20673986329495861 0 0.35461709219507481 -0.1956623993563737 0 0.35461709219507481 -0.1956623993563737 0 0.33719213869681491 -0.19197212577859579 0 0.34945130757104742 -0.17787715558332101 0 0.35461709219507481 -0.1956623993563737 0 0.33719213869681491 -0.19197212577859579 0 0.33719213869681491 -0.19197212577859579 0 0.33484628915088199 -0.20330824317396379 0 0.32672039639184192 -0.20039392996653291 0 0.34917155573606867 -0.20673986329495861 0 0.33719213869681491 -0.19197212577859579 0 0.33484628915088199 -0.20330824317396379 0 0.34917155573606867 -0.20673986329495861 0 0.32630106577880269 -0.21412705365576801 0 0.34917155573606867 -0.20673986329495861 0 0.33484628915088199 -0.20330824317396379 0 0.32630106577880269 -0.21412705365576801 0 0.34917155573606867 -0.20673986329495861 0 0.34035866194391812 -0.21853460451538659 0 0.32630106577880269 -0.21412705365576801 0 0.34035866194391812 -0.21853460451538659 0 0.32630106577880269 -0.21412705365576801 0 0.33203248004018338 -0.22292645258215149 0 0.33484628915088199 -0.20330824317396379 0 0.32630106577880269 -0.21412705365576801 0 0.32672039639184192 -0.20039392996653291 0 0.32630106577880269 -0.21412705365576801 0 0.31381621970539653 -0.20729739837581149 0 0.32672039639184192 -0.20039392996653291 0 0.32630106577880269 -0.21412705365576801 0 0.31381621970539653 -0.20729739837581149 0 0.31524556784218832 -0.22138767714138269 0 0.31897724507280811 -0.18445821287254879 0 0.31381621970539653 -0.20729739837581149 0 0.31897724507280811 -0.18445821287254879 0 0.33719213869681491 -0.19197212577859579 0 0.32672039639184192 -0.20039392996653291 0 0.31897724507280811 -0.18445821287254879 0 0.31381621970539653 -0.20729739837581149 0 0.32672039639184192 -0.20039392996653291 0 0.32497289346744068 -0.23978603487505529 0 0.31623446313343689 -0.23751638341286291 0 0.32183961720094639 -0.2329737888830947 0 0.32497289346744068 -0.23978603487505529 0 0.32183961720094639 -0.2329737888830947 0 0.32975208169800402 -0.23070155175896201 0 0.32497289346744068 -0.23978603487505529 0 0.32344685639206122 -0.24935119199465139 0 0.33376936407639252 -0.24716083501435521 0 0.32497289346744068 -0.23978603487505529 0 0.32344685639206122 -0.24935119199465139 0 0.31819589931986431 -0.24406578465389889 0 0.32344685639206122 -0.24935119199465139 0 0.31819589931986431 -0.24406578465389889 0 0.31411864482200891 -0.25042558310994151 0 0.31220663878437371 -0.24324972987698351 0 0.31819589931986431 -0.24406578465389889 0 0.31411864482200891 -0.25042558310994151 0 0.31220663878437371 -0.24324972987698351 0 0.31819589931986431 -0.24406578465389889 0 0.31623446313343689 -0.23751638341286291 0 0.32497289346744068 -0.23978603487505529 0 0.31819589931986431 -0.24406578465389889 0 0.31623446313343689 -0.23751638341286291 0 0.30865519433798511 -0.23013658387907421 0 0.31381621970539653 -0.20729739837581149 0 0.31524556784218832 -0.22138767714138269 0 0.31623446313343689 -0.23751638341286291 0 0.31297647973393983 -0.2334010086676821 0 0.31666823233289931 -0.23083302520105631 0 0.31297647973393983 -0.2334010086676821 0 0.31350263735423062 -0.2301372525870953 0 0.31666823233289931 -0.23083302520105631 0 0.31350263735423062 -0.2301372525870953 0 0.31446777903251921 -0.22746950327864229 0 0.31666823233289931 -0.23083302520105631 0 0.31666823233289931 -0.23083302520105631 0 0.3222206529045587 -0.2256673415553157 0 0.32183961720094639 -0.2329737888830947 0 0.31446777903251921 -0.22746950327864229 0 0.31666823233289931 -0.23083302520105631 0 0.3222206529045587 -0.2256673415553157 0 0.31623446313343689 -0.23751638341286291 0 0.31666823233289931 -0.23083302520105631 0 0.32183961720094639 -0.2329737888830947 0 0.30865519433798511 -0.23013658387907421 0 0.31446777903251921 -0.22746950327864229 0 0.31524556784218832 -0.22138767714138269 0 0.31446777903251921 -0.22746950327864229 0 0.31524556784218832 -0.22138767714138269 0 0.3222206529045587 -0.2256673415553157 0 0.32630106577880269 -0.21412705365576801 0 0.3222206529045587 -0.2256673415553157 0 0.33203248004018338 -0.22292645258215149 0 0.32630106577880269 -0.21412705365576801 0 0.31524556784218832 -0.22138767714138269 0 0.3222206529045587 -0.2256673415553157 0 0.3222206529045587 -0.2256673415553157 0 0.32975208169800402 -0.23070155175896201 0 0.33203248004018338 -0.22292645258215149 0 0.3222206529045587 -0.2256673415553157 0 0.32183961720094639 -0.2329737888830947 0 0.32975208169800402 -0.23070155175896201 0 0.32975208169800402 -0.23070155175896201 0 0.33203248004018338 -0.22292645258215149 0 0.34168983330858888 -0.22655478512637531 0 0.32975208169800402 -0.23070155175896201 0 0.34168983330858888 -0.22655478512637531 0 0.33575701326630591 -0.23630090753177951 0 0.34035866194391812 -0.21853460451538659 0 0.33203248004018338 -0.22292645258215149 0 0.34168983330858888 -0.22655478512637531 0 0.33376936407639252 -0.24716083501435521 0 0.35234403448868851 -0.2429808218476445 0 0.33812667790931328 -0.2577075464980233 0 0.34168983330858888 -0.22655478512637531 0 0.33575701326630591 -0.23630090753177951 0 0.35234403448868851 -0.2429808218476445 0 0.33575701326630591 -0.23630090753177951 0 0.33376936407639252 -0.24716083501435521 0 0.35234403448868851 -0.2429808218476445 0 0.32497289346744068 -0.23978603487505529 0 0.33575701326630591 -0.23630090753177951 0 0.33376936407639252 -0.24716083501435521 0 0.32497289346744068 -0.23978603487505529 0 0.32975208169800402 -0.23070155175896201 0 0.33575701326630591 -0.23630090753177951 0 0.34168983330858888 -0.22655478512637531 0 0.35234403448868851 -0.2429808218476445 0 0.35259837485594647 -0.22232486791767991 0 0.35234403448868851 -0.2429808218476445 0 0.35259837485594647 -0.22232486791767991 0 0.36656139106806362 -0.22825409719726569 0 0.34035866194391812 -0.21853460451538659 0 0.34168983330858888 -0.22655478512637531 0 0.35259837485594647 -0.22232486791767991 0 0.36336660934760268 -0.21416079488855411 0 0.35259837485594647 -0.22232486791767991 0 0.36656139106806362 -0.22825409719726569 0 0.36336660934760268 -0.21416079488855411 0 0.36656139106806362 -0.22825409719726569 0 0.37642222244583712 -0.21745036530537021 0 0.36656139106806362 -0.22825409719726569 0 0.38178314733347257 -0.22961440480660539 0 0.37642222244583712 -0.21745036530537021 0 0.35234403448868851 -0.2429808218476445 0 0.36656139106806362 -0.22825409719726569 0 0.36855982724803948 -0.2472246143488819 0 0.35234403448868851 -0.2429808218476445 0 0.36855982724803948 -0.2472246143488819 0 0.36051999124822331 -0.25514121804962792 0 0.36656139106806362 -0.22825409719726569 0 0.36855982724803948 -0.2472246143488819 0 0.37874571489923692 -0.24073607923693541 0 0.35234403448868851 -0.2429808218476445 0 0.36656139106806362 -0.22825409719726569 0 0.37874571489923692 -0.24073607923693541 0 0.38684188435697608 -0.24693704396077881 0 0.38019879772559811 -0.25299849313564698 0 0.36855982724803948 -0.2472246143488819 0 0.37874571489923692 -0.24073607923693541 0 0.38019879772559811 -0.25299849313564698 0 0.37874571489923692 -0.24073607923693541 0 0.3889475527966349 -0.23848156454282779 0 0.38684188435697608 -0.24693704396077881 0 0.37874571489923692 -0.24073607923693541 0 0.3889475527966349 -0.23848156454282779 0 0.38178314733347257 -0.22961440480660539 0 0.3889475527966349 -0.23848156454282779 0 0.38684188435697608 -0.24693704396077881 0 0.39590482638041408 -0.24653408264749641 0 0.38684188435697608 -0.24693704396077881 0 0.39590482638041408 -0.24653408264749641 0 0.39081027944997748 -0.25402376549864369 0 0.3889475527966349 -0.23848156454282779 0 0.39590482638041408 -0.24653408264749641 0 0.39736705830011609 -0.23783028330211009 0 0.3889475527966349 -0.23848156454282779 0 0.39736705830011609 -0.23783028330211009 0 0.39304268550959343 -0.22923749330304111 0 0.39736705830011609 -0.23783028330211009 0 0.40715592914017767 -0.24504535935550109 0 0.40816341478734308 -0.2357474944286849 0 0.39590482638041408 -0.24653408264749641 0 0.40715592914017767 -0.24504535935550109 0 0.40110985377298569 -0.25539920202715849 0 0.39590482638041408 -0.24653408264749641 0 0.39736705830011609 -0.23783028330211009 0 0.40715592914017767 -0.24504535935550109 0 0.40462797758206592 -0.2198419835305489 0 0.40360929021110131 -0.22773815283737939 0 0.3972560272836877 -0.22019214631309419 0 0.39736705830011609 -0.23783028330211009 0 0.40360929021110131 -0.22773815283737939 0 0.40816341478734308 -0.2357474944286849 0 0.39736705830011609 -0.23783028330211009 0 0.40360929021110131 -0.22773815283737939 0 0.39304268550959343 -0.22923749330304111 0 0.40360929021110131 -0.22773815283737939 0 0.39304268550959343 -0.22923749330304111 0 0.3972560272836877 -0.22019214631309419 0 0.39304268550959343 -0.22923749330304111 0 0.3972560272836877 -0.22019214631309419 0 0.38813277007821578 -0.21996065008338681 0 0.39304268550959343 -0.22923749330304111 0 0.38813277007821578 -0.21996065008338681 0 0.38178314733347257 -0.22961440480660539 0 0.3889475527966349 -0.23848156454282779 0 0.39304268550959343 -0.22923749330304111 0 0.38178314733347257 -0.22961440480660539 0 0.36656139106806362 -0.22825409719726569 0 0.37874571489923692 -0.24073607923693541 0 0.38178314733347257 -0.22961440480660539 0 0.38813277007821578 -0.21996065008338681 0 0.38178314733347257 -0.22961440480660539 0 0.37642222244583712 -0.21745036530537021 0 0.37204204569333499 -0.19935267293415029 0 0.37642222244583712 -0.21745036530537021 0 0.38452258667725042 -0.21066349085080699 0 0.37204204569333499 -0.19935267293415029 0 0.38452258667725042 -0.21066349085080699 0 0.39158260966848368 -0.203490992553746 0 0.38452258667725042 -0.21066349085080699 0 0.39443328550038048 -0.21306277337738169 0 0.39158260966848368 -0.203490992553746 0 0.38813277007821578 -0.21996065008338681 0 0.38452258667725042 -0.21066349085080699 0 0.39443328550038048 -0.21306277337738169 0 0.38813277007821578 -0.21996065008338681 0 0.37642222244583712 -0.21745036530537021 0 0.38452258667725042 -0.21066349085080699 0 0.37204204569333499 -0.19935267293415029 0 0.38028235358889051 -0.19042864544000199 0 0.39218389600320158 -0.1928468358167138 0 0.37204204569333499 -0.19935267293415029 0 0.39158260966848368 -0.203490992553746 0 0.37285945820305139 -0.18372742453938021 0 0.37204204569333499 -0.19935267293415029 0 0.38028235358889051 -0.19042864544000199 0 0.37204204569333499 -0.19935267293415029 0 0.39218389600320158 -0.1928468358167138 0 0.37204204569333499 -0.19935267293415029 0 0.39218389600320158 -0.1928468358167138 0 0.39158260966848368 -0.203490992553746 0 0.38028235358889051 -0.19042864544000199 0 0.38750308305514281 -0.1892393027855398 0 0.39218389600320158 -0.1928468358167138 0 0.38028235358889051 -0.19042864544000199 0 0.38750308305514281 -0.1892393027855398 0 0.38105718885294088 -0.184156277087205 0 0.39218389600320158 -0.1928468358167138 0 0.40697179348621032 -0.19475943141393931 0 0.41232574631306862 -0.18634099869927831 0 0.39218389600320158 -0.1928468358167138 0 0.41232574631306862 -0.18634099869927831 0 0.39218389600320158 -0.1928468358167138 0 0.40260495373044192 -0.1998641647658233 0 0.39158260966848368 -0.203490992553746 0 0.39218389600320158 -0.1928468358167138 0 0.40260495373044192 -0.1998641647658233 0 0.40697179348621032 -0.19475943141393931 0 0.39158260966848368 -0.203490992553746 0 0.40155945868601778 -0.21061911754977281 0 0.41112317364363288 -0.20762931217334021 0 0.40260495373044192 -0.1998641647658233 0 0.39158260966848368 -0.203490992553746 0 0.41112317364363288 -0.20762931217334021 0 0.39158260966848368 -0.203490992553746 0 0.41112317364363288 -0.20762931217334021 0 0.3972560272836877 -0.22019214631309419 0 0.38813277007821578 -0.21996065008338681 0 0.39443328550038048 -0.21306277337738169 0 0.3972560272836877 -0.22019214631309419 0 0.39443328550038048 -0.21306277337738169 0 0.40211728491879201 -0.21525857469712101 0 0.39443328550038048 -0.21306277337738169 0 0.39158260966848368 -0.203490992553746 0 0.40155945868601778 -0.21061911754977281 0 0.40155945868601778 -0.21061911754977281 0 0.40211728491879201 -0.21525857469712101 0 0.40932466634940268 -0.21429657591901299 0 0.39443328550038048 -0.21306277337738169 0 0.40155945868601778 -0.21061911754977281 0 0.40211728491879201 -0.21525857469712101 0 0.40462797758206592 -0.2198419835305489 0 0.3972560272836877 -0.22019214631309419 0 0.40211728491879201 -0.21525857469712101 0 0.40462797758206592 -0.2198419835305489 0 0.40211728491879201 -0.21525857469712101 0 0.40932466634940268 -0.21429657591901299 0 0.40932466634940268 -0.21429657591901299 0 0.41849234991595952 -0.21853469006118459 0 0.41083261914734559 -0.22172446788613689 0 0.40462797758206592 -0.2198419835305489 0 0.40932466634940268 -0.21429657591901299 0 0.41083261914734559 -0.22172446788613689 0 0.40932466634940268 -0.21429657591901299 0 0.41112317364363288 -0.20762931217334021 0 0.41849234991595952 -0.21853469006118459 0 0.41112317364363288 -0.20762931217334021 0 0.41849234991595952 -0.21853469006118459 0 0.43334238023272359 -0.2123349173276439 0 0.40155945868601778 -0.21061911754977281 0 0.40932466634940268 -0.21429657591901299 0 0.41112317364363288 -0.20762931217334021 0 0.41112317364363288 -0.20762931217334021 0 0.42344200108394331 -0.19904648817084231 0 0.41602893222419701 -0.19493298906875431 0 0.41232574631306862 -0.18634099869927831 0 0.42879074876125489 -0.18738821873157599 0 0.40697179348621032 -0.19475943141393931 0 0.41602893222419701 -0.19493298906875431 0 0.41232574631306862 -0.18634099869927831 0 0.40260495373044192 -0.1998641647658233 0 0.40697179348621032 -0.19475943141393931 0 0.41047985447015772 -0.20175465388899549 0 0.40260495373044192 -0.1998641647658233 0 0.41112317364363288 -0.20762931217334021 0 0.41047985447015772 -0.20175465388899549 0 0.40697179348621032 -0.19475943141393931 0 0.41047985447015772 -0.20175465388899549 0 0.41602893222419701 -0.19493298906875431 0 0.41047985447015772 -0.20175465388899549 0 0.42344200108394331 -0.19904648817084231 0 0.41112317364363288 -0.20762931217334021 0 0.41047985447015772 -0.20175465388899549 0 0.42344200108394331 -0.19904648817084231 0 0.41047985447015772 -0.20175465388899549 0 0.41602893222419701 -0.19493298906875431 0 0.42344200108394331 -0.19904648817084231 0 0.42344200108394331 -0.19904648817084231 0 0.44158004204792989 -0.18640927784394229 0 0.42344200108394331 -0.19904648817084231 0 0.43334238023272359 -0.2123349173276439 0 0.44896133405596123 -0.19371476459417339 0 0.42344200108394331 -0.19904648817084231 0 0.44896133405596123 -0.19371476459417339 0 0.42344200108394331 -0.19904648817084231 0 0.42879074876125489 -0.18738821873157599 0 0.44158004204792989 -0.18640927784394229 0 0.41602893222419701 -0.19493298906875431 0 0.42344200108394331 -0.19904648817084231 0 0.42879074876125489 -0.18738821873157599 0 0.41112317364363288 -0.20762931217334021 0 0.43334238023272359 -0.2123349173276439 0 0.41112317364363288 -0.20762931217334021 0 0.42344200108394331 -0.19904648817084231 0 0.43334238023272359 -0.2123349173276439 0 0.41849234991595952 -0.21853469006118459 0 0.43334238023272359 -0.2123349173276439 0 0.42870758817444199 -0.22433284501012429 0 0.43334238023272359 -0.2123349173276439 0 0.42870758817444199 -0.22433284501012429 0 0.44018402258438971 -0.22566375257248869 0 0.42870758817444199 -0.22433284501012429 0 0.43141587529713787 -0.23816970528153111 0 0.41724172653380459 -0.228885755494079 0 0.42870758817444199 -0.22433284501012429 0 0.43141587529713787 -0.23816970528153111 0 0.44018402258438971 -0.22566375257248869 0 0.43141587529713787 -0.23816970528153111 0 0.44354745492052228 -0.25043486493206207 0 0.431498742042359 -0.25118145705670702 0 0.43141587529713787 -0.23816970528153111 0 0.41989854151481809 -0.25044497605362598 0 0.431498742042359 -0.25118145705670702 0 0.43141587529713787 -0.23816970528153111 0 0.41677509745465618 -0.23965865812268439 0 0.41989854151481809 -0.25044497605362598 0 0.43141587529713787 -0.23816970528153111 0 0.41677509745465618 -0.23965865812268439 0 0.41724172653380459 -0.228885755494079 0 0.41677509745465618 -0.23965865812268439 0 0.40715592914017767 -0.24504535935550109 0 0.41989854151481809 -0.25044497605362598 0 0.41677509745465618 -0.23965865812268439 0 0.40715592914017767 -0.24504535935550109 0 0.40816341478734308 -0.2357474944286849 0 0.41677509745465618 -0.23965865812268439 0 0.40816341478734308 -0.2357474944286849 0 0.41724172653380459 -0.228885755494079 0 0.40360929021110131 -0.22773815283737939 0 0.40816341478734308 -0.2357474944286849 0 0.41724172653380459 -0.228885755494079 0 0.40462797758206592 -0.2198419835305489 0 0.40360929021110131 -0.22773815283737939 0 0.41083261914734559 -0.22172446788613689 0 0.40360929021110131 -0.22773815283737939 0 0.41083261914734559 -0.22172446788613689 0 0.41724172653380459 -0.228885755494079 0 0.41849234991595952 -0.21853469006118459 0 0.42870758817444199 -0.22433284501012429 0 0.41724172653380459 -0.228885755494079 0 0.41849234991595952 -0.21853469006118459 0 0.41083261914734559 -0.22172446788613689 0 0.41724172653380459 -0.228885755494079 0 0.3928290236412163 -0.1219032059513412 0 0.36082883912689939 -0.1217620611446468 0 0.38150296378111709 -0.13760518613207651 0 0.3928290236412163 -0.1219032059513412 0 0.38150296378111709 -0.13760518613207651 0 0.40845117773285827 -0.14582643499089951 0 0.38150296378111709 -0.13760518613207651 0 0.38080320633489367 -0.15612251461207169 0 0.40845117773285827 -0.14582643499089951 0 0.36539110028130639 -0.140583955363833 0 0.38150296378111709 -0.13760518613207651 0 0.38080320633489367 -0.15612251461207169 0 0.39797713039400062 -0.16753286888821961 0 0.40845117773285827 -0.14582643499089951 0 0.38080320633489367 -0.15612251461207169 0 0.39797713039400062 -0.16753286888821961 0 0.40845117773285827 -0.14582643499089951 0 0.38080320633489367 -0.15612251461207169 0 0.39797713039400062 -0.16753286888821961 0 0.38469101671576877 -0.1745021429383955 0 0.36635515889596881 -0.17072312924991731 0 0.38080320633489367 -0.15612251461207169 0 0.38469101671576877 -0.1745021429383955 0 0.38750308305514281 -0.1892393027855398 0 0.39797713039400062 -0.16753286888821961 0 0.38469101671576877 -0.1745021429383955 0 0.37285945820305139 -0.18372742453938021 0 0.38028235358889051 -0.19042864544000199 0 0.38105718885294088 -0.184156277087205 0 0.37285945820305139 -0.18372742453938021 0 0.38469101671576877 -0.1745021429383955 0 0.38105718885294088 -0.184156277087205 0 0.38750308305514281 -0.1892393027855398 0 0.38469101671576877 -0.1745021429383955 0 0.38105718885294088 -0.184156277087205 0 0.38750308305514281 -0.1892393027855398 0 0.39797713039400062 -0.16753286888821961 0 0.38750308305514281 -0.1892393027855398 0 0.39218389600320158 -0.1928468358167138 0 0.39797713039400062 -0.16753286888821961 0 0.39218389600320158 -0.1928468358167138 0 0.39797713039400062 -0.16753286888821961 0 0.41232574631306862 -0.18634099869927831 0 0.41232574631306862 -0.18634099869927831 0 0.42698016726797727 -0.17468994551470551 0 0.41551787359493447 -0.16216622017602689 0 0.39797713039400062 -0.16753286888821961 0 0.41232574631306862 -0.18634099869927831 0 0.41551787359493447 -0.16216622017602689 0 0.41232574631306862 -0.18634099869927831 0 0.42879074876125489 -0.18738821873157599 0 0.42698016726797727 -0.17468994551470551 0 0.42879074876125489 -0.18738821873157599 0 0.42698016726797727 -0.17468994551470551 0 0.44158004204792989 -0.18640927784394229 0 0.42698016726797727 -0.17468994551470551 0 0.43515041778005481 -0.15666243804212299 0 0.41551787359493447 -0.16216622017602689 0 0.42698016726797727 -0.17468994551470551 0 0.43515041778005481 -0.15666243804212299 0 0.44412046850410858 -0.16846370226735491 0 0.39797713039400062 -0.16753286888821961 0 0.41551787359493447 -0.16216622017602689 0 0.40845117773285827 -0.14582643499089951 0 0.41551787359493447 -0.16216622017602689 0 0.40845117773285827 -0.14582643499089951 0 0.42658901158235318 -0.14119827081575431 0 0.43515041778005481 -0.15666243804212299 0 0.41551787359493447 -0.16216622017602689 0 0.42658901158235318 -0.14119827081575431 0 0.43515041778005481 -0.15666243804212299 0 0.42658901158235318 -0.14119827081575431 0 0.44222814466707022 -0.1394235527327552 0 0.41892522507171598 -0.1241200010935793 0 0.42658901158235318 -0.14119827081575431 0 0.43664862519858522 -0.12523873688129941 0 0.42658901158235318 -0.14119827081575431 0 0.43664862519858522 -0.12523873688129941 0 0.44222814466707022 -0.1394235527327552 0 0.41892522507171598 -0.1241200010935793 0 0.3928290236412163 -0.1219032059513412 0 0.40845117773285827 -0.14582643499089951 0 0.41892522507171598 -0.1241200010935793 0 0.40845117773285827 -0.14582643499089951 0 0.41892522507171598 -0.1241200010935793 0 0.40845117773285827 -0.14582643499089951 0 0.42658901158235318 -0.14119827081575431 0 0.4555790363616935 -0.1232335355056378 0 0.4571736324126644 -0.15078478241896129 0 0.47824680135236919 -0.13873139821209149 0 0.4555790363616935 -0.1232335355056378 0 0.44222814466707022 -0.1394235527327552 0 0.4571736324126644 -0.15078478241896129 0 0.4555790363616935 -0.1232335355056378 0 0.43664862519858522 -0.12523873688129941 0 0.44222814466707022 -0.1394235527327552 0 0.43515041778005481 -0.15666243804212299 0 0.44222814466707022 -0.1394235527327552 0 0.4571736324126644 -0.15078478241896129 0 0.4571736324126644 -0.15078478241896129 0 0.45971808301191652 -0.17377206751704241 0 0.47785612397590299 -0.16113485719014239 0 0.4571736324126644 -0.15078478241896129 0 0.44412046850410858 -0.16846370226735491 0 0.45971808301191652 -0.17377206751704241 0 0.43515041778005481 -0.15666243804212299 0 0.4571736324126644 -0.15078478241896129 0 0.44412046850410858 -0.16846370226735491 0 0.44158004204792989 -0.18640927784394229 0 0.45971808301191652 -0.17377206751704241 0 0.44896133405596123 -0.19371476459417339 0 0.42698016726797727 -0.17468994551470551 0 0.44412046850410858 -0.16846370226735491 0 0.44158004204792989 -0.18640927784394229 0 0.44158004204792989 -0.18640927784394229 0 0.45971808301191652 -0.17377206751704241 0 0.44412046850410858 -0.16846370226735491 0 0.44158004204792989 -0.18640927784394229 0 0.45971808301191652 -0.17377206751704241 0 0.45971808301191652 -0.17377206751704241 0 0.44896133405596123 -0.19371476459417339 0 0.4744806670279792 -0.18838304101750461 0 0.45971808301191652 -0.17377206751704241 0 0.4844622978329905 -0.17497933379740691 0 0.4744806670279792 -0.18838304101750461 0 0.49999999999999722 -0.1830513174408363 0 0.4844622978329905 -0.17497933379740691 0 0.4744806670279792 -0.18838304101750461 0 0.49999999999999722 -0.1830513174408363 0 0.4744806670279792 -0.18838304101750461 0 0.49999999999999722 -0.1830513174408363 0 0.4844622978329905 -0.17497933379740691 0 0.5 -0.15581825801579599 0 0.4844622978329905 -0.17497933379740691 0 0.47785612397590299 -0.16113485719014239 0 0.5 -0.15581825801579599 0 0.45971808301191652 -0.17377206751704241 0 0.47785612397590299 -0.16113485719014239 0 0.45971808301191652 -0.17377206751704241 0 0.4844622978329905 -0.17497933379740691 0 0.47785612397590299 -0.16113485719014239 0 0.4571736324126644 -0.15078478241896129 0 0.47785612397590299 -0.16113485719014239 0 0.47824680135236919 -0.13873139821209149 0 0.5 -0.15581825801579599 0 0.5 -0.12858519859075559 0 0.47824680135236919 -0.13873139821209149 0 0.47785612397590299 -0.16113485719014239 0 0.5 -0.15581825801579599 0 0.47824680135236919 -0.13873139821209149 0 0.47939819449689902 -0.1132275866134279 0 0.5 -0.12858519859075559 0 0.47824680135236919 -0.13873139821209149 0 0.47939819449689902 -0.1132275866134279 0 0.4555790363616935 -0.1232335355056378 0 0.47824680135236919 -0.13873139821209149 0 0.46583791733403079 -0.23086601069352411 0 0.45556158682181452 -0.2170405224819473 0 0.47778079341090518 -0.22174612763625071 0 0.46583791733403079 -0.23086601069352411 0 0.45189268239583052 -0.23644077276119721 0 0.45556158682181452 -0.2170405224819473 0 0.45556158682181452 -0.2170405224819473 0 0.47778079341090518 -0.22174612763625071 0 0.46583791733403079 -0.23086601069352411 0 0.46664526108136822 -0.24335480739565871 0 0.45189268239583052 -0.23644077276119721 0 0.46664526108136822 -0.24335480739565871 0 0.45189268239583052 -0.23644077276119721 0 0.45688645627416041 -0.25297724685689499 0 0.43141587529713787 -0.23816970528153111 0 0.45189268239583052 -0.23644077276119721 0 0.44354745492052228 -0.25043486493206207 0 0.45189268239583052 -0.23644077276119721 0 0.45688645627416041 -0.25297724685689499 0 0.44354745492052228 -0.25043486493206207 0 0.43141587529713787 -0.23816970528153111 0 0.45189268239583052 -0.23644077276119721 0 0.44018402258438971 -0.22566375257248869 0 0.45189268239583052 -0.23644077276119721 0 0.44018402258438971 -0.22566375257248869 0 0.45556158682181452 -0.2170405224819473 0 0.43334238023272359 -0.2123349173276439 0 0.44896133405596123 -0.19371476459417339 0 0.45556158682181452 -0.2170405224819473 0 0.43334238023272359 -0.2123349173276439 0 0.45556158682181452 -0.2170405224819473 0 0.43334238023272359 -0.2123349173276439 0 0.44018402258438971 -0.22566375257248869 0 0.45556158682181452 -0.2170405224819473 0 0.42344200108394331 -0.19904648817084231 0 0.44158004204792989 -0.18640927784394229 0 0.44896133405596123 -0.19371476459417339 0 0.44896133405596123 -0.19371476459417339 0 0.4744806670279792 -0.18838304101750461 0 0.44896133405596123 -0.19371476459417339 0 0.46779156036486169 -0.2050702648655271 0 0.4744806670279792 -0.18838304101750461 0 0.46779156036486169 -0.2050702648655271 0 0.45556158682181452 -0.2170405224819473 0 0.47778079341090518 -0.22174612763625071 0 0.44896133405596123 -0.19371476459417339 0 0.46779156036486169 -0.2050702648655271 0 0.45556158682181452 -0.2170405224819473 0 0.46779156036486169 -0.2050702648655271 0 0.4821734205076485 -0.2044668685977592 0 0.47778079341090518 -0.22174612763625071 0 0.46779156036486169 -0.2050702648655271 0 0.4821734205076485 -0.2044668685977592 0 0.4744806670279792 -0.18838304101750461 0 0.49999999999999722 -0.1830513174408363 0 0.4821734205076485 -0.2044668685977592 0 0.5 -0.20475152511569489 0 0.49999999999999722 -0.1830513174408363 0 0.4821734205076485 -0.2044668685977592 0 0.4744806670279792 -0.18838304101750461 0 0.4821734205076485 -0.2044668685977592 0 0.49999999999999623 -0.22645173279055339 0 0.47778079341090518 -0.22174612763625071 0 0.4821734205076485 -0.2044668685977592 0 0.5 -0.20475152511569489 0 0.49999999999999623 -0.22645173279055339 0 0.49999999999999623 -0.22645173279055339 0 0.47778079341090518 -0.22174612763625071 0 0.49999999999999623 -0.22645173279055339 0 0.47778079341090518 -0.22174612763625071 0 0.4802777541082241 -0.24292178524012889 0 0.46583791733403079 -0.23086601069352411 0 0.47778079341090518 -0.22174612763625071 0 0.4802777541082241 -0.24292178524012889 0 0.46664526108136822 -0.24335480739565871 0 0.4802777541082241 -0.24292178524012889 0 0.46969010220469137 -0.25776309020007288 0 0.46583791733403079 -0.23086601069352411 0 0.46664526108136822 -0.24335480739565871 0 0.4802777541082241 -0.24292178524012889 0 0.49999999999999623 -0.22645173279055339 0 0.4802777541082241 -0.24292178524012889 0 0.5 -0.25540421684027947 0 0.4802777541082241 -0.24292178524012889 0 0.5 -0.25540421684027947 0 0.48216688459407858 -0.26528978629930122 0 0.5 -0.25540421684027947 0 0.48673231040062598 -0.27815622135182622 0 0.5 -0.28435670089000559 0 0.5 -0.25540421684027947 0 0.48673231040062598 -0.27815622135182622 0 0.48216688459407858 -0.26528978629930122 0 0.47195381014074661 -0.27409168004568579 0 0.48216688459407858 -0.26528978629930122 0 0.46969010220469137 -0.25776309020007288 0 0.48673231040062598 -0.27815622135182622 0 0.47195381014074661 -0.27409168004568579 0 0.47467381732567587 -0.28783587637164831 0 0.48673231040062598 -0.27815622135182622 0 0.47195381014074661 -0.27409168004568579 0 0.48216688459407858 -0.26528978629930122 0 0.4802777541082241 -0.24292178524012889 0 0.48216688459407858 -0.26528978629930122 0 0.46969010220469137 -0.25776309020007288 0 0.46664526108136822 -0.24335480739565871 0 0.46969010220469137 -0.25776309020007288 0 0.45688645627416041 -0.25297724685689499 0 0.45688645627416041 -0.25297724685689499 0 0.4602104470295702 -0.26794323536276832 0 0.44761135191333468 -0.26314537110606551 0 0.46969010220469137 -0.25776309020007288 0 0.45688645627416041 -0.25297724685689499 0 0.4602104470295702 -0.26794323536276832 0 0.47195381014074661 -0.27409168004568579 0 0.46969010220469137 -0.25776309020007288 0 0.4602104470295702 -0.26794323536276832 0 0.47195381014074661 -0.27409168004568579 0 0.4602104470295702 -0.26794323536276832 0 0.46028778376626378 -0.28329871712191568 0 0.4602104470295702 -0.26794323536276832 0 0.44964973056764301 -0.27535580659816877 0 0.46028778376626378 -0.28329871712191568 0 0.44964973056764301 -0.27535580659816877 0 0.43881371328043822 -0.27137514204288382 0 0.44761135191333468 -0.26314537110606551 0 0.4602104470295702 -0.26794323536276832 0 0.44964973056764301 -0.27535580659816877 0 0.44761135191333468 -0.26314537110606551 0 0.44964973056764301 -0.27535580659816877 0 0.43881371328043822 -0.27137514204288382 0 0.44003092115652498 -0.28194945228523899 0 0.43881371328043822 -0.27137514204288382 0 0.44761135191333468 -0.26314537110606551 0 0.43579881004824528 -0.26109926953976331 0 0.44354745492052228 -0.25043486493206207 0 0.44761135191333468 -0.26314537110606551 0 0.43579881004824528 -0.26109926953976331 0 0.45688645627416041 -0.25297724685689499 0 0.44354745492052228 -0.25043486493206207 0 0.44761135191333468 -0.26314537110606551 0 0.45235739961315002 -0.30320126245685369 0 0.44309180448674512 -0.29645385389928658 0 0.45413785974560178 -0.29395904580142762 0 0.45235739961315002 -0.30320126245685369 0 0.43906584572495788 -0.30831186215702178 0 0.45057694487732503 -0.31642074412372179 0 0.43906584572495788 -0.30831186215702178 0 0.44309180448674512 -0.29645385389928658 0 0.43618378883533437 -0.30062321343637732 0 0.45235739961315002 -0.30320126245685369 0 0.43906584572495788 -0.30831186215702178 0 0.44309180448674512 -0.29645385389928658 0 0.44309180448674512 -0.29645385389928658 0 0.43538626991748403 -0.29056857493672628 0 0.43618378883533437 -0.30062321343637732 0 0.44184590370491228 -0.28907975538500352 0 0.44309180448674512 -0.29645385389928658 0 0.44887461925889521 -0.2873471404187623 0 0.44184590370491228 -0.28907975538500352 0 0.44309180448674512 -0.29645385389928658 0 0.43538626991748403 -0.29056857493672628 0 0.44184590370491228 -0.28907975538500352 0 0.44003092115652498 -0.28194945228523899 0 0.44887461925889521 -0.2873471404187623 0 0.44184590370491228 -0.28907975538500352 0 0.44003092115652498 -0.28194945228523899 0 0.43538626991748403 -0.29056857493672628 0 0.44964973056764301 -0.27535580659816877 0 0.44887461925889521 -0.2873471404187623 0 0.46028778376626378 -0.28329871712191568 0 0.44964973056764301 -0.27535580659816877 0 0.44003092115652498 -0.28194945228523899 0 0.44887461925889521 -0.2873471404187623 0 0.44309180448674512 -0.29645385389928658 0 0.44887461925889521 -0.2873471404187623 0 0.45413785974560178 -0.29395904580142762 0 0.45413785974560178 -0.29395904580142762 0 0.46028778376626378 -0.28329871712191568 0 0.46279035426850779 -0.29457077142447091 0 0.44887461925889521 -0.2873471404187623 0 0.45413785974560178 -0.29395904580142762 0 0.46028778376626378 -0.28329871712191568 0 0.46028778376626378 -0.28329871712191568 0 0.46279035426850779 -0.29457077142447091 0 0.47467381732567587 -0.28783587637164831 0 0.46279035426850779 -0.29457077142447091 0 0.46376355902165789 -0.3090535249762601 0 0.47081461019733162 -0.30067262513609322 0 0.45235739961315002 -0.30320126245685369 0 0.46279035426850779 -0.29457077142447091 0 0.46376355902165789 -0.3090535249762601 0 0.45235739961315002 -0.30320126245685369 0 0.45413785974560178 -0.29395904580142762 0 0.46279035426850779 -0.29457077142447091 0 0.45235739961315002 -0.30320126245685369 0 0.46376355902165789 -0.3090535249762601 0 0.45057694487732503 -0.31642074412372179 0 0.46376355902165789 -0.3090535249762601 0 0.47595042929002268 -0.31032136801667792 0 0.47081461019733162 -0.30067262513609322 0 0.47595042929002268 -0.31032136801667792 0 0.47081461019733162 -0.30067262513609322 0 0.48056438749154168 -0.29954588967535578 0 0.47595042929002268 -0.31032136801667792 0 0.48056438749154168 -0.29954588967535578 0 0.49114843237852529 -0.30547640666971082 0 0.48056438749154168 -0.29954588967535578 0 0.47467381732567587 -0.28783587637164831 0 0.49099912668505907 -0.29299906901263811 0 0.48673231040062598 -0.27815622135182622 0 0.47467381732567587 -0.28783587637164831 0 0.49099912668505907 -0.29299906901263811 0 0.47195381014074661 -0.27409168004568579 0 0.46028778376626378 -0.28329871712191568 0 0.47467381732567587 -0.28783587637164831 0 0.46279035426850779 -0.29457077142447091 0 0.47081461019733162 -0.30067262513609322 0 0.47467381732567587 -0.28783587637164831 0 0.47081461019733162 -0.30067262513609322 0 0.48056438749154168 -0.29954588967535578 0 0.47467381732567587 -0.28783587637164831 0 0.48673231040062598 -0.27815622135182622 0 0.49099912668505907 -0.29299906901263811 0 0.5 -0.28435670089000559 0 0.49099912668505907 -0.29299906901263811 0 0.49114843237852529 -0.30547640666971082 0 0.5 -0.31330918493973181 0 0.49099912668505907 -0.29299906901263811 0 0.5 -0.28435670089000559 0 0.5 -0.31330918493973181 0 0.48056438749154168 -0.29954588967535578 0 0.49099912668505907 -0.29299906901263811 0 0.49114843237852529 -0.30547640666971082 0 0.49114843237852529 -0.30547640666971082 0 0.5 -0.31330918493973181 0 0.49218036102053653 -0.33539844102312888 0 0.49114843237852529 -0.30547640666971082 0 0.49218036102053653 -0.33539844102312888 0 0.48207886003055228 -0.32563896602487319 0 0.49114843237852529 -0.30547640666971082 0 0.49218036102053653 -0.33539844102312888 0 0.5 -0.31330918493973181 0 0.5 -0.3422616689894582 0 0.49218036102053653 -0.33539844102312888 0 0.49218036102053653 -0.33539844102312888 0 0.47979049624432668 -0.33909572936033378 0 0.484380552591892 -0.35064624632324748 0 0.49218036102053653 -0.33539844102312888 0 0.47979049624432668 -0.33909572936033378 0 0.48207886003055228 -0.32563896602487319 0 0.47979049624432668 -0.33909572936033378 0 0.48207886003055228 -0.32563896602487319 0 0.46052221133432591 -0.34469926407008572 0 0.48207886003055228 -0.32563896602487319 0 0.46052221133432591 -0.34469926407008572 0 0.46792098345021021 -0.32334230240083461 0 0.48207886003055228 -0.32563896602487319 0 0.46052221133432591 -0.34469926407008572 0 0.47595042929002268 -0.31032136801667792 0 0.49114843237852529 -0.30547640666971082 0 0.48207886003055228 -0.32563896602487319 0 0.46376355902165789 -0.3090535249762601 0 0.47595042929002268 -0.31032136801667792 0 0.46792098345021021 -0.32334230240083461 0 0.47595042929002268 -0.31032136801667792 0 0.48207886003055228 -0.32563896602487319 0 0.46792098345021021 -0.32334230240083461 0 0.5 -0.3422616689894582 0 0.5 -0.37121415303918459 0 0.49321228966254771 -0.36532047537654688 0 0.49321228966254771 -0.36532047537654688 0 0.48237875694998872 -0.36911462313912718 0 0.48488865916761681 -0.38031404922719247 0 0.49321228966254771 -0.36532047537654688 0 0.484380552591892 -0.35064624632324748 0 0.48331890561252172 -0.36222653456870318 0 0.49321228966254771 -0.36532047537654688 0 0.48331890561252172 -0.36222653456870318 0 0.48237875694998872 -0.36911462313912718 0 0.49218036102053653 -0.33539844102312888 0 0.49321228966254771 -0.36532047537654688 0 0.484380552591892 -0.35064624632324748 0 0.5 -0.3422616689894582 0 0.49218036102053653 -0.33539844102312888 0 0.49321228966254771 -0.36532047537654688 0 0.49218036102053653 -0.33539844102312888 0 0.49321228966254771 -0.36532047537654688 0 0.47979049624432668 -0.33909572936033378 0 0.484380552591892 -0.35064624632324748 0 0.46052221133432591 -0.34469926407008572 0 0.484380552591892 -0.35064624632324748 0 0.47330402324565862 -0.36382479343589141 0 0.46052221133432591 -0.34469926407008572 0 0.484380552591892 -0.35064624632324748 0 0.48331890561252172 -0.36222653456870318 0 0.47330402324565862 -0.36382479343589141 0 0.48331890561252172 -0.36222653456870318 0 0.47330402324565862 -0.36382479343589141 0 0.48237875694998872 -0.36911462313912718 0 0.47330402324565862 -0.36382479343589141 0 0.47665882205089682 -0.37567270161360278 0 0.46682657693639867 -0.37912995032484431 0 0.47330402324565862 -0.36382479343589141 0 0.48237875694998872 -0.36911462313912718 0 0.47665882205089682 -0.37567270161360278 0 0.47330402324565862 -0.36382479343589141 0 0.45760844779790127 -0.36655905718727527 0 0.46682657693639867 -0.37912995032484431 0 0.47330402324565862 -0.36382479343589141 0 0.45760844779790127 -0.36655905718727527 0 0.46052221133432591 -0.34469926407008572 0 0.46052221133432591 -0.34469926407008572 0 0.43896556263809938 -0.36375956211529831 0 0.43689367439901089 -0.34194908451545702 0 0.45760844779790127 -0.36655905718727527 0 0.46052221133432591 -0.34469926407008572 0 0.43896556263809938 -0.36375956211529831 0 0.46052221133432591 -0.34469926407008572 0 0.43896556263809938 -0.36375956211529831 0 0.45760844779790127 -0.36655905718727527 0 0.43896556263809938 -0.36375956211529831 0 0.45313139828126597 -0.3832686093961245 0 0.46376355902165789 -0.3090535249762601 0 0.45728985757449159 -0.32699838891627581 0 0.46792098345021021 -0.32334230240083461 0 0.46376355902165789 -0.3090535249762601 0 0.45728985757449159 -0.32699838891627581 0 0.45057694487732503 -0.31642074412372179 0 0.46052221133432591 -0.34469926407008572 0 0.45728985757449159 -0.32699838891627581 0 0.44498313262100042 -0.32934237849737952 0 0.46052221133432591 -0.34469926407008572 0 0.45728985757449159 -0.32699838891627581 0 0.46792098345021021 -0.32334230240083461 0 0.46052221133432591 -0.34469926407008572 0 0.44498313262100042 -0.32934237849737952 0 0.43689367439901089 -0.34194908451545702 0 0.44498313262100042 -0.32934237849737952 0 0.43322090249709871 -0.32719270849189408 0 0.43689367439901089 -0.34194908451545702 0 0.44498313262100042 -0.32934237849737952 0 0.44026581484010141 -0.31899758192640659 0 0.43322090249709871 -0.32719270849189408 0 0.44498313262100042 -0.32934237849737952 0 0.45057694487732503 -0.31642074412372179 0 0.44026581484010141 -0.31899758192640659 0 0.45728985757449159 -0.32699838891627581 0 0.44498313262100042 -0.32934237849737952 0 0.45057694487732503 -0.31642074412372179 0 0.43906584572495788 -0.30831186215702178 0 0.45057694487732503 -0.31642074412372179 0 0.44026581484010141 -0.31899758192640659 0 0.43906584572495788 -0.30831186215702178 0 0.44026581484010141 -0.31899758192640659 0 0.43150763516027119 -0.31685196830734891 0 0.43150763516027119 -0.31685196830734891 0 0.42191342252982178 -0.31511855363816388 0 0.42364444043020588 -0.32465653627439939 0 0.43150763516027119 -0.31685196830734891 0 0.42191342252982178 -0.31511855363816388 0 0.42874742992446602 -0.30720864882749471 0 0.43150763516027119 -0.31685196830734891 0 0.42364444043020588 -0.32465653627439939 0 0.43322090249709871 -0.32719270849189408 0 0.44026581484010141 -0.31899758192640659 0 0.43150763516027119 -0.31685196830734891 0 0.43322090249709871 -0.32719270849189408 0 0.43689367439901089 -0.34194908451545702 0 0.42104341087207531 -0.33292457740304021 0 0.42168593895704448 -0.3532770958561261 0 0.43322090249709871 -0.32719270849189408 0 0.43689367439901089 -0.34194908451545702 0 0.42104341087207531 -0.33292457740304021 0 0.42364444043020588 -0.32465653627439939 0 0.43322090249709871 -0.32719270849189408 0 0.42104341087207531 -0.33292457740304021 0 0.42364444043020588 -0.32465653627439939 0 0.42104341087207531 -0.33292457740304021 0 0.40123108104852162 -0.34284222962623562 0 0.42104341087207531 -0.33292457740304021 0 0.40432474971057297 -0.35309314060234193 0 0.40123108104852162 -0.34284222962623562 0 0.42364444043020588 -0.32465653627439939 0 0.40123108104852162 -0.34284222962623562 0 0.42364444043020588 -0.32465653627439939 0 0.40359948329646489 -0.33138563414632238 0 0.40123108104852162 -0.34284222962623562 0 0.42104341087207531 -0.33292457740304021 0 0.40432474971057297 -0.35309314060234193 0 0.42364444043020588 -0.32465653627439939 0 0.40777947856711011 -0.32415525644373477 0 0.40359948329646489 -0.33138563414632238 0 0.42364444043020588 -0.32465653627439939 0 0.40777947856711011 -0.32415525644373477 0 0.4142220422262346 -0.31860235159717759 0 0.40777947856711011 -0.32415525644373477 0 0.4142220422262346 -0.31860235159717759 0 0.40439233441715272 -0.31673670384363378 0 0.4142220422262346 -0.31860235159717759 0 0.40439233441715272 -0.31673670384363378 0 0.41312077430625538 -0.3116518339434956 0 0.42191342252982178 -0.31511855363816388 0 0.42364444043020588 -0.32465653627439939 0 0.4142220422262346 -0.31860235159717759 0 0.42191342252982178 -0.31511855363816388 0 0.4142220422262346 -0.31860235159717759 0 0.41312077430625538 -0.3116518339434956 0 0.43896556263809938 -0.36375956211529831 0 0.41740891394187302 -0.38281986016051073 0 0.43896556263809938 -0.36375956211529831 0 0.41880211676739648 -0.36641324896243371 0 0.41740891394187302 -0.38281986016051073 0 0.43896556263809938 -0.36375956211529831 0 0.42168593895704448 -0.3532770958561261 0 0.41880211676739648 -0.36641324896243371 0 0.43896556263809938 -0.36375956211529831 0 0.43689367439901089 -0.34194908451545702 0 0.42168593895704448 -0.3532770958561261 0 0.42104341087207531 -0.33292457740304021 0 0.42168593895704448 -0.3532770958561261 0 0.40432474971057297 -0.35309314060234193 0 0.42168593895704448 -0.3532770958561261 0 0.41155276215260278 -0.36134054936554422 0 0.40432474971057297 -0.35309314060234193 0 0.41155276215260278 -0.36134054936554422 0 0.40489927411455989 -0.3705831105933729 0 0.40432474971057297 -0.35309314060234193 0 0.41880211676739648 -0.36641324896243371 0 0.40489927411455989 -0.3705831105933729 0 0.41740891394187302 -0.38281986016051073 0 0.42168593895704448 -0.3532770958561261 0 0.41880211676739648 -0.36641324896243371 0 0.41155276215260278 -0.36134054936554422 0 0.41880211676739648 -0.36641324896243371 0 0.41155276215260278 -0.36134054936554422 0 0.40489927411455989 -0.3705831105933729 0 0.40432474971057297 -0.35309314060234193 0 0.38760608854906792 -0.37326170380164131 0 0.40489927411455989 -0.3705831105933729 0 0.38760608854906792 -0.37326170380164131 0 0.39940646750234932 -0.37915368025546953 0 0.40489927411455989 -0.3705831105933729 0 0.40432474971057297 -0.35309314060234193 0 0.38760608854906792 -0.37326170380164131 0 0.40432474971057297 -0.35309314060234193 0 0.37881772166683753 -0.3610279229780719 0 0.40123108104852162 -0.34284222962623562 0 0.37881772166683753 -0.3610279229780719 0 0.3862469452081449 -0.34330308136890919 0 0.37654488163576172 -0.34099457127218158 0 0.37881772166683753 -0.3610279229780719 0 0.40123108104852162 -0.34284222962623562 0 0.37881772166683753 -0.3610279229780719 0 0.40123108104852162 -0.34284222962623562 0 0.3862469452081449 -0.34330308136890919 0 0.40432474971057297 -0.35309314060234193 0 0.37881772166683753 -0.3610279229780719 0 0.38760608854906792 -0.37326170380164131 0 0.37881772166683753 -0.3610279229780719 0 0.38760608854906792 -0.37326170380164131 0 0.37881772166683753 -0.3610279229780719 0 0.3782268157896953 -0.37202312342517568 0 0.38760608854906792 -0.37326170380164131 0 0.3955541328590228 -0.32458212204319209 0 0.40439233441715272 -0.31673670384363378 0 0.39511102770876599 -0.31239466818569878 0 0.3955541328590228 -0.32458212204319209 0 0.38396635447443861 -0.31820584722374362 0 0.39511102770876599 -0.31239466818569878 0 0.40777947856711011 -0.32415525644373477 0 0.3955541328590228 -0.32458212204319209 0 0.40359948329646489 -0.33138563414632238 0 0.40777947856711011 -0.32415525644373477 0 0.3955541328590228 -0.32458212204319209 0 0.40439233441715272 -0.31673670384363378 0 0.40359948329646489 -0.33138563414632238 0 0.40123108104852162 -0.34284222962623562 0 0.39333371804947681 -0.33537558249945931 0 0.40123108104852162 -0.34284222962623562 0 0.39333371804947681 -0.33537558249945931 0 0.3862469452081449 -0.34330308136890919 0 0.3955541328590228 -0.32458212204319209 0 0.40359948329646489 -0.33138563414632238 0 0.39333371804947681 -0.33537558249945931 0 0.3955541328590228 -0.32458212204319209 0 0.39333371804947681 -0.33537558249945931 0 0.38272714223296611 -0.33113896238911927 0 0.39333371804947681 -0.33537558249945931 0 0.3862469452081449 -0.34330308136890919 0 0.38272714223296611 -0.33113896238911927 0 0.3862469452081449 -0.34330308136890919 0 0.37654488163576172 -0.34099457127218158 0 0.38272714223296611 -0.33113896238911927 0 0.37654488163576172 -0.34099457127218158 0 0.38272714223296611 -0.33113896238911927 0 0.36944291519131789 -0.33217738901249683 0 0.38272714223296611 -0.33113896238911927 0 0.38396635447443861 -0.31820584722374362 0 0.36945891216851728 -0.3211985425022521 0 0.3955541328590228 -0.32458212204319209 0 0.38272714223296611 -0.33113896238911927 0 0.38396635447443861 -0.31820584722374362 0 0.38396635447443861 -0.31820584722374362 0 0.38612221011722941 -0.30820349907795158 0 0.39511102770876599 -0.31239466818569878 0 0.38396635447443861 -0.31820584722374362 0 0.37283960130938609 -0.30861878246382202 0 0.36945891216851728 -0.3211985425022521 0 0.38231784118719969 -0.29924326340380047 0 0.38612221011722941 -0.30820349907795158 0 0.37283960130938609 -0.30861878246382202 0 0.38396635447443861 -0.31820584722374362 0 0.38612221011722941 -0.30820349907795158 0 0.37283960130938609 -0.30861878246382202 0 0.38231784118719969 -0.29924326340380047 0 0.3715544674884147 -0.29598840456977737 0 0.37283960130938609 -0.30861878246382202 0 0.38231784118719969 -0.29924326340380047 0 0.38612221011722941 -0.30820349907795158 0 0.39583753967655971 -0.29908326698496762 0 0.38612221011722941 -0.30820349907795158 0 0.39511102770876599 -0.31239466818569878 0 0.39583753967655971 -0.29908326698496762 0 0.39511102770876599 -0.31239466818569878 0 0.39583753967655971 -0.29908326698496762 0 0.40422618625145912 -0.30687017635652819 0 0.39583753967655971 -0.29908326698496762 0 0.40422618625145912 -0.30687017635652819 0 0.40713139500478451 -0.29787183679007428 0 0.40439233441715272 -0.31673670384363378 0 0.39511102770876599 -0.31239466818569878 0 0.40422618625145912 -0.30687017635652819 0 0.40565595440584462 -0.28153919464437271 0 0.40613898325500891 -0.28931958251810702 0 0.39751403369751731 -0.2876436074963491 0 0.40565595440584462 -0.28153919464437271 0 0.39751403369751731 -0.2876436074963491 0 0.39923048034746961 -0.27871657095995112 0 0.40613898325500891 -0.28931958251810702 0 0.40165548790846761 -0.29347957344737452 0 0.40713139500478451 -0.29787183679007428 0 0.40613898325500891 -0.28931958251810702 0 0.40165548790846761 -0.29347957344737452 0 0.39751403369751731 -0.2876436074963491 0 0.39583753967655971 -0.29908326698496762 0 0.40165548790846761 -0.29347957344737452 0 0.40713139500478451 -0.29787183679007428 0 0.39583753967655971 -0.29908326698496762 0 0.40165548790846761 -0.29347957344737452 0 0.39751403369751731 -0.2876436074963491 0 0.39583753967655971 -0.29908326698496762 0 0.39751403369751731 -0.2876436074963491 0 0.38799305595945732 -0.28975097398141342 0 0.39751403369751731 -0.2876436074963491 0 0.39166962649342962 -0.27995866171605832 0 0.39923048034746961 -0.27871657095995112 0 0.39751403369751731 -0.2876436074963491 0 0.38799305595945732 -0.28975097398141342 0 0.39166962649342962 -0.27995866171605832 0 0.38799305595945732 -0.28975097398141342 0 0.3819292084290361 -0.28116017763865181 0 0.39166962649342962 -0.27995866171605832 0 0.38799305595945732 -0.28975097398141342 0 0.37899937892576191 -0.29068825591381098 0 0.3819292084290361 -0.28116017763865181 0 0.38231784118719969 -0.29924326340380047 0 0.39583753967655971 -0.29908326698496762 0 0.38799305595945732 -0.28975097398141342 0 0.38231784118719969 -0.29924326340380047 0 0.38799305595945732 -0.28975097398141342 0 0.37899937892576191 -0.29068825591381098 0 0.38231784118719969 -0.29924326340380047 0 0.37899937892576191 -0.29068825591381098 0 0.3715544674884147 -0.29598840456977737 0 0.37899937892576191 -0.29068825591381098 0 0.3819292084290361 -0.28116017763865181 0 0.37219996021314811 -0.2847380110165515 0 0.3819292084290361 -0.28116017763865181 0 0.37502938507144801 -0.27164044876046539 0 0.37219996021314811 -0.2847380110165515 0 0.3819292084290361 -0.28116017763865181 0 0.37502938507144801 -0.27164044876046539 0 0.38606823343975932 -0.27127304504658822 0 0.37502938507144801 -0.27164044876046539 0 0.38606823343975932 -0.27127304504658822 0 0.38423980114442802 -0.26158528711118267 0 0.3819292084290361 -0.28116017763865181 0 0.38606823343975932 -0.27127304504658822 0 0.39166962649342962 -0.27995866171605832 0 0.38019879772559811 -0.25299849313564698 0 0.38423980114442802 -0.26158528711118267 0 0.37210088781197342 -0.25921768618074748 0 0.37502938507144801 -0.27164044876046539 0 0.38423980114442802 -0.26158528711118267 0 0.37210088781197342 -0.25921768618074748 0 0.38423980114442802 -0.26158528711118267 0 0.39081027944997748 -0.25402376549864369 0 0.39339325606209907 -0.26180664379103907 0 0.38606823343975932 -0.27127304504658822 0 0.38423980114442802 -0.26158528711118267 0 0.39339325606209907 -0.26180664379103907 0 0.38684188435697608 -0.24693704396077881 0 0.38019879772559811 -0.25299849313564698 0 0.39081027944997748 -0.25402376549864369 0 0.38019879772559811 -0.25299849313564698 0 0.38423980114442802 -0.26158528711118267 0 0.39081027944997748 -0.25402376549864369 0 0.39590482638041408 -0.24653408264749641 0 0.39081027944997748 -0.25402376549864369 0 0.40110985377298569 -0.25539920202715849 0 0.39081027944997748 -0.25402376549864369 0 0.39339325606209907 -0.26180664379103907 0 0.40110985377298569 -0.25539920202715849 0 0.39339325606209907 -0.26180664379103907 0 0.40079912033811271 -0.26366701458408132 0 0.39728274708733802 -0.27120759517339632 0 0.39339325606209907 -0.26180664379103907 0 0.40079912033811271 -0.26366701458408132 0 0.40110985377298569 -0.25539920202715849 0 0.40079912033811271 -0.26366701458408132 0 0.40110985377298569 -0.25539920202715849 0 0.40741587666780382 -0.26174310306917131 0 0.40079912033811271 -0.26366701458408132 0 0.40538688656337091 -0.268999012154022 0 0.40741587666780382 -0.26174310306917131 0 0.40715592914017767 -0.24504535935550109 0 0.40110985377298569 -0.25539920202715849 0 0.41044891776762499 -0.25482230871004358 0 0.39166962649342962 -0.27995866171605832 0 0.39728274708733802 -0.27120759517339632 0 0.39923048034746961 -0.27871657095995112 0 0.38606823343975932 -0.27127304504658822 0 0.39166962649342962 -0.27995866171605832 0 0.39728274708733802 -0.27120759517339632 0 0.38606823343975932 -0.27127304504658822 0 0.39339325606209907 -0.26180664379103907 0 0.39728274708733802 -0.27120759517339632 0 0.39728274708733802 -0.27120759517339632 0 0.40538688656337091 -0.268999012154022 0 0.40422236485154017 -0.27523726360407308 0 0.40079912033811271 -0.26366701458408132 0 0.39728274708733802 -0.27120759517339632 0 0.40538688656337091 -0.268999012154022 0 0.39728274708733802 -0.27120759517339632 0 0.40422236485154017 -0.27523726360407308 0 0.39923048034746961 -0.27871657095995112 0 0.40565595440584462 -0.28153919464437271 0 0.40422236485154017 -0.27523726360407308 0 0.39923048034746961 -0.27871657095995112 0 0.41195739611272358 -0.2747245212692867 0 0.41753436151208262 -0.2799807394731138 0 0.41205390616844523 -0.2835371671977468 0 0.40565595440584462 -0.28153919464437271 0 0.41195739611272358 -0.2747245212692867 0 0.41205390616844523 -0.2835371671977468 0 0.40565595440584462 -0.28153919464437271 0 0.40422236485154017 -0.27523726360407308 0 0.41195739611272358 -0.2747245212692867 0 0.40538688656337091 -0.268999012154022 0 0.41195739611272358 -0.2747245212692867 0 0.41153569600951551 -0.26703034913594109 0 0.40538688656337091 -0.268999012154022 0 0.40422236485154017 -0.27523726360407308 0 0.41195739611272358 -0.2747245212692867 0 0.40538688656337091 -0.268999012154022 0 0.41153569600951551 -0.26703034913594109 0 0.40741587666780382 -0.26174310306917131 0 0.41195739611272358 -0.2747245212692867 0 0.41153569600951551 -0.26703034913594109 0 0.41827115381163082 -0.26800959554283033 0 0.41827115381163082 -0.26800959554283033 0 0.42007745255873707 -0.27427176637771272 0 0.42716151446608458 -0.26997269095848558 0 0.41195739611272358 -0.2747245212692867 0 0.41827115381163082 -0.26800959554283033 0 0.42007745255873707 -0.27427176637771272 0 0.42007745255873707 -0.27427176637771272 0 0.41753436151208262 -0.2799807394731138 0 0.42559846173126931 -0.27791728012243561 0 0.41195739611272358 -0.2747245212692867 0 0.42007745255873707 -0.27427176637771272 0 0.41753436151208262 -0.2799807394731138 0 0.40110985377298569 -0.25539920202715849 0 0.41044891776762499 -0.25482230871004358 0 0.40741587666780382 -0.26174310306917131 0 0.40715592914017767 -0.24504535935550109 0 0.41044891776762499 -0.25482230871004358 0 0.41989854151481809 -0.25044497605362598 0 0.41153569600951551 -0.26703034913594109 0 0.40741587666780382 -0.26174310306917131 0 0.4159590926438782 -0.26097659217069169 0 0.41044891776762499 -0.25482230871004358 0 0.40741587666780382 -0.26174310306917131 0 0.4159590926438782 -0.26097659217069169 0 0.41827115381163082 -0.26800959554283033 0 0.4159590926438782 -0.26097659217069169 0 0.42496908407180201 -0.26079752168721149 0 0.41153569600951551 -0.26703034913594109 0 0.41827115381163082 -0.26800959554283033 0 0.4159590926438782 -0.26097659217069169 0 0.4159590926438782 -0.26097659217069169 0 0.41989854151481809 -0.25044497605362598 0 0.42496908407180201 -0.26079752168721149 0 0.41044891776762499 -0.25482230871004358 0 0.4159590926438782 -0.26097659217069169 0 0.41989854151481809 -0.25044497605362598 0 0.41989854151481809 -0.25044497605362598 0 0.42496908407180201 -0.26079752168721149 0 0.431498742042359 -0.25118145705670702 0 0.42496908407180201 -0.26079752168721149 0 0.43579881004824528 -0.26109926953976331 0 0.42716151446608458 -0.26997269095848558 0 0.42496908407180201 -0.26079752168721149 0 0.43579881004824528 -0.26109926953976331 0 0.431498742042359 -0.25118145705670702 0 0.44354745492052228 -0.25043486493206207 0 0.43579881004824528 -0.26109926953976331 0 0.431498742042359 -0.25118145705670702 0 0.42007745255873707 -0.27427176637771272 0 0.42559846173126931 -0.27791728012243561 0 0.42716151446608458 -0.26997269095848558 0 0.41753436151208262 -0.2799807394731138 0 0.42559846173126931 -0.27791728012243561 0 0.42496601921925098 -0.28450297137052388 0 0.42559846173126931 -0.27791728012243561 0 0.42716151446608458 -0.26997269095848558 0 0.43262995153079697 -0.27672826176958087 0 0.41827115381163082 -0.26800959554283033 0 0.42496908407180201 -0.26079752168721149 0 0.42716151446608458 -0.26997269095848558 0 0.43881371328043822 -0.27137514204288382 0 0.42716151446608458 -0.26997269095848558 0 0.43262995153079697 -0.27672826176958087 0 0.43881371328043822 -0.27137514204288382 0 0.43579881004824528 -0.26109926953976331 0 0.42716151446608458 -0.26997269095848558 0 0.44003092115652498 -0.28194945228523899 0 0.43262995153079697 -0.27672826176958087 0 0.43100228625356279 -0.28378978692480278 0 0.43881371328043822 -0.27137514204288382 0 0.44003092115652498 -0.28194945228523899 0 0.43262995153079697 -0.27672826176958087 0 0.42559846173126931 -0.27791728012243561 0 0.43262995153079697 -0.27672826176958087 0 0.43100228625356279 -0.28378978692480278 0 0.44003092115652498 -0.28194945228523899 0 0.43100228625356279 -0.28378978692480278 0 0.43538626991748403 -0.29056857493672628 0 0.43100228625356279 -0.28378978692480278 0 0.42740209396605128 -0.29107218106431132 0 0.43538626991748403 -0.29056857493672628 0 0.42496601921925098 -0.28450297137052388 0 0.42740209396605128 -0.29107218106431132 0 0.4193170829517599 -0.28764711873315207 0 0.42559846173126931 -0.27791728012243561 0 0.43100228625356279 -0.28378978692480278 0 0.42496601921925098 -0.28450297137052388 0 0.43100228625356279 -0.28378978692480278 0 0.42496601921925098 -0.28450297137052388 0 0.42740209396605128 -0.29107218106431132 0 0.42740209396605128 -0.29107218106431132 0 0.4193170829517599 -0.28764711873315207 0 0.42089784925858981 -0.2950871875800688 0 0.42740209396605128 -0.29107218106431132 0 0.42960410879416983 -0.29839856813407611 0 0.42089784925858981 -0.2950871875800688 0 0.42740209396605128 -0.29107218106431132 0 0.43538626991748403 -0.29056857493672628 0 0.42960410879416983 -0.29839856813407611 0 0.43538626991748403 -0.29056857493672628 0 0.43618378883533437 -0.30062321343637732 0 0.42960410879416983 -0.29839856813407611 0 0.43618378883533437 -0.30062321343637732 0 0.42874742992446602 -0.30720864882749471 0 0.42960410879416983 -0.29839856813407611 0 0.43906584572495788 -0.30831186215702178 0 0.43618378883533437 -0.30062321343637732 0 0.42874742992446602 -0.30720864882749471 0 0.43906584572495788 -0.30831186215702178 0 0.43150763516027119 -0.31685196830734891 0 0.42874742992446602 -0.30720864882749471 0 0.42191342252982178 -0.31511855363816388 0 0.42874742992446602 -0.30720864882749471 0 0.41874199045908678 -0.30774902954649391 0 0.42874742992446602 -0.30720864882749471 0 0.42257577360653559 -0.3020876111363695 0 0.41874199045908678 -0.30774902954649391 0 0.42874742992446602 -0.30720864882749471 0 0.42960410879416983 -0.29839856813407611 0 0.42257577360653559 -0.3020876111363695 0 0.42960410879416983 -0.29839856813407611 0 0.42257577360653559 -0.3020876111363695 0 0.42089784925858981 -0.2950871875800688 0 0.42257577360653559 -0.3020876111363695 0 0.41488748959636568 -0.30199462159371399 0 0.42089784925858981 -0.2950871875800688 0 0.42257577360653559 -0.3020876111363695 0 0.41488748959636568 -0.30199462159371399 0 0.41874199045908678 -0.30774902954649391 0 0.42191342252982178 -0.31511855363816388 0 0.41874199045908678 -0.30774902954649391 0 0.41312077430625538 -0.3116518339434956 0 0.41488748959636568 -0.30199462159371399 0 0.41874199045908678 -0.30774902954649391 0 0.41312077430625538 -0.3116518339434956 0 0.40439233441715272 -0.31673670384363378 0 0.40422618625145912 -0.30687017635652819 0 0.41312077430625538 -0.3116518339434956 0 0.40422618625145912 -0.30687017635652819 0 0.41488748959636568 -0.30199462159371399 0 0.41312077430625538 -0.3116518339434956 0 0.41488748959636568 -0.30199462159371399 0 0.40713139500478451 -0.29787183679007428 0 0.41304826758613961 -0.29170246571314817 0 0.40422618625145912 -0.30687017635652819 0 0.41488748959636568 -0.30199462159371399 0 0.40713139500478451 -0.29787183679007428 0 0.40613898325500891 -0.28931958251810702 0 0.40713139500478451 -0.29787183679007428 0 0.41304826758613961 -0.29170246571314817 0 0.40613898325500891 -0.28931958251810702 0 0.41304826758613961 -0.29170246571314817 0 0.41205390616844523 -0.2835371671977468 0 0.40565595440584462 -0.28153919464437271 0 0.40613898325500891 -0.28931958251810702 0 0.41205390616844523 -0.2835371671977468 0 0.41304826758613961 -0.29170246571314817 0 0.41205390616844523 -0.2835371671977468 0 0.4193170829517599 -0.28764711873315207 0 0.41753436151208262 -0.2799807394731138 0 0.41205390616844523 -0.2835371671977468 0 0.4193170829517599 -0.28764711873315207 0 0.41753436151208262 -0.2799807394731138 0 0.42496601921925098 -0.28450297137052388 0 0.4193170829517599 -0.28764711873315207 0 0.41488748959636568 -0.30199462159371399 0 0.41304826758613961 -0.29170246571314817 0 0.42089784925858981 -0.2950871875800688 0 0.41304826758613961 -0.29170246571314817 0 0.4193170829517599 -0.28764711873315207 0 0.42089784925858981 -0.2950871875800688 0 0.45184323652820269 -0.49122341345751841 0 0.45504380163158142 -0.5 0 0.42300266517287349 -0.49448348999462111 0 0.45184323652820269 -0.49122341345751841 0 0.43877239123646672 -0.48244970169226231 0 0.42300266517287349 -0.49448348999462111 0 0.45184323652820269 -0.49122341345751841 0 0.43877239123646672 -0.48244970169226231 0 0.44835891118094662 -0.48041312365437883 0 0.43877239123646672 -0.48244970169226231 0 0.44109767370751313 -0.47167943490861869 0 0.44835891118094662 -0.48041312365437883 0 0.45184323652820269 -0.49122341345751841 0 0.44835891118094662 -0.48041312365437883 0 0.45837255319229381 -0.47490747806499178 0 0.44109767370751313 -0.47167943490861869 0 0.44835891118094662 -0.48041312365437883 0 0.45837255319229381 -0.47490747806499178 0 0.45184323652820269 -0.49122341345751841 0 0.45504380163158142 -0.5 0 0.48068380788353188 -0.48796333692041571 0 0.45184323652820269 -0.49122341345751841 0 0.45837255319229381 -0.47490747806499178 0 0.48068380788353188 -0.48796333692041571 0 0.45184323652820269 -0.49122341345751841 0 0.48068380788353188 -0.48796333692041571 0 0.45504380163158142 -0.5 0 0.5 -0.5 0 0.48068380788353188 -0.48796333692041571 0 0.5 -0.5 0 0.48068380788353188 -0.48796333692041571 0 0.5 -0.45935456734178493 0 0.48068380788353188 -0.48796333692041571 0 0.47603080695666888 -0.46460478767489011 0 0.5 -0.45935456734178493 0 0.45837255319229381 -0.47490747806499178 0 0.48068380788353188 -0.48796333692041571 0 0.47603080695666888 -0.46460478767489011 0 0.47603080695666888 -0.46460478767489011 0 0.48036589123584139 -0.44330589239529911 0 0.46073178247167729 -0.45749266365195879 0 0.47603080695666888 -0.46460478767489011 0 0.5 -0.45935456734178493 0 0.48036589123584139 -0.44330589239529911 0 0.5 -0.45935456734178493 0 0.48036589123584139 -0.44330589239529911 0 0.50000000000000422 -0.42911912113863732 0 0.48036589123584139 -0.44330589239529911 0 0.46073178247167729 -0.45749266365195879 0 0.48036589123584139 -0.44330589239529911 0 0.46110592253035187 -0.44086948844942819 0 0.46073178247167729 -0.45749266365195879 0 0.46110592253035187 -0.44086948844942819 0 0.46073178247167729 -0.45749266365195879 0 0.44780093788349951 -0.44308765918912851 0 0.46110592253035187 -0.44086948844942819 0 0.44780093788349951 -0.44308765918912851 0 0.45241007892827201 -0.43121847741273961 0 0.45837255319229381 -0.47490747806499178 0 0.47603080695666888 -0.46460478767489011 0 0.46073178247167729 -0.45749266365195879 0 0.44109767370751313 -0.47167943490861869 0 0.45837255319229381 -0.47490747806499178 0 0.46073178247167729 -0.45749266365195879 0 0.44109767370751313 -0.47167943490861869 0 0.46073178247167729 -0.45749266365195879 0 0.44109767370751313 -0.47167943490861869 0 0.46073178247167729 -0.45749266365195879 0 0.44388691925195761 -0.45631271139764362 0 0.44109767370751313 -0.47167943490861869 0 0.44388691925195761 -0.45631271139764362 0 0.4312721983501151 -0.46057080605489092 0 0.46073178247167729 -0.45749266365195879 0 0.44388691925195761 -0.45631271139764362 0 0.44780093788349951 -0.44308765918912851 0 0.44388691925195761 -0.45631271139764362 0 0.44780093788349951 -0.44308765918912851 0 0.43412772784971021 -0.44439922937696108 0 0.44780093788349951 -0.44308765918912851 0 0.44172669679560728 -0.4298816433440687 0 0.43412772784971021 -0.44439922937696108 0 0.45241007892827201 -0.43121847741273961 0 0.44172669679560728 -0.4298816433440687 0 0.45077290852741858 -0.41846798806356361 0 0.44780093788349951 -0.44308765918912851 0 0.45241007892827201 -0.43121847741273961 0 0.44172669679560728 -0.4298816433440687 0 0.44172669679560728 -0.4298816433440687 0 0.45077290852741858 -0.41846798806356361 0 0.43687672932717703 -0.41437147979420069 0 0.45077290852741858 -0.41846798806356361 0 0.44809134106463888 -0.40316365643226598 0 0.43687672932717703 -0.41437147979420069 0 0.44809134106463888 -0.40316365643226598 0 0.43284912717076512 -0.40226218949476278 0 0.43687672932717703 -0.41437147979420069 0 0.45077290852741858 -0.41846798806356361 0 0.46003854085634882 -0.41140098080356202 0 0.44809134106463888 -0.40316365643226598 0 0.45077290852741858 -0.41846798806356361 0 0.46003854085634882 -0.41140098080356202 0 0.46645477506910688 -0.4257815701303288 0 0.46003854085634882 -0.41140098080356202 0 0.4704659996679102 -0.41497301823028809 0 0.47173559857668301 -0.40445129321325962 0 0.46003854085634882 -0.41140098080356202 0 0.46645477506910688 -0.4257815701303288 0 0.4704659996679102 -0.41497301823028809 0 0.45241007892827201 -0.43121847741273961 0 0.45077290852741858 -0.41846798806356361 0 0.46645477506910688 -0.4257815701303288 0 0.46110592253035187 -0.44086948844942819 0 0.45241007892827201 -0.43121847741273961 0 0.46645477506910688 -0.4257815701303288 0 0.48036589123584139 -0.44330589239529911 0 0.46110592253035187 -0.44086948844942819 0 0.46645477506910688 -0.4257815701303288 0 0.48036589123584139 -0.44330589239529911 0 0.46645477506910688 -0.4257815701303288 0 0.48097618970917477 -0.42693840297733748 0 0.46645477506910688 -0.4257815701303288 0 0.48097618970917477 -0.42693840297733748 0 0.47807008942078177 -0.41866564518218757 0 0.48036589123584139 -0.44330589239529911 0 0.50000000000000422 -0.42911912113863732 0 0.49527614694657007 -0.42516454408338339 0 0.48036589123584139 -0.44330589239529911 0 0.48097618970917477 -0.42693840297733748 0 0.49527614694657007 -0.42516454408338339 0 0.48036589123584139 -0.44330589239529911 0 0.50000000000000422 -0.42911912113863732 0 0.48097618970917477 -0.42693840297733748 0 0.49527614694657007 -0.42516454408338339 0 0.48640207528308271 -0.41949436903386828 0 0.50000000000000422 -0.42911912113863732 0 0.49527614694657007 -0.42516454408338339 0 0.5 -0.40016663708891093 0 0.49527614694657007 -0.42516454408338339 0 0.5 -0.40016663708891093 0 0.49424421830455889 -0.39524250972996522 0 0.49527614694657007 -0.42516454408338339 0 0.48851352057038461 -0.41048139877380441 0 0.49424421830455889 -0.39524250972996522 0 0.49527614694657007 -0.42516454408338339 0 0.49424421830455889 -0.39524250972996522 0 0.49527614694657007 -0.42516454408338339 0 0.48640207528308271 -0.41949436903386828 0 0.48851352057038461 -0.41048139877380441 0 0.48640207528308271 -0.41949436903386828 0 0.48851352057038461 -0.41048139877380441 0 0.48026544092877838 -0.41046784591122498 0 0.48851352057038461 -0.41048139877380441 0 0.48026544092877838 -0.41046784591122498 0 0.48637972138893237 -0.40203772511057978 0 0.48097618970917477 -0.42693840297733748 0 0.48640207528308271 -0.41949436903386828 0 0.47807008942078177 -0.41866564518218757 0 0.48640207528308271 -0.41949436903386828 0 0.48026544092877838 -0.41046784591122498 0 0.47807008942078177 -0.41866564518218757 0 0.48026544092877838 -0.41046784591122498 0 0.47807008942078177 -0.41866564518218757 0 0.4704659996679102 -0.41497301823028809 0 0.46645477506910688 -0.4257815701303288 0 0.47807008942078177 -0.41866564518218757 0 0.4704659996679102 -0.41497301823028809 0 0.48026544092877838 -0.41046784591122498 0 0.4704659996679102 -0.41497301823028809 0 0.47173559857668301 -0.40445129321325962 0 0.47173559857668301 -0.40445129321325962 0 0.47858440168115768 -0.39595818344676048 0 0.47903731271294031 -0.40331609952437331 0 0.47173559857668301 -0.40445129321325962 0 0.47858440168115768 -0.39595818344676048 0 0.46492841734918872 -0.39532462080318181 0 0.47858440168115768 -0.39595818344676048 0 0.47589609395482091 -0.38598009194095889 0 0.46492841734918872 -0.39532462080318181 0 0.47858440168115768 -0.39595818344676048 0 0.48489677447019358 -0.39039594674327471 0 0.47589609395482091 -0.38598009194095889 0 0.47858440168115768 -0.39595818344676048 0 0.48637972138893237 -0.40203772511057978 0 0.48799121938878992 -0.39595417830043411 0 0.47858440168115768 -0.39595818344676048 0 0.48799121938878992 -0.39595417830043411 0 0.48489677447019358 -0.39039594674327471 0 0.48026544092877838 -0.41046784591122498 0 0.47173559857668301 -0.40445129321325962 0 0.47903731271294031 -0.40331609952437331 0 0.48026544092877838 -0.41046784591122498 0 0.47903731271294031 -0.40331609952437331 0 0.48637972138893237 -0.40203772511057978 0 0.47858440168115768 -0.39595818344676048 0 0.47903731271294031 -0.40331609952437331 0 0.48637972138893237 -0.40203772511057978 0 0.48851352057038461 -0.41048139877380441 0 0.48637972138893237 -0.40203772511057978 0 0.49424421830455889 -0.39524250972996522 0 0.48637972138893237 -0.40203772511057978 0 0.48799121938878992 -0.39595417830043411 0 0.49424421830455889 -0.39524250972996522 0 0.48799121938878992 -0.39595417830043411 0 0.49424421830455889 -0.39524250972996522 0 0.48489677447019358 -0.39039594674327471 0 0.5 -0.37121415303918459 0 0.49321228966254771 -0.36532047537654688 0 0.49424421830455889 -0.39524250972996522 0 0.49321228966254771 -0.36532047537654688 0 0.49424421830455889 -0.39524250972996522 0 0.48488865916761681 -0.38031404922719247 0 0.5 -0.37121415303918459 0 0.5 -0.40016663708891093 0 0.49424421830455889 -0.39524250972996522 0 0.49321228966254771 -0.36532047537654688 0 0.49424421830455889 -0.39524250972996522 0 0.49424421830455889 -0.39524250972996522 0 0.48489677447019358 -0.39039594674327471 0 0.48488865916761681 -0.38031404922719247 0 0.48237875694998872 -0.36911462313912718 0 0.48488865916761681 -0.38031404922719247 0 0.47665882205089682 -0.37567270161360278 0 0.47589609395482091 -0.38598009194095889 0 0.46682657693639867 -0.37912995032484431 0 0.46492841734918872 -0.39532462080318181 0 0.48488865916761681 -0.38031404922719247 0 0.47665882205089682 -0.37567270161360278 0 0.47589609395482091 -0.38598009194095889 0 0.48489677447019358 -0.39039594674327471 0 0.48488865916761681 -0.38031404922719247 0 0.47589609395482091 -0.38598009194095889 0 0.47665882205089682 -0.37567270161360278 0 0.47589609395482091 -0.38598009194095889 0 0.46682657693639867 -0.37912995032484431 0 0.45760844779790127 -0.36655905718727527 0 0.45313139828126597 -0.3832686093961245 0 0.46682657693639867 -0.37912995032484431 0 0.45313139828126597 -0.3832686093961245 0 0.46682657693639867 -0.37912995032484431 0 0.46492841734918872 -0.39532462080318181 0 0.46003854085634882 -0.41140098080356202 0 0.47173559857668301 -0.40445129321325962 0 0.46492841734918872 -0.39532462080318181 0 0.45313139828126597 -0.3832686093961245 0 0.46492841734918872 -0.39532462080318181 0 0.44809134106463888 -0.40316365643226598 0 0.46003854085634882 -0.41140098080356202 0 0.46492841734918872 -0.39532462080318181 0 0.44809134106463888 -0.40316365643226598 0 0.45313139828126597 -0.3832686093961245 0 0.44809134106463888 -0.40316365643226598 0 0.44236804390136869 -0.39167480951388173 0 0.44809134106463888 -0.40316365643226598 0 0.44236804390136869 -0.39167480951388173 0 0.43284912717076512 -0.40226218949476278 0 0.43896556263809938 -0.36375956211529831 0 0.45313139828126597 -0.3832686093961245 0 0.44236804390136869 -0.39167480951388173 0 0.43896556263809938 -0.36375956211529831 0 0.42960110672695412 -0.3884247572891435 0 0.41740891394187302 -0.38281986016051073 0 0.43896556263809938 -0.36375956211529831 0 0.44236804390136869 -0.39167480951388173 0 0.42960110672695412 -0.3884247572891435 0 0.44236804390136869 -0.39167480951388173 0 0.42960110672695412 -0.3884247572891435 0 0.43284912717076512 -0.40226218949476278 0 0.42960110672695412 -0.3884247572891435 0 0.43284912717076512 -0.40226218949476278 0 0.41614235779996678 -0.40310754535672738 0 0.41614235779996678 -0.40310754535672738 0 0.41740891394187302 -0.38281986016051073 0 0.40339415670967388 -0.3952116495170695 0 0.42960110672695412 -0.3884247572891435 0 0.41614235779996678 -0.40310754535672738 0 0.41740891394187302 -0.38281986016051073 0 0.41740891394187302 -0.38281986016051073 0 0.40565361484082302 -0.38133993170043062 0 0.40339415670967388 -0.3952116495170695 0 0.41740891394187302 -0.38281986016051073 0 0.40339415670967388 -0.3952116495170695 0 0.40489927411455989 -0.3705831105933729 0 0.41740891394187302 -0.38281986016051073 0 0.40565361484082302 -0.38133993170043062 0 0.38760608854906792 -0.37326170380164131 0 0.39940646750234932 -0.37915368025546953 0 0.40339415670967388 -0.3952116495170695 0 0.38760608854906792 -0.37326170380164131 0 0.39130224663003499 -0.38899158941959749 0 0.40339415670967388 -0.3952116495170695 0 0.40489927411455989 -0.3705831105933729 0 0.40565361484082302 -0.38133993170043062 0 0.39940646750234932 -0.37915368025546953 0 0.38760608854906792 -0.37326170380164131 0 0.40339415670967388 -0.3952116495170695 0 0.40565361484082302 -0.38133993170043062 0 0.39940646750234932 -0.37915368025546953 0 0.40339415670967388 -0.3952116495170695 0 0.38760608854906792 -0.37326170380164131 0 0.39130224663003499 -0.38899158941959749 0 0.37916478991063751 -0.38344486759860669 0 0.38760608854906792 -0.37326170380164131 0 0.37916478991063751 -0.38344486759860669 0 0.37916478991063751 -0.38344486759860669 0 0.37192894915677971 -0.39217382682174279 0 0.3782268157896953 -0.37202312342517568 0 0.38760608854906792 -0.37326170380164131 0 0.37916478991063751 -0.38344486759860669 0 0.37916478991063751 -0.38344486759860669 0 0.37867240964417731 -0.4007127276584701 0 0.37192894915677971 -0.39217382682174279 0 0.37867240964417731 -0.4007127276584701 0 0.39585226524564521 -0.40188015820572182 0 0.37992272940009048 -0.41596498675290561 0 0.37916478991063751 -0.38344486759860669 0 0.39585226524564521 -0.40188015820572182 0 0.39130224663003499 -0.38899158941959749 0 0.37916478991063751 -0.38344486759860669 0 0.39585226524564521 -0.40188015820572182 0 0.37916478991063751 -0.38344486759860669 0 0.37867240964417731 -0.4007127276584701 0 0.39585226524564521 -0.40188015820572182 0 0.41614235779996678 -0.40310754535672738 0 0.39585226524564521 -0.40188015820572182 0 0.40339415670967388 -0.3952116495170695 0 0.39130224663003499 -0.38899158941959749 0 0.39585226524564521 -0.40188015820572182 0 0.40339415670967388 -0.3952116495170695 0 0.39585226524564521 -0.40188015820572182 0 0.40339415670967388 -0.3952116495170695 0 0.39585226524564521 -0.40188015820572182 0 0.41534927646533509 -0.42341925028462618 0 0.39585226524564521 -0.40188015820572182 0 0.39447681077750851 -0.41759613422346498 0 0.41534927646533509 -0.42341925028462618 0 0.39585226524564521 -0.40188015820572182 0 0.39447681077750851 -0.41759613422346498 0 0.37992272940009048 -0.41596498675290561 0 0.39585226524564521 -0.40188015820572182 0 0.37992272940009048 -0.41596498675290561 0 0.39447681077750851 -0.41759613422346498 0 0.37992272940009048 -0.41596498675290561 0 0.38507373234063502 -0.42802079466120402 0 0.37867240964417731 -0.4007127276584701 0 0.37992272940009048 -0.41596498675290561 0 0.36650320656496849 -0.40522880080322587 0 0.38507373234063502 -0.42802079466120402 0 0.39931007470996832 -0.42815265599062691 0 0.38074243866989049 -0.4413918290659018 0 0.38507373234063502 -0.42802079466120402 0 0.38074243866989049 -0.4413918290659018 0 0.3639931935545343 -0.43004981530008768 0 0.37992272940009048 -0.41596498675290561 0 0.38507373234063502 -0.42802079466120402 0 0.3639931935545343 -0.43004981530008768 0 0.39447681077750851 -0.41759613422346498 0 0.39931007470996832 -0.42815265599062691 0 0.41534927646533509 -0.42341925028462618 0 0.39447681077750851 -0.41759613422346498 0 0.38507373234063502 -0.42802079466120402 0 0.39931007470996832 -0.42815265599062691 0 0.39931007470996832 -0.42815265599062691 0 0.41534927646533509 -0.42341925028462618 0 0.41454986853556353 -0.44302873229077749 0 0.41534927646533509 -0.42341925028462618 0 0.42837179825756683 -0.42774502622781929 0 0.41454986853556353 -0.44302873229077749 0 0.41614235779996678 -0.40310754535672738 0 0.39585226524564521 -0.40188015820572182 0 0.41534927646533509 -0.42341925028462618 0 0.41614235779996678 -0.40310754535672738 0 0.41534927646533509 -0.42341925028462618 0 0.42591785780416219 -0.41418109823162719 0 0.43284912717076512 -0.40226218949476278 0 0.41614235779996678 -0.40310754535672738 0 0.42591785780416219 -0.41418109823162719 0 0.41534927646533509 -0.42341925028462618 0 0.42591785780416219 -0.41418109823162719 0 0.42837179825756683 -0.42774502622781929 0 0.43284912717076512 -0.40226218949476278 0 0.42591785780416219 -0.41418109823162719 0 0.43687672932717703 -0.41437147979420069 0 0.42591785780416219 -0.41418109823162719 0 0.43687672932717703 -0.41437147979420069 0 0.42837179825756683 -0.42774502622781929 0 0.44172669679560728 -0.4298816433440687 0 0.43687672932717703 -0.41437147979420069 0 0.42837179825756683 -0.42774502622781929 0 0.44172669679560728 -0.4298816433440687 0 0.42837179825756683 -0.42774502622781929 0 0.43412772784971021 -0.44439922937696108 0 0.42837179825756683 -0.42774502622781929 0 0.43412772784971021 -0.44439922937696108 0 0.41454986853556353 -0.44302873229077749 0 0.42270341288025509 -0.45311507658789052 0 0.43412772784971021 -0.44439922937696108 0 0.41454986853556353 -0.44302873229077749 0 0.42270341288025509 -0.45311507658789052 0 0.43412772784971021 -0.44439922937696108 0 0.4312721983501151 -0.46057080605489092 0 0.42270341288025509 -0.45311507658789052 0 0.4312721983501151 -0.46057080605489092 0 0.41352557668902218 -0.46359144463894503 0 0.44388691925195761 -0.45631271139764362 0 0.43412772784971021 -0.44439922937696108 0 0.4312721983501151 -0.46057080605489092 0 0.4312721983501151 -0.46057080605489092 0 0.41352557668902218 -0.46359144463894503 0 0.42955946959279773 -0.47444904644617408 0 0.42270341288025509 -0.45311507658789052 0 0.41352557668902218 -0.46359144463894503 0 0.41454986853556353 -0.44302873229077749 0 0.41352557668902218 -0.46359144463894503 0 0.41454986853556353 -0.44302873229077749 0 0.39749168378524669 -0.45273384283171592 0 0.39931007470996832 -0.42815265599062691 0 0.39749168378524669 -0.45273384283171592 0 0.39931007470996832 -0.42815265599062691 0 0.39749168378524669 -0.45273384283171592 0 0.38074243866989049 -0.4413918290659018 0 0.39931007470996832 -0.42815265599062691 0 0.41454986853556353 -0.44302873229077749 0 0.39749168378524669 -0.45273384283171592 0 0.38074243866989049 -0.4413918290659018 0 0.38005763075514909 -0.4592576647288214 0 0.36770421038608248 -0.4446848865892189 0 0.39749168378524669 -0.45273384283171592 0 0.38074243866989049 -0.4413918290659018 0 0.39749168378524669 -0.45273384283171592 0 0.38074243866989049 -0.4413918290659018 0 0.38005763075514909 -0.4592576647288214 0 0.41352557668902218 -0.46359144463894503 0 0.39749168378524669 -0.45273384283171592 0 0.39582688880139549 -0.47523870468171953 0 0.41352557668902218 -0.46359144463894503 0 0.39749168378524669 -0.45273384283171592 0 0.39749168378524669 -0.45273384283171592 0 0.39582688880139549 -0.47523870468171953 0 0.39749168378524669 -0.45273384283171592 0 0.38005763075514909 -0.4592576647288214 0 0.39582688880139549 -0.47523870468171953 0 0.39582688880139549 -0.47523870468171953 0 0.40670795330732762 -0.48696510335761339 0 0.41384016543749708 -0.48039465222239031 0 0.39582688880139549 -0.47523870468171953 0 0.37644416316153778 -0.47660274418856702 0 0.38204436542972148 -0.48904355279977119 0 0.38005763075514909 -0.4592576647288214 0 0.39582688880139549 -0.47523870468171953 0 0.37644416316153778 -0.47660274418856702 0 0.38723106658306389 -0.49852703503471418 0 0.39399517436945258 -0.49999999999999978 0 0.37367847099620699 -0.5 0 0.38204436542972148 -0.48904355279977119 0 0.38723106658306389 -0.49852703503471418 0 0.37367847099620699 -0.5 0 0.38204436542972148 -0.48904355279977119 0 0.38723106658306389 -0.49852703503471418 0 0.39416209381754441 -0.49774356653172303 0 0.39582688880139549 -0.47523870468171953 0 0.39416209381754441 -0.49774356653172303 0 0.39399517436945258 -0.49999999999999978 0 0.39416209381754441 -0.49774356653172303 0 0.42300266517287349 -0.49448348999462111 0 0.39582688880139549 -0.47523870468171953 0 0.38204436542972148 -0.48904355279977119 0 0.39416209381754441 -0.49774356653172303 0 0.38723106658306389 -0.49852703503471418 0 0.39416209381754441 -0.49774356653172303 0 0.39582688880139549 -0.47523870468171953 0 0.39416209381754441 -0.49774356653172303 0 0.40670795330732762 -0.48696510335761339 0 0.38723106658306389 -0.49852703503471418 0 0.39399517436945258 -0.49999999999999978 0 0.39416209381754441 -0.49774356653172303 0 0.39399517436945258 -0.49999999999999978 0 0.39416209381754441 -0.49774356653172303 0 0.39416209381754441 -0.49774356653172303 0 0.40670795330732762 -0.48696510335761339 0 0.42300266517287349 -0.49448348999462111 0 0.39416209381754441 -0.49774356653172303 0 0.42300266517287349 -0.49448348999462111 0 0.45504380163158142 -0.5 0 0.39399517436945258 -0.49999999999999978 0 0.42300266517287349 -0.49448348999462111 0 0.40670795330732762 -0.48696510335761339 0 0.41384016543749708 -0.48039465222239031 0 0.42300266517287349 -0.49448348999462111 0 0.41352557668902218 -0.46359144463894503 0 0.42955946959279773 -0.47444904644617408 0 0.41352557668902218 -0.46359144463894503 0 0.39582688880139549 -0.47523870468171953 0 0.41384016543749708 -0.48039465222239031 0 0.41352557668902218 -0.46359144463894503 0 0.41384016543749708 -0.48039465222239031 0 0.42955946959279773 -0.47444904644617408 0 0.43877239123646672 -0.48244970169226231 0 0.42955946959279773 -0.47444904644617408 0 0.42300266517287349 -0.49448348999462111 0 0.41384016543749708 -0.48039465222239031 0 0.42955946959279773 -0.47444904644617408 0 0.42300266517287349 -0.49448348999462111 0 0.43877239123646672 -0.48244970169226231 0 0.44109767370751313 -0.47167943490861869 0 0.42955946959279773 -0.47444904644617408 0 0.44109767370751313 -0.47167943490861869 0 0.4312721983501151 -0.46057080605489092 0 0.42955946959279773 -0.47444904644617408 0 0.45184323652820269 -0.49122341345751841 0 0.42300266517287349 -0.49448348999462111 0 0.32694898473927642 -0.47209718743320322 0 0.33304506424971558 -0.50000000000000255 0 0.30714444742462149 -0.5 0 0.32694898473927642 -0.47209718743320322 0 0.34762050039772718 -0.47991538497241659 0 0.34447339168656321 -0.46005868631569619 0 0.32694898473927642 -0.47209718743320322 0 0.33304506424971558 -0.50000000000000255 0 0.34762050039772718 -0.47991538497241659 0 0.32694898473927642 -0.47209718743320322 0 0.33304506424971558 -0.50000000000000255 0 0.35336176762296129 -0.5 0 0.36492350921858102 -0.48614926636190331 0 0.34762050039772718 -0.47991538497241659 0 0.33304506424971558 -0.50000000000000255 0 0.35336176762296129 -0.5 0 0.34762050039772718 -0.47991538497241659 0 0.38204436542972148 -0.48904355279977119 0 0.36492350921858102 -0.48614926636190331 0 0.37367847099620699 -0.5 0 0.35336176762296129 -0.5 0 0.36492350921858102 -0.48614926636190331 0 0.37367847099620699 -0.5 0 0.37644416316153778 -0.47660274418856702 0 0.36492350921858102 -0.48614926636190331 0 0.36213639972674228 -0.46489398101580548 0 0.37644416316153778 -0.47660274418856702 0 0.38204436542972148 -0.48904355279977119 0 0.36492350921858102 -0.48614926636190331 0 0.36492350921858102 -0.48614926636190331 0 0.34762050039772718 -0.47991538497241659 0 0.36213639972674228 -0.46489398101580548 0 0.34447339168656321 -0.46005868631569619 0 0.36213639972674228 -0.46489398101580548 0 0.35564519458707811 -0.4506363370504039 0 0.34762050039772718 -0.47991538497241659 0 0.34447339168656321 -0.46005868631569619 0 0.36213639972674228 -0.46489398101580548 0 0.38005763075514909 -0.4592576647288214 0 0.37644416316153778 -0.47660274418856702 0 0.36213639972674228 -0.46489398101580548 0 0.36213639972674228 -0.46489398101580548 0 0.36770421038608248 -0.4446848865892189 0 0.35564519458707811 -0.4506363370504039 0 0.38005763075514909 -0.4592576647288214 0 0.36213639972674228 -0.46489398101580548 0 0.36770421038608248 -0.4446848865892189 0 0.38074243866989049 -0.4413918290659018 0 0.36770421038608248 -0.4446848865892189 0 0.3639931935545343 -0.43004981530008768 0 0.36770421038608248 -0.4446848865892189 0 0.35733304017349571 -0.44297594866125761 0 0.35564519458707811 -0.4506363370504039 0 0.36770421038608248 -0.4446848865892189 0 0.35733304017349571 -0.44297594866125761 0 0.358192217230489 -0.43517901414948451 0 0.34447339168656321 -0.46005868631569619 0 0.35564519458707811 -0.4506363370504039 0 0.34231450051304918 -0.44240780430671389 0 0.35733304017349571 -0.44297594866125761 0 0.35564519458707811 -0.4506363370504039 0 0.35082948829980831 -0.439159975161871 0 0.35733304017349571 -0.44297594866125761 0 0.35082948829980831 -0.439159975161871 0 0.358192217230489 -0.43517901414948451 0 0.35564519458707811 -0.4506363370504039 0 0.35082948829980831 -0.439159975161871 0 0.34231450051304918 -0.44240780430671389 0 0.35082948829980831 -0.439159975161871 0 0.34231450051304918 -0.44240780430671389 0 0.34483432742882059 -0.43102094025814008 0 0.34231450051304918 -0.44240780430671389 0 0.3336474455419316 -0.45468951323050422 0 0.32085290522883753 -0.44419437486640378 0 0.32085290522883753 -0.44419437486640378 0 0.34483432742882059 -0.43102094025814008 0 0.34447339168656321 -0.46005868631569619 0 0.34231450051304918 -0.44240780430671389 0 0.3336474455419316 -0.45468951323050422 0 0.34231450051304918 -0.44240780430671389 0 0.32085290522883753 -0.44419437486640378 0 0.34483432742882059 -0.43102094025814008 0 0.32694898473927642 -0.47209718743320322 0 0.34447339168656321 -0.46005868631569619 0 0.3336474455419316 -0.45468951323050422 0 0.32694898473927642 -0.47209718743320322 0 0.3336474455419316 -0.45468951323050422 0 0.32085290522883753 -0.44419437486640378 0 0.32694898473927642 -0.47209718743320322 0 0.32085290522883753 -0.44419437486640378 0 0.32694898473927642 -0.47209718743320322 0 0.31264344144568512 -0.4614866266885429 0 0.32085290522883753 -0.44419437486640378 0 0.31953871191162242 -0.43817908426135133 0 0.32085290522883753 -0.44419437486640378 0 0.31049259046883299 -0.43786044156381121 0 0.31953871191162242 -0.43817908426135133 0 0.32085290522883753 -0.44419437486640378 0 0.32055479120283609 -0.42809158367924421 0 0.32421538897421459 -0.41633596835218839 0 0.32953612785145198 -0.42967655931459542 0 0.31953871191162242 -0.43817908426135133 0 0.32055479120283609 -0.42809158367924421 0 0.32953612785145198 -0.42967655931459542 0 0.31953871191162242 -0.43817908426135133 0 0.32085290522883753 -0.44419437486640378 0 0.32953612785145198 -0.42967655931459542 0 0.32055479120283609 -0.42809158367924421 0 0.30978770746169348 -0.4254314722915149 0 0.31049259046883299 -0.43786044156381121 0 0.31953871191162242 -0.43817908426135133 0 0.32055479120283609 -0.42809158367924421 0 0.31049259046883299 -0.43786044156381121 0 0.32055479120283609 -0.42809158367924421 0 0.32421538897421459 -0.41633596835218839 0 0.30978770746169348 -0.4254314722915149 0 0.32421538897421459 -0.41633596835218839 0 0.30121013558604881 -0.41243453223413329 0 0.32421538897421459 -0.41633596835218839 0 0.34722064236238048 -0.42023740447024349 0 0.33583192226533432 -0.40199715589841528 0 0.32421538897421459 -0.41633596835218839 0 0.34722064236238048 -0.42023740447024349 0 0.32421538897421459 -0.41633596835218839 0 0.32953612785145198 -0.42967655931459542 0 0.34722064236238048 -0.42023740447024349 0 0.32953612785145198 -0.42967655931459542 0 0.34483432742882059 -0.43102094025814008 0 0.34722064236238048 -0.42023740447024349 0 0.32085290522883753 -0.44419437486640378 0 0.32953612785145198 -0.42967655931459542 0 0.34483432742882059 -0.43102094025814008 0 0.34231450051304918 -0.44240780430671389 0 0.34483432742882059 -0.43102094025814008 0 0.35082948829980831 -0.439159975161871 0 0.34483432742882059 -0.43102094025814008 0 0.35317675826491712 -0.43173324919251432 0 0.35638518837804761 -0.42467584070087322 0 0.36307894852766442 -0.42292679751454038 0 0.34722064236238048 -0.42023740447024349 0 0.34483432742882059 -0.43102094025814008 0 0.35638518837804761 -0.42467584070087322 0 0.35317675826491712 -0.43173324919251432 0 0.34483432742882059 -0.43102094025814008 0 0.35638518837804761 -0.42467584070087322 0 0.34722064236238048 -0.42023740447024349 0 0.34483432742882059 -0.43102094025814008 0 0.35638518837804761 -0.42467584070087322 0 0.34483432742882059 -0.43102094025814008 0 0.34722064236238048 -0.42023740447024349 0 0.35782203833867349 -0.42587092085277323 0 0.35791387915333228 -0.42950176803914653 0 0.35638518837804761 -0.42467584070087322 0 0.35791387915333228 -0.42950176803914653 0 0.35638518837804761 -0.42467584070087322 0 0.35317675826491712 -0.43173324919251432 0 0.35782203833867349 -0.42587092085277323 0 0.35638518837804761 -0.42467584070087322 0 0.36307894852766442 -0.42292679751454038 0 0.35082948829980831 -0.439159975161871 0 0.35317675826491712 -0.43173324919251432 0 0.358192217230489 -0.43517901414948451 0 0.35791387915333228 -0.42950176803914653 0 0.35317675826491712 -0.43173324919251432 0 0.358192217230489 -0.43517901414948451 0 0.37992272940009048 -0.41596498675290561 0 0.3639931935545343 -0.43004981530008768 0 0.38074243866989049 -0.4413918290659018 0 0.3639931935545343 -0.43004981530008768 0 0.37992272940009048 -0.41596498675290561 0 0.3639931935545343 -0.43004981530008768 0 0.36307894852766442 -0.42292679751454038 0 0.36770421038608248 -0.4446848865892189 0 0.358192217230489 -0.43517901414948451 0 0.3639931935545343 -0.43004981530008768 0 0.358192217230489 -0.43517901414948451 0 0.3639931935545343 -0.43004981530008768 0 0.35791387915333228 -0.42950176803914653 0 0.358192217230489 -0.43517901414948451 0 0.3639931935545343 -0.43004981530008768 0 0.35782203833867349 -0.42587092085277323 0 0.3639931935545343 -0.43004981530008768 0 0.35782203833867349 -0.42587092085277323 0 0.35791387915333228 -0.42950176803914653 0 0.3639931935545343 -0.43004981530008768 0 0.35782203833867349 -0.42587092085277323 0 0.3639931935545343 -0.43004981530008768 0 0.36307894852766442 -0.42292679751454038 0 0.37992272940009048 -0.41596498675290561 0 0.36307894852766442 -0.42292679751454038 0 0.36539695004008738 -0.41482037865649057 0 0.37992272940009048 -0.41596498675290561 0 0.36539695004008738 -0.41482037865649057 0 0.36650320656496849 -0.40522880080322587 0 0.36307894852766442 -0.42292679751454038 0 0.36539695004008738 -0.41482037865649057 0 0.35839708482709659 -0.41742254445772742 0 0.36539695004008738 -0.41482037865649057 0 0.3578917983782573 -0.41170559718963579 0 0.35839708482709659 -0.41742254445772742 0 0.36539695004008738 -0.41482037865649057 0 0.3578917983782573 -0.41170559718963579 0 0.36650320656496849 -0.40522880080322587 0 0.36307894852766442 -0.42292679751454038 0 0.34722064236238048 -0.42023740447024349 0 0.34722064236238048 -0.42023740447024349 0 0.3517482290516023 -0.39977766028079548 0 0.33583192226533432 -0.40199715589841528 0 0.34722064236238048 -0.42023740447024349 0 0.3517482290516023 -0.39977766028079548 0 0.36307894852766442 -0.42292679751454038 0 0.35839708482709659 -0.41742254445772742 0 0.34722064236238048 -0.42023740447024349 0 0.3578917983782573 -0.41170559718963579 0 0.34722064236238048 -0.42023740447024349 0 0.3517482290516023 -0.39977766028079548 0 0.3578917983782573 -0.41170559718963579 0 0.35839708482709659 -0.41742254445772742 0 0.34722064236238048 -0.42023740447024349 0 0.3517482290516023 -0.39977766028079548 0 0.34449462343768172 -0.38887690931924701 0 0.33583192226533432 -0.40199715589841528 0 0.3578917983782573 -0.41170559718963579 0 0.3517482290516023 -0.39977766028079548 0 0.36650320656496849 -0.40522880080322587 0 0.3517482290516023 -0.39977766028079548 0 0.36650320656496849 -0.40522880080322587 0 0.36277095240578899 -0.3921999259197903 0 0.36650320656496849 -0.40522880080322587 0 0.36277095240578899 -0.3921999259197903 0 0.37192894915677971 -0.39217382682174279 0 0.37867240964417731 -0.4007127276584701 0 0.36650320656496849 -0.40522880080322587 0 0.37192894915677971 -0.39217382682174279 0 0.37916478991063751 -0.38344486759860669 0 0.36739856151476891 -0.38450142560183947 0 0.36731866303223892 -0.37035799932238261 0 0.37916478991063751 -0.38344486759860669 0 0.36731866303223892 -0.37035799932238261 0 0.3782268157896953 -0.37202312342517568 0 0.37916478991063751 -0.38344486759860669 0 0.36731866303223892 -0.37035799932238261 0 0.37916478991063751 -0.38344486759860669 0 0.37192894915677971 -0.39217382682174279 0 0.36739856151476891 -0.38450142560183947 0 0.36277095240578899 -0.3921999259197903 0 0.37192894915677971 -0.39217382682174279 0 0.36739856151476891 -0.38450142560183947 0 0.36277095240578899 -0.3921999259197903 0 0.36739856151476891 -0.38450142560183947 0 0.3562758157408264 -0.37931791609134802 0 0.36739856151476891 -0.38450142560183947 0 0.3562758157408264 -0.37931791609134802 0 0.36731866303223892 -0.37035799932238261 0 0.3517482290516023 -0.39977766028079548 0 0.36277095240578899 -0.3921999259197903 0 0.3562758157408264 -0.37931791609134802 0 0.3517482290516023 -0.39977766028079548 0 0.3562758157408264 -0.37931791609134802 0 0.34449462343768172 -0.38887690931924701 0 0.3562758157408264 -0.37931791609134802 0 0.34449462343768172 -0.38887690931924701 0 0.33405247214939432 -0.37154619327299993 0 0.3517482290516023 -0.39977766028079548 0 0.3562758157408264 -0.37931791609134802 0 0.3562758157408264 -0.37931791609134802 0 0.34449462343768172 -0.38887690931924701 0 0.34449462343768172 -0.38887690931924701 0 0.3312813174123439 -0.38482223657005288 0 0.33405247214939432 -0.37154619327299993 0 0.3312813174123439 -0.38482223657005288 0 0.33583192226533432 -0.40199715589841528 0 0.32107319661038769 -0.39297715338962041 0 0.34449462343768172 -0.38887690931924701 0 0.3312813174123439 -0.38482223657005288 0 0.33583192226533432 -0.40199715589841528 0 0.32421538897421459 -0.41633596835218839 0 0.33583192226533432 -0.40199715589841528 0 0.32107319661038769 -0.39297715338962041 0 0.32421538897421459 -0.41633596835218839 0 0.32107319661038769 -0.39297715338962041 0 0.30981290843704601 -0.40127774196380278 0 0.3312813174123439 -0.38482223657005288 0 0.32107319661038769 -0.39297715338962041 0 0.30962008197053098 -0.37375694703293161 0 0.3312813174123439 -0.38482223657005288 0 0.33405247214939432 -0.37154619327299993 0 0.30962008197053098 -0.37375694703293161 0 0.3002222658630766 -0.39000549128641782 0 0.28518769179166781 -0.37596770079286368 0 0.30962008197053098 -0.37375694703293161 0 0.32107319661038769 -0.39297715338962041 0 0.3002222658630766 -0.39000549128641782 0 0.30962008197053098 -0.37375694703293161 0 0.32107319661038769 -0.39297715338962041 0 0.3002222658630766 -0.39000549128641782 0 0.30981290843704601 -0.40127774196380278 0 0.3002222658630766 -0.39000549128641782 0 0.30981290843704601 -0.40127774196380278 0 0.29340688872313231 -0.40154194474166383 0 0.30981290843704601 -0.40127774196380278 0 0.29340688872313231 -0.40154194474166383 0 0.30121013558604881 -0.41243453223413329 0 0.3002222658630766 -0.39000549128641782 0 0.29340688872313231 -0.40154194474166383 0 0.28027485175429478 -0.39887947804068358 0 0.3002222658630766 -0.39000549128641782 0 0.28027485175429478 -0.39887947804068358 0 0.29340688872313231 -0.40154194474166383 0 0.28027485175429478 -0.39887947804068358 0 0.27820488219788281 -0.40853309611607808 0 0.28518769179166781 -0.37596770079286368 0 0.28027485175429478 -0.39887947804068358 0 0.3002222658630766 -0.39000549128641782 0 0.28518769179166781 -0.37596770079286368 0 0.28027485175429478 -0.39887947804068358 0 0.28518769179166781 -0.37596770079286368 0 0.26431280243697258 -0.37785655570190829 0 0.28518769179166781 -0.37596770079286368 0 0.26431280243697258 -0.37785655570190829 0 0.26632297568941132 -0.39269244715201052 0 0.28518769179166781 -0.37596770079286368 0 0.26632297568941132 -0.39269244715201052 0 0.28027485175429478 -0.39887947804068358 0 0.26431280243697258 -0.37785655570190829 0 0.25190981745730479 -0.39241813327882302 0 0.24343791308227761 -0.37974541061095352 0 0.26431280243697258 -0.37785655570190829 0 0.24343791308227761 -0.37974541061095352 0 0.26431280243697258 -0.37785655570190829 0 0.25190981745730479 -0.39241813327882302 0 0.26632297568941132 -0.39269244715201052 0 0.25190981745730479 -0.39241813327882302 0 0.25944334095341959 -0.40814677203228472 0 0.2449053002495431 -0.40417195178498272 0 0.25190981745730479 -0.39241813327882302 0 0.26632297568941132 -0.39269244715201052 0 0.25944334095341959 -0.40814677203228472 0 0.28027485175429478 -0.39887947804068358 0 0.27140041408084531 -0.40795573066770191 0 0.25944334095341959 -0.40814677203228472 0 0.26632297568941132 -0.39269244715201052 0 0.28027485175429478 -0.39887947804068358 0 0.25944334095341959 -0.40814677203228472 0 0.28027485175429478 -0.39887947804068358 0 0.25944334095341959 -0.40814677203228472 0 0.28027485175429478 -0.39887947804068358 0 0.27820488219788281 -0.40853309611607808 0 0.27140041408084531 -0.40795573066770191 0 0.28027485175429478 -0.39887947804068358 0 0.27820488219788281 -0.40853309611607808 0 0.27820488219788281 -0.40853309611607808 0 0.27250913089036483 -0.43509609923120263 0 0.27820488219788281 -0.40853309611607808 0 0.268660808071704 -0.41643015124097249 0 0.27250913089036483 -0.43509609923120263 0 0.27820488219788281 -0.40853309611607808 0 0.27250913089036483 -0.43509609923120263 0 0.28783684590813458 -0.42151438718583423 0 0.27820488219788281 -0.40853309611607808 0 0.268660808071704 -0.41643015124097249 0 0.27140041408084531 -0.40795573066770191 0 0.268660808071704 -0.41643015124097249 0 0.27140041408084531 -0.40795573066770191 0 0.25944334095341959 -0.40814677203228472 0 0.268660808071704 -0.41643015124097249 0 0.25944334095341959 -0.40814677203228472 0 0.25628186615539572 -0.42775248642316771 0 0.25944334095341959 -0.40814677203228472 0 0.25628186615539572 -0.42775248642316771 0 0.23861183015254431 -0.41741406602388509 0 0.25628186615539572 -0.42775248642316771 0 0.27250913089036483 -0.43509609923120263 0 0.26057790657102092 -0.44642991080753691 0 0.268660808071704 -0.41643015124097249 0 0.25628186615539572 -0.42775248642316771 0 0.27250913089036483 -0.43509609923120263 0 0.29436154120507152 -0.43444127256326198 0 0.28783684590813458 -0.42151438718583423 0 0.30121013558604881 -0.41243453223413329 0 0.27250913089036483 -0.43509609923120263 0 0.29436154120507152 -0.43444127256326198 0 0.28783684590813458 -0.42151438718583423 0 0.29340688872313231 -0.40154194474166383 0 0.27820488219788281 -0.40853309611607808 0 0.30121013558604881 -0.41243453223413329 0 0.27820488219788281 -0.40853309611607808 0 0.28783684590813458 -0.42151438718583423 0 0.30121013558604881 -0.41243453223413329 0 0.27820488219788281 -0.40853309611607808 0 0.30121013558604881 -0.41243453223413329 0 0.32421538897421459 -0.41633596835218839 0 0.30981290843704601 -0.40127774196380278 0 0.30121013558604881 -0.41243453223413329 0 0.32421538897421459 -0.41633596835218839 0 0.30121013558604881 -0.41243453223413329 0 0.30978770746169348 -0.4254314722915149 0 0.29436154120507152 -0.43444127256326198 0 0.30978770746169348 -0.4254314722915149 0 0.31049259046883299 -0.43786044156381121 0 0.29436154120507152 -0.43444127256326198 0 0.30121013558604881 -0.41243453223413329 0 0.30978770746169348 -0.4254314722915149 0 0.32085290522883753 -0.44419437486640378 0 0.31049259046883299 -0.43786044156381121 0 0.29785988580293721 -0.45682486172109071 0 0.29436154120507152 -0.43444127256326198 0 0.31049259046883299 -0.43786044156381121 0 0.29785988580293721 -0.45682486172109071 0 0.32085290522883753 -0.44419437486640378 0 0.29785988580293721 -0.45682486172109071 0 0.31264344144568512 -0.4614866266885429 0 0.32085290522883753 -0.44419437486640378 0 0.29785988580293721 -0.45682486172109071 0 0.31264344144568512 -0.4614866266885429 0 0.29785988580293721 -0.45682486172109071 0 0.29716803071377401 -0.47790636012032639 0 0.29785988580293721 -0.45682486172109071 0 0.28147829972007937 -0.45337441089476921 0 0.27486686637703711 -0.46945534857577809 0 0.29785988580293721 -0.45682486172109071 0 0.27486686637703711 -0.46945534857577809 0 0.29785988580293721 -0.45682486172109071 0 0.27486686637703711 -0.46945534857577809 0 0.29716803071377401 -0.47790636012032639 0 0.27250913089036483 -0.43509609923120263 0 0.29436154120507152 -0.43444127256326198 0 0.28147829972007937 -0.45337441089476921 0 0.29436154120507152 -0.43444127256326198 0 0.29785988580293721 -0.45682486172109071 0 0.28147829972007937 -0.45337441089476921 0 0.27250913089036483 -0.43509609923120263 0 0.26681337958284679 -0.46165910234632712 0 0.27250913089036483 -0.43509609923120263 0 0.28147829972007937 -0.45337441089476921 0 0.26681337958284679 -0.46165910234632712 0 0.27250913089036483 -0.43509609923120263 0 0.26057790657102092 -0.44642991080753691 0 0.26681337958284679 -0.46165910234632712 0 0.25628186615539572 -0.42775248642316771 0 0.26057790657102092 -0.44642991080753691 0 0.2441889580265072 -0.44494271068258939 0 0.26057790657102092 -0.44642991080753691 0 0.24976608590047039 -0.47247135534129381 0 0.2441889580265072 -0.44494271068258939 0 0.26057790657102092 -0.44642991080753691 0 0.26681337958284679 -0.46165910234632712 0 0.24976608590047039 -0.47247135534129381 0 0.26681337958284679 -0.46165910234632712 0 0.27486686637703711 -0.46945534857577809 0 0.24976608590047039 -0.47247135534129381 0 0.28147829972007937 -0.45337441089476921 0 0.26681337958284679 -0.46165910234632712 0 0.27486686637703711 -0.46945534857577809 0 0.28100893615131312 -0.48283177595232663 0 0.27486686637703711 -0.46945534857577809 0 0.26929528530227842 -0.4865565578049425 0 0.27486686637703711 -0.46945534857577809 0 0.25172022360441149 -0.48211695854094683 0 0.24976608590047039 -0.47247135534129381 0 0.27486686637703711 -0.46945534857577809 0 0.25172022360441149 -0.48211695854094683 0 0.27486686637703711 -0.46945534857577809 0 0.25172022360441149 -0.48211695854094683 0 0.26929528530227842 -0.4865565578049425 0 0.25172022360441149 -0.48211695854094683 0 0.24976608590047039 -0.47247135534129381 0 0.25172022360441149 -0.48211695854094683 0 0.25534321377443331 -0.49999999999999822 0 0.26929528530227842 -0.4865565578049425 0 0.25172022360441149 -0.48211695854094683 0 0.25534321377443331 -0.49999999999999822 0 0.28100893615131312 -0.48283177595232663 0 0.2812438305995274 -0.5 0 0.26929528530227842 -0.4865565578049425 0 0.25534321377443331 -0.49999999999999822 0 0.2812438305995274 -0.5 0 0.26929528530227842 -0.4865565578049425 0 0.28100893615131312 -0.48283177595232663 0 0.2812438305995274 -0.5 0 0.29716803071377401 -0.47790636012032639 0 0.2812438305995274 -0.5 0 0.29716803071377401 -0.47790636012032639 0 0.30714444742462149 -0.5 0 0.28100893615131312 -0.48283177595232663 0 0.27486686637703711 -0.46945534857577809 0 0.29716803071377401 -0.47790636012032639 0 0.32694898473927642 -0.47209718743320322 0 0.29716803071377401 -0.47790636012032639 0 0.30714444742462149 -0.5 0 0.32694898473927642 -0.47209718743320322 0 0.31264344144568512 -0.4614866266885429 0 0.29716803071377401 -0.47790636012032639 0 0.33244329107924753 -0.28535143035575378 0 0.34819925771994559 -0.28030206356202159 0 0.34675974942831078 -0.29231982833132009 0 0.33244329107924753 -0.28535143035575378 0 0.33412294702566059 -0.2972960789287093 0 0.34675974942831078 -0.29231982833132009 0 0.33412294702566059 -0.2972960789287093 0 0.34675974942831078 -0.29231982833132009 0 0.34443798700166439 -0.30338377589667581 0 0.32963226266632228 -0.30781457149938929 0 0.33412294702566059 -0.2972960789287093 0 0.34443798700166439 -0.30338377589667581 0 0.34031129046277281 -0.31193462603447458 0 0.32963226266632228 -0.30781457149938929 0 0.34443798700166439 -0.30338377589667581 0 0.34031129046277281 -0.31193462603447458 0 0.32963226266632228 -0.30781457149938929 0 0.33130614120217411 -0.31543562279774151 0 0.32963226266632228 -0.30781457149938929 0 0.31734144495275812 -0.2976107885604079 0 0.32298525221457408 -0.3153891631239274 0 0.32963226266632228 -0.30781457149938929 0 0.33412294702566059 -0.2972960789287093 0 0.31734144495275812 -0.2976107885604079 0 0.31734144495275812 -0.2976107885604079 0 0.32298525221457408 -0.3153891631239274 0 0.31077356857557242 -0.32278730597241062 0 0.31734144495275812 -0.2976107885604079 0 0.31077356857557242 -0.32278730597241062 0 0.31734144495275812 -0.2976107885604079 0 0.31328990292816761 -0.28343415357217938 0 0.3239093213299406 -0.27243427114840441 0 0.33244329107924753 -0.28535143035575378 0 0.33412294702566059 -0.2972960789287093 0 0.31734144495275812 -0.2976107885604079 0 0.33244329107924753 -0.28535143035575378 0 0.31734144495275812 -0.2976107885604079 0 0.3239093213299406 -0.27243427114840441 0 0.31734144495275812 -0.2976107885604079 0 0.3239093213299406 -0.27243427114840441 0 0.3239093213299406 -0.27243427114840441 0 0.31738998976111588 -0.26053822212571559 0 0.30781331524266442 -0.27044966221256772 0 0.31328990292816761 -0.28343415357217938 0 0.3239093213299406 -0.27243427114840441 0 0.31328990292816761 -0.28343415357217938 0 0.3239093213299406 -0.27243427114840441 0 0.30781331524266442 -0.27044966221256772 0 0.32344685639206122 -0.24935119199465139 0 0.31411864482200891 -0.25042558310994151 0 0.31738998976111588 -0.26053822212571559 0 0.31411864482200891 -0.25042558310994151 0 0.31738998976111588 -0.26053822212571559 0 0.30736197549640482 -0.25723576904572543 0 0.3239093213299406 -0.27243427114840441 0 0.31738998976111588 -0.26053822212571559 0 0.32781365659419498 -0.25746785596066668 0 0.3239093213299406 -0.27243427114840441 0 0.32781365659419498 -0.25746785596066668 0 0.32344685639206122 -0.24935119199465139 0 0.31738998976111588 -0.26053822212571559 0 0.32781365659419498 -0.25746785596066668 0 0.32344685639206122 -0.24935119199465139 0 0.33376936407639252 -0.24716083501435521 0 0.32781365659419498 -0.25746785596066668 0 0.33376936407639252 -0.24716083501435521 0 0.32781365659419498 -0.25746785596066668 0 0.33812667790931328 -0.2577075464980233 0 0.3239093213299406 -0.27243427114840441 0 0.33812667790931328 -0.2577075464980233 0 0.3239093213299406 -0.27243427114840441 0 0.32781365659419498 -0.25746785596066668 0 0.33812667790931328 -0.2577075464980233 0 0.33812667790931328 -0.2577075464980233 0 0.33875100663417662 -0.27238991024154152 0 0.351076485132438 -0.26615423964350649 0 0.33244329107924753 -0.28535143035575378 0 0.33875100663417662 -0.27238991024154152 0 0.34819925771994559 -0.28030206356202159 0 0.33244329107924753 -0.28535143035575378 0 0.3239093213299406 -0.27243427114840441 0 0.33875100663417662 -0.27238991024154152 0 0.3239093213299406 -0.27243427114840441 0 0.33812667790931328 -0.2577075464980233 0 0.33875100663417662 -0.27238991024154152 0 0.33875100663417662 -0.27238991024154152 0 0.34819925771994559 -0.28030206356202159 0 0.351076485132438 -0.26615423964350649 0 0.351076485132438 -0.26615423964350649 0 0.3615349239090081 -0.27691460128495582 0 0.36379020290023228 -0.26662736461696801 0 0.34819925771994559 -0.28030206356202159 0 0.351076485132438 -0.26615423964350649 0 0.3615349239090081 -0.27691460128495582 0 0.35234403448868851 -0.2429808218476445 0 0.33812667790931328 -0.2577075464980233 0 0.35058517612702977 -0.25539691701095951 0 0.35234403448868851 -0.2429808218476445 0 0.33812667790931328 -0.2577075464980233 0 0.33812667790931328 -0.2577075464980233 0 0.351076485132438 -0.26615423964350649 0 0.35058517612702977 -0.25539691701095951 0 0.351076485132438 -0.26615423964350649 0 0.36051999124822331 -0.25514121804962792 0 0.36379020290023228 -0.26662736461696801 0 0.351076485132438 -0.26615423964350649 0 0.35058517612702977 -0.25539691701095951 0 0.36051999124822331 -0.25514121804962792 0 0.35234403448868851 -0.2429808218476445 0 0.35058517612702977 -0.25539691701095951 0 0.36051999124822331 -0.25514121804962792 0 0.36855982724803948 -0.2472246143488819 0 0.36051999124822331 -0.25514121804962792 0 0.37210088781197342 -0.25921768618074748 0 0.36051999124822331 -0.25514121804962792 0 0.37210088781197342 -0.25921768618074748 0 0.36379020290023228 -0.26662736461696801 0 0.36855982724803948 -0.2472246143488819 0 0.38019879772559811 -0.25299849313564698 0 0.37210088781197342 -0.25921768618074748 0 0.37502938507144801 -0.27164044876046539 0 0.3615349239090081 -0.27691460128495582 0 0.36379020290023228 -0.26662736461696801 0 0.37502938507144801 -0.27164044876046539 0 0.37210088781197342 -0.25921768618074748 0 0.36379020290023228 -0.26662736461696801 0 0.37502938507144801 -0.27164044876046539 0 0.3615349239090081 -0.27691460128495582 0 0.37219996021314811 -0.2847380110165515 0 0.37219996021314811 -0.2847380110165515 0 0.3715544674884147 -0.29598840456977737 0 0.35996238872594027 -0.28830480160716387 0 0.37899937892576191 -0.29068825591381098 0 0.37219996021314811 -0.2847380110165515 0 0.3715544674884147 -0.29598840456977737 0 0.3715544674884147 -0.29598840456977737 0 0.35996238872594027 -0.28830480160716387 0 0.35952597359681521 -0.29956590087835711 0 0.3615349239090081 -0.27691460128495582 0 0.37219996021314811 -0.2847380110165515 0 0.35996238872594027 -0.28830480160716387 0 0.34819925771994559 -0.28030206356202159 0 0.35996238872594027 -0.28830480160716387 0 0.34675974942831078 -0.29231982833132009 0 0.34819925771994559 -0.28030206356202159 0 0.3615349239090081 -0.27691460128495582 0 0.35996238872594027 -0.28830480160716387 0 0.35996238872594027 -0.28830480160716387 0 0.34675974942831078 -0.29231982833132009 0 0.35952597359681521 -0.29956590087835711 0 0.34031129046277281 -0.31193462603447458 0 0.34443798700166439 -0.30338377589667581 0 0.35425789750604031 -0.31305130549642141 0 0.34675974942831078 -0.29231982833132009 0 0.34443798700166439 -0.30338377589667581 0 0.35952597359681521 -0.29956590087835711 0 0.34443798700166439 -0.30338377589667581 0 0.35952597359681521 -0.29956590087835711 0 0.35425789750604031 -0.31305130549642141 0 0.35952597359681521 -0.29956590087835711 0 0.37283960130938609 -0.30861878246382202 0 0.35425789750604031 -0.31305130549642141 0 0.3715544674884147 -0.29598840456977737 0 0.35952597359681521 -0.29956590087835711 0 0.37283960130938609 -0.30861878246382202 0 0.37283960130938609 -0.30861878246382202 0 0.36945891216851728 -0.3211985425022521 0 0.35425789750604031 -0.31305130549642141 0 0.36945891216851728 -0.3211985425022521 0 0.36944291519131789 -0.33217738901249683 0 0.35271651939061588 -0.32469393827326409 0 0.36944291519131789 -0.33217738901249683 0 0.36576712052872812 -0.34286093062566692 0 0.35271651939061588 -0.32469393827326409 0 0.38272714223296611 -0.33113896238911927 0 0.36945891216851728 -0.3211985425022521 0 0.36944291519131789 -0.33217738901249683 0 0.37654488163576172 -0.34099457127218158 0 0.36944291519131789 -0.33217738901249683 0 0.36576712052872812 -0.34286093062566692 0 0.36576712052872812 -0.34286093062566692 0 0.35271651939061588 -0.32469393827326409 0 0.35271651939061588 -0.32469393827326409 0 0.35571382932710871 -0.3463593856412287 0 0.34230909370535401 -0.33076377370702331 0 0.36576712052872812 -0.34286093062566692 0 0.35271651939061588 -0.32469393827326409 0 0.35571382932710871 -0.3463593856412287 0 0.35571382932710871 -0.3463593856412287 0 0.3450841996926135 -0.34579473945649891 0 0.34230909370535401 -0.33076377370702331 0 0.35271651939061588 -0.32469393827326409 0 0.34051499861251 -0.32196357242610429 0 0.34230909370535401 -0.33076377370702331 0 0.36945891216851728 -0.3211985425022521 0 0.35425789750604031 -0.31305130549642141 0 0.35271651939061588 -0.32469393827326409 0 0.35425789750604031 -0.31305130549642141 0 0.35271651939061588 -0.32469393827326409 0 0.34051499861251 -0.32196357242610429 0 0.34031129046277281 -0.31193462603447458 0 0.35425789750604031 -0.31305130549642141 0 0.34051499861251 -0.32196357242610429 0 0.3562758157408264 -0.37931791609134802 0 0.36731866303223892 -0.37035799932238261 0 0.3657943594261559 -0.36867404297862649 0 0.36731866303223892 -0.37035799932238261 0 0.35848486232825738 -0.36933543951306702 0 0.3562758157408264 -0.37931791609134802 0 0.36731866303223892 -0.37035799932238261 0 0.35848486232825738 -0.36933543951306702 0 0.3657943594261559 -0.36867404297862649 0 0.35848486232825738 -0.36933543951306702 0 0.3657943594261559 -0.36867404297862649 0 0.36827388495133428 -0.36844968423445662 0 0.36607206832689188 -0.36470591071742448 0 0.3657943594261559 -0.36867404297862649 0 0.36827388495133428 -0.36844968423445662 0 0.3657943594261559 -0.36867404297862649 0 0.36731866303223892 -0.37035799932238261 0 0.36827388495133428 -0.36844968423445662 0 0.3657943594261559 -0.36867404297862649 0 0.36731866303223892 -0.37035799932238261 0 0.37881772166683753 -0.3610279229780719 0 0.3782268157896953 -0.37202312342517568 0 0.36731866303223892 -0.37035799932238261 0 0.37881772166683753 -0.3610279229780719 0 0.36731866303223892 -0.37035799932238261 0 0.37881772166683753 -0.3610279229780719 0 0.36827388495133428 -0.36844968423445662 0 0.36791343119689929 -0.36033830276400403 0 0.37881772166683753 -0.3610279229780719 0 0.36731866303223892 -0.37035799932238261 0 0.36827388495133428 -0.36844968423445662 0 0.36827388495133428 -0.36844968423445662 0 0.36791343119689929 -0.36033830276400403 0 0.36607206832689188 -0.36470591071742448 0 0.36791343119689929 -0.36033830276400403 0 0.36607206832689188 -0.36470591071742448 0 0.36003838788856929 -0.36231520163855102 0 0.3657943594261559 -0.36867404297862649 0 0.36607206832689188 -0.36470591071742448 0 0.36003838788856929 -0.36231520163855102 0 0.3657943594261559 -0.36867404297862649 0 0.36003838788856929 -0.36231520163855102 0 0.35848486232825738 -0.36933543951306702 0 0.3657943594261559 -0.36867404297862649 0 0.36003838788856929 -0.36231520163855102 0 0.37881772166683753 -0.3610279229780719 0 0.37654488163576172 -0.34099457127218158 0 0.36576712052872812 -0.34286093062566692 0 0.37881772166683753 -0.3610279229780719 0 0.36576712052872812 -0.34286093062566692 0 0.36791343119689929 -0.36033830276400403 0 0.37881772166683753 -0.3610279229780719 0 0.36576712052872812 -0.34286093062566692 0 0.36576712052872812 -0.34286093062566692 0 0.36791343119689929 -0.36033830276400403 0 0.36160776752654461 -0.35522332065800838 0 0.36791343119689929 -0.36033830276400403 0 0.36003838788856929 -0.36231520163855102 0 0.36160776752654461 -0.35522332065800838 0 0.36003838788856929 -0.36231520163855102 0 0.36160776752654461 -0.35522332065800838 0 0.36576712052872812 -0.34286093062566692 0 0.36160776752654461 -0.35522332065800838 0 0.35571382932710871 -0.3463593856412287 0 0.36003838788856929 -0.36231520163855102 0 0.35571382932710871 -0.3463593856412287 0 0.3450841996926135 -0.34579473945649891 0 0.36003838788856929 -0.36231520163855102 0 0.3450841996926135 -0.34579473945649891 0 0.36003838788856929 -0.36231520163855102 0 0.36160776752654461 -0.35522332065800838 0 0.35571382932710871 -0.3463593856412287 0 0.36003838788856929 -0.36231520163855102 0 0.3450841996926135 -0.34579473945649891 0 0.34557702190705242 -0.36279702135916692 0 0.3562758157408264 -0.37931791609134802 0 0.35848486232825738 -0.36933543951306702 0 0.33405247214939432 -0.37154619327299993 0 0.34557702190705242 -0.36279702135916692 0 0.35848486232825738 -0.36933543951306702 0 0.33405247214939432 -0.37154619327299993 0 0.35848486232825738 -0.36933543951306702 0 0.33405247214939432 -0.37154619327299993 0 0.36003838788856929 -0.36231520163855102 0 0.34557702190705242 -0.36279702135916692 0 0.35848486232825738 -0.36933543951306702 0 0.36003838788856929 -0.36231520163855102 0 0.35848486232825738 -0.36933543951306702 0 0.3562758157408264 -0.37931791609134802 0 0.35848486232825738 -0.36933543951306702 0 0.34557702190705242 -0.36279702135916692 0 0.33405247214939432 -0.37154619327299993 0 0.32609852365801612 -0.34990898515927749 0 0.3450841996926135 -0.34579473945649891 0 0.34557702190705242 -0.36279702135916692 0 0.32609852365801612 -0.34990898515927749 0 0.3450841996926135 -0.34579473945649891 0 0.32609852365801612 -0.34990898515927749 0 0.32681514086623648 -0.338996769373131 0 0.32609852365801612 -0.34990898515927749 0 0.31567271332834052 -0.36000346153503038 0 0.30603208778501201 -0.34096273541515448 0 0.33405247214939432 -0.37154619327299993 0 0.32609852365801612 -0.34990898515927749 0 0.31567271332834052 -0.36000346153503038 0 0.33405247214939432 -0.37154619327299993 0 0.31567271332834052 -0.36000346153503038 0 0.30962008197053098 -0.37375694703293161 0 0.33405247214939432 -0.37154619327299993 0 0.30962008197053098 -0.37375694703293161 0 0.33230407364487868 -0.32320427974727739 0 0.34230909370535401 -0.33076377370702331 0 0.33013001149665822 -0.32927427727444608 0 0.33230407364487868 -0.32320427974727739 0 0.33130614120217411 -0.31543562279774151 0 0.34051499861251 -0.32196357242610429 0 0.33230407364487868 -0.32320427974727739 0 0.33130614120217411 -0.31543562279774151 0 0.32298525221457408 -0.3153891631239274 0 0.34031129046277281 -0.31193462603447458 0 0.33130614120217411 -0.31543562279774151 0 0.34051499861251 -0.32196357242610429 0 0.33230407364487868 -0.32320427974727739 0 0.34051499861251 -0.32196357242610429 0 0.34230909370535401 -0.33076377370702331 0 0.3450841996926135 -0.34579473945649891 0 0.34230909370535401 -0.33076377370702331 0 0.33013001149665822 -0.32927427727444608 0 0.3450841996926135 -0.34579473945649891 0 0.33013001149665822 -0.32927427727444608 0 0.32681514086623648 -0.338996769373131 0 0.3450841996926135 -0.34579473945649891 0 0.33013001149665822 -0.32927427727444608 0 0.32609852365801612 -0.34990898515927749 0 0.31768195312032182 -0.33429569486794519 0 0.30603208778501201 -0.34096273541515448 0 0.33013001149665822 -0.32927427727444608 0 0.32681514086623648 -0.338996769373131 0 0.31768195312032182 -0.33429569486794519 0 0.33013001149665822 -0.32927427727444608 0 0.31768195312032182 -0.33429569486794519 0 0.31077356857557242 -0.32278730597241062 0 0.32609852365801612 -0.34990898515927749 0 0.32681514086623648 -0.338996769373131 0 0.31768195312032182 -0.33429569486794519 0 0.33230407364487868 -0.32320427974727739 0 0.32298525221457408 -0.3153891631239274 0 0.31077356857557242 -0.32278730597241062 0 0.33230407364487868 -0.32320427974727739 0 0.31077356857557242 -0.32278730597241062 0 0.33230407364487868 -0.32320427974727739 0 0.33013001149665822 -0.32927427727444608 0 0.31077356857557242 -0.32278730597241062 0 0.32963226266632228 -0.30781457149938929 0 0.33130614120217411 -0.31543562279774151 0 0.32298525221457408 -0.3153891631239274 0 0.31077356857557242 -0.32278730597241062 0 0.29664950932313522 -0.32251377024791528 0 0.30685875184446582 -0.30933647519417262 0 0.31077356857557242 -0.32278730597241062 0 0.29664950932313522 -0.32251377024791528 0 0.31077356857557242 -0.32278730597241062 0 0.30603208778501201 -0.34096273541515448 0 0.31768195312032182 -0.33429569486794519 0 0.31077356857557242 -0.32278730597241062 0 0.30603208778501201 -0.34096273541515448 0 0.30603208778501201 -0.34096273541515448 0 0.29664950932313522 -0.32251377024791528 0 0.29091860055740182 -0.34924073552038948 0 0.31077356857557242 -0.32278730597241062 0 0.30603208778501201 -0.34096273541515448 0 0.29664950932313522 -0.32251377024791528 0 0.29664950932313522 -0.32251377024791528 0 0.29091860055740182 -0.34924073552038948 0 0.28552705545024237 -0.33277511934173809 0 0.29664950932313522 -0.32251377024791528 0 0.29091860055740182 -0.34924073552038948 0 0.28552705545024237 -0.33277511934173809 0 0.29091860055740182 -0.34924073552038948 0 0.28010968734453079 -0.33989586360279689 0 0.29664950932313522 -0.32251377024791528 0 0.27594900546763751 -0.32211287081677842 0 0.29664950932313522 -0.32251377024791528 0 0.27594900546763751 -0.32211287081677842 0 0.28930974499701673 -0.30827345340636692 0 0.28552705545024237 -0.33277511934173809 0 0.29664950932313522 -0.32251377024791528 0 0.27594900546763751 -0.32211287081677842 0 0.27594900546763751 -0.32211287081677842 0 0.28930974499701673 -0.30827345340636692 0 0.28518769179166781 -0.37596770079286368 0 0.30962008197053098 -0.37375694703293161 0 0.30129060699445198 -0.35913816485789862 0 0.28518769179166781 -0.37596770079286368 0 0.30962008197053098 -0.37375694703293161 0 0.31567271332834052 -0.36000346153503038 0 0.30962008197053098 -0.37375694703293161 0 0.30129060699445198 -0.35913816485789862 0 0.30603208778501201 -0.34096273541515448 0 0.30129060699445198 -0.35913816485789862 0 0.31567271332834052 -0.36000346153503038 0 0.30603208778501201 -0.34096273541515448 0 0.30129060699445198 -0.35913816485789862 0 0.30603208778501201 -0.34096273541515448 0 0.30129060699445198 -0.35913816485789862 0 0.29091860055740182 -0.34924073552038948 0 0.29091860055740182 -0.34924073552038948 0 0.27615474213792141 -0.34799501084082551 0 0.28010968734453079 -0.33989586360279689 0 0.28518769179166781 -0.37596770079286368 0 0.29091860055740182 -0.34924073552038948 0 0.28518769179166781 -0.37596770079286368 0 0.29091860055740182 -0.34924073552038948 0 0.27289984542303031 -0.36045347392196608 0 0.28518769179166781 -0.37596770079286368 0 0.30129060699445198 -0.35913816485789862 0 0.29091860055740182 -0.34924073552038948 0 0.28518769179166781 -0.37596770079286368 0 0.26431280243697258 -0.37785655570190829 0 0.27289984542303031 -0.36045347392196608 0 0.29091860055740182 -0.34924073552038948 0 0.27289984542303031 -0.36045347392196608 0 0.27615474213792141 -0.34799501084082551 0 0.27289984542303031 -0.36045347392196608 0 0.27615474213792141 -0.34799501084082551 0 0.26604660316599182 -0.34786916780896432 0 0.27615474213792141 -0.34799501084082551 0 0.26604660316599182 -0.34786916780896432 0 0.27234907410729159 -0.33787357125324768 0 0.27289984542303031 -0.36045347392196608 0 0.26604660316599182 -0.34786916780896432 0 0.25594967533553259 -0.36243180584397888 0 0.26604660316599182 -0.34786916780896432 0 0.2523005366625608 -0.34660859803238642 0 0.25594967533553259 -0.36243180584397888 0 0.26431280243697258 -0.37785655570190829 0 0.27289984542303031 -0.36045347392196608 0 0.25594967533553259 -0.36243180584397888 0 0.26431280243697258 -0.37785655570190829 0 0.25594967533553259 -0.36243180584397888 0 0.24343791308227761 -0.37974541061095352 0 0.27594900546763751 -0.32211287081677842 0 0.26681270227593729 -0.33157650216592111 0 0.25818990822885868 -0.3217689365806799 0 0.27594900546763751 -0.32211287081677842 0 0.25818990822885868 -0.3217689365806799 0 0.26369944557426001 -0.30915703977578329 0 0.27594900546763751 -0.32211287081677842 0 0.25818990822885868 -0.3217689365806799 0 0.27594900546763751 -0.32211287081677842 0 0.26681270227593729 -0.33157650216592111 0 0.28552705545024237 -0.33277511934173809 0 0.27594900546763751 -0.32211287081677842 0 0.27559896446979709 -0.33159488105778379 0 0.28552705545024237 -0.33277511934173809 0 0.27559896446979709 -0.33159488105778379 0 0.28010968734453079 -0.33989586360279689 0 0.26604660316599182 -0.34786916780896432 0 0.27234907410729159 -0.33787357125324768 0 0.26681270227593729 -0.33157650216592111 0 0.27559896446979709 -0.33159488105778379 0 0.28010968734453079 -0.33989586360279689 0 0.27234907410729159 -0.33787357125324768 0 0.27615474213792141 -0.34799501084082551 0 0.28010968734453079 -0.33989586360279689 0 0.27234907410729159 -0.33787357125324768 0 0.27594900546763751 -0.32211287081677842 0 0.27559896446979709 -0.33159488105778379 0 0.26681270227593729 -0.33157650216592111 0 0.27559896446979709 -0.33159488105778379 0 0.27234907410729159 -0.33787357125324768 0 0.26681270227593729 -0.33157650216592111 0 0.27234907410729159 -0.33787357125324768 0 0.26681270227593729 -0.33157650216592111 0 0.26681270227593729 -0.33157650216592111 0 0.25911098952020828 -0.32903742405375042 0 0.25483210627181607 -0.33390609778340719 0 0.26604660316599182 -0.34786916780896432 0 0.2523005366625608 -0.34660859803238642 0 0.26681270227593729 -0.33157650216592111 0 0.2523005366625608 -0.34660859803238642 0 0.26681270227593729 -0.33157650216592111 0 0.2523005366625608 -0.34660859803238642 0 0.26681270227593729 -0.33157650216592111 0 0.25483210627181607 -0.33390609778340719 0 0.2523005366625608 -0.34660859803238642 0 0.25483210627181607 -0.33390609778340719 0 0.24394719177421731 -0.33778803314250422 0 0.25911098952020828 -0.32903742405375042 0 0.25483210627181607 -0.33390609778340719 0 0.25457166962501487 -0.3270859613345572 0 0.25483210627181607 -0.33390609778340719 0 0.25457166962501487 -0.3270859613345572 0 0.24788449176679389 -0.32926237428205057 0 0.25091027278204919 -0.32510184442434648 0 0.25457166962501487 -0.3270859613345572 0 0.24788449176679389 -0.32926237428205057 0 0.25091027278204919 -0.32510184442434648 0 0.25301088374537017 -0.32350384512407032 0 0.25457166962501487 -0.3270859613345572 0 0.25091027278204919 -0.32510184442434648 0 0.25066752397543512 -0.32162325319108698 0 0.25301088374537017 -0.32350384512407032 0 0.25066752397543512 -0.32162325319108698 0 0.25818990822885868 -0.3217689365806799 0 0.25301088374537017 -0.32350384512407032 0 0.25457166962501487 -0.3270859613345572 0 0.25818990822885868 -0.3217689365806799 0 0.25066752397543512 -0.32162325319108698 0 0.25301088374537017 -0.32350384512407032 0 0.25818990822885868 -0.3217689365806799 0 0.25911098952020828 -0.32903742405375042 0 0.25457166962501487 -0.3270859613345572 0 0.25818990822885868 -0.3217689365806799 0 0.26681270227593729 -0.33157650216592111 0 0.25818990822885868 -0.3217689365806799 0 0.26681270227593729 -0.33157650216592111 0 0.25911098952020828 -0.32903742405375042 0 0.25818990822885868 -0.3217689365806799 0 0.25818990822885868 -0.3217689365806799 0 0.26369944557426001 -0.30915703977578329 0 0.24914169140544901 -0.31147749514759709 0 0.25066752397543512 -0.32162325319108698 0 0.25818990822885868 -0.3217689365806799 0 0.24914169140544901 -0.31147749514759709 0 0.25818990822885868 -0.3217689365806799 0 0.24914169140544901 -0.31147749514759709 0 0.26369944557426001 -0.30915703977578329 0 0.25661074055722921 -0.2967385339708567 0 0.24914169140544901 -0.31147749514759709 0 0.25661074055722921 -0.2967385339708567 0 0.24537170200185721 -0.28640960692199158 0 0.24914169140544901 -0.31147749514759709 0 0.26369944557426001 -0.30915703977578329 0 0.25661074055722921 -0.2967385339708567 0 0.26887758693149427 -0.29359631810463599 0 0.25872838647211899 -0.28607205409963188 0 0.25602759884384718 -0.27321073324572531 0 0.24537170200185721 -0.28640960692199158 0 0.25661074055722921 -0.2967385339708567 0 0.25872838647211899 -0.28607205409963188 0 0.24537170200185721 -0.28640960692199158 0 0.25661074055722921 -0.2967385339708567 0 0.25872838647211899 -0.28607205409963188 0 0.26887758693149427 -0.29359631810463599 0 0.25872838647211899 -0.28607205409963188 0 0.26887758693149427 -0.29359631810463599 0 0.26675430402616729 -0.2804050782549502 0 0.26887758693149427 -0.29359631810463599 0 0.27773996244135279 -0.28213102965556752 0 0.28539335139025829 -0.2935893733838062 0 0.26887758693149427 -0.29359631810463599 0 0.27773996244135279 -0.28213102965556752 0 0.26675430402616729 -0.2804050782549502 0 0.27594900546763751 -0.32211287081677842 0 0.26369944557426001 -0.30915703977578329 0 0.27664582687213313 -0.30534581109747388 0 0.27594900546763751 -0.32211287081677842 0 0.27664582687213313 -0.30534581109747388 0 0.28930974499701673 -0.30827345340636692 0 0.26887758693149427 -0.29359631810463599 0 0.27664582687213313 -0.30534581109747388 0 0.28539335139025829 -0.2935893733838062 0 0.26369944557426001 -0.30915703977578329 0 0.26887758693149427 -0.29359631810463599 0 0.27664582687213313 -0.30534581109747388 0 0.28930974499701673 -0.30827345340636692 0 0.28539335139025829 -0.2935893733838062 0 0.30267048452639739 -0.29443403599595702 0 0.29664950932313522 -0.32251377024791528 0 0.28930974499701673 -0.30827345340636692 0 0.30267048452639739 -0.29443403599595702 0 0.28930974499701673 -0.30827345340636692 0 0.30267048452639739 -0.29443403599595702 0 0.27664582687213313 -0.30534581109747388 0 0.28930974499701673 -0.30827345340636692 0 0.28539335139025829 -0.2935893733838062 0 0.28539335139025829 -0.2935893733838062 0 0.29534239876198048 -0.28314779048757288 0 0.30267048452639739 -0.29443403599595702 0 0.27773996244135279 -0.28213102965556752 0 0.28539335139025829 -0.2935893733838062 0 0.28672200403739229 -0.28380156436416709 0 0.28539335139025829 -0.2935893733838062 0 0.28672200403739229 -0.28380156436416709 0 0.29534239876198048 -0.28314779048757288 0 0.31328990292816761 -0.28343415357217938 0 0.30267048452639739 -0.29443403599595702 0 0.30781331524266442 -0.27044966221256772 0 0.29534239876198048 -0.28314779048757288 0 0.30267048452639739 -0.29443403599595702 0 0.30781331524266442 -0.27044966221256772 0 0.30267048452639739 -0.29443403599595702 0 0.30781331524266442 -0.27044966221256772 0 0.31328990292816761 -0.28343415357217938 0 0.30267048452639739 -0.29443403599595702 0 0.31734144495275812 -0.2976107885604079 0 0.31328990292816761 -0.28343415357217938 0 0.30267048452639739 -0.29443403599595702 0 0.29664950932313522 -0.32251377024791528 0 0.30267048452639739 -0.29443403599595702 0 0.29664950932313522 -0.32251377024791528 0 0.30267048452639739 -0.29443403599595702 0 0.30685875184446582 -0.30933647519417262 0 0.31734144495275812 -0.2976107885604079 0 0.31077356857557242 -0.32278730597241062 0 0.30685875184446582 -0.30933647519417262 0 0.31734144495275812 -0.2976107885604079 0 0.30267048452639739 -0.29443403599595702 0 0.30685875184446582 -0.30933647519417262 0 0.29863487195359673 -0.26233345266678559 0 0.30736197549640482 -0.25723576904572543 0 0.30781331524266442 -0.27044966221256772 0 0.29863487195359673 -0.26233345266678559 0 0.29946581785159798 -0.25169865608409547 0 0.30736197549640482 -0.25723576904572543 0 0.30555096608421928 -0.24652165195996231 0 0.29946581785159798 -0.25169865608409547 0 0.30736197549640482 -0.25723576904572543 0 0.30555096608421928 -0.24652165195996231 0 0.31411864482200891 -0.25042558310994151 0 0.30736197549640482 -0.25723576904572543 0 0.31738998976111588 -0.26053822212571559 0 0.30736197549640482 -0.25723576904572543 0 0.30781331524266442 -0.27044966221256772 0 0.29534239876198048 -0.28314779048757288 0 0.30781331524266442 -0.27044966221256772 0 0.29411283861319049 -0.2734643164813671 0 0.29863487195359673 -0.26233345266678559 0 0.30781331524266442 -0.27044966221256772 0 0.29411283861319049 -0.2734643164813671 0 0.29863487195359673 -0.26233345266678559 0 0.29411283861319049 -0.2734643164813671 0 0.2902991398198882 -0.26497053724128927 0 0.29411283861319049 -0.2734643164813671 0 0.28409514670850627 -0.27261426501047881 0 0.2902991398198882 -0.26497053724128927 0 0.28672200403739229 -0.28380156436416709 0 0.29534239876198048 -0.28314779048757288 0 0.29411283861319049 -0.2734643164813671 0 0.27773996244135279 -0.28213102965556752 0 0.28672200403739229 -0.28380156436416709 0 0.28409514670850627 -0.27261426501047881 0 0.28672200403739229 -0.28380156436416709 0 0.29411283861319049 -0.2734643164813671 0 0.28409514670850627 -0.27261426501047881 0 0.28409514670850627 -0.27261426501047881 0 0.2825442857454375 -0.25851241557815169 0 0.2902991398198882 -0.26497053724128927 0 0.2825442857454375 -0.25851241557815169 0 0.2902991398198882 -0.26497053724128927 0 0.29146230227196518 -0.25721119884641658 0 0.29863487195359673 -0.26233345266678559 0 0.2902991398198882 -0.26497053724128927 0 0.29146230227196518 -0.25721119884641658 0 0.28582829497852708 -0.2489698592912391 0 0.29946581785159798 -0.25169865608409547 0 0.29146230227196518 -0.25721119884641658 0 0.29863487195359673 -0.26233345266678559 0 0.29946581785159798 -0.25169865608409547 0 0.29146230227196518 -0.25721119884641658 0 0.28582829497852708 -0.2489698592912391 0 0.2825442857454375 -0.25851241557815169 0 0.29146230227196518 -0.25721119884641658 0 0.28582829497852708 -0.2489698592912391 0 0.2825442857454375 -0.25851241557815169 0 0.27304168428005932 -0.25511452468494911 0 0.2825442857454375 -0.25851241557815169 0 0.27304168428005932 -0.25511452468494911 0 0.2745973815542983 -0.26877957881536679 0 0.27304168428005932 -0.25511452468494911 0 0.26308247990981082 -0.25481592375074402 0 0.26431926958566021 -0.26421374065543862 0 0.27304168428005932 -0.25511452468494911 0 0.2745973815542983 -0.26877957881536679 0 0.26431926958566021 -0.26421374065543862 0 0.26515546647560329 -0.2452269789710273 0 0.27304168428005932 -0.25511452468494911 0 0.26308247990981082 -0.25481592375074402 0 0.2745973815542983 -0.26877957881536679 0 0.26675430402616729 -0.2804050782549502 0 0.26431926958566021 -0.26421374065543862 0 0.27773996244135279 -0.28213102965556752 0 0.28409514670850627 -0.27261426501047881 0 0.2745973815542983 -0.26877957881536679 0 0.28409514670850627 -0.27261426501047881 0 0.2825442857454375 -0.25851241557815169 0 0.2745973815542983 -0.26877957881536679 0 0.27773996244135279 -0.28213102965556752 0 0.2745973815542983 -0.26877957881536679 0 0.26675430402616729 -0.2804050782549502 0 0.26675430402616729 -0.2804050782549502 0 0.25602759884384718 -0.27321073324572531 0 0.26431926958566021 -0.26421374065543862 0 0.25602759884384718 -0.27321073324572531 0 0.2492314445604599 -0.26746644266421699 0 0.24537170200185721 -0.28640960692199158 0 0.25872838647211899 -0.28607205409963188 0 0.26675430402616729 -0.2804050782549502 0 0.25602759884384718 -0.27321073324572531 0 0.25602759884384718 -0.27321073324572531 0 0.26431926958566021 -0.26421374065543862 0 0.25594058061893199 -0.26077324329184981 0 0.25602759884384718 -0.27321073324572531 0 0.25594058061893199 -0.26077324329184981 0 0.2492314445604599 -0.26746644266421699 0 0.26308247990981082 -0.25481592375074402 0 0.25594058061893199 -0.26077324329184981 0 0.25592431973638508 -0.25133284336755879 0 0.26515546647560329 -0.2452269789710273 0 0.26308247990981082 -0.25481592375074402 0 0.25592431973638508 -0.25133284336755879 0 0.26308247990981082 -0.25481592375074402 0 0.26431926958566021 -0.26421374065543862 0 0.25594058061893199 -0.26077324329184981 0 0.25594058061893199 -0.26077324329184981 0 0.2499231222373636 -0.25753241138022009 0 0.2492314445604599 -0.26746644266421699 0 0.25592431973638508 -0.25133284336755879 0 0.2499231222373636 -0.25753241138022009 0 0.2470672804731909 -0.24755278856537619 0 0.25594058061893199 -0.26077324329184981 0 0.25592431973638508 -0.25133284336755879 0 0.2499231222373636 -0.25753241138022009 0 0.24160171259826549 -0.26134171869638601 0 0.2400583360995556 -0.25107930535304163 0 0.2470672804731909 -0.24755278856537619 0 0.2400583360995556 -0.25107930535304163 0 0.23468598679651889 -0.26564507716480962 0 0.23007816636152631 -0.2498591943768852 0 0.2499231222373636 -0.25753241138022009 0 0.24160171259826549 -0.26134171869638601 0 0.2470672804731909 -0.24755278856537619 0 0.2499231222373636 -0.25753241138022009 0 0.24160171259826549 -0.26134171869638601 0 0.2492314445604599 -0.26746644266421699 0 0.24160171259826549 -0.26134171869638601 0 0.2400583360995556 -0.25107930535304163 0 0.23468598679651889 -0.26564507716480962 0 0.2400583360995556 -0.25107930535304163 0 0.23468598679651889 -0.26564507716480962 0 0.24160171259826549 -0.26134171869638601 0 0.2400583360995556 -0.25107930535304163 0 0.24160171259826549 -0.26134171869638601 0 0.24537170200185721 -0.28640960692199158 0 0.24160171259826549 -0.26134171869638601 0 0.2492314445604599 -0.26746644266421699 0 0.24537170200185721 -0.28640960692199158 0 0.24160171259826549 -0.26134171869638601 0 0.23860729694465971 -0.27503922231888023 0 0.24537170200185721 -0.28640960692199158 0 0.23468598679651889 -0.26564507716480962 0 0.23860729694465971 -0.27503922231888023 0 0.23460585750441301 -0.27828656804475299 0 0.24160171259826549 -0.26134171869638601 0 0.23468598679651889 -0.26564507716480962 0 0.23860729694465971 -0.27503922231888023 0 0.23860729694465971 -0.27503922231888023 0 0.23460585750441301 -0.27828656804475299 0 0.23745090314562259 -0.28235823808966798 0 0.23460585750441301 -0.27828656804475299 0 0.2318039817377098 -0.28261164192218741 0 0.23745090314562259 -0.28235823808966798 0 0.23468598679651889 -0.26564507716480962 0 0.23460585750441301 -0.27828656804475299 0 0.22979667712992069 -0.28013820407348461 0 0.23460585750441301 -0.27828656804475299 0 0.22979667712992069 -0.28013820407348461 0 0.2318039817377098 -0.28261164192218741 0 0.23468598679651889 -0.26564507716480962 0 0.22979667712992069 -0.28013820407348461 0 0.22179951233593509 -0.27028394976300157 0 0.23468598679651889 -0.26564507716480962 0 0.22979667712992069 -0.28013820407348461 0 0.22179951233593509 -0.27028394976300157 0 0.21956429720342319 -0.27579858078584568 0 0.22979667712992069 -0.28013820407348461 0 0.22179951233593509 -0.27028394976300157 0 0.21956429720342319 -0.27579858078584568 0 0.22979667712992069 -0.28013820407348461 0 0.21956429720342319 -0.27579858078584568 0 0.2208889289415136 -0.2793428043134733 0 0.22979667712992069 -0.28013820407348461 0 0.22179951233593509 -0.27028394976300157 0 0.22179951233593509 -0.27028394976300157 0 0.23007816636152631 -0.2498591943768852 0 0.2044906400999788 -0.2489556373879889 0 0.23468598679651889 -0.26564507716480962 0 0.22179951233593509 -0.27028394976300157 0 0.23007816636152631 -0.2498591943768852 0 0.22179951233593509 -0.27028394976300157 0 0.23007816636152631 -0.2498591943768852 0 0.22179951233593509 -0.27028394976300157 0 0.2044906400999788 -0.2489556373879889 0 0.22179951233593509 -0.27028394976300157 0 0.20906883947940119 -0.27109167778056381 0 0.2044906400999788 -0.2489556373879889 0 0.22179951233593509 -0.27028394976300157 0 0.21956429720342319 -0.27579858078584568 0 0.20906883947940119 -0.27109167778056381 0 0.21956429720342319 -0.27579858078584568 0 0.21415934257522801 -0.279838297569934 0 0.20906883947940119 -0.27109167778056381 0 0.21956429720342319 -0.27579858078584568 0 0.2208889289415136 -0.2793428043134733 0 0.21415934257522801 -0.279838297569934 0 0.21415934257522801 -0.279838297569934 0 0.2045227052445662 -0.28124950424997391 0 0.20906883947940119 -0.27109167778056381 0 0.2045227052445662 -0.28124950424997391 0 0.1898765394172798 -0.27042409692663971 0 0.19155747453396541 -0.2871073875707929 0 0.2045227052445662 -0.28124950424997391 0 0.20906883947940119 -0.27109167778056381 0 0.1898765394172798 -0.27042409692663971 0 0.1898765394172798 -0.27042409692663971 0 0.2044906400999788 -0.2489556373879889 0 0.1898765394172798 -0.27042409692663971 0 0.18942126622895031 -0.25174801191084523 0 0.2044906400999788 -0.2489556373879889 0 0.20906883947940119 -0.27109167778056381 0 0.1898765394172798 -0.27042409692663971 0 0.2044906400999788 -0.2489556373879889 0 0.19617287124919611 -0.30530837602351513 0 0.20114158067748031 -0.31701576810061788 0 0.18508776036532859 -0.31386523558503282 0 0.19617287124919611 -0.30530837602351513 0 0.2010964659458479 -0.29326630299492479 0 0.20650932592977411 -0.30369009621986648 0 0.19617287124919611 -0.30530837602351513 0 0.20650932592977411 -0.30369009621986648 0 0.20114158067748031 -0.31701576810061788 0 0.19617287124919611 -0.30530837602351513 0 0.18508776036532859 -0.31386523558503282 0 0.18702922332754951 -0.29870447721713372 0 0.19617287124919611 -0.30530837602351513 0 0.2010964659458479 -0.29326630299492479 0 0.18702922332754951 -0.29870447721713372 0 0.19155747453396541 -0.2871073875707929 0 0.2010964659458479 -0.29326630299492479 0 0.18702922332754951 -0.29870447721713372 0 0.2045227052445662 -0.28124950424997391 0 0.19155747453396541 -0.2871073875707929 0 0.2010964659458479 -0.29326630299492479 0 0.2010964659458479 -0.29326630299492479 0 0.21509740432094421 -0.29048026223681489 0 0.20650932592977411 -0.30369009621986648 0 0.2045227052445662 -0.28124950424997391 0 0.2010964659458479 -0.29326630299492479 0 0.21509740432094421 -0.29048026223681489 0 0.2208889289415136 -0.2793428043134733 0 0.21415934257522801 -0.279838297569934 0 0.21509740432094421 -0.29048026223681489 0 0.21415934257522801 -0.279838297569934 0 0.2045227052445662 -0.28124950424997391 0 0.21509740432094421 -0.29048026223681489 0 0.21509740432094421 -0.29048026223681489 0 0.20650932592977411 -0.30369009621986648 0 0.21850030485099001 -0.31362345418244569 0 0.20650932592977411 -0.30369009621986648 0 0.21850030485099001 -0.31362345418244569 0 0.20114158067748031 -0.31701576810061788 0 0.2275204524238825 -0.28688549884244702 0 0.2383310719146654 -0.29918149699502228 0 0.21850030485099001 -0.31362345418244569 0 0.21509740432094421 -0.29048026223681489 0 0.2275204524238825 -0.28688549884244702 0 0.21850030485099001 -0.31362345418244569 0 0.2383310719146654 -0.29918149699502228 0 0.23431163076662359 -0.31357025825580331 0 0.21850030485099001 -0.31362345418244569 0 0.2275204524238825 -0.28688549884244702 0 0.21850030485099001 -0.31362345418244569 0 0.2208889289415136 -0.2793428043134733 0 0.21509740432094421 -0.29048026223681489 0 0.2275204524238825 -0.28688549884244702 0 0.22979667712992069 -0.28013820407348461 0 0.2208889289415136 -0.2793428043134733 0 0.2275204524238825 -0.28688549884244702 0 0.2208889289415136 -0.2793428043134733 0 0.2275204524238825 -0.28688549884244702 0 0.2275204524238825 -0.28688549884244702 0 0.23686567753947321 -0.28944415124052741 0 0.2383310719146654 -0.29918149699502228 0 0.2275204524238825 -0.28688549884244702 0 0.2383310719146654 -0.29918149699502228 0 0.2275204524238825 -0.28688549884244702 0 0.2318039817377098 -0.28261164192218741 0 0.23686567753947321 -0.28944415124052741 0 0.22979667712992069 -0.28013820407348461 0 0.2318039817377098 -0.28261164192218741 0 0.22979667712992069 -0.28013820407348461 0 0.2275204524238825 -0.28688549884244702 0 0.22979667712992069 -0.28013820407348461 0 0.2275204524238825 -0.28688549884244702 0 0.2318039817377098 -0.28261164192218741 0 0.23745090314562259 -0.28235823808966798 0 0.23686567753947321 -0.28944415124052741 0 0.24537170200185721 -0.28640960692199158 0 0.23860729694465971 -0.27503922231888023 0 0.23745090314562259 -0.28235823808966798 0 0.24537170200185721 -0.28640960692199158 0 0.2318039817377098 -0.28261164192218741 0 0.23745090314562259 -0.28235823808966798 0 0.23686567753947321 -0.28944415124052741 0 0.23686567753947321 -0.28944415124052741 0 0.24537170200185721 -0.28640960692199158 0 0.2383310719146654 -0.29918149699502228 0 0.24537170200185721 -0.28640960692199158 0 0.2383310719146654 -0.29918149699502228 0 0.24914169140544901 -0.31147749514759709 0 0.2383310719146654 -0.29918149699502228 0 0.24914169140544901 -0.31147749514759709 0 0.24200874602767211 -0.31526179311591063 0 0.24537170200185721 -0.28640960692199158 0 0.24914169140544901 -0.31147749514759709 0 0.2383310719146654 -0.29918149699502228 0 0.24200874602767211 -0.31526179311591063 0 0.23431163076662359 -0.31357025825580331 0 0.2383310719146654 -0.29918149699502228 0 0.24914169140544901 -0.31147749514759709 0 0.24200874602767211 -0.31526179311591063 0 0.23781305935583011 -0.32388904613758829 0 0.24835222533505791 -0.32157841361064432 0 0.24914169140544901 -0.31147749514759709 0 0.24200874602767211 -0.31526179311591063 0 0.24835222533505791 -0.32157841361064432 0 0.25066752397543512 -0.32162325319108698 0 0.24914169140544901 -0.31147749514759709 0 0.24835222533505791 -0.32157841361064432 0 0.25066752397543512 -0.32162325319108698 0 0.24914169140544901 -0.31147749514759709 0 0.24200874602767211 -0.31526179311591063 0 0.23781305935583011 -0.32388904613758829 0 0.23431163076662359 -0.31357025825580331 0 0.23781305935583011 -0.32388904613758829 0 0.24835222533505791 -0.32157841361064432 0 0.24788449176679389 -0.32926237428205057 0 0.25091027278204919 -0.32510184442434648 0 0.25066752397543512 -0.32162325319108698 0 0.24835222533505791 -0.32157841361064432 0 0.25066752397543512 -0.32162325319108698 0 0.24835222533505791 -0.32157841361064432 0 0.25091027278204919 -0.32510184442434648 0 0.24835222533505791 -0.32157841361064432 0 0.24788449176679389 -0.32926237428205057 0 0.2523005366625608 -0.34660859803238642 0 0.24394719177421731 -0.33778803314250422 0 0.23283386801287201 -0.34628003037528488 0 0.25483210627181607 -0.33390609778340719 0 0.24788449176679389 -0.32926237428205057 0 0.24394719177421731 -0.33778803314250422 0 0.24788449176679389 -0.32926237428205057 0 0.24394719177421731 -0.33778803314250422 0 0.23188495615704369 -0.33288306523939182 0 0.23781305935583011 -0.32388904613758829 0 0.24788449176679389 -0.32926237428205057 0 0.23188495615704369 -0.33288306523939182 0 0.24394719177421731 -0.33778803314250422 0 0.23188495615704369 -0.33288306523939182 0 0.23283386801287201 -0.34628003037528488 0 0.23188495615704369 -0.33288306523939182 0 0.23283386801287201 -0.34628003037528488 0 0.20948015727809699 -0.34036140952244431 0 0.23188495615704369 -0.33288306523939182 0 0.21850030485099001 -0.31362345418244569 0 0.20948015727809699 -0.34036140952244431 0 0.23781305935583011 -0.32388904613758829 0 0.23431163076662359 -0.31357025825580331 0 0.21850030485099001 -0.31362345418244569 0 0.23781305935583011 -0.32388904613758829 0 0.23188495615704369 -0.33288306523939182 0 0.21850030485099001 -0.31362345418244569 0 0.2377883710491844 -0.36164069389885178 0 0.24343791308227761 -0.37974541061095352 0 0.22327620543580801 -0.37667278976531732 0 0.25594967533553259 -0.36243180584397888 0 0.2377883710491844 -0.36164069389885178 0 0.24343791308227761 -0.37974541061095352 0 0.2523005366625608 -0.34660859803238642 0 0.25594967533553259 -0.36243180584397888 0 0.2377883710491844 -0.36164069389885178 0 0.2523005366625608 -0.34660859803238642 0 0.2377883710491844 -0.36164069389885178 0 0.23283386801287201 -0.34628003037528488 0 0.2523005366625608 -0.34660859803238642 0 0.2377883710491844 -0.36164069389885178 0 0.2377883710491844 -0.36164069389885178 0 0.21901986018427089 -0.35741315149003933 0 0.23283386801287201 -0.34628003037528488 0 0.21901986018427089 -0.35741315149003933 0 0.23283386801287201 -0.34628003037528488 0 0.20948015727809699 -0.34036140952244431 0 0.2377883710491844 -0.36164069389885178 0 0.21713100209186079 -0.36810224113613887 0 0.22327620543580801 -0.37667278976531732 0 0.2377883710491844 -0.36164069389885178 0 0.21901986018427089 -0.35741315149003933 0 0.21713100209186079 -0.36810224113613887 0 0.21713100209186079 -0.36810224113613887 0 0.22327620543580801 -0.37667278976531732 0 0.21755193554906671 -0.37784483151810389 0 0.2377883710491844 -0.36164069389885178 0 0.22327620543580801 -0.37667278976531732 0 0.21901986018427089 -0.35741315149003933 0 0.21713100209186079 -0.36810224113613887 0 0.200460009705204 -0.36709936486244282 0 0.21713100209186079 -0.36810224113613887 0 0.200460009705204 -0.36709936486244282 0 0.21014202066216089 -0.37599983358693551 0 0.21713100209186079 -0.36810224113613887 0 0.21755193554906671 -0.37784483151810389 0 0.21014202066216089 -0.37599983358693551 0 0.200460009705204 -0.36709936486244282 0 0.20948015727809699 -0.34036140952244431 0 0.21901986018427089 -0.35741315149003933 0 0.200460009705204 -0.36709936486244282 0 0.20948015727809699 -0.34036140952244431 0 0.200460009705204 -0.36709936486244282 0 0.20948015727809699 -0.34036140952244431 0 0.1893574214595535 -0.34275763723289859 0 0.200460009705204 -0.36709936486244282 0 0.1893574214595535 -0.34275763723289859 0 0.18107910943766589 -0.3574802897419137 0 0.21850030485099001 -0.31362345418244569 0 0.20948015727809699 -0.34036140952244431 0 0.21850030485099001 -0.31362345418244569 0 0.20948015727809699 -0.34036140952244431 0 0.20114158067748031 -0.31701576810061788 0 0.20948015727809699 -0.34036140952244431 0 0.1893574214595535 -0.34275763723289859 0 0.18883785125818431 -0.326699022166824 0 0.20948015727809699 -0.34036140952244431 0 0.18883785125818431 -0.326699022166824 0 0.20114158067748031 -0.31701576810061788 0 0.18883785125818431 -0.326699022166824 0 0.20114158067748031 -0.31701576810061788 0 0.18508776036532859 -0.31386523558503282 0 0.18508776036532859 -0.31386523558503282 0 0.1754657549535649 -0.32943053473367129 0 0.17041045388045201 -0.31702250276098343 0 0.18883785125818431 -0.326699022166824 0 0.18508776036532859 -0.31386523558503282 0 0.1754657549535649 -0.32943053473367129 0 0.1893574214595535 -0.34275763723289859 0 0.18883785125818431 -0.326699022166824 0 0.1754657549535649 -0.32943053473367129 0 0.1893574214595535 -0.34275763723289859 0 0.1754657549535649 -0.32943053473367129 0 0.1724076427335775 -0.34505028623651107 0 0.1754657549535649 -0.32943053473367129 0 0.1618586705774572 -0.33648737489222308 0 0.16065643273196001 -0.32402312801564831 0 0.1754657549535649 -0.32943053473367129 0 0.1618586705774572 -0.33648737489222308 0 0.1724076427335775 -0.34505028623651107 0 0.1618586705774572 -0.33648737489222308 0 0.1724076427335775 -0.34505028623651107 0 0.15849451804721079 -0.34837533778977531 0 0.1618586705774572 -0.33648737489222308 0 0.15849451804721079 -0.34837533778977531 0 0.15296003281486439 -0.34031764491601629 0 0.1618586705774572 -0.33648737489222308 0 0.16065643273196001 -0.32402312801564831 0 0.15078554366458011 -0.3308055313879163 0 0.16065643273196001 -0.32402312801564831 0 0.15694769592684929 -0.31263538382309219 0 0.17041045388045201 -0.31702250276098343 0 0.16065643273196001 -0.32402312801564831 0 0.15694769592684929 -0.31263538382309219 0 0.15118340847127901 -0.32081048388767791 0 0.1754657549535649 -0.32943053473367129 0 0.16065643273196001 -0.32402312801564831 0 0.17041045388045201 -0.31702250276098343 0 0.200460009705204 -0.36709936486244282 0 0.18107910943766589 -0.3574802897419137 0 0.17649145879250919 -0.37516482209655888 0 0.18107910943766589 -0.3574802897419137 0 0.16651233710024829 -0.35940348242825149 0 0.17649145879250919 -0.37516482209655888 0 0.1893574214595535 -0.34275763723289859 0 0.18107910943766589 -0.3574802897419137 0 0.1724076427335775 -0.34505028623651107 0 0.18107910943766589 -0.3574802897419137 0 0.1724076427335775 -0.34505028623651107 0 0.16651233710024829 -0.35940348242825149 0 0.1724076427335775 -0.34505028623651107 0 0.15849451804721079 -0.34837533778977531 0 0.16651233710024829 -0.35940348242825149 0 0.15849451804721079 -0.34837533778977531 0 0.16651233710024829 -0.35940348242825149 0 0.15485696059081289 -0.35880700882543809 0 0.16651233710024829 -0.35940348242825149 0 0.15574433299971391 -0.3715431498793122 0 0.17649145879250919 -0.37516482209655888 0 0.16651233710024829 -0.35940348242825149 0 0.15574433299971391 -0.3715431498793122 0 0.15485696059081289 -0.35880700882543809 0 0.142970387057962 -0.37073077677924599 0 0.15574433299971391 -0.3715431498793122 0 0.14623494351149161 -0.3623845774753105 0 0.142970387057962 -0.37073077677924599 0 0.15574433299971391 -0.3715431498793122 0 0.1468848380653881 -0.37813669679675121 0 0.15574433299971391 -0.3715431498793122 0 0.14623494351149161 -0.3623845774753105 0 0.15485696059081289 -0.35880700882543809 0 0.142970387057962 -0.37073077677924599 0 0.14623494351149161 -0.3623845774753105 0 0.13403179393249709 -0.36593976985768351 0 0.14623494351149161 -0.3623845774753105 0 0.14955031075566769 -0.35081904105231188 0 0.14029144286777631 -0.35312916778527531 0 0.14623494351149161 -0.3623845774753105 0 0.15485696059081289 -0.35880700882543809 0 0.14955031075566769 -0.35081904105231188 0 0.15849451804721079 -0.34837533778977531 0 0.15485696059081289 -0.35880700882543809 0 0.14955031075566769 -0.35081904105231188 0 0.15849451804721079 -0.34837533778977531 0 0.14955031075566769 -0.35081904105231188 0 0.15296003281486439 -0.34031764491601629 0 0.14955031075566769 -0.35081904105231188 0 0.15296003281486439 -0.34031764491601629 0 0.14446396670184999 -0.34190050952205631 0 0.14955031075566769 -0.35081904105231188 0 0.14029144286777631 -0.35312916778527531 0 0.14446396670184999 -0.34190050952205631 0 0.14029144286777631 -0.35312916778527531 0 0.14446396670184999 -0.34190050952205631 0 0.13382628661278209 -0.34309103135111718 0 0.13049570055047649 -0.35285864689292928 0 0.14029144286777631 -0.35312916778527531 0 0.13382628661278209 -0.34309103135111718 0 0.13049570055047649 -0.35285864689292928 0 0.13382628661278209 -0.34309103135111718 0 0.1213129697435847 -0.3465973439883393 0 0.13049570055047649 -0.35285864689292928 0 0.13403179393249709 -0.36593976985768351 0 0.1219235494000302 -0.35822020220788092 0 0.13049570055047649 -0.35285864689292928 0 0.14029144286777631 -0.35312916778527531 0 0.13403179393249709 -0.36593976985768351 0 0.14623494351149161 -0.3623845774753105 0 0.14029144286777631 -0.35312916778527531 0 0.13403179393249709 -0.36593976985768351 0 0.13403179393249709 -0.36593976985768351 0 0.1227092171370263 -0.36881370275337799 0 0.1219235494000302 -0.35822020220788092 0 0.13403179393249709 -0.36593976985768351 0 0.12792751609649039 -0.37726865906405288 0 0.1227092171370263 -0.36881370275337799 0 0.13403179393249709 -0.36593976985768351 0 0.13866154179008311 -0.37814764070703188 0 0.12792751609649039 -0.37726865906405288 0 0.142970387057962 -0.37073077677924599 0 0.13403179393249709 -0.36593976985768351 0 0.13866154179008311 -0.37814764070703188 0 0.14345680397471791 -0.32697098966312099 0 0.15118340847127901 -0.32081048388767791 0 0.13324222997277371 -0.32303645629870897 0 0.15694769592684929 -0.31263538382309219 0 0.15118340847127901 -0.32081048388767791 0 0.13324222997277371 -0.32303645629870897 0 0.15694769592684929 -0.31263538382309219 0 0.13324222997277371 -0.32303645629870897 0 0.1482063519549143 -0.31124889160348879 0 0.15694769592684929 -0.31263538382309219 0 0.13324222997277371 -0.32303645629870897 0 0.16065643273196001 -0.32402312801564831 0 0.15118340847127901 -0.32081048388767791 0 0.15078554366458011 -0.3308055313879163 0 0.14345680397471791 -0.32697098966312099 0 0.15118340847127901 -0.32081048388767791 0 0.15078554366458011 -0.3308055313879163 0 0.1618586705774572 -0.33648737489222308 0 0.15078554366458011 -0.3308055313879163 0 0.15296003281486439 -0.34031764491601629 0 0.15078554366458011 -0.3308055313879163 0 0.15296003281486439 -0.34031764491601629 0 0.14446396670184999 -0.34190050952205631 0 0.15078554366458011 -0.3308055313879163 0 0.14446396670184999 -0.34190050952205631 0 0.13861603379023871 -0.33323148707818079 0 0.14345680397471791 -0.32697098966312099 0 0.15078554366458011 -0.3308055313879163 0 0.13861603379023871 -0.33323148707818079 0 0.14446396670184999 -0.34190050952205631 0 0.13861603379023871 -0.33323148707818079 0 0.13382628661278209 -0.34309103135111718 0 0.13861603379023871 -0.33323148707818079 0 0.13382628661278209 -0.34309103135111718 0 0.1250735408798111 -0.33663343214137548 0 0.13382628661278209 -0.34309103135111718 0 0.1250735408798111 -0.33663343214137548 0 0.1213129697435847 -0.3465973439883393 0 0.13861603379023871 -0.33323148707818079 0 0.1250735408798111 -0.33663343214137548 0 0.13324222997277371 -0.32303645629870897 0 0.1482063519549143 -0.31124889160348879 0 0.1203941193033673 -0.31837813267550791 0 0.13266161500930471 -0.30904900062903901 0 0.1482063519549143 -0.31124889160348879 0 0.1203941193033673 -0.31837813267550791 0 0.13324222997277371 -0.32303645629870897 0 0.1482063519549143 -0.31124889160348879 0 0.1203941193033673 -0.31837813267550791 0 0.14345680397471791 -0.32697098966312099 0 0.13861603379023871 -0.33323148707818079 0 0.13324222997277371 -0.32303645629870897 0 0.13266161500930471 -0.30904900062903901 0 0.13053758301298499 -0.29636142867308402 0 0.11738380981796501 -0.30396624782269999 0 0.13898392062286871 -0.3036242665647278 0 0.14453013251427091 -0.29783774535329938 0 0.13053758301298499 -0.29636142867308402 0 0.13266161500930471 -0.30904900062903901 0 0.13898392062286871 -0.3036242665647278 0 0.13053758301298499 -0.29636142867308402 0 0.13266161500930471 -0.30904900062903901 0 0.13898392062286871 -0.3036242665647278 0 0.1482063519549143 -0.31124889160348879 0 0.13898392062286871 -0.3036242665647278 0 0.1482063519549143 -0.31124889160348879 0 0.14453013251427091 -0.29783774535329938 0 0.1482063519549143 -0.31124889160348879 0 0.14453013251427091 -0.29783774535329938 0 0.1578165070288286 -0.3002213084291474 0 0.1550687694269014 -0.29225358047459499 0 0.14780926171730169 -0.2859924401688787 0 0.15463429794700859 -0.27926033718565069 0 0.14453013251427091 -0.29783774535329938 0 0.1550687694269014 -0.29225358047459499 0 0.14780926171730169 -0.2859924401688787 0 0.14453013251427091 -0.29783774535329938 0 0.1550687694269014 -0.29225358047459499 0 0.1578165070288286 -0.3002213084291474 0 0.14453013251427091 -0.29783774535329938 0 0.14780926171730169 -0.2859924401688787 0 0.13869990852836839 -0.28674960101304819 0 0.14780926171730169 -0.2859924401688787 0 0.13869990852836839 -0.28674960101304819 0 0.14341953345254571 -0.27575479507514561 0 0.13869990852836839 -0.28674960101304819 0 0.13053758301298499 -0.29636142867308402 0 0.1272030319447387 -0.2778015957948336 0 0.13053758301298499 -0.29636142867308402 0 0.1272030319447387 -0.2778015957948336 0 0.1178463957341977 -0.29158266691672158 0 0.14453013251427091 -0.29783774535329938 0 0.13869990852836839 -0.28674960101304819 0 0.13053758301298499 -0.29636142867308402 0 0.1272030319447387 -0.2778015957948336 0 0.13222908187911531 -0.26016936100608751 0 0.1186124347047576 -0.26252979206140231 0 0.13869990852836839 -0.28674960101304819 0 0.1272030319447387 -0.2778015957948336 0 0.14341953345254571 -0.27575479507514561 0 0.1272030319447387 -0.2778015957948336 0 0.13222908187911531 -0.26016936100608751 0 0.14341953345254571 -0.27575479507514561 0 0.13222908187911531 -0.26016936100608751 0 0.14490446143813629 -0.25781358711477897 0 0.14341953345254571 -0.27575479507514561 0 0.13222908187911531 -0.26016936100608751 0 0.14490446143813629 -0.25781358711477897 0 0.1367400040882287 -0.24715954976977059 0 0.1525537561698822 -0.25448064090901751 0 0.1553674255951796 -0.26576712547219478 0 0.1585708701279219 -0.25628304930262708 0 0.14490446143813629 -0.25781358711477897 0 0.1525537561698822 -0.25448064090901751 0 0.1553674255951796 -0.26576712547219478 0 0.14490446143813629 -0.25781358711477897 0 0.1525537561698822 -0.25448064090901751 0 0.14797052066319569 -0.24376053413549151 0 0.1525537561698822 -0.25448064090901751 0 0.1585708701279219 -0.25628304930262708 0 0.15595550302497749 -0.24877890851999501 0 0.14490446143813629 -0.25781358711477897 0 0.14341953345254571 -0.27575479507514561 0 0.1553674255951796 -0.26576712547219478 0 0.14341953345254571 -0.27575479507514561 0 0.1553674255951796 -0.26576712547219478 0 0.14341953345254571 -0.27575479507514561 0 0.1553674255951796 -0.26576712547219478 0 0.15463429794700859 -0.27926033718565069 0 0.14780926171730169 -0.2859924401688787 0 0.14341953345254571 -0.27575479507514561 0 0.15463429794700859 -0.27926033718565069 0 0.15463429794700859 -0.27926033718565069 0 0.1618228382767837 -0.27126371299090107 0 0.16569131417275901 -0.27696749591518088 0 0.15463429794700859 -0.27926033718565069 0 0.16569131417275901 -0.27696749591518088 0 0.1645588567237363 -0.28686257374339391 0 0.1553674255951796 -0.26576712547219478 0 0.1618228382767837 -0.27126371299090107 0 0.16450717695979211 -0.26377648983009139 0 0.1553674255951796 -0.26576712547219478 0 0.15463429794700859 -0.27926033718565069 0 0.1618228382767837 -0.27126371299090107 0 0.16745711463444299 -0.26848128348446593 0 0.16569131417275901 -0.27696749591518088 0 0.17400290561053541 -0.2712995548049365 0 0.1618228382767837 -0.27126371299090107 0 0.16745711463444299 -0.26848128348446593 0 0.16569131417275901 -0.27696749591518088 0 0.1618228382767837 -0.27126371299090107 0 0.16745711463444299 -0.26848128348446593 0 0.16450717695979211 -0.26377648983009139 0 0.16745711463444299 -0.26848128348446593 0 0.17188548132950679 -0.26410290569240852 0 0.17400290561053541 -0.2712995548049365 0 0.16569131417275901 -0.27696749591518088 0 0.17387841093177889 -0.27948925557108872 0 0.17400290561053541 -0.2712995548049365 0 0.16569131417275901 -0.27696749591518088 0 0.17387841093177889 -0.27948925557108872 0 0.1645588567237363 -0.28686257374339391 0 0.1585708701279219 -0.25628304930262708 0 0.16731531773781361 -0.25577945586924422 0 0.16015383963439911 -0.2494441683434068 0 0.1585708701279219 -0.25628304930262708 0 0.16015383963439911 -0.2494441683434068 0 0.15595550302497749 -0.24877890851999501 0 0.1553674255951796 -0.26576712547219478 0 0.16450717695979211 -0.26377648983009139 0 0.16731531773781361 -0.25577945586924422 0 0.1553674255951796 -0.26576712547219478 0 0.1585708701279219 -0.25628304930262708 0 0.16731531773781361 -0.25577945586924422 0 0.1553674255951796 -0.26576712547219478 0 0.16731531773781361 -0.25577945586924422 0 0.16782924403802271 -0.26283653157780112 0 0.16450717695979211 -0.26377648983009139 0 0.16731531773781361 -0.25577945586924422 0 0.16745711463444299 -0.26848128348446593 0 0.16782924403802271 -0.26283653157780112 0 0.16450717695979211 -0.26377648983009139 0 0.16782924403802271 -0.26283653157780112 0 0.16972621415805461 -0.26021456675987048 0 0.17188548132950679 -0.26410290569240852 0 0.16745711463444299 -0.26848128348446593 0 0.16782924403802271 -0.26283653157780112 0 0.17188548132950679 -0.26410290569240852 0 0.16972621415805461 -0.26021456675987048 0 0.17262362557563041 -0.25695242774257909 0 0.17188548132950679 -0.26410290569240852 0 0.16782924403802271 -0.26283653157780112 0 0.16972621415805461 -0.26021456675987048 0 0.16731531773781361 -0.25577945586924422 0 0.16972621415805461 -0.26021456675987048 0 0.16731531773781361 -0.25577945586924422 0 0.17262362557563041 -0.25695242774257909 0 0.1898765394172798 -0.27042409692663971 0 0.18942126622895031 -0.25174801191084523 0 0.1799353918365644 -0.25971169096446162 0 0.16731531773781361 -0.25577945586924422 0 0.17262362557563041 -0.25695242774257909 0 0.18003969250958149 -0.24514269671479411 0 0.16731531773781361 -0.25577945586924422 0 0.18003969250958149 -0.24514269671479411 0 0.17262362557563041 -0.25695242774257909 0 0.1799353918365644 -0.25971169096446162 0 0.18003969250958149 -0.24514269671479411 0 0.17188548132950679 -0.26410290569240852 0 0.1799353918365644 -0.25971169096446162 0 0.17400290561053541 -0.2712995548049365 0 0.17262362557563041 -0.25695242774257909 0 0.17188548132950679 -0.26410290569240852 0 0.1799353918365644 -0.25971169096446162 0 0.18942126622895031 -0.25174801191084523 0 0.1799353918365644 -0.25971169096446162 0 0.18003969250958149 -0.24514269671479411 0 0.1898765394172798 -0.27042409692663971 0 0.1799353918365644 -0.25971169096446162 0 0.17400290561053541 -0.2712995548049365 0 0.1898765394172798 -0.27042409692663971 0 0.17387841093177889 -0.27948925557108872 0 0.17526243873458361 -0.29189255646529239 0 0.1898765394172798 -0.27042409692663971 0 0.17387841093177889 -0.27948925557108872 0 0.17400290561053541 -0.2712995548049365 0 0.1898765394172798 -0.27042409692663971 0 0.17526243873458361 -0.29189255646529239 0 0.1898765394172798 -0.27042409692663971 0 0.19155747453396541 -0.2871073875707929 0 0.17526243873458361 -0.29189255646529239 0 0.19155747453396541 -0.2871073875707929 0 0.17526243873458361 -0.29189255646529239 0 0.18702922332754951 -0.29870447721713372 0 0.18508776036532859 -0.31386523558503282 0 0.18702922332754951 -0.29870447721713372 0 0.17601858460646119 -0.30411965053146978 0 0.18508776036532859 -0.31386523558503282 0 0.17041045388045201 -0.31702250276098343 0 0.17601858460646119 -0.30411965053146978 0 0.17526243873458361 -0.29189255646529239 0 0.18702922332754951 -0.29870447721713372 0 0.17601858460646119 -0.30411965053146978 0 0.17526243873458361 -0.29189255646529239 0 0.17601858460646119 -0.30411965053146978 0 0.16525869664159529 -0.29564667418288398 0 0.15694769592684929 -0.31263538382309219 0 0.1482063519549143 -0.31124889160348879 0 0.17601858460646119 -0.30411965053146978 0 0.15694769592684929 -0.31263538382309219 0 0.17041045388045201 -0.31702250276098343 0 0.17601858460646119 -0.30411965053146978 0 0.17601858460646119 -0.30411965053146978 0 0.1578165070288286 -0.3002213084291474 0 0.16525869664159529 -0.29564667418288398 0 0.1482063519549143 -0.31124889160348879 0 0.17601858460646119 -0.30411965053146978 0 0.1482063519549143 -0.31124889160348879 0 0.17601858460646119 -0.30411965053146978 0 0.1578165070288286 -0.3002213084291474 0 0.1550687694269014 -0.29225358047459499 0 0.1578165070288286 -0.3002213084291474 0 0.16525869664159529 -0.29564667418288398 0 0.1550687694269014 -0.29225358047459499 0 0.1645588567237363 -0.28686257374339391 0 0.16525869664159529 -0.29564667418288398 0 0.1550687694269014 -0.29225358047459499 0 0.15463429794700859 -0.27926033718565069 0 0.1645588567237363 -0.28686257374339391 0 0.17387841093177889 -0.27948925557108872 0 0.17526243873458361 -0.29189255646529239 0 0.1645588567237363 -0.28686257374339391 0 0.17526243873458361 -0.29189255646529239 0 0.1645588567237363 -0.28686257374339391 0 0.16525869664159529 -0.29564667418288398 0 0.1975310404640489 -0.50000000000000411 0 0.21177973381485779 -0.4787369344687693 0 0.1861217591234495 -0.47638424174650401 0 0.1975310404640489 -0.50000000000000411 0 0.1861217591234495 -0.47638424174650401 0 0.21177973381485779 -0.4787369344687693 0 0.2043998222463177 -0.46046828682923829 0 0.1861217591234495 -0.47638424174650401 0 0.1975310404640489 -0.50000000000000411 0 0.21177973381485779 -0.4787369344687693 0 0.22643712711924111 -0.5 0 0.21177973381485779 -0.4787369344687693 0 0.22643712711924111 -0.5 0 0.2329089456131043 -0.48153552254788229 0 0.25172022360441149 -0.48211695854094683 0 0.25534321377443331 -0.49999999999999822 0 0.2329089456131043 -0.48153552254788229 0 0.25534321377443331 -0.49999999999999822 0 0.22643712711924111 -0.5 0 0.2329089456131043 -0.48153552254788229 0 0.25172022360441149 -0.48211695854094683 0 0.24976608590047039 -0.47247135534129381 0 0.2329089456131043 -0.48153552254788229 0 0.24976608590047039 -0.47247135534129381 0 0.2329089456131043 -0.48153552254788229 0 0.22539984213640049 -0.45575499383288481 0 0.21177973381485779 -0.4787369344687693 0 0.2329089456131043 -0.48153552254788229 0 0.22539984213640049 -0.45575499383288481 0 0.24976608590047039 -0.47247135534129381 0 0.22539984213640049 -0.45575499383288481 0 0.2441889580265072 -0.44494271068258939 0 0.24976608590047039 -0.47247135534129381 0 0.2441889580265072 -0.44494271068258939 0 0.22539984213640049 -0.45575499383288481 0 0.2441889580265072 -0.44494271068258939 0 0.2195471026651995 -0.43471159651014901 0 0.22539984213640049 -0.45575499383288481 0 0.20852279371453319 -0.44426082801975841 0 0.2195471026651995 -0.43471159651014901 0 0.22539984213640049 -0.45575499383288481 0 0.20852279371453319 -0.44426082801975841 0 0.2043998222463177 -0.46046828682923829 0 0.21177973381485779 -0.4787369344687693 0 0.22539984213640049 -0.45575499383288481 0 0.2043998222463177 -0.46046828682923829 0 0.2043998222463177 -0.46046828682923829 0 0.19017498244234751 -0.44720443607827531 0 0.1861217591234495 -0.47638424174650401 0 0.20852279371453319 -0.44426082801975841 0 0.2043998222463177 -0.46046828682923829 0 0.19017498244234751 -0.44720443607827531 0 0.20852279371453319 -0.44426082801975841 0 0.19017498244234751 -0.44720443607827531 0 0.1895150945451102 -0.4270135196284725 0 0.20852279371453319 -0.44426082801975841 0 0.1895150945451102 -0.4270135196284725 0 0.20846892492984501 -0.42591731771513369 0 0.20852279371453319 -0.44426082801975841 0 0.1895150945451102 -0.4270135196284725 0 0.1895150945451102 -0.4270135196284725 0 0.2076711511581367 -0.40563016308193578 0 0.1824197145594165 -0.42057527554243962 0 0.1895150945451102 -0.4270135196284725 0 0.20846892492984501 -0.42591731771513369 0 0.2076711511581367 -0.40563016308193578 0 0.1895150945451102 -0.4270135196284725 0 0.2076711511581367 -0.40563016308193578 0 0.2076711511581367 -0.40563016308193578 0 0.19143986213231109 -0.39383732020244139 0 0.1824197145594165 -0.42057527554243962 0 0.21708848256624541 -0.41797048133535269 0 0.22657789664826719 -0.41106134503729541 0 0.2076711511581367 -0.40563016308193578 0 0.21708848256624541 -0.41797048133535269 0 0.20846892492984501 -0.42591731771513369 0 0.2076711511581367 -0.40563016308193578 0 0.20852279371453319 -0.44426082801975841 0 0.20846892492984501 -0.42591731771513369 0 0.2195471026651995 -0.43471159651014901 0 0.21708848256624541 -0.41797048133535269 0 0.20846892492984501 -0.42591731771513369 0 0.2195471026651995 -0.43471159651014901 0 0.2441889580265072 -0.44494271068258939 0 0.2195471026651995 -0.43471159651014901 0 0.22738219201833279 -0.42240978424153303 0 0.21708848256624541 -0.41797048133535269 0 0.2195471026651995 -0.43471159651014901 0 0.22738219201833279 -0.42240978424153303 0 0.25628186615539572 -0.42775248642316771 0 0.2441889580265072 -0.44494271068258939 0 0.23861183015254431 -0.41741406602388509 0 0.2441889580265072 -0.44494271068258939 0 0.23861183015254431 -0.41741406602388509 0 0.2441889580265072 -0.44494271068258939 0 0.22738219201833279 -0.42240978424153303 0 0.23861183015254431 -0.41741406602388509 0 0.25944334095341959 -0.40814677203228472 0 0.23861183015254431 -0.41741406602388509 0 0.2449053002495431 -0.40417195178498272 0 0.25944334095341959 -0.40814677203228472 0 0.23861183015254431 -0.41741406602388509 0 0.23861183015254431 -0.41741406602388509 0 0.23736812139464861 -0.41127513264657112 0 0.23861183015254431 -0.41741406602388509 0 0.23736812139464861 -0.41127513264657112 0 0.2449053002495431 -0.40417195178498272 0 0.23736812139464861 -0.41127513264657112 0 0.2386888088705548 -0.40367660028671709 0 0.2449053002495431 -0.40417195178498272 0 0.23736812139464861 -0.41127513264657112 0 0.23305949048391519 -0.40385180936484322 0 0.2386888088705548 -0.40367660028671709 0 0.23861183015254431 -0.41741406602388509 0 0.23736812139464861 -0.41127513264657112 0 0.22657789664826719 -0.41106134503729541 0 0.23736812139464861 -0.41127513264657112 0 0.22657789664826719 -0.41106134503729541 0 0.23305949048391519 -0.40385180936484322 0 0.22738219201833279 -0.42240978424153303 0 0.23861183015254431 -0.41741406602388509 0 0.22657789664826719 -0.41106134503729541 0 0.22738219201833279 -0.42240978424153303 0 0.23861183015254431 -0.41741406602388509 0 0.21708848256624541 -0.41797048133535269 0 0.22738219201833279 -0.42240978424153303 0 0.22657789664826719 -0.41106134503729541 0 0.22657789664826719 -0.41106134503729541 0 0.22582892816231259 -0.39977715367739192 0 0.2076711511581367 -0.40563016308193578 0 0.22582892816231259 -0.39977715367739192 0 0.2258272077711625 -0.38424680653539872 0 0.2076711511581367 -0.40563016308193578 0 0.22582892816231259 -0.39977715367739192 0 0.2376655574506725 -0.39503326214156248 0 0.2258272077711625 -0.38424680653539872 0 0.22582892816231259 -0.39977715367739192 0 0.23305949048391519 -0.40385180936484322 0 0.2376655574506725 -0.39503326214156248 0 0.22657789664826719 -0.41106134503729541 0 0.22582892816231259 -0.39977715367739192 0 0.23305949048391519 -0.40385180936484322 0 0.2386888088705548 -0.40367660028671709 0 0.2376655574506725 -0.39503326214156248 0 0.2449053002495431 -0.40417195178498272 0 0.23305949048391519 -0.40385180936484322 0 0.2386888088705548 -0.40367660028671709 0 0.2376655574506725 -0.39503326214156248 0 0.25190981745730479 -0.39241813327882302 0 0.2376655574506725 -0.39503326214156248 0 0.2449053002495431 -0.40417195178498272 0 0.2376655574506725 -0.39503326214156248 0 0.24343791308227761 -0.37974541061095352 0 0.2258272077711625 -0.38424680653539872 0 0.25190981745730479 -0.39241813327882302 0 0.2376655574506725 -0.39503326214156248 0 0.24343791308227761 -0.37974541061095352 0 0.24343791308227761 -0.37974541061095352 0 0.2258272077711625 -0.38424680653539872 0 0.2225630237275826 -0.38163426551999852 0 0.24343791308227761 -0.37974541061095352 0 0.2225630237275826 -0.38163426551999852 0 0.24343791308227761 -0.37974541061095352 0 0.22327620543580801 -0.37667278976531732 0 0.2225630237275826 -0.38163426551999852 0 0.2258272077711625 -0.38424680653539872 0 0.2225630237275826 -0.38163426551999852 0 0.21596788871458111 -0.38232110439581929 0 0.22327620543580801 -0.37667278976531732 0 0.2225630237275826 -0.38163426551999852 0 0.21755193554906671 -0.37784483151810389 0 0.21596788871458111 -0.38232110439581929 0 0.21014202066216089 -0.37599983358693551 0 0.20744699614961259 -0.38887214971741779 0 0.2258272077711625 -0.38424680653539872 0 0.21596788871458111 -0.38232110439581929 0 0.20744699614961259 -0.38887214971741779 0 0.200460009705204 -0.36709936486244282 0 0.21014202066216089 -0.37599983358693551 0 0.20744699614961259 -0.38887214971741779 0 0.2225630237275826 -0.38163426551999852 0 0.21755193554906671 -0.37784483151810389 0 0.21596788871458111 -0.38232110439581929 0 0.21755193554906671 -0.37784483151810389 0 0.21596788871458111 -0.38232110439581929 0 0.21014202066216089 -0.37599983358693551 0 0.2258272077711625 -0.38424680653539872 0 0.2076711511581367 -0.40563016308193578 0 0.2258272077711625 -0.38424680653539872 0 0.20744699614961259 -0.38887214971741779 0 0.2076711511581367 -0.40563016308193578 0 0.20744699614961259 -0.38887214971741779 0 0.2076711511581367 -0.40563016308193578 0 0.19143986213231109 -0.39383732020244139 0 0.200460009705204 -0.36709936486244282 0 0.19143986213231109 -0.39383732020244139 0 0.200460009705204 -0.36709936486244282 0 0.19143986213231109 -0.39383732020244139 0 0.17649145879250919 -0.37516482209655888 0 0.200460009705204 -0.36709936486244282 0 0.20744699614961259 -0.38887214971741779 0 0.19143986213231109 -0.39383732020244139 0 0.19143986213231109 -0.39383732020244139 0 0.17649145879250919 -0.37516482209655888 0 0.17560031531983891 -0.39444584349362249 0 0.17649145879250919 -0.37516482209655888 0 0.17560031531983891 -0.39444584349362249 0 0.16440858542998649 -0.38561251546835418 0 0.19143986213231109 -0.39383732020244139 0 0.17560031531983891 -0.39444584349362249 0 0.1824197145594165 -0.42057527554243962 0 0.17560031531983891 -0.39444584349362249 0 0.1633457361276546 -0.40326782631731051 0 0.1824197145594165 -0.42057527554243962 0 0.1633457361276546 -0.40326782631731051 0 0.16440858542998649 -0.38561251546835418 0 0.15493105006372729 -0.38490411311078182 0 0.17560031531983891 -0.39444584349362249 0 0.1633457361276546 -0.40326782631731051 0 0.16440858542998649 -0.38561251546835418 0 0.15574433299971391 -0.3715431498793122 0 0.17649145879250919 -0.37516482209655888 0 0.16440858542998649 -0.38561251546835418 0 0.15574433299971391 -0.3715431498793122 0 0.16440858542998649 -0.38561251546835418 0 0.15493105006372729 -0.38490411311078182 0 0.1442717576958932 -0.38596037709218112 0 0.13866154179008311 -0.37814764070703188 0 0.14982444708951739 -0.40125343195613739 0 0.15574433299971391 -0.3715431498793122 0 0.15493105006372729 -0.38490411311078182 0 0.1468848380653881 -0.37813669679675121 0 0.13866154179008311 -0.37814764070703188 0 0.14982444708951739 -0.40125343195613739 0 0.13866154179008311 -0.37814764070703188 0 0.1339475287662058 -0.38828366568259998 0 0.14982444708951739 -0.40125343195613739 0 0.15493105006372729 -0.38490411311078182 0 0.1442717576958932 -0.38596037709218112 0 0.1468848380653881 -0.37813669679675121 0 0.142970387057962 -0.37073077677924599 0 0.1468848380653881 -0.37813669679675121 0 0.13866154179008311 -0.37814764070703188 0 0.1442717576958932 -0.38596037709218112 0 0.1468848380653881 -0.37813669679675121 0 0.13866154179008311 -0.37814764070703188 0 0.13866154179008311 -0.37814764070703188 0 0.1339475287662058 -0.38828366568259998 0 0.12792751609649039 -0.37726865906405288 0 0.1339475287662058 -0.38828366568259998 0 0.12792751609649039 -0.37726865906405288 0 0.1213060936813638 -0.38723960941902003 0 0.1339475287662058 -0.38828366568259998 0 0.13201804517357421 -0.39750898726675771 0 0.14982444708951739 -0.40125343195613739 0 0.13201804517357421 -0.39750898726675771 0 0.14982444708951739 -0.40125343195613739 0 0.13451935998428691 -0.4109793700859119 0 0.13201804517357421 -0.39750898726675771 0 0.13451935998428691 -0.4109793700859119 0 0.1209898220595844 -0.40370284902414949 0 0.1339475287662058 -0.38828366568259998 0 0.13201804517357421 -0.39750898726675771 0 0.1213060936813638 -0.38723960941902003 0 0.1633457361276546 -0.40326782631731051 0 0.15493105006372729 -0.38490411311078182 0 0.1442717576958932 -0.38596037709218112 0 0.1633457361276546 -0.40326782631731051 0 0.1442717576958932 -0.38596037709218112 0 0.1633457361276546 -0.40326782631731051 0 0.1442717576958932 -0.38596037709218112 0 0.14982444708951739 -0.40125343195613739 0 0.14982444708951739 -0.40125343195613739 0 0.13451935998428691 -0.4109793700859119 0 0.14472464920705941 -0.4246640856955094 0 0.14982444708951739 -0.40125343195613739 0 0.1609873523889519 -0.424359223205243 0 0.14982444708951739 -0.40125343195613739 0 0.14472464920705941 -0.4246640856955094 0 0.1609873523889519 -0.424359223205243 0 0.13451935998428691 -0.4109793700859119 0 0.14472464920705941 -0.4246640856955094 0 0.12374280164977521 -0.42538271748192041 0 0.13451935998428691 -0.4109793700859119 0 0.12374280164977521 -0.42538271748192041 0 0.1209898220595844 -0.40370284902414949 0 0.14188254590965491 -0.44336262783887881 0 0.12374280164977521 -0.42538271748192041 0 0.14472464920705941 -0.4246640856955094 0 0.14188254590965491 -0.44336262783887881 0 0.12374280164977521 -0.42538271748192041 0 0.14472464920705941 -0.4246640856955094 0 0.15739138822017029 -0.4426471436049656 0 0.14188254590965491 -0.44336262783887881 0 0.14472464920705941 -0.4246640856955094 0 0.1609873523889519 -0.424359223205243 0 0.15739138822017029 -0.4426471436049656 0 0.1609873523889519 -0.424359223205243 0 0.1721502576883884 -0.44746501445434761 0 0.1633457361276546 -0.40326782631731051 0 0.1609873523889519 -0.424359223205243 0 0.1824197145594165 -0.42057527554243962 0 0.1633457361276546 -0.40326782631731051 0 0.14982444708951739 -0.40125343195613739 0 0.1609873523889519 -0.424359223205243 0 0.19143986213231109 -0.39383732020244139 0 0.1824197145594165 -0.42057527554243962 0 0.1633457361276546 -0.40326782631731051 0 0.1824197145594165 -0.42057527554243962 0 0.1895150945451102 -0.4270135196284725 0 0.1741382171513173 -0.4451236885319978 0 0.1895150945451102 -0.4270135196284725 0 0.1824197145594165 -0.42057527554243962 0 0.1824197145594165 -0.42057527554243962 0 0.1741382171513173 -0.4451236885319978 0 0.1609873523889519 -0.424359223205243 0 0.1824197145594165 -0.42057527554243962 0 0.1741382171513173 -0.4451236885319978 0 0.1895150945451102 -0.4270135196284725 0 0.1824197145594165 -0.42057527554243962 0 0.1741382171513173 -0.4451236885319978 0 0.19017498244234751 -0.44720443607827531 0 0.1895150945451102 -0.4270135196284725 0 0.1741382171513173 -0.4451236885319978 0 0.19017498244234751 -0.44720443607827531 0 0.17471247778285201 -0.45276848349300303 0 0.1741382171513173 -0.4451236885319978 0 0.1721502576883884 -0.44746501445434761 0 0.17285573921952099 -0.44892527130964821 0 0.17112354311610761 -0.45405993032479508 0 0.17471247778285201 -0.45276848349300303 0 0.17285573921952099 -0.44892527130964821 0 0.17112354311610761 -0.45405993032479508 0 0.17285573921952099 -0.44892527130964821 0 0.17112354311610761 -0.45405993032479508 0 0.17471247778285201 -0.45276848349300303 0 0.17285573921952099 -0.44892527130964821 0 0.17471247778285201 -0.45276848349300303 0 0.17285573921952099 -0.44892527130964821 0 0.1741382171513173 -0.4451236885319978 0 0.1721502576883884 -0.44746501445434761 0 0.17285573921952099 -0.44892527130964821 0 0.1721502576883884 -0.44746501445434761 0 0.1741382171513173 -0.4451236885319978 0 0.17285573921952099 -0.44892527130964821 0 0.1741382171513173 -0.4451236885319978 0 0.1721502576883884 -0.44746501445434761 0 0.17285573921952099 -0.44892527130964821 0 0.1741382171513173 -0.4451236885319978 0 0.19017498244234751 -0.44720443607827531 0 0.17471247778285201 -0.45276848349300303 0 0.17471247778285201 -0.45276848349300303 0 0.1734926401992013 -0.46943073386235828 0 0.1861217591234495 -0.47638424174650401 0 0.17471247778285201 -0.45276848349300303 0 0.1861217591234495 -0.47638424174650401 0 0.19017498244234751 -0.44720443607827531 0 0.17471247778285201 -0.45276848349300303 0 0.1861217591234495 -0.47638424174650401 0 0.17471247778285201 -0.45276848349300303 0 0.17112354311610761 -0.45405993032479508 0 0.1734926401992013 -0.46943073386235828 0 0.17471247778285201 -0.45276848349300303 0 0.17112354311610761 -0.45405993032479508 0 0.16453885082706629 -0.4564293744035135 0 0.1573667687459355 -0.46487631811990371 0 0.16232696069744129 -0.48013518308027381 0 0.17112354311610761 -0.45405993032479508 0 0.16232696069744129 -0.48013518308027381 0 0.17112354311610761 -0.45405993032479508 0 0.16453885082706629 -0.4564293744035135 0 0.16232696069744129 -0.48013518308027381 0 0.17112354311610761 -0.45405993032479508 0 0.16232696069744129 -0.48013518308027381 0 0.1734926401992013 -0.46943073386235828 0 0.17112354311610761 -0.45405993032479508 0 0.16453885082706629 -0.4564293744035135 0 0.16453885082706629 -0.4564293744035135 0 0.1573667687459355 -0.46487631811990371 0 0.16453885082706629 -0.4564293744035135 0 0.16124294251806401 -0.44954643399319849 0 0.15089127333662761 -0.45164420350996459 0 0.16124294251806401 -0.44954643399319849 0 0.15739138822017029 -0.4426471436049656 0 0.15089127333662761 -0.45164420350996459 0 0.1609873523889519 -0.424359223205243 0 0.1721502576883884 -0.44746501445434761 0 0.15739138822017029 -0.4426471436049656 0 0.1721502576883884 -0.44746501445434761 0 0.16124294251806401 -0.44954643399319849 0 0.15739138822017029 -0.4426471436049656 0 0.1609873523889519 -0.424359223205243 0 0.1721502576883884 -0.44746501445434761 0 0.1741382171513173 -0.4451236885319978 0 0.1721502576883884 -0.44746501445434761 0 0.16453885082706629 -0.4564293744035135 0 0.16124294251806401 -0.44954643399319849 0 0.1721502576883884 -0.44746501445434761 0 0.17112354311610761 -0.45405993032479508 0 0.16453885082706629 -0.4564293744035135 0 0.1721502576883884 -0.44746501445434761 0 0.16453885082706629 -0.4564293744035135 0 0.15739138822017029 -0.4426471436049656 0 0.15089127333662761 -0.45164420350996459 0 0.14188254590965491 -0.44336262783887881 0 0.15089127333662761 -0.45164420350996459 0 0.14188254590965491 -0.44336262783887881 0 0.1378510368933108 -0.45405433924953359 0 0.14188254590965491 -0.44336262783887881 0 0.12686281888957701 -0.44689751039431291 0 0.12374280164977521 -0.42538271748192041 0 0.14188254590965491 -0.44336262783887881 0 0.12686281888957701 -0.44689751039431291 0 0.1378510368933108 -0.45405433924953359 0 0.12686281888957701 -0.44689751039431291 0 0.13114416761070971 -0.46330548308495623 0 0.1378510368933108 -0.45405433924953359 0 0.13114416761070971 -0.46330548308495623 0 0.1370550596143314 -0.4663191769168582 0 0.12931426499705079 -0.46910463433314858 0 0.13114416761070971 -0.46330548308495623 0 0.1378510368933108 -0.45405433924953359 0 0.1398987633560734 -0.46529589493241252 0 0.13114416761070971 -0.46330548308495623 0 0.1398987633560734 -0.46529589493241252 0 0.13114416761070971 -0.46330548308495623 0 0.1370550596143314 -0.4663191769168582 0 0.1398987633560734 -0.46529589493241252 0 0.13114416761070971 -0.46330548308495623 0 0.1370550596143314 -0.4663191769168582 0 0.1370550596143314 -0.4663191769168582 0 0.12931426499705079 -0.46910463433314858 0 0.1370550596143314 -0.4663191769168582 0 0.1398987633560734 -0.46529589493241252 0 0.1573667687459355 -0.46487631811990371 0 0.1398987633560734 -0.46529589493241252 0 0.14985579044011821 -0.46755968703086792 0 0.16453885082706629 -0.4564293744035135 0 0.15089127333662761 -0.45164420350996459 0 0.1398987633560734 -0.46529589493241252 0 0.1370550596143314 -0.4663191769168582 0 0.1398987633560734 -0.46529589493241252 0 0.14985579044011821 -0.46755968703086792 0 0.16453885082706629 -0.4564293744035135 0 0.1573667687459355 -0.46487631811990371 0 0.1398987633560734 -0.46529589493241252 0 0.16453885082706629 -0.4564293744035135 0 0.1398987633560734 -0.46529589493241252 0 0.1398987633560734 -0.46529589493241252 0 0.14985579044011821 -0.46755968703086792 0 0.15089127333662761 -0.45164420350996459 0 0.1378510368933108 -0.45405433924953359 0 0.1398987633560734 -0.46529589493241252 0 0.1370550596143314 -0.4663191769168582 0 0.1458206128472454 -0.47461990870671322 0 0.16232696069744129 -0.48013518308027381 0 0.1458206128472454 -0.47461990870671322 0 0.14267609909252979 -0.48747426062146992 0 0.16232696069744129 -0.48013518308027381 0 0.1370550596143314 -0.4663191769168582 0 0.14985579044011821 -0.46755968703086792 0 0.16232696069744129 -0.48013518308027381 0 0.1370550596143314 -0.4663191769168582 0 0.16232696069744129 -0.48013518308027381 0 0.1458206128472454 -0.47461990870671322 0 0.16232696069744129 -0.48013518308027381 0 0.1458206128472454 -0.47461990870671322 0 0.13396756442224389 -0.47909955763381479 0 0.14267609909252979 -0.48747426062146992 0 0.1370550596143314 -0.4663191769168582 0 0.1458206128472454 -0.47461990870671322 0 0.12931426499705079 -0.46910463433314858 0 0.1458206128472454 -0.47461990870671322 0 0.13396756442224389 -0.47909955763381479 0 0.12931426499705079 -0.46910463433314858 0 0.1458206128472454 -0.47461990870671322 0 0.12931426499705079 -0.46910463433314858 0 0.13396756442224389 -0.47909955763381479 0 0.12843345217293339 -0.48641950850895982 0 0.14267609909252979 -0.48747426062146992 0 0.13396756442224389 -0.47909955763381479 0 0.12843345217293339 -0.48641950850895982 0 0.12359339300146011 -0.477879475998782 0 0.13396756442224389 -0.47909955763381479 0 0.12931426499705079 -0.46910463433314858 0 0.12359339300146011 -0.477879475998782 0 0.12655126937131389 -0.5 0 0.12843345217293339 -0.48641950850895982 0 0.14267609909252979 -0.48747426062146992 0 0.12655126937131389 -0.5 0 0.1556254916491924 -0.50000000000000178 0 0.14267609909252979 -0.48747426062146992 0 0.1556254916491924 -0.50000000000000178 0 0.14267609909252979 -0.48747426062146992 0 0.16232696069744129 -0.48013518308027381 0 0.1556254916491924 -0.50000000000000178 0 0.16232696069744129 -0.48013518308027381 0 0.1556254916491924 -0.50000000000000178 0 0.16232696069744129 -0.48013518308027381 0 0.17291047215434899 -0.4846002139491562 0 0.1556254916491924 -0.50000000000000178 0 0.17657826605662061 -0.5 0 0.17291047215434899 -0.4846002139491562 0 0.1573667687459355 -0.46487631811990371 0 0.14985579044011821 -0.46755968703086792 0 0.16232696069744129 -0.48013518308027381 0 0.16232696069744129 -0.48013518308027381 0 0.17291047215434899 -0.4846002139491562 0 0.16232696069744129 -0.48013518308027381 0 0.1734926401992013 -0.46943073386235828 0 0.17291047215434899 -0.4846002139491562 0 0.1734926401992013 -0.46943073386235828 0 0.1861217591234495 -0.47638424174650401 0 0.17291047215434899 -0.4846002139491562 0 0.1861217591234495 -0.47638424174650401 0 0.17657826605662061 -0.5 0 0.17291047215434899 -0.4846002139491562 0 0.1975310404640489 -0.50000000000000411 0 0.1861217591234495 -0.47638424174650401 0 0.17657826605662061 -0.5 0 0.06840282481555704 -0.5 0 0.08695998764568863 -0.48971336426208228 0 0.060466141975464648 -0.49126538965071698 0 0.075613967940067639 -0.48395538114341058 0 0.08695998764568863 -0.48971336426208228 0 0.060466141975464648 -0.49126538965071698 0 0.08695998764568863 -0.48971336426208228 0 0.060466141975464648 -0.49126538965071698 0 0.065342577045435585 -0.48255073840761481 0 0.075613967940067639 -0.48395538114341058 0 0.060466141975464648 -0.49126538965071698 0 0.065342577045435585 -0.48255073840761481 0 0.064530391024906181 -0.4739287368096779 0 0.070319292744294493 -0.47541042773088088 0 0.065342577045435585 -0.48255073840761481 0 0.070319292744294493 -0.47541042773088088 0 0.07273730973570687 -0.48062458847578288 0 0.064530391024906181 -0.4739287368096779 0 0.070319292744294493 -0.47541042773088088 0 0.068508440886934197 -0.46670589250502909 0 0.064530391024906181 -0.4739287368096779 0 0.068508440886934197 -0.46670589250502909 0 0.05470639006032884 -0.46932951035174858 0 0.070319292744294493 -0.47541042773088088 0 0.074973344463372865 -0.47011597155029661 0 0.068508440886934197 -0.46670589250502909 0 0.070319292744294493 -0.47541042773088088 0 0.074973344463372865 -0.47011597155029661 0 0.076166894903011179 -0.47698335265222502 0 0.074973344463372865 -0.47011597155029661 0 0.076166894903011179 -0.47698335265222502 0 0.079613490304517504 -0.47243288950876788 0 0.065342577045435585 -0.48255073840761481 0 0.07273730973570687 -0.48062458847578288 0 0.075613967940067639 -0.48395538114341058 0 0.070319292744294493 -0.47541042773088088 0 0.07273730973570687 -0.48062458847578288 0 0.076166894903011179 -0.47698335265222502 0 0.076166894903011179 -0.47698335265222502 0 0.075613967940067639 -0.48395538114341058 0 0.081782953261370223 -0.47808267167069241 0 0.07273730973570687 -0.48062458847578288 0 0.076166894903011179 -0.47698335265222502 0 0.075613967940067639 -0.48395538114341058 0 0.075613967940067639 -0.48395538114341058 0 0.081782953261370223 -0.47808267167069241 0 0.08695998764568863 -0.48971336426208228 0 0.081782953261370223 -0.47808267167069241 0 0.088974035473406932 -0.47673537998949012 0 0.08695998764568863 -0.48971336426208228 0 0.079613490304517504 -0.47243288950876788 0 0.085102451204442583 -0.47035699503106537 0 0.080041807690390598 -0.46662545663956051 0 0.074973344463372865 -0.47011597155029661 0 0.079613490304517504 -0.47243288950876788 0 0.080041807690390598 -0.46662545663956051 0 0.076166894903011179 -0.47698335265222502 0 0.081782953261370223 -0.47808267167069241 0 0.079613490304517504 -0.47243288950876788 0 0.081782953261370223 -0.47808267167069241 0 0.079613490304517504 -0.47243288950876788 0 0.085102451204442583 -0.47035699503106537 0 0.081782953261370223 -0.47808267167069241 0 0.085102451204442583 -0.47035699503106537 0 0.088974035473406932 -0.47673537998949012 0 0.092606092364701492 -0.47049999173799351 0 0.088974035473406932 -0.47673537998949012 0 0.098337660625457318 -0.47470912415392058 0 0.085102451204442583 -0.47035699503106537 0 0.092606092364701492 -0.47049999173799351 0 0.088816670945082693 -0.46620416177277058 0 0.085102451204442583 -0.47035699503106537 0 0.092606092364701492 -0.47049999173799351 0 0.088974035473406932 -0.47673537998949012 0 0.088974035473406932 -0.47673537998949012 0 0.08695998764568863 -0.48971336426208228 0 0.098337660625457318 -0.47470912415392058 0 0.06840282481555704 -0.5 0 0.08695998764568863 -0.48971336426208228 0 0.09747704709343552 -0.5 0 0.08695998764568863 -0.48971336426208228 0 0.09747704709343552 -0.5 0 0.11345383331591261 -0.48816133887344748 0 0.08695998764568863 -0.48971336426208228 0 0.11345383331591261 -0.48816133887344748 0 0.10473139319243981 -0.48030446463428728 0 0.08695998764568863 -0.48971336426208228 0 0.11345383331591261 -0.48816133887344748 0 0.12655126937131389 -0.5 0 0.09747704709343552 -0.5 0 0.11345383331591261 -0.48816133887344748 0 0.12655126937131389 -0.5 0 0.12843345217293339 -0.48641950850895982 0 0.11345383331591261 -0.48816133887344748 0 0.12931426499705079 -0.46910463433314858 0 0.1134964984134188 -0.47479651965215142 0 0.12931426499705079 -0.46910463433314858 0 0.12359339300146011 -0.477879475998782 0 0.1134964984134188 -0.47479651965215142 0 0.12931426499705079 -0.46910463433314858 0 0.1134964984134188 -0.47479651965215142 0 0.11116353683988089 -0.46794960452426287 0 0.12843345217293339 -0.48641950850895982 0 0.11345383331591261 -0.48816133887344748 0 0.12359339300146011 -0.477879475998782 0 0.11345383331591261 -0.48816133887344748 0 0.1134964984134188 -0.47479651965215142 0 0.10473139319243981 -0.48030446463428728 0 0.11345383331591261 -0.48816133887344748 0 0.12359339300146011 -0.477879475998782 0 0.1134964984134188 -0.47479651965215142 0 0.1134964984134188 -0.47479651965215142 0 0.1058885681346442 -0.47115115177060762 0 0.11116353683988089 -0.46794960452426287 0 0.1134964984134188 -0.47479651965215142 0 0.1058885681346442 -0.47115115177060762 0 0.10473139319243981 -0.48030446463428728 0 0.08695998764568863 -0.48971336426208228 0 0.10473139319243981 -0.48030446463428728 0 0.098337660625457318 -0.47470912415392058 0 0.1058885681346442 -0.47115115177060762 0 0.10473139319243981 -0.48030446463428728 0 0.098337660625457318 -0.47470912415392058 0 0.1058885681346442 -0.47115115177060762 0 0.098337660625457318 -0.47470912415392058 0 0.1001192443621306 -0.46742412302912878 0 0.092606092364701492 -0.47049999173799351 0 0.098337660625457318 -0.47470912415392058 0 0.1001192443621306 -0.46742412302912878 0 0.092606092364701492 -0.47049999173799351 0 0.1001192443621306 -0.46742412302912878 0 0.093438569952811162 -0.46427659010007483 0 0.098061293850173495 -0.4629354244773195 0 0.1001192443621306 -0.46742412302912878 0 0.093438569952811162 -0.46427659010007483 0 0.095182013338778501 -0.46124714381510501 0 0.098061293850173495 -0.4629354244773195 0 0.093438569952811162 -0.46427659010007483 0 0.095182013338778501 -0.46124714381510501 0 0.098061293850173495 -0.4629354244773195 0 0.1022796556992204 -0.46007154662574862 0 0.1011615808121287 -0.46411343333745891 0 0.098061293850173495 -0.4629354244773195 0 0.1022796556992204 -0.46007154662574862 0 0.1011615808121287 -0.46411343333745891 0 0.098061293850173495 -0.4629354244773195 0 0.1001192443621306 -0.46742412302912878 0 0.095182013338778501 -0.46124714381510501 0 0.1022796556992204 -0.46007154662574862 0 0.092213250727397361 -0.4597430608229468 0 0.1022796556992204 -0.46007154662574862 0 0.1041861293369903 -0.46602263921763881 0 0.11116353683988089 -0.46794960452426287 0 0.1011615808121287 -0.46411343333745891 0 0.1001192443621306 -0.46742412302912878 0 0.1041861293369903 -0.46602263921763881 0 0.1058885681346442 -0.47115115177060762 0 0.1001192443621306 -0.46742412302912878 0 0.1041861293369903 -0.46602263921763881 0 0.1011615808121287 -0.46411343333745891 0 0.1022796556992204 -0.46007154662574862 0 0.1041861293369903 -0.46602263921763881 0 0.1058885681346442 -0.47115115177060762 0 0.1041861293369903 -0.46602263921763881 0 0.11116353683988089 -0.46794960452426287 0 0.13114416761070971 -0.46330548308495623 0 0.11072468537456261 -0.45289452182428869 0 0.13114416761070971 -0.46330548308495623 0 0.12931426499705079 -0.46910463433314858 0 0.1022796556992204 -0.46007154662574862 0 0.13114416761070971 -0.46330548308495623 0 0.1029661230153778 -0.45689902921409609 0 0.11072468537456261 -0.45289452182428869 0 0.13114416761070971 -0.46330548308495623 0 0.1029661230153778 -0.45689902921409609 0 0.1022796556992204 -0.46007154662574862 0 0.12686281888957701 -0.44689751039431291 0 0.13114416761070971 -0.46330548308495623 0 0.11072468537456261 -0.45289452182428869 0 0.13114416761070971 -0.46330548308495623 0 0.1029661230153778 -0.45689902921409609 0 0.12931426499705079 -0.46910463433314858 0 0.1022796556992204 -0.46007154662574862 0 0.12931426499705079 -0.46910463433314858 0 0.1022796556992204 -0.46007154662574862 0 0.11116353683988089 -0.46794960452426287 0 0.1158316758994489 -0.44238537288630009 0 0.11072468537456261 -0.45289452182428869 0 0.1072766144597409 -0.43442707612223591 0 0.12686281888957701 -0.44689751039431291 0 0.1158316758994489 -0.44238537288630009 0 0.11072468537456261 -0.45289452182428869 0 0.12686281888957701 -0.44689751039431291 0 0.1158316758994489 -0.44238537288630009 0 0.12374280164977521 -0.42538271748192041 0 0.1029661230153778 -0.45689902921409609 0 0.11072468537456261 -0.45289452182428869 0 0.090305203138415363 -0.44248356056362131 0 0.11072468537456261 -0.45289452182428869 0 0.090305203138415363 -0.44248356056362131 0 0.1072766144597409 -0.43442707612223591 0 0.11072468537456261 -0.45289452182428869 0 0.090305203138415363 -0.44248356056362131 0 0.1029661230153778 -0.45689902921409609 0 0.090305203138415363 -0.44248356056362131 0 0.074788078420045978 -0.45049257534323589 0 0.090305203138415363 -0.44248356056362131 0 0.073412865607435665 -0.44251495195415619 0 0.074788078420045978 -0.45049257534323589 0 0.1022796556992204 -0.46007154662574862 0 0.086713777293643782 -0.45650649335666171 0 0.074788078420045978 -0.45049257534323589 0 0.1029661230153778 -0.45689902921409609 0 0.1022796556992204 -0.46007154662574862 0 0.074788078420045978 -0.45049257534323589 0 0.1029661230153778 -0.45689902921409609 0 0.074788078420045978 -0.45049257534323589 0 0.1022796556992204 -0.46007154662574862 0 0.074788078420045978 -0.45049257534323589 0 0.1022796556992204 -0.46007154662574862 0 0.092213250727397361 -0.4597430608229468 0 0.086713777293643782 -0.45650649335666171 0 0.095182013338778501 -0.46124714381510501 0 0.092213250727397361 -0.4597430608229468 0 0.092486594076104753 -0.4617113964851326 0 0.092213250727397361 -0.4597430608229468 0 0.088643882506315747 -0.45940154352291818 0 0.089112542285431973 -0.46157879120240342 0 0.092213250727397361 -0.4597430608229468 0 0.088643882506315747 -0.45940154352291818 0 0.086713777293643782 -0.45650649335666171 0 0.088643882506315747 -0.45940154352291818 0 0.086535959718789926 -0.45977782870966089 0 0.089112542285431973 -0.46157879120240342 0 0.088643882506315747 -0.45940154352291818 0 0.086535959718789926 -0.45977782870966089 0 0.086713777293643782 -0.45650649335666171 0 0.092606092364701492 -0.47049999173799351 0 0.093438569952811162 -0.46427659010007483 0 0.088816670945082693 -0.46620416177277058 0 0.093438569952811162 -0.46427659010007483 0 0.089112542285431973 -0.46157879120240342 0 0.088816670945082693 -0.46620416177277058 0 0.093438569952811162 -0.46427659010007483 0 0.092486594076104753 -0.4617113964851326 0 0.089112542285431973 -0.46157879120240342 0 0.095182013338778501 -0.46124714381510501 0 0.093438569952811162 -0.46427659010007483 0 0.092486594076104753 -0.4617113964851326 0 0.092213250727397361 -0.4597430608229468 0 0.092486594076104753 -0.4617113964851326 0 0.089112542285431973 -0.46157879120240342 0 0.089112542285431973 -0.46157879120240342 0 0.088816670945082693 -0.46620416177277058 0 0.084493118721867877 -0.46304311636630091 0 0.086535959718789926 -0.45977782870966089 0 0.089112542285431973 -0.46157879120240342 0 0.084493118721867877 -0.46304311636630091 0 0.085102451204442583 -0.47035699503106537 0 0.088816670945082693 -0.46620416177277058 0 0.084493118721867877 -0.46304311636630091 0 0.085102451204442583 -0.47035699503106537 0 0.084493118721867877 -0.46304311636630091 0 0.080041807690390598 -0.46662545663956051 0 0.084493118721867877 -0.46304311636630091 0 0.080250470934259882 -0.4611311504025955 0 0.083863145709667242 -0.45938167798614399 0 0.084493118721867877 -0.46304311636630091 0 0.080250470934259882 -0.4611311504025955 0 0.080041807690390598 -0.46662545663956051 0 0.080250470934259882 -0.4611311504025955 0 0.080041807690390598 -0.46662545663956051 0 0.07540207972174065 -0.46231042831527358 0 0.086713777293643782 -0.45650649335666171 0 0.07828477420283525 -0.45527091303986672 0 0.074788078420045978 -0.45049257534323589 0 0.086713777293643782 -0.45650649335666171 0 0.08087921481941962 -0.4573272655779439 0 0.07828477420283525 -0.45527091303986672 0 0.086713777293643782 -0.45650649335666171 0 0.083863145709667242 -0.45938167798614399 0 0.08087921481941962 -0.4573272655779439 0 0.086535959718789926 -0.45977782870966089 0 0.086713777293643782 -0.45650649335666171 0 0.083863145709667242 -0.45938167798614399 0 0.086535959718789926 -0.45977782870966089 0 0.084493118721867877 -0.46304311636630091 0 0.083863145709667242 -0.45938167798614399 0 0.080250470934259882 -0.4611311504025955 0 0.083863145709667242 -0.45938167798614399 0 0.08087921481941962 -0.4573272655779439 0 0.080250470934259882 -0.4611311504025955 0 0.08087921481941962 -0.4573272655779439 0 0.077308288541267076 -0.45888096673697892 0 0.08087921481941962 -0.4573272655779439 0 0.07828477420283525 -0.45527091303986672 0 0.077308288541267076 -0.45888096673697892 0 0.07828477420283525 -0.45527091303986672 0 0.074862292893948232 -0.45625726742465572 0 0.074960174612603972 -0.45312447991004301 0 0.07828477420283525 -0.45527091303986672 0 0.074862292893948232 -0.45625726742465572 0 0.077308288541267076 -0.45888096673697892 0 0.080250470934259882 -0.4611311504025955 0 0.077308288541267076 -0.45888096673697892 0 0.07540207972174065 -0.46231042831527358 0 0.077308288541267076 -0.45888096673697892 0 0.071511272143315555 -0.45906078113590731 0 0.07540207972174065 -0.46231042831527358 0 0.074862292893948232 -0.45625726742465572 0 0.077308288541267076 -0.45888096673697892 0 0.071511272143315555 -0.45906078113590731 0 0.074862292893948232 -0.45625726742465572 0 0.071511272143315555 -0.45906078113590731 0 0.070143292612592445 -0.45324206096796732 0 0.074862292893948232 -0.45625726742465572 0 0.070143292612592445 -0.45324206096796732 0 0.074960174612603972 -0.45312447991004301 0 0.074973344463372865 -0.47011597155029661 0 0.080041807690390598 -0.46662545663956051 0 0.07540207972174065 -0.46231042831527358 0 0.071511272143315555 -0.45906078113590731 0 0.07540207972174065 -0.46231042831527358 0 0.068508440886934197 -0.46670589250502909 0 0.074973344463372865 -0.47011597155029661 0 0.07540207972174065 -0.46231042831527358 0 0.068508440886934197 -0.46670589250502909 0 0.071511272143315555 -0.45906078113590731 0 0.062843238203410756 -0.45696807086553948 0 0.070143292612592445 -0.45324206096796732 0 0.071511272143315555 -0.45906078113590731 0 0.068508440886934197 -0.46670589250502909 0 0.062843238203410756 -0.45696807086553948 0 0.090305203138415363 -0.44248356056362131 0 0.073412865607435665 -0.44251495195415619 0 0.069885720902268106 -0.43207259930295377 0 0.062843238203410756 -0.45696807086553948 0 0.070143292612592445 -0.45324206096796732 0 0.063672005934616277 -0.44358869276037399 0 0.070143292612592445 -0.45324206096796732 0 0.069440771956637878 -0.44670133403134449 0 0.063672005934616277 -0.44358869276037399 0 0.063672005934616277 -0.44358869276037399 0 0.073412865607435665 -0.44251495195415619 0 0.069885720902268106 -0.43207259930295377 0 0.069440771956637878 -0.44670133403134449 0 0.063672005934616277 -0.44358869276037399 0 0.073412865607435665 -0.44251495195415619 0 0.069440771956637878 -0.44670133403134449 0 0.073412865607435665 -0.44251495195415619 0 0.074788078420045978 -0.45049257534323589 0 0.07828477420283525 -0.45527091303986672 0 0.074788078420045978 -0.45049257534323589 0 0.074960174612603972 -0.45312447991004301 0 0.070143292612592445 -0.45324206096796732 0 0.074788078420045978 -0.45049257534323589 0 0.074960174612603972 -0.45312447991004301 0 0.070143292612592445 -0.45324206096796732 0 0.069440771956637878 -0.44670133403134449 0 0.074788078420045978 -0.45049257534323589 0 0.069885720902268106 -0.43207259930295377 0 0.074715648074151597 -0.4181743295226627 0 0.089217565913301738 -0.42362529331215809 0 0.069885720902268106 -0.43207259930295377 0 0.074715648074151597 -0.4181743295226627 0 0.058599789705156058 -0.41661050257197391 0 0.063672005934616277 -0.44358869276037399 0 0.069885720902268106 -0.43207259930295377 0 0.056858208183458103 -0.43302463548837872 0 0.07071473835907259 -0.40746517945643979 0 0.074715648074151597 -0.4181743295226627 0 0.058599789705156058 -0.41661050257197391 0 0.07071473835907259 -0.40746517945643979 0 0.060446896233721112 -0.40025939265128058 0 0.058599789705156058 -0.41661050257197391 0 0.07071473835907259 -0.40746517945643979 0 0.074715648074151597 -0.4181743295226627 0 0.083883622341622388 -0.40712092471083172 0 0.083883622341622388 -0.40712092471083172 0 0.089217565913301738 -0.42362529331215809 0 0.1056030573898955 -0.40740280712496202 0 0.074715648074151597 -0.4181743295226627 0 0.083883622341622388 -0.40712092471083172 0 0.089217565913301738 -0.42362529331215809 0 0.090305203138415363 -0.44248356056362131 0 0.069885720902268106 -0.43207259930295377 0 0.089217565913301738 -0.42362529331215809 0 0.090305203138415363 -0.44248356056362131 0 0.069885720902268106 -0.43207259930295377 0 0.090305203138415363 -0.44248356056362131 0 0.089217565913301738 -0.42362529331215809 0 0.1072766144597409 -0.43442707612223591 0 0.1158316758994489 -0.44238537288630009 0 0.1072766144597409 -0.43442707612223591 0 0.12374280164977521 -0.42538271748192041 0 0.1072766144597409 -0.43442707612223591 0 0.12374280164977521 -0.42538271748192041 0 0.1056030573898955 -0.40740280712496202 0 0.12374280164977521 -0.42538271748192041 0 0.1056030573898955 -0.40740280712496202 0 0.1209898220595844 -0.40370284902414949 0 0.12374280164977521 -0.42538271748192041 0 0.1056030573898955 -0.40740280712496202 0 0.089217565913301738 -0.42362529331215809 0 0.1072766144597409 -0.43442707612223591 0 0.1056030573898955 -0.40740280712496202 0 0.1056030573898955 -0.40740280712496202 0 0.107566532672053 -0.39281383335860443 0 0.087463313130015985 -0.38942289676800368 0 0.1056030573898955 -0.40740280712496202 0 0.087463313130015985 -0.38942289676800368 0 0.1056030573898955 -0.40740280712496202 0 0.107566532672053 -0.39281383335860443 0 0.1209898220595844 -0.40370284902414949 0 0.13201804517357421 -0.39750898726675771 0 0.1209898220595844 -0.40370284902414949 0 0.1213060936813638 -0.38723960941902003 0 0.107566532672053 -0.39281383335860443 0 0.1209898220595844 -0.40370284902414949 0 0.1213060936813638 -0.38723960941902003 0 0.12792751609649039 -0.37726865906405288 0 0.1213060936813638 -0.38723960941902003 0 0.1164146599960711 -0.37524153280570721 0 0.107566532672053 -0.39281383335860443 0 0.1213060936813638 -0.38723960941902003 0 0.1090356456702045 -0.38176826908647898 0 0.1164146599960711 -0.37524153280570721 0 0.1090356456702045 -0.38176826908647898 0 0.1039233168020009 -0.37145032694897551 0 0.1213060936813638 -0.38723960941902003 0 0.1164146599960711 -0.37524153280570721 0 0.1090356456702045 -0.38176826908647898 0 0.107566532672053 -0.39281383335860443 0 0.098380037517688534 -0.38548416439057459 0 0.087463313130015985 -0.38942289676800368 0 0.1090356456702045 -0.38176826908647898 0 0.098380037517688534 -0.38548416439057459 0 0.1039233168020009 -0.37145032694897551 0 0.107566532672053 -0.39281383335860443 0 0.1090356456702045 -0.38176826908647898 0 0.098380037517688534 -0.38548416439057459 0 0.098380037517688534 -0.38548416439057459 0 0.1039233168020009 -0.37145032694897551 0 0.076443977171130453 -0.37254185469649842 0 0.098380037517688534 -0.38548416439057459 0 0.087463313130015985 -0.38942289676800368 0 0.076443977171130453 -0.37254185469649842 0 0.098380037517688534 -0.38548416439057459 0 0.076443977171130453 -0.37254185469649842 0 0.083883622341622388 -0.40712092471083172 0 0.087463313130015985 -0.38942289676800368 0 0.072483060867278543 -0.39591757505902431 0 0.083883622341622388 -0.40712092471083172 0 0.1056030573898955 -0.40740280712496202 0 0.087463313130015985 -0.38942289676800368 0 0.07071473835907259 -0.40746517945643979 0 0.083883622341622388 -0.40712092471083172 0 0.072483060867278543 -0.39591757505902431 0 0.07071473835907259 -0.40746517945643979 0 0.072483060867278543 -0.39591757505902431 0 0.060446896233721112 -0.40025939265128058 0 0.072483060867278543 -0.39591757505902431 0 0.060233496241899782 -0.38788232401321432 0 0.060446896233721112 -0.40025939265128058 0 0.070332914600425553 -0.38371585737769093 0 0.076443977171130453 -0.37254185469649842 0 0.05139395699797529 -0.37353688559834319 0 0.087463313130015985 -0.38942289676800368 0 0.072483060867278543 -0.39591757505902431 0 0.070332914600425553 -0.38371585737769093 0 0.087463313130015985 -0.38942289676800368 0 0.070332914600425553 -0.38371585737769093 0 0.076443977171130453 -0.37254185469649842 0 0.072483060867278543 -0.39591757505902431 0 0.070332914600425553 -0.38371585737769093 0 0.060233496241899782 -0.38788232401321432 0 0.070332914600425553 -0.38371585737769093 0 0.060233496241899782 -0.38788232401321432 0 0.05139395699797529 -0.37353688559834319 0 0.051343147986104808 -0.3852933656338009 0 0.060233496241899782 -0.38788232401321432 0 0.050675658240316099 -0.39274971881130433 0 0.051343147986104808 -0.3852933656338009 0 0.050675658240316099 -0.39274971881130433 0 0.043069480464228073 -0.38700453411234181 0 0.051343147986104808 -0.3852933656338009 0 0.060233496241899782 -0.38788232401321432 0 0.05139395699797529 -0.37353688559834319 0 0.051343147986104808 -0.3852933656338009 0 0.043069480464228073 -0.38700453411234181 0 0.05139395699797529 -0.37353688559834319 0 0.060233496241899782 -0.38788232401321432 0 0.060446896233721112 -0.40025939265128058 0 0.050675658240316099 -0.39274971881130433 0 0.047508685247253803 -0.40220216310346601 0 0.050675658240316099 -0.39274971881130433 0 0.042588206009024562 -0.3953922707103788 0 0.060446896233721112 -0.40025939265128058 0 0.047508685247253803 -0.40220216310346601 0 0.050675658240316099 -0.39274971881130433 0 0.042588206009024562 -0.3953922707103788 0 0.036629393159651608 -0.3911503235536084 0 0.043069480464228073 -0.38700453411234181 0 0.050675658240316099 -0.39274971881130433 0 0.042588206009024562 -0.3953922707103788 0 0.043069480464228073 -0.38700453411234181 0 0.047508685247253803 -0.40220216310346601 0 0.037427134314921208 -0.4035218724548435 0 0.036921103270264093 -0.40159466515830022 0 0.047508685247253803 -0.40220216310346601 0 0.042588206009024562 -0.3953922707103788 0 0.036921103270264093 -0.40159466515830022 0 0.047508685247253803 -0.40220216310346601 0 0.037427134314921208 -0.4035218724548435 0 0.037427134314921208 -0.4035218724548435 0 0.036921103270264093 -0.40159466515830022 0 0.042588206009024562 -0.3953922707103788 0 0.036921103270264093 -0.40159466515830022 0 0.036629393159651608 -0.3911503235536084 0 0.036921103270264093 -0.40159466515830022 0 0.036629393159651608 -0.3911503235536084 0 0.026036021926684701 -0.39075784818509379 0 0.036629393159651608 -0.3911503235536084 0 0.043069480464228073 -0.38700453411234181 0 0.036076728232781859 -0.38271230102191861 0 0.036629393159651608 -0.3911503235536084 0 0.036076728232781859 -0.38271230102191861 0 0.026036021926684701 -0.39075784818509379 0 0.036076728232781859 -0.38271230102191861 0 0.05139395699797529 -0.37353688559834319 0 0.026343936824820141 -0.37453191650018808 0 0.043069480464228073 -0.38700453411234181 0 0.036076728232781859 -0.38271230102191861 0 0.05139395699797529 -0.37353688559834319 0 0.036076728232781859 -0.38271230102191861 0 0.026036021926684701 -0.39075784818509379 0 0.026343936824820141 -0.37453191650018808 0 0.0137497604529848 -0.38746609095079099 0 0.026036021926684701 -0.39075784818509379 0 0.026343936824820141 -0.37453191650018808 0 0.0137497604529848 -0.38746609095079099 0 0.00028119204996319801 -0.39109590938555239 0 0.0064397945350947311 -0.37378650621160159 0 0.0137497604529848 -0.38746609095079099 0 0.026343936824820141 -0.37453191650018808 0 0.0064397945350947311 -0.37378650621160159 0 -0.0065701789597016232 -0.39935381391183961 0 0.00028119204996319801 -0.39109590938555239 0 0.0096478569283612071 -0.40715827447151909 0 0.0137497604529848 -0.38746609095079099 0 0.00028119204996319801 -0.39109590938555239 0 0.0096478569283612071 -0.40715827447151909 0 0.037427134314921208 -0.4035218724548435 0 0.036921103270264093 -0.40159466515830022 0 0.0096478569283612071 -0.40715827447151909 0 0.037427134314921208 -0.4035218724548435 0 0.0096478569283612071 -0.40715827447151909 0 0.0137497604529848 -0.38746609095079099 0 0.026036021926684701 -0.39075784818509379 0 0.0096478569283612071 -0.40715827447151909 0 0.036921103270264093 -0.40159466515830022 0 0.026036021926684701 -0.39075784818509379 0 0.0096478569283612071 -0.40715827447151909 0 0.037427134314921208 -0.4035218724548435 0 0.025371226056169462 -0.42137007787662678 0 0.0096478569283612071 -0.40715827447151909 0 0.025371226056169462 -0.42137007787662678 0 0.0096478569283612071 -0.40715827447151909 0 0.0086228470973496642 -0.43408322599107407 0 -0.0035836006262223211 -0.42109404790360599 0 0.0096478569283612071 -0.40715827447151909 0 0.0086228470973496642 -0.43408322599107407 0 0.025371226056169462 -0.42137007787662678 0 0.0086228470973496642 -0.43408322599107407 0 0.028513964141454622 -0.44197102464839028 0 0.043186886230057057 -0.42545775175381179 0 0.048946638145192962 -0.44739363105278018 0 0.025371226056169462 -0.42137007787662678 0 0.043186886230057057 -0.42545775175381179 0 0.028513964141454622 -0.44197102464839028 0 0.037427134314921208 -0.4035218724548435 0 0.025371226056169462 -0.42137007787662678 0 0.043186886230057057 -0.42545775175381179 0 0.037427134314921208 -0.4035218724548435 0 0.043186886230057057 -0.42545775175381179 0 0.047508685247253803 -0.40220216310346601 0 0.037427134314921208 -0.4035218724548435 0 0.043186886230057057 -0.42545775175381179 0 0.047508685247253803 -0.40220216310346601 0 0.043186886230057057 -0.42545775175381179 0 0.058599789705156058 -0.41661050257197391 0 0.060446896233721112 -0.40025939265128058 0 0.047508685247253803 -0.40220216310346601 0 0.058599789705156058 -0.41661050257197391 0 0.069885720902268106 -0.43207259930295377 0 0.058599789705156058 -0.41661050257197391 0 0.056858208183458103 -0.43302463548837872 0 0.043186886230057057 -0.42545775175381179 0 0.056858208183458103 -0.43302463548837872 0 0.048946638145192962 -0.44739363105278018 0 0.043186886230057057 -0.42545775175381179 0 0.058599789705156058 -0.41661050257197391 0 0.056858208183458103 -0.43302463548837872 0 0.063672005934616277 -0.44358869276037399 0 0.056858208183458103 -0.43302463548837872 0 0.048946638145192962 -0.44739363105278018 0 0.062843238203410756 -0.45696807086553948 0 0.063672005934616277 -0.44358869276037399 0 0.048946638145192962 -0.44739363105278018 0 0.062843238203410756 -0.45696807086553948 0 0.048946638145192962 -0.44739363105278018 0 0.05470639006032884 -0.46932951035174858 0 0.048946638145192962 -0.44739363105278018 0 0.05470639006032884 -0.46932951035174858 0 0.068508440886934197 -0.46670589250502909 0 0.062843238203410756 -0.45696807086553948 0 0.05470639006032884 -0.46932951035174858 0 0.048946638145192962 -0.44739363105278018 0 0.03530607136770747 -0.45830070625332348 0 0.05470639006032884 -0.46932951035174858 0 0.03530607136770747 -0.45830070625332348 0 0.034717786677265328 -0.47309004718301018 0 0.05470639006032884 -0.46932951035174858 0 0.048946638145192962 -0.44739363105278018 0 0.03530607136770747 -0.45830070625332348 0 0.028513964141454622 -0.44197102464839028 0 0.043186886230057057 -0.42545775175381179 0 0.048946638145192962 -0.44739363105278018 0 0.028513964141454622 -0.44197102464839028 0 0.0086228470973496642 -0.43408322599107407 0 0.028513964141454622 -0.44197102464839028 0 0.016047004114265549 -0.45998468448422142 0 -0.00063600287822451068 -0.45042270870384937 0 0.0086228470973496642 -0.43408322599107407 0 0.016047004114265549 -0.45998468448422142 0 -0.00063600287822451068 -0.45042270870384937 0 -0.0031950402278951582 -0.47355988848270247 0 0.016047004114265549 -0.45998468448422142 0 0.03530607136770747 -0.45830070625332348 0 0.016047004114265549 -0.45998468448422142 0 0.034717786677265328 -0.47309004718301018 0 0.03530607136770747 -0.45830070625332348 0 0.028513964141454622 -0.44197102464839028 0 0.016047004114265549 -0.45998468448422142 0 0.016047004114265549 -0.45998468448422142 0 0.02020540504909386 -0.48083132847119081 0 0.034717786677265328 -0.47309004718301018 0 0.02020540504909386 -0.48083132847119081 0 0.035389538258226591 -0.48494494026823948 0 0.034717786677265328 -0.47309004718301018 0 -0.0031950402278951582 -0.47355988848270247 0 0.016047004114265549 -0.45998468448422142 0 0.02020540504909386 -0.48083132847119081 0 -0.0031950402278951582 -0.47355988848270247 0 0.02020540504909386 -0.48083132847119081 0 0.010254380259800079 -0.5 0 0.010254380259800079 -0.5 0 0.02784707001121756 -0.49317623447378889 0 0.039328602537678559 -0.5 0 0.02020540504909386 -0.48083132847119081 0 0.010254380259800079 -0.5 0 0.02784707001121756 -0.49317623447378889 0 0.02020540504909386 -0.48083132847119081 0 0.02784707001121756 -0.49317623447378889 0 0.035389538258226591 -0.48494494026823948 0 0.02784707001121756 -0.49317623447378889 0 0.039328602537678559 -0.5 0 0.044156605993341112 -0.49222081206225288 0 0.02784707001121756 -0.49317623447378889 0 0.044156605993341112 -0.49222081206225288 0 0.035389538258226591 -0.48494494026823948 0 0.02784707001121756 -0.49317623447378889 0 0.044156605993341112 -0.49222081206225288 0 0.044156605993341112 -0.49222081206225288 0 0.035389538258226591 -0.48494494026823948 0 0.047581434966699677 -0.4821075234638863 0 0.034717786677265328 -0.47309004718301018 0 0.047581434966699677 -0.4821075234638863 0 0.05470639006032884 -0.46932951035174858 0 0.035389538258226591 -0.48494494026823948 0 0.034717786677265328 -0.47309004718301018 0 0.047581434966699677 -0.4821075234638863 0 0.047581434966699677 -0.4821075234638863 0 0.05470639006032884 -0.46932951035174858 0 0.060466141975464648 -0.49126538965071698 0 0.065342577045435585 -0.48255073840761481 0 0.05470639006032884 -0.46932951035174858 0 0.060466141975464648 -0.49126538965071698 0 0.05470639006032884 -0.46932951035174858 0 0.060466141975464648 -0.49126538965071698 0 0.065342577045435585 -0.48255073840761481 0 0.064530391024906181 -0.4739287368096779 0 0.05470639006032884 -0.46932951035174858 0 0.044156605993341112 -0.49222081206225288 0 0.060466141975464648 -0.49126538965071698 0 0.039328602537678559 -0.5 0 0.044156605993341112 -0.49222081206225288 0 0.060466141975464648 -0.49126538965071698 0 0.06840282481555704 -0.5 0 0.039328602537678559 -0.5 0 0.060466141975464648 -0.49126538965071698 0 0.044156605993341112 -0.49222081206225288 0 0.047581434966699677 -0.4821075234638863 0 0.060466141975464648 -0.49126538965071698 0 0.082598381704794666 -0.28127596123230048 0 0.087590134178308021 -0.30339166748991542 0 0.095476511833910621 -0.29021055830859133 0 0.082598381704794666 -0.28127596123230048 0 0.087590134178308021 -0.30339166748991542 0 0.068753969264882406 -0.29590646793094078 0 0.082598381704794666 -0.28127596123230048 0 0.087590134178308021 -0.30339166748991542 0 0.087590134178308021 -0.30339166748991542 0 0.083441717661050407 -0.31859860290080849 0 0.072614879554170841 -0.31267978498903609 0 0.087590134178308021 -0.30339166748991542 0 0.068753969264882406 -0.29590646793094078 0 0.072614879554170841 -0.31267978498903609 0 0.068753969264882406 -0.29590646793094078 0 0.072614879554170841 -0.31267978498903609 0 0.054909556824970181 -0.31053697462958119 0 0.068753969264882406 -0.29590646793094078 0 0.063412701726820772 -0.28289312113853538 0 0.056183321560734113 -0.29326967712824431 0 0.082598381704794666 -0.28127596123230048 0 0.068753969264882406 -0.29590646793094078 0 0.063412701726820772 -0.28289312113853538 0 0.082598381704794666 -0.28127596123230048 0 0.068753969264882406 -0.29590646793094078 0 0.082598381704794666 -0.28127596123230048 0 0.077103636391453137 -0.2569317706990028 0 0.061417581027768127 -0.26650687231348219 0 0.082598381704794666 -0.28127596123230048 0 0.063412701726820772 -0.28289312113853538 0 0.061417581027768127 -0.26650687231348219 0 0.077103636391453137 -0.2569317706990028 0 0.049469282095688592 -0.25080690235199599 0 0.061417581027768127 -0.26650687231348219 0 0.077103636391453137 -0.2569317706990028 0 0.1020329899664829 -0.26073784395269961 0 0.097339208476673211 -0.23748768981959781 0 0.082598381704794666 -0.28127596123230048 0 0.077103636391453137 -0.2569317706990028 0 0.1020329899664829 -0.26073784395269961 0 0.082598381704794666 -0.28127596123230048 0 0.077103636391453137 -0.2569317706990028 0 0.082598381704794666 -0.28127596123230048 0 0.1020329899664829 -0.26073784395269961 0 0.082598381704794666 -0.28127596123230048 0 0.1077806962431261 -0.27752194908132799 0 0.1020329899664829 -0.26073784395269961 0 0.1020329899664829 -0.26073784395269961 0 0.1214675982281712 -0.24019972667309869 0 0.13222908187911531 -0.26016936100608751 0 0.1186124347047576 -0.26252979206140231 0 0.1214675982281712 -0.24019972667309869 0 0.1020329899664829 -0.26073784395269961 0 0.1186124347047576 -0.26252979206140231 0 0.1214675982281712 -0.24019972667309869 0 0.1077806962431261 -0.27752194908132799 0 0.1020329899664829 -0.26073784395269961 0 0.1186124347047576 -0.26252979206140231 0 0.1272030319447387 -0.2778015957948336 0 0.1077806962431261 -0.27752194908132799 0 0.1186124347047576 -0.26252979206140231 0 0.1272030319447387 -0.2778015957948336 0 0.1077806962431261 -0.27752194908132799 0 0.1178463957341977 -0.29158266691672158 0 0.1178463957341977 -0.29158266691672158 0 0.1065907386655372 -0.28876560290406728 0 0.10468907999331011 -0.29847584557975487 0 0.1077806962431261 -0.27752194908132799 0 0.1178463957341977 -0.29158266691672158 0 0.1065907386655372 -0.28876560290406728 0 0.082598381704794666 -0.28127596123230048 0 0.1077806962431261 -0.27752194908132799 0 0.095476511833910621 -0.29021055830859133 0 0.1077806962431261 -0.27752194908132799 0 0.1065907386655372 -0.28876560290406728 0 0.095476511833910621 -0.29021055830859133 0 0.1065907386655372 -0.28876560290406728 0 0.095476511833910621 -0.29021055830859133 0 0.10468907999331011 -0.29847584557975487 0 0.087590134178308021 -0.30339166748991542 0 0.10468907999331011 -0.29847584557975487 0 0.104054246079667 -0.31088436586856522 0 0.087590134178308021 -0.30339166748991542 0 0.095476511833910621 -0.29021055830859133 0 0.10468907999331011 -0.29847584557975487 0 0.10468907999331011 -0.29847584557975487 0 0.104054246079667 -0.31088436586856522 0 0.11738380981796501 -0.30396624782269999 0 0.104054246079667 -0.31088436586856522 0 0.11738380981796501 -0.30396624782269999 0 0.1203941193033673 -0.31837813267550791 0 0.1178463957341977 -0.29158266691672158 0 0.10468907999331011 -0.29847584557975487 0 0.11738380981796501 -0.30396624782269999 0 0.13053758301298499 -0.29636142867308402 0 0.1178463957341977 -0.29158266691672158 0 0.11738380981796501 -0.30396624782269999 0 0.13266161500930471 -0.30904900062903901 0 0.11738380981796501 -0.30396624782269999 0 0.1203941193033673 -0.31837813267550791 0 0.13324222997277371 -0.32303645629870897 0 0.1203941193033673 -0.31837813267550791 0 0.1095367640186979 -0.33343752877432592 0 0.1203941193033673 -0.31837813267550791 0 0.1095367640186979 -0.33343752877432592 0 0.1044151059630069 -0.32854947763989162 0 0.1250735408798111 -0.33663343214137548 0 0.13324222997277371 -0.32303645629870897 0 0.1095367640186979 -0.33343752877432592 0 0.13324222997277371 -0.32303645629870897 0 0.1095367640186979 -0.33343752877432592 0 0.1095367640186979 -0.33343752877432592 0 0.1213129697435847 -0.3465973439883393 0 0.110099681114901 -0.35051122895870579 0 0.1250735408798111 -0.33663343214137548 0 0.1095367640186979 -0.33343752877432592 0 0.1213129697435847 -0.3465973439883393 0 0.1095367640186979 -0.33343752877432592 0 0.1044151059630069 -0.32854947763989162 0 0.095147653878141225 -0.3368748753622024 0 0.1095367640186979 -0.33343752877432592 0 0.10033756429307709 -0.34635917444208503 0 0.085831298064622252 -0.34383860124994281 0 0.1095367640186979 -0.33343752877432592 0 0.095147653878141225 -0.3368748753622024 0 0.085831298064622252 -0.34383860124994281 0 0.1095367640186979 -0.33343752877432592 0 0.085831298064622252 -0.34383860124994281 0 0.1095367640186979 -0.33343752877432592 0 0.110099681114901 -0.35051122895870579 0 0.10033756429307709 -0.34635917444208503 0 0.1044151059630069 -0.32854947763989162 0 0.095147653878141225 -0.3368748753622024 0 0.092581886651821266 -0.32550737374753053 0 0.095147653878141225 -0.3368748753622024 0 0.092581886651821266 -0.32550737374753053 0 0.1203941193033673 -0.31837813267550791 0 0.092581886651821266 -0.32550737374753053 0 0.1203941193033673 -0.31837813267550791 0 0.1044151059630069 -0.32854947763989162 0 0.092581886651821266 -0.32550737374753053 0 0.087590134178308021 -0.30339166748991542 0 0.104054246079667 -0.31088436586856522 0 0.092581886651821266 -0.32550737374753053 0 0.104054246079667 -0.31088436586856522 0 0.1203941193033673 -0.31837813267550791 0 0.092581886651821266 -0.32550737374753053 0 0.1164146599960711 -0.37524153280570721 0 0.1227092171370263 -0.36881370275337799 0 0.1119398196628066 -0.36372959918612779 0 0.1164146599960711 -0.37524153280570721 0 0.1119398196628066 -0.36372959918612779 0 0.1039233168020009 -0.37145032694897551 0 0.12792751609649039 -0.37726865906405288 0 0.1164146599960711 -0.37524153280570721 0 0.1227092171370263 -0.36881370275337799 0 0.1227092171370263 -0.36881370275337799 0 0.1119398196628066 -0.36372959918612779 0 0.1219235494000302 -0.35822020220788092 0 0.1119398196628066 -0.36372959918612779 0 0.1219235494000302 -0.35822020220788092 0 0.110099681114901 -0.35051122895870579 0 0.13049570055047649 -0.35285864689292928 0 0.1219235494000302 -0.35822020220788092 0 0.1213129697435847 -0.3465973439883393 0 0.1219235494000302 -0.35822020220788092 0 0.1213129697435847 -0.3465973439883393 0 0.110099681114901 -0.35051122895870579 0 0.1119398196628066 -0.36372959918612779 0 0.110099681114901 -0.35051122895870579 0 0.095882513974087452 -0.35764933878536548 0 0.110099681114901 -0.35051122895870579 0 0.10033756429307709 -0.34635917444208503 0 0.095882513974087452 -0.35764933878536548 0 0.10033756429307709 -0.34635917444208503 0 0.095882513974087452 -0.35764933878536548 0 0.085831298064622252 -0.34383860124994281 0 0.1119398196628066 -0.36372959918612779 0 0.095882513974087452 -0.35764933878536548 0 0.1039233168020009 -0.37145032694897551 0 0.1039233168020009 -0.37145032694897551 0 0.076443977171130453 -0.37254185469649842 0 0.095882513974087452 -0.35764933878536548 0 0.1039233168020009 -0.37145032694897551 0 0.076443977171130453 -0.37254185469649842 0 0.095882513974087452 -0.35764933878536548 0 0.081329640333080863 -0.35528746138775352 0 0.076443977171130453 -0.37254185469649842 0 0.095882513974087452 -0.35764933878536548 0 0.081329640333080863 -0.35528746138775352 0 0.085831298064622252 -0.34383860124994281 0 0.081329640333080863 -0.35528746138775352 0 0.085831298064622252 -0.34383860124994281 0 0.075809931037895073 -0.34362300219963698 0 0.081329640333080863 -0.35528746138775352 0 0.069233176510665836 -0.35295156225574431 0 0.075809931037895073 -0.34362300219963698 0 0.069233176510665836 -0.35295156225574431 0 0.075809931037895073 -0.34362300219963698 0 0.066394029104130614 -0.34318550843088008 0 0.069233176510665836 -0.35295156225574431 0 0.066394029104130614 -0.34318550843088008 0 0.058815125931141937 -0.3493692332051897 0 0.076443977171130453 -0.37254185469649842 0 0.05139395699797529 -0.37353688559834319 0 0.069233176510665836 -0.35295156225574431 0 0.076443977171130453 -0.37254185469649842 0 0.054969558943847141 -0.35987191457020651 0 0.081329640333080863 -0.35528746138775352 0 0.069233176510665836 -0.35295156225574431 0 0.076443977171130453 -0.37254185469649842 0 0.076443977171130453 -0.37254185469649842 0 0.054969558943847141 -0.35987191457020651 0 0.087590134178308021 -0.30339166748991542 0 0.083441717661050407 -0.31859860290080849 0 0.092581886651821266 -0.32550737374753053 0 0.087590134178308021 -0.30339166748991542 0 0.092581886651821266 -0.32550737374753053 0 0.083441717661050407 -0.31859860290080849 0 0.087790626431674401 -0.32673554012942629 0 0.076631061489277508 -0.32467864814813452 0 0.083441717661050407 -0.31859860290080849 0 0.087790626431674401 -0.32673554012942629 0 0.092581886651821266 -0.32550737374753053 0 0.087790626431674401 -0.32673554012942629 0 0.092581886651821266 -0.32550737374753053 0 0.095147653878141225 -0.3368748753622024 0 0.092581886651821266 -0.32550737374753053 0 0.088799068838440784 -0.33362252796510772 0 0.087790626431674401 -0.32673554012942629 0 0.092581886651821266 -0.32550737374753053 0 0.088799068838440784 -0.33362252796510772 0 0.087790626431674401 -0.32673554012942629 0 0.088799068838440784 -0.33362252796510772 0 0.081355573492556038 -0.33438516535429602 0 0.095147653878141225 -0.3368748753622024 0 0.085831298064622252 -0.34383860124994281 0 0.088799068838440784 -0.33362252796510772 0 0.085831298064622252 -0.34383860124994281 0 0.088799068838440784 -0.33362252796510772 0 0.081355573492556038 -0.33438516535429602 0 0.085831298064622252 -0.34383860124994281 0 0.081355573492556038 -0.33438516535429602 0 0.075809931037895073 -0.34362300219963698 0 0.087790626431674401 -0.32673554012942629 0 0.081355573492556038 -0.33438516535429602 0 0.076631061489277508 -0.32467864814813452 0 0.081355573492556038 -0.33438516535429602 0 0.071580151504723077 -0.33372903173462981 0 0.076631061489277508 -0.32467864814813452 0 0.081355573492556038 -0.33438516535429602 0 0.071580151504723077 -0.33372903173462981 0 0.075809931037895073 -0.34362300219963698 0 0.071580151504723077 -0.33372903173462981 0 0.075809931037895073 -0.34362300219963698 0 0.066394029104130614 -0.34318550843088008 0 0.071580151504723077 -0.33372903173462981 0 0.066394029104130614 -0.34318550843088008 0 0.056531760536227188 -0.33625471275919949 0 0.071580151504723077 -0.33372903173462981 0 0.063380796221354535 -0.32346484097258599 0 0.056531760536227188 -0.33625471275919949 0 0.063380796221354535 -0.32346484097258599 0 0.072614879554170841 -0.31267978498903609 0 0.054909556824970181 -0.31053697462958119 0 0.071580151504723077 -0.33372903173462981 0 0.063380796221354535 -0.32346484097258599 0 0.076631061489277508 -0.32467864814813452 0 0.083441717661050407 -0.31859860290080849 0 0.076631061489277508 -0.32467864814813452 0 0.072614879554170841 -0.31267978498903609 0 0.063380796221354535 -0.32346484097258599 0 0.076631061489277508 -0.32467864814813452 0 0.072614879554170841 -0.31267978498903609 0 0.048147865799649532 -0.32220865907583368 0 0.038939485077069153 -0.3072357678893039 0 0.054909556824970181 -0.31053697462958119 0 0.063380796221354535 -0.32346484097258599 0 0.048147865799649532 -0.32220865907583368 0 0.054909556824970181 -0.31053697462958119 0 0.063380796221354535 -0.32346484097258599 0 0.048147865799649532 -0.32220865907583368 0 0.056531760536227188 -0.33625471275919949 0 0.056531760536227188 -0.33625471275919949 0 0.058815125931141937 -0.3493692332051897 0 0.048943802927042132 -0.34557136339138728 0 0.066394029104130614 -0.34318550843088008 0 0.056531760536227188 -0.33625471275919949 0 0.058815125931141937 -0.3493692332051897 0 0.056531760536227188 -0.33625471275919949 0 0.043685611289478031 -0.33461626706229458 0 0.048943802927042132 -0.34557136339138728 0 0.048147865799649532 -0.32220865907583368 0 0.056531760536227188 -0.33625471275919949 0 0.043685611289478031 -0.33461626706229458 0 0.031439984848798147 -0.32114339114203749 0 0.033495140716564308 -0.34720197444391382 0 0.043685611289478031 -0.33461626706229458 0 0.031439984848798147 -0.32114339114203749 0 0.033495140716564308 -0.34720197444391382 0 0.043685611289478031 -0.33461626706229458 0 0.048943802927042132 -0.34557136339138728 0 0.033495140716564308 -0.34720197444391382 0 0.048147865799649532 -0.32220865907583368 0 0.031439984848798147 -0.32114339114203749 0 0.038939485077069153 -0.3072357678893039 0 0.048147865799649532 -0.32220865907583368 0 0.043685611289478031 -0.33461626706229458 0 0.031439984848798147 -0.32114339114203749 0 0.076443977171130453 -0.37254185469649842 0 0.05139395699797529 -0.37353688559834319 0 0.054969558943847141 -0.35987191457020651 0 0.05139395699797529 -0.37353688559834319 0 0.054969558943847141 -0.35987191457020651 0 0.037073464601224189 -0.36133099869415758 0 0.054969558943847141 -0.35987191457020651 0 0.058815125931141937 -0.3493692332051897 0 0.048943802927042132 -0.34557136339138728 0 0.069233176510665836 -0.35295156225574431 0 0.054969558943847141 -0.35987191457020651 0 0.058815125931141937 -0.3493692332051897 0 0.054969558943847141 -0.35987191457020651 0 0.033495140716564308 -0.34720197444391382 0 0.037073464601224189 -0.36133099869415758 0 0.054969558943847141 -0.35987191457020651 0 0.048943802927042132 -0.34557136339138728 0 0.033495140716564308 -0.34720197444391382 0 0.054969558943847141 -0.35987191457020651 0 0.033495140716564308 -0.34720197444391382 0 0.033495140716564308 -0.34720197444391382 0 0.031173611150742839 -0.35291126436636322 0 0.0303883728555112 -0.3479479534036844 0 0.033495140716564308 -0.34720197444391382 0 0.037073464601224189 -0.36133099869415758 0 0.031173611150742839 -0.35291126436636322 0 0.037073464601224189 -0.36133099869415758 0 0.02949102760058819 -0.35799921444080568 0 0.031173611150742839 -0.35291126436636322 0 0.05139395699797529 -0.37353688559834319 0 0.037073464601224189 -0.36133099869415758 0 0.026343936824820141 -0.37453191650018808 0 0.05139395699797529 -0.37353688559834319 0 0.026343936824820141 -0.37453191650018808 0 0.037073464601224189 -0.36133099869415758 0 0.02857364069460399 -0.3635589485722116 0 0.02949102760058819 -0.35799921444080568 0 0.026343936824820141 -0.37453191650018808 0 0.021386133751783401 -0.36037366465369469 0 0.0064397945350947311 -0.37378650621160159 0 0.037073464601224189 -0.36133099869415758 0 0.026343936824820141 -0.37453191650018808 0 0.02857364069460399 -0.3635589485722116 0 0.026343936824820141 -0.37453191650018808 0 0.02857364069460399 -0.3635589485722116 0 0.021386133751783401 -0.36037366465369469 0 0.02857364069460399 -0.3635589485722116 0 0.021386133751783401 -0.36037366465369469 0 0.02949102760058819 -0.35799921444080568 0 0.021386133751783401 -0.36037366465369469 0 0.02540682776771018 -0.34990852830218772 0 0.016684420710394179 -0.34669873021559322 0 0.02949102760058819 -0.35799921444080568 0 0.031173611150742839 -0.35291126436636322 0 0.02540682776771018 -0.34990852830218772 0 0.021386133751783401 -0.36037366465369469 0 0.02949102760058819 -0.35799921444080568 0 0.02540682776771018 -0.34990852830218772 0 0.02540682776771018 -0.34990852830218772 0 0.027799768100569382 -0.34384169574961709 0 0.021254273712787122 -0.34142707763045471 0 0.031173611150742839 -0.35291126436636322 0 0.02540682776771018 -0.34990852830218772 0 0.0303883728555112 -0.3479479534036844 0 0.033495140716564308 -0.34720197444391382 0 0.0303883728555112 -0.3479479534036844 0 0.027799768100569382 -0.34384169574961709 0 0.033495140716564308 -0.34720197444391382 0 0.027799768100569382 -0.34384169574961709 0 0.02540682776771018 -0.34990852830218772 0 0.0303883728555112 -0.3479479534036844 0 0.027799768100569382 -0.34384169574961709 0 0.02540682776771018 -0.34990852830218772 0 0.016684420710394179 -0.34669873021559322 0 0.021254273712787122 -0.34142707763045471 0 0.016684420710394179 -0.34669873021559322 0 0.0063003120656644216 -0.34388798576577179 0 0.0072896530918497614 -0.3572746125926608 0 -0.0035546916292847502 -0.35191356541576851 0 0.0063003120656644216 -0.34388798576577179 0 0.0072896530918497614 -0.3572746125926608 0 0.021386133751783401 -0.36037366465369469 0 0.016684420710394179 -0.34669873021559322 0 0.0072896530918497614 -0.3572746125926608 0 -0.0044151325190836394 -0.36555497356786892 0 0.0072896530918497614 -0.3572746125926608 0 0.0064397945350947311 -0.37378650621160159 0 0.021386133751783401 -0.36037366465369469 0 0.0072896530918497614 -0.3572746125926608 0 0.0064397945350947311 -0.37378650621160159 0 0.031439984848798147 -0.32114339114203749 0 0.01951748034400079 -0.33467004971605141 0 0.0144894786246352 -0.32019546967828272 0 0.031439984848798147 -0.32114339114203749 0 0.0144894786246352 -0.32019546967828272 0 0.019339547095335679 -0.308619028409511 0 0.031439984848798147 -0.32114339114203749 0 0.027799768100569382 -0.34384169574961709 0 0.01951748034400079 -0.33467004971605141 0 0.031439984848798147 -0.32114339114203749 0 0.033495140716564308 -0.34720197444391382 0 0.027799768100569382 -0.34384169574961709 0 0.016684420710394179 -0.34669873021559322 0 0.021254273712787122 -0.34142707763045471 0 0.01951748034400079 -0.33467004971605141 0 0.027799768100569382 -0.34384169574961709 0 0.021254273712787122 -0.34142707763045471 0 0.01951748034400079 -0.33467004971605141 0 0.0063003120656644216 -0.34388798576577179 0 0.01951748034400079 -0.33467004971605141 0 0.0072742440764781337 -0.32873799983209401 0 0.016684420710394179 -0.34669873021559322 0 0.0063003120656644216 -0.34388798576577179 0 0.01951748034400079 -0.33467004971605141 0 -0.0052977523197558392 -0.33907190723812147 0 0.0063003120656644216 -0.34388798576577179 0 0.0072742440764781337 -0.32873799983209401 0 -0.0073090187898726703 -0.32644714733581232 0 0.0072742440764781337 -0.32873799983209401 0 0.0019524439344398539 -0.31934945332578601 0 0.0072742440764781337 -0.32873799983209401 0 0.0144894786246352 -0.32019546967828272 0 0.0019524439344398539 -0.31934945332578601 0 0.01951748034400079 -0.33467004971605141 0 0.0072742440764781337 -0.32873799983209401 0 0.0144894786246352 -0.32019546967828272 0 0.0144894786246352 -0.32019546967828272 0 0.0019524439344398539 -0.31934945332578601 0 0.0077678606697885611 -0.30863260880146182 0 -0.0074209204564366664 -0.31244580551942253 0 0.0019524439344398539 -0.31934945332578601 0 0.0077678606697885611 -0.30863260880146182 0 -0.0074209204564366664 -0.31244580551942253 0 0.0077678606697885611 -0.30863260880146182 0 0.00070050571613747476 -0.2985815963608216 0 0.0077678606697885611 -0.30863260880146182 0 0.00070050571613747476 -0.2985815963608216 0 0.012815757529628449 -0.29982540799296598 0 0.0077678606697885611 -0.30863260880146182 0 0.012815757529628449 -0.29982540799296598 0 0.019339547095335679 -0.308619028409511 0 0.0144894786246352 -0.32019546967828272 0 0.0077678606697885611 -0.30863260880146182 0 0.019339547095335679 -0.308619028409511 0 -0.0060768745930243557 -0.28868453192696197 0 0.00070050571613747476 -0.2985815963608216 0 0.0078613088204720159 -0.28479831103914188 0 0.00070050571613747476 -0.2985815963608216 0 0.012815757529628449 -0.29982540799296598 0 0.0078613088204720159 -0.28479831103914188 0 0.0078613088204720159 -0.28479831103914188 0 0.02092152836162051 -0.28712778765760949 0 0.016167428994933401 -0.27808632698340741 0 0.0078613088204720159 -0.28479831103914188 0 0.027589265434054391 -0.29869660211680249 0 0.02938482898103148 -0.29508480784016122 0 0.027329673113272359 -0.2690262245382844 0 0.02338182527693913 -0.28036548559157931 0 0.02938482898103148 -0.29508480784016122 0 0.033930117062216332 -0.28293929845237498 0 0.027329673113272359 -0.2690262245382844 0 0.012815757529628449 -0.29982540799296598 0 0.0078613088204720159 -0.28479831103914188 0 0.027589265434054391 -0.29869660211680249 0 0.0078613088204720159 -0.28479831103914188 0 0.02092152836162051 -0.28712778765760949 0 0.027589265434054391 -0.29869660211680249 0 0.02938482898103148 -0.29508480784016122 0 0.027329673113272359 -0.2690262245382844 0 0.02092152836162051 -0.28712778765760949 0 0.02338182527693913 -0.28036548559157931 0 0.016167428994933401 -0.27808632698340741 0 0.02092152836162051 -0.28712778765760949 0 0.02938482898103148 -0.29508480784016122 0 0.027589265434054391 -0.29869660211680249 0 0.02092152836162051 -0.28712778765760949 0 0.02938482898103148 -0.29508480784016122 0 0.02338182527693913 -0.28036548559157931 0 0.031439984848798147 -0.32114339114203749 0 0.019339547095335679 -0.308619028409511 0 0.027589265434054391 -0.29869660211680249 0 0.031439984848798147 -0.32114339114203749 0 0.02938482898103148 -0.29508480784016122 0 0.027589265434054391 -0.29869660211680249 0 0.031439984848798147 -0.32114339114203749 0 0.02938482898103148 -0.29508480784016122 0 0.012815757529628449 -0.29982540799296598 0 0.019339547095335679 -0.308619028409511 0 0.027589265434054391 -0.29869660211680249 0 0.038939485077069153 -0.3072357678893039 0 0.045899702876710267 -0.29661229157464869 0 0.054909556824970181 -0.31053697462958119 0 0.031439984848798147 -0.32114339114203749 0 0.02938482898103148 -0.29508480784016122 0 0.038939485077069153 -0.3072357678893039 0 0.038939485077069153 -0.3072357678893039 0 0.037733940748711767 -0.29485737837451531 0 0.045899702876710267 -0.29661229157464869 0 0.02938482898103148 -0.29508480784016122 0 0.038939485077069153 -0.3072357678893039 0 0.037733940748711767 -0.29485737837451531 0 0.02938482898103148 -0.29508480784016122 0 0.034266106617936588 -0.28980794956754818 0 0.033930117062216332 -0.28293929845237498 0 0.038827785811100503 -0.28748968908471179 0 0.045899702876710267 -0.29661229157464869 0 0.047940677110286933 -0.28039953036751553 0 0.02938482898103148 -0.29508480784016122 0 0.034266106617936588 -0.28980794956754818 0 0.037733940748711767 -0.29485737837451531 0 0.034266106617936588 -0.28980794956754818 0 0.037733940748711767 -0.29485737837451531 0 0.038827785811100503 -0.28748968908471179 0 0.034266106617936588 -0.28980794956754818 0 0.033930117062216332 -0.28293929845237498 0 0.038827785811100503 -0.28748968908471179 0 0.033930117062216332 -0.28293929845237498 0 0.038827785811100503 -0.28748968908471179 0 0.038674442715344877 -0.28136745612709602 0 0.038827785811100503 -0.28748968908471179 0 0.038674442715344877 -0.28136745612709602 0 0.047940677110286933 -0.28039953036751553 0 0.037733940748711767 -0.29485737837451531 0 0.038827785811100503 -0.28748968908471179 0 0.045899702876710267 -0.29661229157464869 0 0.045899702876710267 -0.29661229157464869 0 0.056183321560734113 -0.29326967712824431 0 0.047940677110286933 -0.28039953036751553 0 0.063412701726820772 -0.28289312113853538 0 0.056183321560734113 -0.29326967712824431 0 0.047940677110286933 -0.28039953036751553 0 0.045899702876710267 -0.29661229157464869 0 0.056183321560734113 -0.29326967712824431 0 0.054909556824970181 -0.31053697462958119 0 0.068753969264882406 -0.29590646793094078 0 0.054909556824970181 -0.31053697462958119 0 0.068753969264882406 -0.29590646793094078 0 0.056183321560734113 -0.29326967712824431 0 0.054909556824970181 -0.31053697462958119 0 0.049469282095688592 -0.25080690235199599 0 0.061417581027768127 -0.26650687231348219 0 0.044617240448604448 -0.26839262427643418 0 0.063412701726820772 -0.28289312113853538 0 0.061417581027768127 -0.26650687231348219 0 0.047940677110286933 -0.28039953036751553 0 0.061417581027768127 -0.26650687231348219 0 0.047940677110286933 -0.28039953036751553 0 0.044617240448604448 -0.26839262427643418 0 0.044617240448604448 -0.26839262427643418 0 0.036928988896006237 -0.27522359181089318 0 0.027329673113272359 -0.2690262245382844 0 0.038674442715344877 -0.28136745612709602 0 0.047940677110286933 -0.28039953036751553 0 0.036928988896006237 -0.27522359181089318 0 0.047940677110286933 -0.28039953036751553 0 0.044617240448604448 -0.26839262427643418 0 0.036928988896006237 -0.27522359181089318 0 0.033930117062216332 -0.28293929845237498 0 0.036928988896006237 -0.27522359181089318 0 0.027329673113272359 -0.2690262245382844 0 0.033930117062216332 -0.28293929845237498 0 0.038674442715344877 -0.28136745612709602 0 0.036928988896006237 -0.27522359181089318 0 0.049469282095688592 -0.25080690235199599 0 0.044617240448604448 -0.26839262427643418 0 0.027329673113272359 -0.2690262245382844 0 0.049469282095688592 -0.25080690235199599 0 0.034171789628625548 -0.25287538908362028 0 0.027329673113272359 -0.2690262245382844 0 0.049469282095688592 -0.25080690235199599 0 0.027329673113272359 -0.2690262245382844 0 0.027329673113272359 -0.2690262245382844 0 0.02508285790449984 -0.2405374747554527 0 0.017549179963494581 -0.24947376405350211 0 0.019543272477460322 -0.26422534066941478 0 0.027329673113272359 -0.2690262245382844 0 0.017549179963494581 -0.24947376405350211 0 0.027329673113272359 -0.2690262245382844 0 0.02508285790449984 -0.2405374747554527 0 0.034171789628625548 -0.25287538908362028 0 0.027329673113272359 -0.2690262245382844 0 0.02508285790449984 -0.2405374747554527 0 0.019543272477460322 -0.26422534066941478 0 0.014526761222252559 -0.26930004008173358 0 0.015205081154444199 -0.26082439373512001 0 0.019543272477460322 -0.26422534066941478 0 0.015205081154444199 -0.26082439373512001 0 0.017549179963494581 -0.24947376405350211 0 0.027329673113272359 -0.2690262245382844 0 0.023105666933837889 -0.27250228093843398 0 0.02338182527693913 -0.28036548559157931 0 0.027329673113272359 -0.2690262245382844 0 0.023105666933837889 -0.27250228093843398 0 0.019543272477460322 -0.26422534066941478 0 0.027329673113272359 -0.2690262245382844 0 0.023105666933837889 -0.27250228093843398 0 0.023105666933837889 -0.27250228093843398 0 0.016167428994933401 -0.27808632698340741 0 0.014526761222252559 -0.26930004008173358 0 0.019543272477460322 -0.26422534066941478 0 0.023105666933837889 -0.27250228093843398 0 0.014526761222252559 -0.26930004008173358 0 0.023105666933837889 -0.27250228093843398 0 0.02338182527693913 -0.28036548559157931 0 0.016167428994933401 -0.27808632698340741 0 -0.01186664779311036 -0.27090001996148128 0 0.0078613088204720159 -0.28479831103914188 0 0.0053490981021702948 -0.27300109275042561 0 0.016167428994933401 -0.27808632698340741 0 0.014526761222252559 -0.26930004008173358 0 0.0053490981021702948 -0.27300109275042561 0 0.0078613088204720159 -0.28479831103914188 0 0.016167428994933401 -0.27808632698340741 0 0.0053490981021702948 -0.27300109275042561 0 0.014526761222252559 -0.26930004008173358 0 0.0061908193287953696 -0.2678833139689864 0 0.0053490981021702948 -0.27300109275042561 0 0.014526761222252559 -0.26930004008173358 0 0.0061908193287953696 -0.2678833139689864 0 0.0094128328966840511 -0.2635694313055813 0 -0.00078508196032120968 -0.26703854446780351 0 0.0061908193287953696 -0.2678833139689864 0 0.0028799528272470888 -0.26276843333515038 0 -0.00078508196032120968 -0.26703854446780351 0 0.0061908193287953696 -0.2678833139689864 0 0.0053490981021702948 -0.27300109275042561 0 -0.0027879324552719381 -0.24539863686431981 0 0.0059842086934125353 -0.25674621383972213 0 0.017549179963494581 -0.24947376405350211 0 0.015205081154444199 -0.26082439373512001 0 0.0059842086934125353 -0.25674621383972213 0 0.017549179963494581 -0.24947376405350211 0 0.015205081154444199 -0.26082439373512001 0 0.0094128328966840511 -0.2635694313055813 0 0.0059842086934125353 -0.25674621383972213 0 0.014526761222252559 -0.26930004008173358 0 0.015205081154444199 -0.26082439373512001 0 0.0094128328966840511 -0.2635694313055813 0 -0.0064030148223353034 -0.25860466309365893 0 0.0028799528272470888 -0.26276843333515038 0 0.0059842086934125353 -0.25674621383972213 0 0.0094128328966840511 -0.2635694313055813 0 0.0028799528272470888 -0.26276843333515038 0 0.0059842086934125353 -0.25674621383972213 0 0.0061908193287953696 -0.2678833139689864 0 0.0094128328966840511 -0.2635694313055813 0 0.0028799528272470888 -0.26276843333515038 0 -0.0027879324552719381 -0.24539863686431981 0 0.0077026290604160132 -0.22551752340324691 0 0.017549179963494581 -0.24947376405350211 0 -0.0027879324552719381 -0.24539863686431981 0 0.0077026290604160132 -0.22551752340324691 0 0.0077026290604160132 -0.22551752340324691 0 0.02508285790449984 -0.2405374747554527 0 0.02283604269573648 -0.21204872497262031 0 0.02508285790449984 -0.2405374747554527 0 0.02283604269573648 -0.21204872497262031 0 0.040300062982761869 -0.23616855409765669 0 0.02508285790449984 -0.2405374747554527 0 0.02283604269573648 -0.21204872497262031 0 0.0077026290604160132 -0.22551752340324691 0 0.02508285790449984 -0.2405374747554527 0 0.017549179963494581 -0.24947376405350211 0 0.018193190576100211 -0.205636409942172 0 0.0024364171524568871 -0.1838744859238792 0 -0.0046935374609555604 -0.2061930603991465 0 0.018193190576100211 -0.205636409942172 0 0.0024364171524568871 -0.1838744859238792 0 0.0077026290604160132 -0.22551752340324691 0 0.018193190576100211 -0.205636409942172 0 -0.0046935374609555604 -0.2061930603991465 0 0.0077026290604160132 -0.22551752340324691 0 0.018193190576100211 -0.205636409942172 0 0.0077026290604160132 -0.22551752340324691 0 0.02283604269573648 -0.21204872497262031 0 0.018193190576100211 -0.205636409942172 0 0.02283604269573648 -0.21204872497262031 0 0.022717500660365791 -0.21054565771047831 0 0.02283604269573648 -0.21204872497262031 0 0.028846831409850782 -0.21142433390963461 0 0.03729436365179363 -0.22010873301398159 0 0.02283604269573648 -0.21204872497262031 0 0.028846831409850782 -0.21142433390963461 0 0.02504253310595532 -0.21074251287133339 0 0.02283604269573648 -0.21204872497262031 0 0.02504253310595532 -0.21074251287133339 0 0.022717500660365791 -0.21054565771047831 0 0.02504253310595532 -0.21074251287133339 0 0.025769757657868219 -0.2089513348926007 0 0.022717500660365791 -0.21054565771047831 0 0.025769757657868219 -0.2089513348926007 0 0.02306161208383559 -0.20782196673111111 0 0.022717500660365791 -0.21054565771047831 0 0.025565999441008149 -0.2061544643791936 0 0.018193190576100211 -0.205636409942172 0 0.027810158993265138 -0.20154891586615789 0 0.025769757657868219 -0.2089513348926007 0 0.029995998943042401 -0.2069863460660305 0 0.025565999441008149 -0.2061544643791936 0 0.025769757657868219 -0.2089513348926007 0 0.025565999441008149 -0.2061544643791936 0 0.02306161208383559 -0.20782196673111111 0 0.028846831409850782 -0.21142433390963461 0 0.02504253310595532 -0.21074251287133339 0 0.025769757657868219 -0.2089513348926007 0 0.028846831409850782 -0.21142433390963461 0 0.025769757657868219 -0.2089513348926007 0 0.029995998943042401 -0.2069863460660305 0 0.029995998943042401 -0.2069863460660305 0 0.025565999441008149 -0.2061544643791936 0 0.027810158993265138 -0.20154891586615789 0 0.025565999441008149 -0.2061544643791936 0 0.02306161208383559 -0.20782196673111111 0 0.018193190576100211 -0.205636409942172 0 0.02306161208383559 -0.20782196673111111 0 0.022717500660365791 -0.21054565771047831 0 0.018193190576100211 -0.205636409942172 0 0.02283604269573648 -0.21204872497262031 0 0.018193190576100211 -0.205636409942172 0 0.02283604269573648 -0.21204872497262031 0 0.022717500660365791 -0.21054565771047831 0 0.018193190576100211 -0.205636409942172 0 0.018193190576100211 -0.205636409942172 0 0.02808508799023033 -0.18688985051907309 0 0.018193190576100211 -0.205636409942172 0 0.027810158993265138 -0.20154891586615789 0 0.02808508799023033 -0.18688985051907309 0 0.018193190576100211 -0.205636409942172 0 0.02808508799023033 -0.18688985051907309 0 0.0024364171524568871 -0.1838744859238792 0 0.027810158993265138 -0.20154891586615789 0 0.036718760507578121 -0.20055340944334121 0 0.02808508799023033 -0.18688985051907309 0 0.046106593912229432 -0.18979702970700271 0 0.036718760507578121 -0.20055340944334121 0 0.02808508799023033 -0.18688985051907309 0 0.029995998943042401 -0.2069863460660305 0 0.027810158993265138 -0.20154891586615789 0 0.036718760507578121 -0.20055340944334121 0 0.046106593912229432 -0.18979702970700271 0 0.036718760507578121 -0.20055340944334121 0 0.047878700185904968 -0.200851467022749 0 0.036718760507578121 -0.20055340944334121 0 0.042296343248897569 -0.20943136181629909 0 0.047878700185904968 -0.200851467022749 0 0.036718760507578121 -0.20055340944334121 0 0.042296343248897569 -0.20943136181629909 0 0.035105813707411108 -0.20895637066767789 0 0.029995998943042401 -0.2069863460660305 0 0.036718760507578121 -0.20055340944334121 0 0.035105813707411108 -0.20895637066767789 0 0.028846831409850782 -0.21142433390963461 0 0.029995998943042401 -0.2069863460660305 0 0.035105813707411108 -0.20895637066767789 0 0.042296343248897569 -0.20943136181629909 0 0.035105813707411108 -0.20895637066767789 0 0.037930817893497858 -0.21339599456323949 0 0.028846831409850782 -0.21142433390963461 0 0.037930817893497858 -0.21339599456323949 0 0.03729436365179363 -0.22010873301398159 0 0.028846831409850782 -0.21142433390963461 0 0.035105813707411108 -0.20895637066767789 0 0.037930817893497858 -0.21339599456323949 0 0.037930817893497858 -0.21339599456323949 0 0.04536722876819968 -0.2172009127760425 0 0.03729436365179363 -0.22010873301398159 0 0.042296343248897569 -0.20943136181629909 0 0.04536722876819968 -0.2172009127760425 0 0.052821669638652452 -0.21171259997261169 0 0.042296343248897569 -0.20943136181629909 0 0.037930817893497858 -0.21339599456323949 0 0.04536722876819968 -0.2172009127760425 0 0.04536722876819968 -0.2172009127760425 0 0.052821669638652452 -0.21171259997261169 0 0.055211298264222157 -0.22192651232391941 0 0.052821669638652452 -0.21171259997261169 0 0.055211298264222157 -0.22192651232391941 0 0.067995552701424711 -0.21657886768002171 0 0.052821669638652452 -0.21171259997261169 0 0.057437385981929122 -0.20442821758407639 0 0.067995552701424711 -0.21657886768002171 0 0.042296343248897569 -0.20943136181629909 0 0.052821669638652452 -0.21171259997261169 0 0.047878700185904968 -0.200851467022749 0 0.052821669638652452 -0.21171259997261169 0 0.057437385981929122 -0.20442821758407639 0 0.047878700185904968 -0.200851467022749 0 0.046106593912229432 -0.18979702970700271 0 0.05556227872353995 -0.19655422051499249 0 0.062130296102084412 -0.189442287344296 0 0.046106593912229432 -0.18979702970700271 0 0.047878700185904968 -0.200851467022749 0 0.05556227872353995 -0.19655422051499249 0 0.057437385981929122 -0.20442821758407639 0 0.047878700185904968 -0.200851467022749 0 0.05556227872353995 -0.19655422051499249 0 0.057437385981929122 -0.20442821758407639 0 0.05556227872353995 -0.19655422051499249 0 0.065433134879305882 -0.20010316820403279 0 0.05556227872353995 -0.19655422051499249 0 0.062130296102084412 -0.189442287344296 0 0.065433134879305882 -0.20010316820403279 0 0.049469282095688592 -0.25080690235199599 0 0.034171789628625548 -0.25287538908362028 0 0.040300062982761869 -0.23616855409765669 0 0.034171789628625548 -0.25287538908362028 0 0.02508285790449984 -0.2405374747554527 0 0.040300062982761869 -0.23616855409765669 0 0.040300062982761869 -0.23616855409765669 0 0.03729436365179363 -0.22010873301398159 0 0.046648879912134407 -0.22663027496620369 0 0.02283604269573648 -0.21204872497262031 0 0.040300062982761869 -0.23616855409765669 0 0.02283604269573648 -0.21204872497262031 0 0.040300062982761869 -0.23616855409765669 0 0.03729436365179363 -0.22010873301398159 0 0.04536722876819968 -0.2172009127760425 0 0.03729436365179363 -0.22010873301398159 0 0.046648879912134407 -0.22663027496620369 0 0.040300062982761869 -0.23616855409765669 0 0.046648879912134407 -0.22663027496620369 0 0.05280043326165279 -0.234011640890711 0 0.046648879912134407 -0.22663027496620369 0 0.05280043326165279 -0.234011640890711 0 0.055211298264222157 -0.22192651232391941 0 0.05280043326165279 -0.234011640890711 0 0.055211298264222157 -0.22192651232391941 0 0.071608891078104198 -0.23258758016570691 0 0.04536722876819968 -0.2172009127760425 0 0.046648879912134407 -0.22663027496620369 0 0.055211298264222157 -0.22192651232391941 0 0.049469282095688592 -0.25080690235199599 0 0.05280043326165279 -0.234011640890711 0 0.071608891078104198 -0.23258758016570691 0 0.049469282095688592 -0.25080690235199599 0 0.040300062982761869 -0.23616855409765669 0 0.05280043326165279 -0.234011640890711 0 0.049469282095688592 -0.25080690235199599 0 0.071608891078104198 -0.23258758016570691 0 0.077103636391453137 -0.2569317706990028 0 0.049469282095688592 -0.25080690235199599 0 0.071608891078104198 -0.23258758016570691 0 0.077103636391453137 -0.2569317706990028 0 0.071608891078104198 -0.23258758016570691 0 0.077103636391453137 -0.2569317706990028 0 0.071608891078104198 -0.23258758016570691 0 0.097339208476673211 -0.23748768981959781 0 0.071608891078104198 -0.23258758016570691 0 0.092291856233168101 -0.21556697215824899 0 0.071608891078104198 -0.23258758016570691 0 0.092291856233168101 -0.21556697215824899 0 0.097339208476673211 -0.23748768981959781 0 0.071608891078104198 -0.23258758016570691 0 0.067995552701424711 -0.21657886768002171 0 0.092291856233168101 -0.21556697215824899 0 0.055211298264222157 -0.22192651232391941 0 0.071608891078104198 -0.23258758016570691 0 0.067995552701424711 -0.21657886768002171 0 0.071608891078104198 -0.23258758016570691 0 0.067995552701424711 -0.21657886768002171 0 0.067995552701424711 -0.21657886768002171 0 0.065433134879305882 -0.20010316820403279 0 0.075722879991388631 -0.20271533310842471 0 0.057437385981929122 -0.20442821758407639 0 0.067995552701424711 -0.21657886768002171 0 0.065433134879305882 -0.20010316820403279 0 0.062130296102084412 -0.189442287344296 0 0.065433134879305882 -0.20010316820403279 0 0.073750415775468481 -0.19090008299238539 0 0.065433134879305882 -0.20010316820403279 0 0.075722879991388631 -0.20271533310842471 0 0.073750415775468481 -0.19090008299238539 0 0.073750415775468481 -0.19090008299238539 0 0.089091476372092207 -0.20086912166042481 0 0.089012460143836361 -0.18614373730337719 0 0.075722879991388631 -0.20271533310842471 0 0.073750415775468481 -0.19090008299238539 0 0.089091476372092207 -0.20086912166042481 0 0.067995552701424711 -0.21657886768002171 0 0.075722879991388631 -0.20271533310842471 0 0.092291856233168101 -0.21556697215824899 0 0.075722879991388631 -0.20271533310842471 0 0.089091476372092207 -0.20086912166042481 0 0.092291856233168101 -0.21556697215824899 0 0.092291856233168101 -0.21556697215824899 0 0.1129748213882342 -0.19854636415079371 0 0.092291856233168101 -0.21556697215824899 0 0.1129748213882342 -0.19854636415079371 0 0.11859185545849001 -0.21921522977555821 0 0.089091476372092207 -0.20086912166042481 0 0.092291856233168101 -0.21556697215824899 0 0.1129748213882342 -0.19854636415079371 0 0.1129748213882342 -0.19854636415079371 0 0.1015154476131819 -0.17845164243626241 0 0.089012460143836361 -0.18614373730337719 0 0.089091476372092207 -0.20086912166042481 0 0.1129748213882342 -0.19854636415079371 0 0.089012460143836361 -0.18614373730337719 0 0.1129748213882342 -0.19854636415079371 0 0.13365778654329899 -0.1815257561433368 0 0.1129748213882342 -0.19854636415079371 0 0.11859185545849001 -0.21921522977555821 0 0.1296143143859014 -0.20375147385639891 0 0.11859185545849001 -0.21921522977555821 0 0.1214675982281712 -0.24019972667309869 0 0.097339208476673211 -0.23748768981959781 0 0.1020329899664829 -0.26073784395269961 0 0.1214675982281712 -0.24019972667309869 0 0.097339208476673211 -0.23748768981959781 0 0.092291856233168101 -0.21556697215824899 0 0.11859185545849001 -0.21921522977555821 0 0.097339208476673211 -0.23748768981959781 0 0.1042816649433871 -0.14067814804426429 0 0.1061041385844321 -0.15418176228540609 0 0.081402384116282048 -0.1599957813114973 0 0.1042816649433871 -0.14067814804426429 0 0.1061041385844321 -0.15418176228540609 0 0.11470516389012581 -0.14464250391171121 0 0.1042816649433871 -0.14067814804426429 0 0.096701975003532351 -0.12947646281519801 0 0.088716814636970898 -0.14192803582553071 0 0.096701975003532351 -0.12947646281519801 0 0.1158871722151367 -0.1250518708355618 0 0.1042816649433871 -0.14067814804426429 0 0.096701975003532351 -0.12947646281519801 0 0.1158871722151367 -0.1250518708355618 0 0.1042816649433871 -0.14067814804426429 0 0.12716094577049211 -0.1213605147770313 0 0.1042816649433871 -0.14067814804426429 0 0.1158871722151367 -0.1250518708355618 0 0.12716094577049211 -0.1213605147770313 0 0.1042816649433871 -0.14067814804426429 0 0.1208326872731787 -0.13588182141165739 0 0.11470516389012581 -0.14464250391171121 0 0.1042816649433871 -0.14067814804426429 0 0.1208326872731787 -0.13588182141165739 0 0.12716094577049211 -0.1213605147770313 0 0.1208326872731787 -0.13588182141165739 0 0.11470516389012581 -0.14464250391171121 0 0.12518603117586979 -0.14405737709000771 0 0.11470516389012581 -0.14464250391171121 0 0.11853627128133901 -0.15134526648366989 0 0.12518603117586979 -0.14405737709000771 0 0.1061041385844321 -0.15418176228540609 0 0.11470516389012581 -0.14464250391171121 0 0.11853627128133901 -0.15134526648366989 0 0.11853627128133901 -0.15134526648366989 0 0.11627434658515449 -0.16325418730786029 0 0.12909537210344421 -0.15414988372408961 0 0.11853627128133901 -0.15134526648366989 0 0.12909537210344421 -0.15414988372408961 0 0.12518603117586979 -0.14405737709000771 0 0.11627434658515449 -0.16325418730786029 0 0.11588740707284929 -0.17929700287070821 0 0.12736989321495501 -0.16765369463017951 0 0.11627434658515449 -0.16325418730786029 0 0.12736989321495501 -0.16765369463017951 0 0.12909537210344421 -0.15414988372408961 0 0.11627434658515449 -0.16325418730786029 0 0.11588740707284929 -0.17929700287070821 0 0.102209540774751 -0.166832260779503 0 0.1061041385844321 -0.15418176228540609 0 0.11853627128133901 -0.15134526648366989 0 0.11627434658515449 -0.16325418730786029 0 0.1129748213882342 -0.19854636415079371 0 0.11588740707284929 -0.17929700287070821 0 0.1015154476131819 -0.17845164243626241 0 0.1129748213882342 -0.19854636415079371 0 0.11588740707284929 -0.17929700287070821 0 0.13365778654329899 -0.1815257561433368 0 0.11588740707284929 -0.17929700287070821 0 0.1015154476131819 -0.17845164243626241 0 0.102209540774751 -0.166832260779503 0 0.1015154476131819 -0.17845164243626241 0 0.102209540774751 -0.166832260779503 0 0.088727768506337748 -0.17376668495652409 0 0.1061041385844321 -0.15418176228540609 0 0.102209540774751 -0.166832260779503 0 0.081402384116282048 -0.1599957813114973 0 0.1061041385844321 -0.15418176228540609 0 0.11627434658515449 -0.16325418730786029 0 0.102209540774751 -0.166832260779503 0 0.102209540774751 -0.166832260779503 0 0.081402384116282048 -0.1599957813114973 0 0.088727768506337748 -0.17376668495652409 0 0.081402384116282048 -0.1599957813114973 0 0.088727768506337748 -0.17376668495652409 0 0.075007666637038214 -0.17962825685811359 0 0.1015154476131819 -0.17845164243626241 0 0.089012460143836361 -0.18614373730337719 0 0.088727768506337748 -0.17376668495652409 0 0.089012460143836361 -0.18614373730337719 0 0.088727768506337748 -0.17376668495652409 0 0.075007666637038214 -0.17962825685811359 0 0.073750415775468481 -0.19090008299238539 0 0.089012460143836361 -0.18614373730337719 0 0.075007666637038214 -0.17962825685811359 0 0.062130296102084412 -0.189442287344296 0 0.075007666637038214 -0.17962825685811359 0 0.058523103289177272 -0.1793134145787306 0 0.081402384116282048 -0.1599957813114973 0 0.075007666637038214 -0.17962825685811359 0 0.058523103289177272 -0.1793134145787306 0 0.062130296102084412 -0.189442287344296 0 0.073750415775468481 -0.19090008299238539 0 0.075007666637038214 -0.17962825685811359 0 0.081402384116282048 -0.1599957813114973 0 0.058523103289177272 -0.1793134145787306 0 0.081402384116282048 -0.1599957813114973 0 0.06217094980208087 -0.15064221322644011 0 0.053195993053828668 -0.16435507312580089 0 0.081402384116282048 -0.1599957813114973 0 0.058523103289177272 -0.1793134145787306 0 0.053195993053828668 -0.16435507312580089 0 0.070914958464303679 -0.13925614029418759 0 0.055282230224470853 -0.14700727916529011 0 0.06217094980208087 -0.15064221322644011 0 0.081402384116282048 -0.1599957813114973 0 0.07364674388955085 -0.14894381977599411 0 0.06217094980208087 -0.15064221322644011 0 0.07364674388955085 -0.14894381977599411 0 0.070914958464303679 -0.13925614029418759 0 0.06217094980208087 -0.15064221322644011 0 0.07364674388955085 -0.14894381977599411 0 0.079481120577789013 -0.14306966951548769 0 0.070914958464303679 -0.13925614029418759 0 0.081402384116282048 -0.1599957813114973 0 0.07364674388955085 -0.14894381977599411 0 0.079481120577789013 -0.14306966951548769 0 0.1042816649433871 -0.14067814804426429 0 0.081402384116282048 -0.1599957813114973 0 0.1042816649433871 -0.14067814804426429 0 0.081402384116282048 -0.1599957813114973 0 0.088716814636970898 -0.14192803582553071 0 0.081402384116282048 -0.1599957813114973 0 0.079481120577789013 -0.14306966951548769 0 0.088716814636970898 -0.14192803582553071 0 0.096701975003532351 -0.12947646281519801 0 0.077516777791927588 -0.13390105479483211 0 0.095187973741638565 -0.1195670113303786 0 0.096701975003532351 -0.12947646281519801 0 0.077516777791927588 -0.13390105479483211 0 0.096701975003532351 -0.12947646281519801 0 0.088716814636970898 -0.14192803582553071 0 0.077516777791927588 -0.13390105479483211 0 0.077516777791927588 -0.13390105479483211 0 0.095187973741638565 -0.1195670113303786 0 0.079481120577789013 -0.14306966951548769 0 0.088716814636970898 -0.14192803582553071 0 0.077516777791927588 -0.13390105479483211 0 0.077516777791927588 -0.13390105479483211 0 0.053070463092267491 -0.13953899360561911 0 0.065617448561886116 -0.1157606628324887 0 0.077516777791927588 -0.13390105479483211 0 0.053070463092267491 -0.13953899360561911 0 0.077516777791927588 -0.13390105479483211 0 0.070914958464303679 -0.13925614029418759 0 0.053070463092267491 -0.13953899360561911 0 0.079481120577789013 -0.14306966951548769 0 0.077516777791927588 -0.13390105479483211 0 0.070914958464303679 -0.13925614029418759 0 0.077516777791927588 -0.13390105479483211 0 0.070914958464303679 -0.13925614029418759 0 0.053070463092267491 -0.13953899360561911 0 0.065617448561886116 -0.1157606628324887 0 0.053070463092267491 -0.13953899360561911 0 0.045019495474563687 -0.14139575047689951 0 0.055282230224470853 -0.14700727916529011 0 0.047868882818481423 -0.14939673167287071 0 0.053195993053828668 -0.16435507312580089 0 0.055282230224470853 -0.14700727916529011 0 0.06217094980208087 -0.15064221322644011 0 0.053195993053828668 -0.16435507312580089 0 0.070914958464303679 -0.13925614029418759 0 0.053070463092267491 -0.13953899360561911 0 0.055282230224470853 -0.14700727916529011 0 0.053070463092267491 -0.13953899360561911 0 0.047868882818481423 -0.14939673167287071 0 0.045019495474563687 -0.14139575047689951 0 0.053070463092267491 -0.13953899360561911 0 0.047868882818481423 -0.14939673167287071 0 0.053070463092267491 -0.13953899360561911 0 0.055282230224470853 -0.14700727916529011 0 0.047868882818481423 -0.14939673167287071 0 0.047868882818481423 -0.14939673167287071 0 0.045019495474563687 -0.14139575047689951 0 0.040482535598584793 -0.14747389890712401 0 0.047868882818481423 -0.14939673167287071 0 0.045019495474563687 -0.14139575047689951 0 0.045019495474563687 -0.14139575047689951 0 0.040482535598584793 -0.14747389890712401 0 0.038034763012819058 -0.1430066065389603 0 0.045019495474563687 -0.14139575047689951 0 0.038034763012819058 -0.1430066065389603 0 0.047868882818481423 -0.14939673167287071 0 0.040482535598584793 -0.14747389890712401 0 0.037331613792064303 -0.1548509222419667 0 0.037331613792064303 -0.1548509222419667 0 0.03304137044771311 -0.1471478393015353 0 0.02548683185137823 -0.15554617333094589 0 0.040482535598584793 -0.14747389890712401 0 0.037331613792064303 -0.1548509222419667 0 0.03304137044771311 -0.1471478393015353 0 0.045019495474563687 -0.14139575047689951 0 0.038034763012819058 -0.1430066065389603 0 0.032368332498961358 -0.13872407106012771 0 0.038034763012819058 -0.1430066065389603 0 0.03304137044771311 -0.1471478393015353 0 0.032368332498961358 -0.13872407106012771 0 0.040482535598584793 -0.14747389890712401 0 0.038034763012819058 -0.1430066065389603 0 0.03304137044771311 -0.1471478393015353 0 0.053070463092267491 -0.13953899360561911 0 0.045019495474563687 -0.14139575047689951 0 0.03659042672802007 -0.11772721671832879 0 0.045019495474563687 -0.14139575047689951 0 0.032368332498961358 -0.13872407106012771 0 0.03086167819538253 -0.12918778365530811 0 0.045019495474563687 -0.14139575047689951 0 0.03086167819538253 -0.12918778365530811 0 0.03659042672802007 -0.11772721671832879 0 0.045019495474563687 -0.14139575047689951 0 0.03659042672802007 -0.11772721671832879 0 0.046106593912229432 -0.18979702970700271 0 0.062130296102084412 -0.189442287344296 0 0.058523103289177272 -0.1793134145787306 0 0.046106593912229432 -0.18979702970700271 0 0.058523103289177272 -0.1793134145787306 0 0.046106593912229432 -0.18979702970700271 0 0.058523103289177272 -0.1793134145787306 0 0.046261580743599047 -0.17738589589526171 0 0.062130296102084412 -0.189442287344296 0 0.058523103289177272 -0.1793134145787306 0 0.058523103289177272 -0.1793134145787306 0 0.053195993053828668 -0.16435507312580089 0 0.046261580743599047 -0.17738589589526171 0 0.058523103289177272 -0.1793134145787306 0 0.053195993053828668 -0.16435507312580089 0 0.047868882818481423 -0.14939673167287071 0 0.053195993053828668 -0.16435507312580089 0 0.047868882818481423 -0.14939673167287071 0 0.037976985404356657 -0.16814329109597231 0 0.047868882818481423 -0.14939673167287071 0 0.037331613792064303 -0.1548509222419667 0 0.037976985404356657 -0.16814329109597231 0 0.047868882818481423 -0.14939673167287071 0 0.053195993053828668 -0.16435507312580089 0 0.037976985404356657 -0.16814329109597231 0 0.037331613792064303 -0.1548509222419667 0 0.037976985404356657 -0.16814329109597231 0 0.02548683185137823 -0.15554617333094589 0 0.053195993053828668 -0.16435507312580089 0 0.037976985404356657 -0.16814329109597231 0 0.046261580743599047 -0.17738589589526171 0 0.037976985404356657 -0.16814329109597231 0 0.046261580743599047 -0.17738589589526171 0 0.02808508799023033 -0.18688985051907309 0 0.046106593912229432 -0.18979702970700271 0 0.046261580743599047 -0.17738589589526171 0 0.02808508799023033 -0.18688985051907309 0 0.037976985404356657 -0.16814329109597231 0 0.02808508799023033 -0.18688985051907309 0 0.037976985404356657 -0.16814329109597231 0 0.02808508799023033 -0.18688985051907309 0 0.020147453678819299 -0.17144704336766051 0 0.02808508799023033 -0.18688985051907309 0 0.020147453678819299 -0.17144704336766051 0 0.0024364171524568871 -0.1838744859238792 0 0.020147453678819299 -0.17144704336766051 0 0.0067519459956744054 -0.1627814159684321 0 0.02548683185137823 -0.15554617333094589 0 0.037976985404356657 -0.16814329109597231 0 0.020147453678819299 -0.17144704336766051 0 0.02548683185137823 -0.15554617333094589 0 0.020147453678819299 -0.17144704336766051 0 0.0067519459956744054 -0.1627814159684321 0 0.0024364171524568871 -0.1838744859238792 0 0.01687280198920851 -0.13664878505759059 0 0.025442907668348631 -0.1343359559508083 0 0.024544145932470961 -0.1432853637300873 0 0.01687280198920851 -0.13664878505759059 0 0.0204635679162605 -0.1291027352012559 0 0.025442907668348631 -0.1343359559508083 0 0.0204635679162605 -0.1291027352012559 0 0.011525924517098661 -0.12996276117536501 0 0.019406998230413329 -0.1188913781082738 0 0.01687280198920851 -0.13664878505759059 0 0.0204635679162605 -0.1291027352012559 0 0.011525924517098661 -0.12996276117536501 0 0.0204635679162605 -0.1291027352012559 0 0.03086167819538253 -0.12918778365530811 0 0.019406998230413329 -0.1188913781082738 0 0.0204635679162605 -0.1291027352012559 0 0.03086167819538253 -0.12918778365530811 0 0.025442907668348631 -0.1343359559508083 0 0.032368332498961358 -0.13872407106012771 0 0.025442907668348631 -0.1343359559508083 0 0.024544145932470961 -0.1432853637300873 0 0.032368332498961358 -0.13872407106012771 0 0.03086167819538253 -0.12918778365530811 0 0.025442907668348631 -0.1343359559508083 0 0.03304137044771311 -0.1471478393015353 0 0.032368332498961358 -0.13872407106012771 0 0.024544145932470961 -0.1432853637300873 0 0.03304137044771311 -0.1471478393015353 0 0.024544145932470961 -0.1432853637300873 0 0.02548683185137823 -0.15554617333094589 0 0.024544145932470961 -0.1432853637300873 0 0.02548683185137823 -0.15554617333094589 0 0.0134391848339077 -0.14657840425958579 0 0.01687280198920851 -0.13664878505759059 0 0.024544145932470961 -0.1432853637300873 0 0.0134391848339077 -0.14657840425958579 0 0.0067519459956744054 -0.1627814159684321 0 0.02548683185137823 -0.15554617333094589 0 0.0134391848339077 -0.14657840425958579 0 0.0067519459956744054 -0.1627814159684321 0 0.0134391848339077 -0.14657840425958579 0 0.0015128397872320701 -0.1492119739186559 0 0.0134391848339077 -0.14657840425958579 0 0.0015128397872320701 -0.1492119739186559 0 0.0067173165767391799 -0.1383839839989742 0 -0.0058812764280807492 -0.13747873212161871 0 0.0015128397872320701 -0.1492119739186559 0 0.0067173165767391799 -0.1383839839989742 0 0.0067173165767391799 -0.1383839839989742 0 0.011525924517098661 -0.12996276117536501 0 0.0026997577518843752 -0.13067008757766649 0 -0.0058812764280807492 -0.13747873212161871 0 0.0067173165767391799 -0.1383839839989742 0 0.0026997577518843752 -0.13067008757766649 0 0.01687280198920851 -0.13664878505759059 0 0.0067173165767391799 -0.1383839839989742 0 0.011525924517098661 -0.12996276117536501 0 0.01687280198920851 -0.13664878505759059 0 0.0134391848339077 -0.14657840425958579 0 0.0067173165767391799 -0.1383839839989742 0 0.011525924517098661 -0.12996276117536501 0 0.0026997577518843752 -0.13067008757766649 0 0.0064943971825770913 -0.12536627872469511 0 -0.002867853252260967 -0.124711792585839 0 0.0026997577518843752 -0.13067008757766649 0 0.0064943971825770913 -0.12536627872469511 0 -0.002867853252260967 -0.124711792585839 0 0.0064943971825770913 -0.12536627872469511 0 0.0022235697328065532 -0.12005553949821809 0 0.0064943971825770913 -0.12536627872469511 0 0.0022235697328065532 -0.12005553949821809 0 0.019406998230413329 -0.1188913781082738 0 0.0022235697328065532 -0.12005553949821809 0 0.019406998230413329 -0.1188913781082738 0 0.0022235697328065532 -0.12005553949821809 0 0.0058589971554254758 -0.11764571191452811 0 0.019406998230413329 -0.1188913781082738 0 0.0022235697328065532 -0.12005553949821809 0 0.0058589971554254758 -0.11764571191452811 0 0.0011804868638339221 -0.1150632320095166 0 -0.0015245481095283991 -0.1098675185925166 0 0.0054468516300478888 -0.11190937874551379 0 0.0057146216931318649 -0.1075549498000659 0 -0.0015245481095283991 -0.1098675185925166 0 0.0011804868638339221 -0.1150632320095166 0 0.0054468516300478888 -0.11190937874551379 0 0.0058589971554254758 -0.11764571191452811 0 0.0011804868638339221 -0.1150632320095166 0 0.0054468516300478888 -0.11190937874551379 0 0.0058589971554254758 -0.11764571191452811 0 0.0054468516300478888 -0.11190937874551379 0 0.015829087744842929 -0.1070691082807112 0 0.011525924517098661 -0.12996276117536501 0 0.0064943971825770913 -0.12536627872469511 0 0.019406998230413329 -0.1188913781082738 0 0.0058589971554254758 -0.11764571191452811 0 0.030298202971871521 -0.10845184301124609 0 0.015829087744842929 -0.1070691082807112 0 0.0058589971554254758 -0.11764571191452811 0 0.019406998230413329 -0.1188913781082738 0 0.030298202971871521 -0.10845184301124609 0 0.019406998230413329 -0.1188913781082738 0 0.030298202971871521 -0.10845184301124609 0 0.035908418912500531 -0.115812162340355 0 0.019406998230413329 -0.1188913781082738 0 0.03659042672802007 -0.11772721671832879 0 0.0058589971554254758 -0.11764571191452811 0 0.030298202971871521 -0.10845184301124609 0 0.019406998230413329 -0.1188913781082738 0 0.03659042672802007 -0.11772721671832879 0 0.035908418912500531 -0.115812162340355 0 0.03086167819538253 -0.12918778365530811 0 0.019406998230413329 -0.1188913781082738 0 0.03659042672802007 -0.11772721671832879 0 0.02467759113720892 -0.10037497782278031 0 0.015829087744842929 -0.1070691082807112 0 0.022192185199379939 -0.088712970941261043 0 0.030390888632741291 -0.097265989057902624 0 0.02467759113720892 -0.10037497782278031 0 0.022192185199379939 -0.088712970941261043 0 0.02467759113720892 -0.10037497782278031 0 0.030298202971871521 -0.10845184301124609 0 0.015829087744842929 -0.1070691082807112 0 0.030390888632741291 -0.097265989057902624 0 0.02467759113720892 -0.10037497782278031 0 0.030298202971871521 -0.10845184301124609 0 0.015829087744842929 -0.1070691082807112 0 0.0030192891058982152 -0.1002006070164069 0 0.022192185199379939 -0.088712970941261043 0 0.0030192891058982152 -0.1002006070164069 0 0.022192185199379939 -0.088712970941261043 0 0.0054468516300478888 -0.11190937874551379 0 0.015829087744842929 -0.1070691082807112 0 0.0057146216931318649 -0.1075549498000659 0 0.015829087744842929 -0.1070691082807112 0 0.0057146216931318649 -0.1075549498000659 0 0.0030192891058982152 -0.1002006070164069 0 -0.0015245481095283991 -0.1098675185925166 0 0.0057146216931318649 -0.1075549498000659 0 0.0030192891058982152 -0.1002006070164069 0 0.0030192891058982152 -0.1002006070164069 0 0.0013718725137959219 -0.084861861412949505 0 0.022192185199379939 -0.088712970941261043 0 0.0013718725137959219 -0.084861861412949505 0 0.01176404020682973 -0.071033850231580098 0 0.022192185199379939 -0.088712970941261043 0 0.01176404020682973 -0.071033850231580098 0 0.02490536705962321 -0.070214775853594091 0 0.022192185199379939 -0.088712970941261043 0 0.01176404020682973 -0.071033850231580098 0 0.02490536705962321 -0.070214775853594091 0 0.0123861565104519 -0.055655138003827508 0 0.02490536705962321 -0.070214775853594091 0 0.022192185199379939 -0.088712970941261043 0 0.041365081292861768 -0.077225334866115075 0 0.030390888632741291 -0.097265989057902624 0 0.022192185199379939 -0.088712970941261043 0 0.036299573376968972 -0.089338195406520771 0 0.022192185199379939 -0.088712970941261043 0 0.041365081292861768 -0.077225334866115075 0 0.022192185199379939 -0.088712970941261043 0 0.036299573376968972 -0.089338195406520771 0 0.041365081292861768 -0.077225334866115075 0 0.04290249432874578 -0.083897861025005044 0 0.041365081292861768 -0.077225334866115075 0 0.055597533190080817 -0.080946198271572969 0 0.036299573376968972 -0.089338195406520771 0 0.04290249432874578 -0.083897861025005044 0 0.041365081292861768 -0.077225334866115075 0 0.04290249432874578 -0.083897861025005044 0 0.041365081292861768 -0.077225334866115075 0 0.04290249432874578 -0.083897861025005044 0 0.041341889655608512 -0.090352391606439944 0 0.047141152751727478 -0.090828230308198227 0 0.036299573376968972 -0.089338195406520771 0 0.041341889655608512 -0.090352391606439944 0 0.039676300977898073 -0.096508852406060622 0 0.041341889655608512 -0.090352391606439944 0 0.047141152751727478 -0.090828230308198227 0 0.039676300977898073 -0.096508852406060622 0 0.036299573376968972 -0.089338195406520771 0 0.04290249432874578 -0.083897861025005044 0 0.041341889655608512 -0.090352391606439944 0 0.02490536705962321 -0.070214775853594091 0 0.041365081292861768 -0.077225334866115075 0 0.035363741761283513 -0.051178921782456789 0 0.041365081292861768 -0.077225334866115075 0 0.035363741761283513 -0.051178921782456789 0 0.048565984674115173 -0.059506139374946213 0 0.041365081292861768 -0.077225334866115075 0 0.035363741761283513 -0.051178921782456789 0 0.041365081292861768 -0.077225334866115075 0 0.055597533190080817 -0.080946198271572969 0 0.063282277434023315 -0.064093423451706877 0 0.041365081292861768 -0.077225334866115075 0 0.048565984674115173 -0.059506139374946213 0 0.063282277434023315 -0.064093423451706877 0 0.041365081292861768 -0.077225334866115075 0 0.063282277434023315 -0.064093423451706877 0 0.047141152751727478 -0.090828230308198227 0 0.055597533190080817 -0.080946198271572969 0 0.054737408788317517 -0.099257974107964109 0 0.04290249432874578 -0.083897861025005044 0 0.047141152751727478 -0.090828230308198227 0 0.055597533190080817 -0.080946198271572969 0 0.047141152751727478 -0.090828230308198227 0 0.054737408788317517 -0.099257974107964109 0 0.039676300977898073 -0.096508852406060622 0 0.03659042672802007 -0.11772721671832879 0 0.065617448561886116 -0.1157606628324887 0 0.053070463092267491 -0.13953899360561911 0 0.03659042672802007 -0.11772721671832879 0 0.065617448561886116 -0.1157606628324887 0 0.054737408788317517 -0.099257974107964109 0 0.03659042672802007 -0.11772721671832879 0 0.065617448561886116 -0.1157606628324887 0 0.054737408788317517 -0.099257974107964109 0 0.03659042672802007 -0.11772721671832879 0 0.035908418912500531 -0.115812162340355 0 0.03659042672802007 -0.11772721671832879 0 0.035908418912500531 -0.115812162340355 0 0.030298202971871521 -0.10845184301124609 0 0.054737408788317517 -0.099257974107964109 0 0.039676300977898073 -0.096508852406060622 0 0.030298202971871521 -0.10845184301124609 0 0.054737408788317517 -0.099257974107964109 0 0.030298202971871521 -0.10845184301124609 0 0.054737408788317517 -0.099257974107964109 0 0.035908418912500531 -0.115812162340355 0 0.030390888632741291 -0.097265989057902624 0 0.030298202971871521 -0.10845184301124609 0 0.039676300977898073 -0.096508852406060622 0 0.030390888632741291 -0.097265989057902624 0 0.036299573376968972 -0.089338195406520771 0 0.039676300977898073 -0.096508852406060622 0 0.02336106269812703 0.00091390438485969283 0 0.01470889098275989 -0.01133742718195838 0 0.029362402229705261 -0.025132508698798489 0 0.02336106269812703 0.00091390438485969283 0 0.029362402229705261 -0.025132508698798489 0 0.036332415927468303 -0.0099090392340483585 0 0.02336106269812703 0.00091390438485969283 0 0.029362402229705261 -0.025132508698798489 0 0.0063828244129049781 0.0025647612679847069 0 0.0114893599922821 0.0084546309914183011 0 0.01470889098275989 -0.01133742718195838 0 0.0063828244129049781 0.0025647612679847069 0 0.003381286086920498 -0.0028614156450472439 0 0.01470889098275989 -0.01133742718195838 0 -3.0483325887532769e-05 -0.0080437905340390685 0 0.00074313100808037769 0.0046406821159502556 0 0.003381286086920498 -0.0028614156450472439 0 -3.0483325887532769e-05 -0.0080437905340390685 0 0.003381286086920498 -0.0028614156450472439 0 0.01470889098275989 -0.01133742718195838 0 -3.0483325887532769e-05 -0.0080437905340390685 0 0.01470889098275989 -0.01133742718195838 0 0.00087121664655170873 -0.021536788382980631 0 0.01470889098275989 -0.01133742718195838 0 0.00087121664655170873 -0.021536788382980631 0 0.011289282780618861 -0.038717292824338147 0 0.01470889098275989 -0.01133742718195838 0 0.011289282780618861 -0.038717292824338147 0 0.01470889098275989 -0.01133742718195838 0 0.029362402229705261 -0.025132508698798489 0 0.011289282780618861 -0.038717292824338147 0 0.029362402229705261 -0.025132508698798489 0 0.011289282780618861 -0.038717292824338147 0 0.035363741761283513 -0.051178921782456789 0 -0.0072972502983304158 -0.034748904429526939 0 0.00087121664655170873 -0.021536788382980631 0 0.011289282780618861 -0.038717292824338147 0 -0.0055195432453418224 -0.053805599270284499 0 0.011289282780618861 -0.038717292824338147 0 0.0123861565104519 -0.055655138003827508 0 -0.0055195432453418224 -0.053805599270284499 0 0.01176404020682973 -0.071033850231580098 0 0.0123861565104519 -0.055655138003827508 0 0.02490536705962321 -0.070214775853594091 0 0.0123861565104519 -0.055655138003827508 0 0.035363741761283513 -0.051178921782456789 0 0.011289282780618861 -0.038717292824338147 0 0.0123861565104519 -0.055655138003827508 0 0.035363741761283513 -0.051178921782456789 0 0.035363741761283513 -0.051178921782456789 0 0.048565984674115173 -0.059506139374946213 0 0.054282841945589307 -0.046113833911586737 0 0.048565984674115173 -0.059506139374946213 0 0.054282841945589307 -0.046113833911586737 0 0.063282277434023315 -0.064093423451706877 0 0.054282841945589307 -0.046113833911586737 0 0.050033554577249569 -0.027078060727929759 0 0.074594944380793934 -0.037052102344535508 0 0.029362402229705261 -0.025132508698798489 0 0.035363741761283513 -0.051178921782456789 0 0.050033554577249569 -0.027078060727929759 0 0.029362402229705261 -0.025132508698798489 0 0.035363741761283513 -0.051178921782456789 0 0.035363741761283513 -0.051178921782456789 0 0.054282841945589307 -0.046113833911586737 0 0.050033554577249569 -0.027078060727929759 0 0.029362402229705261 -0.025132508698798489 0 0.050033554577249569 -0.027078060727929759 0 0.036332415927468303 -0.0099090392340483585 0 0.050033554577249569 -0.027078060727929759 0 0.049204038009894972 -0.0054557019415801163 0 0.073832557565593301 -0.01476438871074272 0 0.02336106269812703 0.00091390438485969283 0 0.035117134206933388 0.0082609407808874047 0 0.036332415927468303 -0.0099090392340483585 0 0.050033554577249569 -0.027078060727929759 0 0.049204038009894972 -0.0054557019415801163 0 0.036332415927468303 -0.0099090392340483585 0 0.035117134206933388 0.0082609407808874047 0 0.049204038009894972 -0.0054557019415801163 0 0.036332415927468303 -0.0099090392340483585 0 0.081625812361846267 0.0043142162544619559 0 0.1040343233732574 0.0055112649514856022 0 0.092370588779474794 -0.0098496039988752535 0 0.092370588779474794 -0.0098496039988752535 0 0.073832557565593301 -0.01476438871074272 0 0.085994599141786102 -0.019902529796870991 0 0.081625812361846267 0.0043142162544619559 0 0.092370588779474794 -0.0098496039988752535 0 0.073832557565593301 -0.01476438871074272 0 0.065523571445864737 0.0048623888904800374 0 0.081625812361846267 0.0043142162544619559 0 0.073832557565593301 -0.01476438871074272 0 0.065523571445864737 0.0048623888904800374 0 0.049204038009894972 -0.0054557019415801163 0 0.073832557565593301 -0.01476438871074272 0 0.050033554577249569 -0.027078060727929759 0 0.073832557565593301 -0.01476438871074272 0 0.074594944380793934 -0.037052102344535508 0 0.085994599141786102 -0.019902529796870991 0 0.091906484174868602 -0.030582362997221991 0 0.074594944380793934 -0.037052102344535508 0 0.073832557565593301 -0.01476438871074272 0 0.085994599141786102 -0.019902529796870991 0 0.074594944380793934 -0.037052102344535508 0 0.092370588779474794 -0.0098496039988752535 0 0.085994599141786102 -0.019902529796870991 0 0.098531456136002726 -0.021365323145539791 0 0.085994599141786102 -0.019902529796870991 0 0.091906484174868602 -0.030582362997221991 0 0.098531456136002726 -0.021365323145539791 0 0.091521288710749271 -0.041932386911699052 0 0.074594944380793934 -0.037052102344535508 0 0.08519947357518487 -0.050961512037298651 0 0.091906484174868602 -0.030582362997221991 0 0.091521288710749271 -0.041932386911699052 0 0.074594944380793934 -0.037052102344535508 0 0.074594944380793934 -0.037052102344535508 0 0.08519947357518487 -0.050961512037298651 0 0.063282277434023315 -0.064093423451706877 0 0.054282841945589307 -0.046113833911586737 0 0.074594944380793934 -0.037052102344535508 0 0.063282277434023315 -0.064093423451706877 0 0.08519947357518487 -0.050961512037298651 0 0.063282277434023315 -0.064093423451706877 0 0.08519947357518487 -0.050961512037298651 0 0.1007915200123279 -0.049100770094781768 0 0.089984067308545676 -0.069582437649731793 0 0.08519947357518487 -0.050961512037298651 0 0.063282277434023315 -0.064093423451706877 0 0.089984067308545676 -0.069582437649731793 0 0.091521288710749271 -0.041932386911699052 0 0.08519947357518487 -0.050961512037298651 0 0.1007915200123279 -0.049100770094781768 0 0.1007915200123279 -0.049100770094781768 0 0.1029690968962667 -0.065496415725414786 0 0.11601394843892079 -0.062985611219766813 0 0.1007915200123279 -0.049100770094781768 0 0.089984067308545676 -0.069582437649731793 0 0.1007915200123279 -0.049100770094781768 0 0.089984067308545676 -0.069582437649731793 0 0.1029690968962667 -0.065496415725414786 0 0.1007915200123279 -0.049100770094781768 0 0.1237998356743315 -0.044601028672229578 0 0.11601394843892079 -0.062985611219766813 0 0.1007915200123279 -0.049100770094781768 0 0.1237998356743315 -0.044601028672229578 0 0.1115989727161109 -0.028619102539832089 0 0.1237998356743315 -0.044601028672229578 0 0.1115989727161109 -0.028619102539832089 0 0.1237998356743315 -0.044601028672229578 0 0.1115989727161109 -0.028619102539832089 0 0.12992018651693879 -0.026744705334764501 0 0.1007915200123279 -0.049100770094781768 0 0.099943421053059006 -0.035736101430475287 0 0.1115989727161109 -0.028619102539832089 0 0.1007915200123279 -0.049100770094781768 0 0.1115989727161109 -0.028619102539832089 0 0.091521288710749271 -0.041932386911699052 0 0.1007915200123279 -0.049100770094781768 0 0.099943421053059006 -0.035736101430475287 0 0.091906484174868602 -0.030582362997221991 0 0.091521288710749271 -0.041932386911699052 0 0.099943421053059006 -0.035736101430475287 0 0.091906484174868602 -0.030582362997221991 0 0.099943421053059006 -0.035736101430475287 0 0.1033058808946437 -0.027731539923729322 0 0.091906484174868602 -0.030582362997221991 0 0.098531456136002726 -0.021365323145539791 0 0.1033058808946437 -0.027731539923729322 0 0.098531456136002726 -0.021365323145539791 0 0.10993251731345489 -0.026436210457573099 0 0.10553879841081081 -0.01189676944776002 0 0.1033058808946437 -0.027731539923729322 0 0.1115989727161109 -0.028619102539832089 0 0.10993251731345489 -0.026436210457573099 0 0.099943421053059006 -0.035736101430475287 0 0.1033058808946437 -0.027731539923729322 0 0.1115989727161109 -0.028619102539832089 0 0.098531456136002726 -0.021365323145539791 0 0.1033058808946437 -0.027731539923729322 0 0.10993251731345489 -0.026436210457573099 0 0.1115989727161109 -0.028619102539832089 0 0.10993251731345489 -0.026436210457573099 0 0.12282510645186411 -0.0073439745882975596 0 0.1115989727161109 -0.028619102539832089 0 0.12282510645186411 -0.0073439745882975596 0 0.1115989727161109 -0.028619102539832089 0 0.12282510645186411 -0.0073439745882975596 0 0.12992018651693879 -0.026744705334764501 0 0.1115989727161109 -0.028619102539832089 0 0.10993251731345489 -0.026436210457573099 0 0.10993251731345489 -0.026436210457573099 0 0.12282510645186411 -0.0073439745882975596 0 0.10553879841081081 -0.01189676944776002 0 0.1040343233732574 0.0055112649514856022 0 0.12282510645186411 -0.0073439745882975596 0 0.10553879841081081 -0.01189676944776002 0 0.1040343233732574 0.0055112649514856022 0 0.092370588779474794 -0.0098496039988752535 0 0.10553879841081081 -0.01189676944776002 0 0.092370588779474794 -0.0098496039988752535 0 0.098531456136002726 -0.021365323145539791 0 0.10553879841081081 -0.01189676944776002 0 0.082636616661727377 -0.1045080957473345 0 0.079176614604763662 -0.090064105204681874 0 0.094253225669499965 -0.1019070626545731 0 0.082636616661727377 -0.1045080957473345 0 0.089027043628061381 -0.11417468441531289 0 0.094253225669499965 -0.1019070626545731 0 0.089027043628061381 -0.11417468441531289 0 0.094253225669499965 -0.1019070626545731 0 0.095187973741638565 -0.1195670113303786 0 0.077516777791927588 -0.13390105479483211 0 0.089027043628061381 -0.11417468441531289 0 0.095187973741638565 -0.1195670113303786 0 0.082636616661727377 -0.1045080957473345 0 0.089027043628061381 -0.11417468441531289 0 0.065617448561886116 -0.1157606628324887 0 0.089027043628061381 -0.11417468441531289 0 0.065617448561886116 -0.1157606628324887 0 0.077516777791927588 -0.13390105479483211 0 0.089027043628061381 -0.11417468441531289 0 0.065617448561886116 -0.1157606628324887 0 0.065617448561886116 -0.1157606628324887 0 0.079176614604763662 -0.090064105204681874 0 0.054737408788317517 -0.099257974107964109 0 0.065617448561886116 -0.1157606628324887 0 0.079176614604763662 -0.090064105204681874 0 0.054737408788317517 -0.099257974107964109 0 0.079176614604763662 -0.090064105204681874 0 0.082636616661727377 -0.1045080957473345 0 0.065617448561886116 -0.1157606628324887 0 0.079176614604763662 -0.090064105204681874 0 0.055597533190080817 -0.080946198271572969 0 0.063282277434023315 -0.064093423451706877 0 0.079176614604763662 -0.090064105204681874 0 0.055597533190080817 -0.080946198271572969 0 0.054737408788317517 -0.099257974107964109 0 0.079176614604763662 -0.090064105204681874 0 0.063282277434023315 -0.064093423451706877 0 0.089984067308545676 -0.069582437649731793 0 0.079176614604763662 -0.090064105204681874 0 0.079176614604763662 -0.090064105204681874 0 0.1050868518252726 -0.080316843937378771 0 0.089984067308545676 -0.069582437649731793 0 0.079176614604763662 -0.090064105204681874 0 0.1050868518252726 -0.080316843937378771 0 0.089984067308545676 -0.069582437649731793 0 0.079176614604763662 -0.090064105204681874 0 0.079176614604763662 -0.090064105204681874 0 0.1050868518252726 -0.080316843937378771 0 0.094253225669499965 -0.1019070626545731 0 0.1050868518252726 -0.080316843937378771 0 0.1029690968962667 -0.065496415725414786 0 0.11601394843892079 -0.062985611219766813 0 0.089984067308545676 -0.069582437649731793 0 0.1050868518252726 -0.080316843937378771 0 0.1029690968962667 -0.065496415725414786 0 0.1050868518252726 -0.080316843937378771 0 0.11601394843892079 -0.062985611219766813 0 0.12716668522571639 -0.074269843060054339 0 0.1050868518252726 -0.080316843937378771 0 0.13053036564106299 -0.090898924401474832 0 0.12716668522571639 -0.074269843060054339 0 0.1050868518252726 -0.080316843937378771 0 0.11285916969135081 -0.1052329678659267 0 0.13053036564106299 -0.090898924401474832 0 0.11285916969135081 -0.1052329678659267 0 0.13053036564106299 -0.090898924401474832 0 0.11285916969135081 -0.1052329678659267 0 0.1170732183955331 -0.11487071723486859 0 0.1310795589110679 -0.1039104366860067 0 0.11285916969135081 -0.1052329678659267 0 0.1310795589110679 -0.1039104366860067 0 0.13053036564106299 -0.090898924401474832 0 0.1050868518252726 -0.080316843937378771 0 0.11285916969135081 -0.1052329678659267 0 0.094253225669499965 -0.1019070626545731 0 0.11285916969135081 -0.1052329678659267 0 0.094253225669499965 -0.1019070626545731 0 0.095187973741638565 -0.1195670113303786 0 0.11285916969135081 -0.1052329678659267 0 0.095187973741638565 -0.1195670113303786 0 0.1170732183955331 -0.11487071723486859 0 0.11285916969135081 -0.1052329678659267 0 0.095187973741638565 -0.1195670113303786 0 0.096701975003532351 -0.12947646281519801 0 0.1158871722151367 -0.1250518708355618 0 0.095187973741638565 -0.1195670113303786 0 0.1158871722151367 -0.1250518708355618 0 0.095187973741638565 -0.1195670113303786 0 0.1170732183955331 -0.11487071723486859 0 0.1158871722151367 -0.1250518708355618 0 0.1170732183955331 -0.11487071723486859 0 0.12716094577049211 -0.1213605147770313 0 0.1170732183955331 -0.11487071723486859 0 0.12716094577049211 -0.1213605147770313 0 0.1310795589110679 -0.1039104366860067 0 0.12716094577049211 -0.1213605147770313 0 0.13544557496476359 -0.1247904767855378 0 0.14289018880504281 -0.1153283390602971 0 0.12716094577049211 -0.1213605147770313 0 0.14289018880504281 -0.1153283390602971 0 0.15004022659759719 -0.1020428815097984 0 0.12716094577049211 -0.1213605147770313 0 0.15004022659759719 -0.1020428815097984 0 0.13544557496476359 -0.1247904767855378 0 0.14289018880504281 -0.1153283390602971 0 0.14070822824113521 -0.12980885322655969 0 0.14289018880504281 -0.1153283390602971 0 0.15004022659759719 -0.1020428815097984 0 0.15870030883470981 -0.1135146461615802 0 0.14289018880504281 -0.1153283390602971 0 0.14070822824113521 -0.12980885322655969 0 0.151887976519681 -0.12743892282010691 0 0.14289018880504281 -0.1153283390602971 0 0.15870030883470981 -0.1135146461615802 0 0.151887976519681 -0.12743892282010691 0 0.15004022659759719 -0.1020428815097984 0 0.1310795589110679 -0.1039104366860067 0 0.14636714862134881 -0.090383391897729121 0 0.15004022659759719 -0.1020428815097984 0 0.14636714862134881 -0.090383391897729121 0 0.1598980956873732 -0.091886186042832774 0 0.12716094577049211 -0.1213605147770313 0 0.15004022659759719 -0.1020428815097984 0 0.1310795589110679 -0.1039104366860067 0 0.1310795589110679 -0.1039104366860067 0 0.13053036564106299 -0.090898924401474832 0 0.14636714862134881 -0.090383391897729121 0 0.13053036564106299 -0.090898924401474832 0 0.12716668522571639 -0.074269843060054339 0 0.1482015615907751 -0.07656488093702285 0 0.13053036564106299 -0.090898924401474832 0 0.1482015615907751 -0.07656488093702285 0 0.11601394843892079 -0.062985611219766813 0 0.12716668522571639 -0.074269843060054339 0 0.1360006986325506 -0.060582954804628247 0 0.12716668522571639 -0.074269843060054339 0 0.1482015615907751 -0.07656488093702285 0 0.1360006986325506 -0.060582954804628247 0 0.1482015615907751 -0.07656488093702285 0 0.16396733911192851 -0.063776423331652454 0 0.15070973350486469 -0.055824279566058267 0 0.1482015615907751 -0.07656488093702285 0 0.1360006986325506 -0.060582954804628247 0 0.15070973350486469 -0.055824279566058267 0 0.1482015615907751 -0.07656488093702285 0 0.16396733911192851 -0.063776423331652454 0 0.1482015615907751 -0.07656488093702285 0 0.1360006986325506 -0.060582954804628247 0 0.13053036564106299 -0.090898924401474832 0 0.1482015615907751 -0.07656488093702285 0 0.14636714862134881 -0.090383391897729121 0 0.1482015615907751 -0.07656488093702285 0 0.1598980956873732 -0.091886186042832774 0 0.1482015615907751 -0.07656488093702285 0 0.14636714862134881 -0.090383391897729121 0 0.1598980956873732 -0.091886186042832774 0 0.15004022659759719 -0.1020428815097984 0 0.1598980956873732 -0.091886186042832774 0 0.1729195074247025 -0.082725248242565205 0 0.15004022659759719 -0.1020428815097984 0 0.1729195074247025 -0.082725248242565205 0 0.1482015615907751 -0.07656488093702285 0 0.1598980956873732 -0.091886186042832774 0 0.16258920406111771 -0.078068622191431208 0 0.1598980956873732 -0.091886186042832774 0 0.16258920406111771 -0.078068622191431208 0 0.1729195074247025 -0.082725248242565205 0 0.1482015615907751 -0.07656488093702285 0 0.16396733911192851 -0.063776423331652454 0 0.16258920406111771 -0.078068622191431208 0 0.16396733911192851 -0.063776423331652454 0 0.16258920406111771 -0.078068622191431208 0 0.17712108551864131 -0.070134779394424224 0 0.16258920406111771 -0.078068622191431208 0 0.17712108551864131 -0.070134779394424224 0 0.1729195074247025 -0.082725248242565205 0 0.17712108551864131 -0.070134779394424224 0 0.1729195074247025 -0.082725248242565205 0 0.18701880805878199 -0.079275454298080444 0 0.17712108551864131 -0.070134779394424224 0 0.18701880805878199 -0.079275454298080444 0 0.19132858919674139 -0.065381961060969621 0 0.1729195074247025 -0.082725248242565205 0 0.16916337083289049 -0.1016030906228151 0 0.1879948407193017 -0.096825106457468404 0 0.1729195074247025 -0.082725248242565205 0 0.18701880805878199 -0.079275454298080444 0 0.1879948407193017 -0.096825106457468404 0 0.17616197058814109 -0.1129075707426635 0 0.16916337083289049 -0.1016030906228151 0 0.1879948407193017 -0.096825106457468404 0 0.17616197058814109 -0.1129075707426635 0 0.1662266333596169 -0.1240276150378375 0 0.17719406839141599 -0.129049301533325 0 0.17616197058814109 -0.1129075707426635 0 0.20132325748563171 -0.12584189031875309 0 0.17719406839141599 -0.129049301533325 0 0.17616197058814109 -0.1129075707426635 0 0.1662266333596169 -0.1240276150378375 0 0.15870030883470981 -0.1135146461615802 0 0.1662266333596169 -0.1240276150378375 0 0.15870030883470981 -0.1135146461615802 0 0.151887976519681 -0.12743892282010691 0 0.15004022659759719 -0.1020428815097984 0 0.15870030883470981 -0.1135146461615802 0 0.16916337083289049 -0.1016030906228151 0 0.15004022659759719 -0.1020428815097984 0 0.1729195074247025 -0.082725248242565205 0 0.16916337083289049 -0.1016030906228151 0 0.17616197058814109 -0.1129075707426635 0 0.15870030883470981 -0.1135146461615802 0 0.16916337083289049 -0.1016030906228151 0 0.14914929414019731 0.0058972064670669688 0 0.1476306879064353 -0.01113773911524259 0 0.16671696224836291 -0.0096910931753822552 0 0.12282510645186411 -0.0073439745882975596 0 0.1476306879064353 -0.01113773911524259 0 0.12992018651693879 -0.026744705334764501 0 0.14914929414019731 0.0058972064670669688 0 0.12282510645186411 -0.0073439745882975596 0 0.1476306879064353 -0.01113773911524259 0 0.1476306879064353 -0.01113773911524259 0 0.12992018651693879 -0.026744705334764501 0 0.14469410496758059 -0.040309631428859252 0 0.1476306879064353 -0.01113773911524259 0 0.14469410496758059 -0.040309631428859252 0 0.16368190226976101 -0.031062852420760342 0 0.1476306879064353 -0.01113773911524259 0 0.16368190226976101 -0.031062852420760342 0 0.1237998356743315 -0.044601028672229578 0 0.12992018651693879 -0.026744705334764501 0 0.14469410496758059 -0.040309631428859252 0 0.1237998356743315 -0.044601028672229578 0 0.14469410496758059 -0.040309631428859252 0 0.1360006986325506 -0.060582954804628247 0 0.1237998356743315 -0.044601028672229578 0 0.1360006986325506 -0.060582954804628247 0 0.1237998356743315 -0.044601028672229578 0 0.11601394843892079 -0.062985611219766813 0 0.1360006986325506 -0.060582954804628247 0 0.14469410496758059 -0.040309631428859252 0 0.15070973350486469 -0.055824279566058267 0 0.16147501682295659 -0.048114484400835517 0 0.14469410496758059 -0.040309631428859252 0 0.1360006986325506 -0.060582954804628247 0 0.15070973350486469 -0.055824279566058267 0 0.16396733911192851 -0.063776423331652454 0 0.17973311663308181 -0.050987965726281989 0 0.16396733911192851 -0.063776423331652454 0 0.16147501682295659 -0.048114484400835517 0 0.17973311663308181 -0.050987965726281989 0 0.16396733911192851 -0.063776423331652454 0 0.15070973350486469 -0.055824279566058267 0 0.16147501682295659 -0.048114484400835517 0 0.16396733911192851 -0.063776423331652454 0 0.17712108551864131 -0.070134779394424224 0 0.17973311663308181 -0.050987965726281989 0 0.17712108551864131 -0.070134779394424224 0 0.17973311663308181 -0.050987965726281989 0 0.19132858919674139 -0.065381961060969621 0 0.17973311663308181 -0.050987965726281989 0 0.19132858919674139 -0.065381961060969621 0 0.17973311663308181 -0.050987965726281989 0 0.16368190226976101 -0.031062852420760342 0 0.18151307462724739 -0.028964604933017991 0 0.14469410496758059 -0.040309631428859252 0 0.16147501682295659 -0.048114484400835517 0 0.16368190226976101 -0.031062852420760342 0 0.16147501682295659 -0.048114484400835517 0 0.17973311663308181 -0.050987965726281989 0 0.16368190226976101 -0.031062852420760342 0 0.17973311663308181 -0.050987965726281989 0 0.16368190226976101 -0.031062852420760342 0 0.16368190226976101 -0.031062852420760342 0 0.18151307462724739 -0.028964604933017991 0 0.16671696224836291 -0.0096910931753822552 0 0.1476306879064353 -0.01113773911524259 0 0.16368190226976101 -0.031062852420760342 0 0.16671696224836291 -0.0096910931753822552 0 0.18151307462724739 -0.028964604933017991 0 0.16671696224836291 -0.0096910931753822552 0 0.1881713423680581 -0.0060306205692716641 0 0.1881713423680581 -0.0060306205692716641 0 0.20226517114478551 -0.032711022296235251 0 0.2247972256564893 -0.014434078866188469 0 0.20792237099143179 0.004933202875899512 0 0.1881713423680581 -0.0060306205692716641 0 0.2247972256564893 -0.014434078866188469 0 0.18151307462724739 -0.028964604933017991 0 0.1881713423680581 -0.0060306205692716641 0 0.20226517114478551 -0.032711022296235251 0 0.20226517114478551 -0.032711022296235251 0 0.2247972256564893 -0.014434078866188469 0 0.17973311663308181 -0.050987965726281989 0 0.18151307462724739 -0.028964604933017991 0 0.20226517114478551 -0.032711022296235251 0 0.17973311663308181 -0.050987965726281989 0 0.20226517114478551 -0.032711022296235251 0 0.17973311663308181 -0.050987965726281989 0 0.20226517114478551 -0.032711022296235251 0 0.1960767899426526 -0.052624869372722982 0 0.1960767899426526 -0.052624869372722982 0 0.21098028279600151 -0.061418528407405089 0 0.19132858919674139 -0.065381961060969621 0 0.20226517114478551 -0.032711022296235251 0 0.1960767899426526 -0.052624869372722982 0 0.21098028279600151 -0.061418528407405089 0 0.17973311663308181 -0.050987965726281989 0 0.1960767899426526 -0.052624869372722982 0 0.19132858919674139 -0.065381961060969621 0 0.20226517114478551 -0.032711022296235251 0 0.21098028279600151 -0.061418528407405089 0 0.23024063609785361 -0.055856455915395238 0 0.25296892350641031 -0.054513079160722427 0 0.23024063609785361 -0.055856455915395238 0 0.23214486285280331 -0.034537362963016467 0 0.25296892350641031 -0.054513079160722427 0 0.25197428176290781 -0.026616330140016908 0 0.23214486285280331 -0.034537362963016467 0 0.20226517114478551 -0.032711022296235251 0 0.23024063609785361 -0.055856455915395238 0 0.23214486285280331 -0.034537362963016467 0 0.20226517114478551 -0.032711022296235251 0 0.23214486285280331 -0.034537362963016467 0 0.2247972256564893 -0.014434078866188469 0 0.25197428176290781 -0.026616330140016908 0 0.23214486285280331 -0.034537362963016467 0 0.2247972256564893 -0.014434078866188469 0 0.24732928016819311 0.003842864563858316 0 0.25197428176290781 -0.026616330140016908 0 0.2247972256564893 -0.014434078866188469 0 0.24732928016819311 0.003842864563858316 0 0.2247972256564893 -0.014434078866188469 0 0.2077673137364287 -0.097975885009293398 0 0.22072193691905059 -0.081557082930618613 0 0.2244844727109451 -0.1067818589175106 0 0.2244844727109451 -0.1067818589175106 0 0.21939969140019111 -0.1379861382013344 0 0.20132325748563171 -0.12584189031875309 0 0.2244844727109451 -0.1067818589175106 0 0.20132325748563171 -0.12584189031875309 0 0.2077673137364287 -0.097975885009293398 0 0.2244844727109451 -0.1067818589175106 0 0.20132325748563171 -0.12584189031875309 0 0.17616197058814109 -0.1129075707426635 0 0.1879948407193017 -0.096825106457468404 0 0.20132325748563171 -0.12584189031875309 0 0.2077673137364287 -0.097975885009293398 0 0.1879948407193017 -0.096825106457468404 0 0.20132325748563171 -0.12584189031875309 0 0.18701880805878199 -0.079275454298080444 0 0.1879948407193017 -0.096825106457468404 0 0.20292406176039621 -0.079775956395661179 0 0.2077673137364287 -0.097975885009293398 0 0.1879948407193017 -0.096825106457468404 0 0.20292406176039621 -0.079775956395661179 0 0.21098028279600151 -0.061418528407405089 0 0.20292406176039621 -0.079775956395661179 0 0.19132858919674139 -0.065381961060969621 0 0.18701880805878199 -0.079275454298080444 0 0.20292406176039621 -0.079775956395661179 0 0.19132858919674139 -0.065381961060969621 0 0.20292406176039621 -0.079775956395661179 0 0.19132858919674139 -0.065381961060969621 0 0.21098028279600151 -0.061418528407405089 0 0.20292406176039621 -0.079775956395661179 0 0.22072193691905059 -0.081557082930618613 0 0.2077673137364287 -0.097975885009293398 0 0.20292406176039621 -0.079775956395661179 0 0.22072193691905059 -0.081557082930618613 0 0.22072193691905059 -0.081557082930618613 0 0.24764568793625849 -0.087721827516268114 0 0.2244844727109451 -0.1067818589175106 0 0.23024063609785361 -0.055856455915395238 0 0.22072193691905059 -0.081557082930618613 0 0.24764568793625849 -0.087721827516268114 0 0.25296892350641031 -0.054513079160722427 0 0.23024063609785361 -0.055856455915395238 0 0.24764568793625849 -0.087721827516268114 0 0.21098028279600151 -0.061418528407405089 0 0.23024063609785361 -0.055856455915395238 0 0.22072193691905059 -0.081557082930618613 0 0.24764568793625849 -0.087721827516268114 0 0.2244844727109451 -0.1067818589175106 0 0.24764568793625849 -0.087721827516268114 0 0.2244844727109451 -0.1067818589175106 0 0.24678342630617159 -0.1145367174117326 0 0.2244844727109451 -0.1067818589175106 0 0.24678342630617159 -0.1145367174117326 0 0.2410969503534677 -0.13612356642675211 0 0.26105437232912282 -0.13059646526394561 0 0.24678342630617159 -0.1145367174117326 0 0.2410969503534677 -0.13612356642675211 0 0.26535897855112972 -0.15953860861584601 0 0.2410969503534677 -0.13612356642675211 0 0.2362814284028576 -0.16240917716207301 0 0.2410969503534677 -0.13612356642675211 0 0.21939969140019111 -0.1379861382013344 0 0.2362814284028576 -0.16240917716207301 0 0.21939969140019111 -0.1379861382013344 0 0.21691465359294529 -0.1596209436499067 0 0.2362814284028576 -0.16240917716207301 0 0.2244844727109451 -0.1067818589175106 0 0.2410969503534677 -0.13612356642675211 0 0.21939969140019111 -0.1379861382013344 0 0.21939969140019111 -0.1379861382013344 0 0.20132325748563171 -0.12584189031875309 0 0.19572709901770399 -0.15703013439139279 0 0.21939969140019111 -0.1379861382013344 0 0.19572709901770399 -0.15703013439139279 0 0.21691465359294529 -0.1596209436499067 0 0.20132325748563171 -0.12584189031875309 0 0.19572709901770399 -0.15703013439139279 0 0.1781620422603182 -0.14490192171999561 0 0.20132325748563171 -0.12584189031875309 0 0.1781620422603182 -0.14490192171999561 0 0.2003571004860118 -0.1766227025703801 0 0.19157018885947569 -0.1884627626162744 0 0.18431892349285639 -0.17584455208100391 0 0.2003571004860118 -0.1766227025703801 0 0.20336839654122951 -0.19427083537286771 0 0.19157018885947569 -0.1884627626162744 0 0.2003571004860118 -0.1766227025703801 0 0.19572709901770399 -0.15703013439139279 0 0.18431892349285639 -0.17584455208100391 0 0.2003571004860118 -0.1766227025703801 0 0.19572709901770399 -0.15703013439139279 0 0.21691465359294529 -0.1596209436499067 0 0.2003571004860118 -0.1766227025703801 0 0.2170371162184207 -0.1796416973657477 0 0.20336839654122951 -0.19427083537286771 0 0.2003571004860118 -0.1766227025703801 0 0.21691465359294529 -0.1596209436499067 0 0.2170371162184207 -0.1796416973657477 0 0.2170371162184207 -0.1796416973657477 0 0.2362814284028576 -0.16240917716207301 0 0.23144928873472889 -0.18832658475190381 0 0.21691465359294529 -0.1596209436499067 0 0.2170371162184207 -0.1796416973657477 0 0.2362814284028576 -0.16240917716207301 0 0.2362814284028576 -0.16240917716207301 0 0.24992822405896969 -0.18220675191515051 0 0.23144928873472889 -0.18832658475190381 0 0.2524003079384961 -0.1947869229672409 0 0.24992822405896969 -0.18220675191515051 0 0.23449746956681131 -0.20487489521445609 0 0.24992822405896969 -0.18220675191515051 0 0.23449746956681131 -0.20487489521445609 0 0.2524003079384961 -0.1947869229672409 0 0.24663547441270761 -0.20900968360465191 0 0.23449746956681131 -0.20487489521445609 0 0.24992822405896969 -0.18220675191515051 0 0.23449746956681131 -0.20487489521445609 0 0.23144928873472889 -0.18832658475190381 0 0.2524003079384961 -0.1947869229672409 0 0.24663547441270761 -0.20900968360465191 0 0.24663547441270761 -0.20900968360465191 0 0.23449746956681131 -0.20487489521445609 0 0.23835682038711689 -0.22943443899076851 0 0.24663547441270761 -0.20900968360465191 0 0.23449746956681131 -0.20487489521445609 0 0.23449746956681131 -0.20487489521445609 0 0.21949405483339279 -0.226915266301221 0 0.23449746956681131 -0.20487489521445609 0 0.2189329330540192 -0.19957286529366541 0 0.21803279870101189 -0.2125257342530702 0 0.23449746956681131 -0.20487489521445609 0 0.21949405483339279 -0.226915266301221 0 0.21803279870101189 -0.2125257342530702 0 0.2170371162184207 -0.1796416973657477 0 0.23144928873472889 -0.18832658475190381 0 0.2189329330540192 -0.19957286529366541 0 0.23449746956681131 -0.20487489521445609 0 0.23144928873472889 -0.18832658475190381 0 0.2189329330540192 -0.19957286529366541 0 0.23449746956681131 -0.20487489521445609 0 0.2189329330540192 -0.19957286529366541 0 0.23783172319467391 -0.23627383047078049 0 0.23835682038711689 -0.22943443899076851 0 0.23007816636152631 -0.2498591943768852 0 0.2400583360995556 -0.25107930535304163 0 0.23783172319467391 -0.23627383047078049 0 0.2400583360995556 -0.25107930535304163 0 0.23783172319467391 -0.23627383047078049 0 0.23007816636152631 -0.2498591943768852 0 0.2400583360995556 -0.25107930535304163 0 0.2470672804731909 -0.24755278856537619 0 0.23783172319467391 -0.23627383047078049 0 0.25475906612319699 -0.24139413636627971 0 0.2470672804731909 -0.24755278856537619 0 0.24580781773274579 -0.23745599548454119 0 0.2470672804731909 -0.24755278856537619 0 0.24580781773274579 -0.23745599548454119 0 0.23783172319467391 -0.23627383047078049 0 0.24580781773274579 -0.23745599548454119 0 0.23783172319467391 -0.23627383047078049 0 0.23835682038711689 -0.22943443899076851 0 0.24663547441270761 -0.20900968360465191 0 0.23835682038711689 -0.22943443899076851 0 0.24663547441270761 -0.20900968360465191 0 0.23835682038711689 -0.22943443899076851 0 0.2484500200095881 -0.2216353118123992 0 0.25140627590533687 -0.2319232051496454 0 0.24580781773274579 -0.23745599548454119 0 0.23835682038711689 -0.22943443899076851 0 0.25140627590533687 -0.2319232051496454 0 0.23835682038711689 -0.22943443899076851 0 0.2484500200095881 -0.2216353118123992 0 0.23449746956681131 -0.20487489521445609 0 0.23835682038711689 -0.22943443899076851 0 0.21949405483339279 -0.226915266301221 0 0.23835682038711689 -0.22943443899076851 0 0.23007816636152631 -0.2498591943768852 0 0.23835682038711689 -0.22943443899076851 0 0.21949405483339279 -0.226915266301221 0 0.23007816636152631 -0.2498591943768852 0 0.21949405483339279 -0.226915266301221 0 0.2044906400999788 -0.2489556373879889 0 0.20468319693933221 -0.23429387163261481 0 0.21949405483339279 -0.226915266301221 0 0.23007816636152631 -0.2498591943768852 0 0.2044906400999788 -0.2489556373879889 0 0.21949405483339279 -0.226915266301221 0 0.2044906400999788 -0.2489556373879889 0 0.21949405483339279 -0.226915266301221 0 0.20468319693933221 -0.23429387163261481 0 0.20198402554261041 -0.22679864528090701 0 0.2111439042045542 -0.21988825007174859 0 0.20198402554261041 -0.22679864528090701 0 0.2064586227283543 -0.2106957183041426 0 0.21949405483339279 -0.226915266301221 0 0.2111439042045542 -0.21988825007174859 0 0.20198402554261041 -0.22679864528090701 0 0.21949405483339279 -0.226915266301221 0 0.2111439042045542 -0.21988825007174859 0 0.21803279870101189 -0.2125257342530702 0 0.19276406728134959 -0.2345059375603441 0 0.19438257750004531 -0.21777378858329249 0 0.1797567572726364 -0.21847808968886751 0 0.20198402554261041 -0.22679864528090701 0 0.19276406728134959 -0.2345059375603441 0 0.19438257750004531 -0.21777378858329249 0 0.20198402554261041 -0.22679864528090701 0 0.19276406728134959 -0.2345059375603441 0 0.20468319693933221 -0.23429387163261481 0 0.20198402554261041 -0.22679864528090701 0 0.19276406728134959 -0.2345059375603441 0 0.18942126622895031 -0.25174801191084523 0 0.2044906400999788 -0.2489556373879889 0 0.19276406728134959 -0.2345059375603441 0 0.2044906400999788 -0.2489556373879889 0 0.20468319693933221 -0.23429387163261481 0 0.19276406728134959 -0.2345059375603441 0 0.2044906400999788 -0.2489556373879889 0 0.19276406728134959 -0.2345059375603441 0 0.2170371162184207 -0.1796416973657477 0 0.2189329330540192 -0.19957286529366541 0 0.20336839654122951 -0.19427083537286771 0 0.2189329330540192 -0.19957286529366541 0 0.20336839654122951 -0.19427083537286771 0 0.2064586227283543 -0.2106957183041426 0 0.2189329330540192 -0.19957286529366541 0 0.20336839654122951 -0.19427083537286771 0 0.2189329330540192 -0.19957286529366541 0 0.21803279870101189 -0.2125257342530702 0 0.2064586227283543 -0.2106957183041426 0 0.2111439042045542 -0.21988825007174859 0 0.21803279870101189 -0.2125257342530702 0 0.2064586227283543 -0.2106957183041426 0 0.20198402554261041 -0.22679864528090701 0 0.2064586227283543 -0.2106957183041426 0 0.19438257750004531 -0.21777378858329249 0 0.2064586227283543 -0.2106957183041426 0 0.19438257750004531 -0.21777378858329249 0 0.1921753705641697 -0.20394889640275271 0 0.19438257750004531 -0.21777378858329249 0 0.1921753705641697 -0.20394889640275271 0 0.1797567572726364 -0.21847808968886751 0 0.20336839654122951 -0.19427083537286771 0 0.2064586227283543 -0.2106957183041426 0 0.1921753705641697 -0.20394889640275271 0 0.20336839654122951 -0.19427083537286771 0 0.1921753705641697 -0.20394889640275271 0 0.19157018885947569 -0.1884627626162744 0 0.1921753705641697 -0.20394889640275271 0 0.19157018885947569 -0.1884627626162744 0 0.17748529292279469 -0.19463990942915119 0 0.17748529292279469 -0.19463990942915119 0 0.1797567572726364 -0.21847808968886751 0 0.16511230046843331 -0.20708791535462409 0 0.1921753705641697 -0.20394889640275271 0 0.17748529292279469 -0.19463990942915119 0 0.1797567572726364 -0.21847808968886751 0 0.1797567572726364 -0.21847808968886751 0 0.16511230046843331 -0.20708791535462409 0 0.16526933967795529 -0.22268793329274381 0 0.16511230046843331 -0.20708791535462409 0 0.16526933967795529 -0.22268793329274381 0 0.1502320175559515 -0.21809106349427879 0 0.17748529292279469 -0.19463990942915119 0 0.16511230046843331 -0.20708791535462409 0 0.1526164222954802 -0.1910265083077595 0 0.17748529292279469 -0.19463990942915119 0 0.1526164222954802 -0.1910265083077595 0 0.16905736736997001 -0.17781490362202021 0 0.19276406728134959 -0.2345059375603441 0 0.18003969250958149 -0.24514269671479411 0 0.175383888571642 -0.23200687237925091 0 0.18942126622895031 -0.25174801191084523 0 0.19276406728134959 -0.2345059375603441 0 0.18003969250958149 -0.24514269671479411 0 0.16731531773781361 -0.25577945586924422 0 0.18003969250958149 -0.24514269671479411 0 0.1703781416164801 -0.24246607116126251 0 0.19276406728134959 -0.2345059375603441 0 0.18003969250958149 -0.24514269671479411 0 0.18003969250958149 -0.24514269671479411 0 0.175383888571642 -0.23200687237925091 0 0.1703781416164801 -0.24246607116126251 0 0.19276406728134959 -0.2345059375603441 0 0.1797567572726364 -0.21847808968886751 0 0.175383888571642 -0.23200687237925091 0 0.19276406728134959 -0.2345059375603441 0 0.1797567572726364 -0.21847808968886751 0 0.1797567572726364 -0.21847808968886751 0 0.175383888571642 -0.23200687237925091 0 0.16526933967795529 -0.22268793329274381 0 0.16526933967795529 -0.22268793329274381 0 0.15877366764688339 -0.2369352596817611 0 0.1502320175559515 -0.21809106349427879 0 0.175383888571642 -0.23200687237925091 0 0.16526933967795529 -0.22268793329274381 0 0.15877366764688339 -0.2369352596817611 0 0.16731531773781361 -0.25577945586924422 0 0.15877366764688339 -0.2369352596817611 0 0.16015383963439911 -0.2494441683434068 0 0.16731531773781361 -0.25577945586924422 0 0.15877366764688339 -0.2369352596817611 0 0.1703781416164801 -0.24246607116126251 0 0.16731531773781361 -0.25577945586924422 0 0.15877366764688339 -0.2369352596817611 0 0.175383888571642 -0.23200687237925091 0 0.15877366764688339 -0.2369352596817611 0 0.1703781416164801 -0.24246607116126251 0 0.15877366764688339 -0.2369352596817611 0 0.16015383963439911 -0.2494441683434068 0 0.15595550302497749 -0.24877890851999501 0 0.14490446143813629 -0.25781358711477897 0 0.14797052066319569 -0.24376053413549151 0 0.1367400040882287 -0.24715954976977059 0 0.1525537561698822 -0.25448064090901751 0 0.14797052066319569 -0.24376053413549151 0 0.15595550302497749 -0.24877890851999501 0 0.15877366764688339 -0.2369352596817611 0 0.14797052066319569 -0.24376053413549151 0 0.15595550302497749 -0.24877890851999501 0 0.14797052066319569 -0.24376053413549151 0 0.13946246940508139 -0.2337744966932275 0 0.1367400040882287 -0.24715954976977059 0 0.14090220648985929 -0.21966160939349799 0 0.13946246940508139 -0.2337744966932275 0 0.1502320175559515 -0.21809106349427879 0 0.15877366764688339 -0.2369352596817611 0 0.14797052066319569 -0.24376053413549151 0 0.1502320175559515 -0.21809106349427879 0 0.14797052066319569 -0.24376053413549151 0 0.1502320175559515 -0.21809106349427879 0 0.14797052066319569 -0.24376053413549151 0 0.13946246940508139 -0.2337744966932275 0 0.1502320175559515 -0.21809106349427879 0 0.15877366764688339 -0.2369352596817611 0 0.1502320175559515 -0.21809106349427879 0 0.1214675982281712 -0.24019972667309869 0 0.14090220648985929 -0.21966160939349799 0 0.1214675982281712 -0.24019972667309869 0 0.14090220648985929 -0.21966160939349799 0 0.13946246940508139 -0.2337744966932275 0 0.11859185545849001 -0.21921522977555821 0 0.1214675982281712 -0.24019972667309869 0 0.14090220648985929 -0.21966160939349799 0 0.1214675982281712 -0.24019972667309869 0 0.13946246940508139 -0.2337744966932275 0 0.1367400040882287 -0.24715954976977059 0 0.13222908187911531 -0.26016936100608751 0 0.1214675982281712 -0.24019972667309869 0 0.1367400040882287 -0.24715954976977059 0 0.1419449020496252 -0.19980840981880779 0 0.1526164222954802 -0.1910265083077595 0 0.1502320175559515 -0.21809106349427879 0 0.1419449020496252 -0.19980840981880779 0 0.1526164222954802 -0.1910265083077595 0 0.13365778654329899 -0.1815257561433368 0 0.14090220648985929 -0.21966160939349799 0 0.1419449020496252 -0.19980840981880779 0 0.1502320175559515 -0.21809106349427879 0 0.1526164222954802 -0.1910265083077595 0 0.1502320175559515 -0.21809106349427879 0 0.1419449020496252 -0.19980840981880779 0 0.1502320175559515 -0.21809106349427879 0 0.16511230046843331 -0.20708791535462409 0 0.1526164222954802 -0.1910265083077595 0 0.1502320175559515 -0.21809106349427879 0 0.14090220648985929 -0.21966160939349799 0 0.1419449020496252 -0.19980840981880779 0 0.1296143143859014 -0.20375147385639891 0 0.11859185545849001 -0.21921522977555821 0 0.14090220648985929 -0.21966160939349799 0 0.1296143143859014 -0.20375147385639891 0 0.1419449020496252 -0.19980840981880779 0 0.1296143143859014 -0.20375147385639891 0 0.13365778654329899 -0.1815257561433368 0 0.1129748213882342 -0.19854636415079371 0 0.1296143143859014 -0.20375147385639891 0 0.13365778654329899 -0.1815257561433368 0 0.1419449020496252 -0.19980840981880779 0 0.13365778654329899 -0.1815257561433368 0 0.11588740707284929 -0.17929700287070821 0 0.13365778654329899 -0.1815257561433368 0 0.12736989321495501 -0.16765369463017951 0 0.13365778654329899 -0.1815257561433368 0 0.12736989321495501 -0.16765369463017951 0 0.13365778654329899 -0.1815257561433368 0 0.1550008270350062 -0.16396195312124001 0 0.1526164222954802 -0.1910265083077595 0 0.13365778654329899 -0.1815257561433368 0 0.1550008270350062 -0.16396195312124001 0 0.1526164222954802 -0.1910265083077595 0 0.1550008270350062 -0.16396195312124001 0 0.1550008270350062 -0.16396195312124001 0 0.1391368624576288 -0.15918068625907661 0 0.14695240061388021 -0.1520088350884789 0 0.13365778654329899 -0.1815257561433368 0 0.1550008270350062 -0.16396195312124001 0 0.1391368624576288 -0.15918068625907661 0 0.1550008270350062 -0.16396195312124001 0 0.15600472053923559 -0.15256710446317279 0 0.13365778654329899 -0.1815257561433368 0 0.1391368624576288 -0.15918068625907661 0 0.12736989321495501 -0.16765369463017951 0 0.1391368624576288 -0.15918068625907661 0 0.12736989321495501 -0.16765369463017951 0 0.12909537210344421 -0.15414988372408961 0 0.1391368624576288 -0.15918068625907661 0 0.12909537210344421 -0.15414988372408961 0 0.13603610282356671 -0.14345282215548461 0 0.12909537210344421 -0.15414988372408961 0 0.12518603117586979 -0.14405737709000771 0 0.13603610282356671 -0.14345282215548461 0 0.1208326872731787 -0.13588182141165739 0 0.12716094577049211 -0.1213605147770313 0 0.13102293704238421 -0.13266420007826271 0 0.12716094577049211 -0.1213605147770313 0 0.13544557496476359 -0.1247904767855378 0 0.13102293704238421 -0.13266420007826271 0 0.12518603117586979 -0.14405737709000771 0 0.13603610282356671 -0.14345282215548461 0 0.13102293704238421 -0.13266420007826271 0 0.1208326872731787 -0.13588182141165739 0 0.12518603117586979 -0.14405737709000771 0 0.13102293704238421 -0.13266420007826271 0 0.13603610282356671 -0.14345282215548461 0 0.13102293704238421 -0.13266420007826271 0 0.14070822824113521 -0.12980885322655969 0 0.13544557496476359 -0.1247904767855378 0 0.13102293704238421 -0.13266420007826271 0 0.14070822824113521 -0.12980885322655969 0 0.14070822824113521 -0.12980885322655969 0 0.151887976519681 -0.12743892282010691 0 0.1485834902139653 -0.14088160944342229 0 0.13603610282356671 -0.14345282215548461 0 0.14070822824113521 -0.12980885322655969 0 0.1485834902139653 -0.14088160944342229 0 0.151887976519681 -0.12743892282010691 0 0.1485834902139653 -0.14088160944342229 0 0.1640964382633725 -0.13756750984737531 0 0.1391368624576288 -0.15918068625907661 0 0.13603610282356671 -0.14345282215548461 0 0.14695240061388021 -0.1520088350884789 0 0.13603610282356671 -0.14345282215548461 0 0.14695240061388021 -0.1520088350884789 0 0.1485834902139653 -0.14088160944342229 0 0.1485834902139653 -0.14088160944342229 0 0.15600472053923559 -0.15256710446317279 0 0.1640964382633725 -0.13756750984737531 0 0.14695240061388021 -0.1520088350884789 0 0.1485834902139653 -0.14088160944342229 0 0.15600472053923559 -0.15256710446317279 0 0.1550008270350062 -0.16396195312124001 0 0.14695240061388021 -0.1520088350884789 0 0.15600472053923559 -0.15256710446317279 0 0.1550008270350062 -0.16396195312124001 0 0.1781620422603182 -0.14490192171999561 0 0.15600472053923559 -0.15256710446317279 0 0.1640964382633725 -0.13756750984737531 0 0.1781620422603182 -0.14490192171999561 0 0.1550008270350062 -0.16396195312124001 0 0.15600472053923559 -0.15256710446317279 0 0.1781620422603182 -0.14490192171999561 0 0.1662266333596169 -0.1240276150378375 0 0.151887976519681 -0.12743892282010691 0 0.1640964382633725 -0.13756750984737531 0 0.1662266333596169 -0.1240276150378375 0 0.1640964382633725 -0.13756750984737531 0 0.17719406839141599 -0.129049301533325 0 0.20132325748563171 -0.12584189031875309 0 0.17719406839141599 -0.129049301533325 0 0.1781620422603182 -0.14490192171999561 0 0.1640964382633725 -0.13756750984737531 0 0.17719406839141599 -0.129049301533325 0 0.1781620422603182 -0.14490192171999561 0 0.19572709901770399 -0.15703013439139279 0 0.1781620422603182 -0.14490192171999561 0 0.175865371103714 -0.16360159517094849 0 0.19572709901770399 -0.15703013439139279 0 0.175865371103714 -0.16360159517094849 0 0.18431892349285639 -0.17584455208100391 0 0.17748529292279469 -0.19463990942915119 0 0.18431892349285639 -0.17584455208100391 0 0.16905736736997001 -0.17781490362202021 0 0.19157018885947569 -0.1884627626162744 0 0.17748529292279469 -0.19463990942915119 0 0.18431892349285639 -0.17584455208100391 0 0.175865371103714 -0.16360159517094849 0 0.18431892349285639 -0.17584455208100391 0 0.16905736736997001 -0.17781490362202021 0 0.1526164222954802 -0.1910265083077595 0 0.1550008270350062 -0.16396195312124001 0 0.16905736736997001 -0.17781490362202021 0 0.1550008270350062 -0.16396195312124001 0 0.175865371103714 -0.16360159517094849 0 0.16905736736997001 -0.17781490362202021 0 0.1550008270350062 -0.16396195312124001 0 0.1781620422603182 -0.14490192171999561 0 0.175865371103714 -0.16360159517094849 0 
</DataArray>
</Points>
<Cells>
<DataArray type="UInt32" Name="connectivity" format="ascii">
0 1 2 3 4 5 6 7 8 9 10 11 12 13 14 15 16 17 18 19 20 21 22 23 24 25 26 27 28 29 30 31 32 33 34 35 36 37 38 39 40 41 42 43 44 45 46 47 48 49 50 51 52 53 54 55 56 57 58 59 60 61 62 63 64 65 66 67 68 69 70 71 72 73 74 75 76 77 78 79 80 81 82 83 84 85 86 87 88 89 90 91 92 93 94 95 96 97 98 99 100 101 102 103 104 105 106 107 108 109 110 111 112 113 114 115 116 117 118 119 120 121 122 123 124 125 126 127 128 129 130 131 132 133 134 135 136 137 138 139 140 141 142 143 144 145 146 147 148 149 150 151 152 153 154 155 156 157 158 159 160 161 162 163 164 165 166 167 168 169 170 171 172 173 174 175 176 177 178 179 180 181 182 183 184 185 186 187 188 189 190 191 192 193 194 195 196 197 198 199 200 201 202 203 204 205 206 207 208 209 210 211 212 213 214 215 216 217 218 219 220 221 222 223 224 225 226 227 228 229 230 231 232 233 234 235 236 237 238 239 240 241 242 243 244 245 246 247 248 249 250 251 252 253 254 255 256 257 258 259 260 261 262 263 264 265 266 267 268 269 270 271 272 273 274 275 276 277 278 279 280 281 282 283 284 285 286 287 288 289 290 291 292 293 294 295 296 297 298 299 300 301 302 303 304 305 306 307 308 309 310 311 312 313 314 315 316 317 318 319 320 321 322 323 324 325 326 327 328 329 330 331 332 333 334 335 336 337 338 339 340 341 342 343 344 345 346 347 348 349 350 351 352 353 354 355 356 357 358 359 360 361 362 363 364 365 366 367 368 369 370 371 372 373 374 375 376 377 378 379 380 381 382 383 384 385 386 387 388 389 390 391 392 393 394 395 396 397 398 399 400 401 402 403 404 405 406 407 408 409 410 411 412 413 414 415 416 417 418 419 420 421 422 423 424 425 426 427 428 429 430 431 432 433 434 435 436 437 438 439 440 441 442 443 444 445 446 447 448 449 450 451 452 453 454 455 456 457 458 459 460 461 462 463 464 465 466 467 468 469 470 471 472 473 474 475 476 477 478 479 480 481 482 483 484 485 486 487 488 489 490 491 492 493 494 495 496 497 498 499 500 501 502 503 504 505 506 507 508 509 510 511 512 513 514 515 516 517 518 519 520 521 522 523 524 525 526 527 528 529 530 531 532 533 534 535 536 537 538 539 540 541 542 543 544 545 546 547 548 549 550 551 552 553 554 555 556 557 558 559 560 561 562 563 564 565 566 567 568 569 570 571 572 573 574 575 576 577 578 579 580 581 582 583 584 585 586 587 588 589 590 591 592 593 594 595 596 597 598 599 600 601 602 603 604 605 606 607 608 609 610 611 612 613 614 615 616 617 618 619 620 621 622 623 624 625 626 627 628 629 630 631 632 633 634 635 636 637 638 639 640 641 642 643 644 645 646 647 648 649 650 651 652 653 654 655 656 657 658 659 660 661 662 663 664 665 666 667 668 669 670 671 672 673 674 675 676 677 678 679 680 681 682 683 684 685 686 687 688 689 690 691 692 693 694 695 696 697 698 699 700 701 702 703 704 705 706 707 708 709 710 711 712 713 714 715 716 717 718 719 720 721 722 723 724 725 726 727 728 729 730 731 732 733 734 735 736 737 738 739 740 741 742 743 744 745 746 747 748 749 750 751 752 753 754 755 756 757 758 759 760 761 762 763 764 765 766 767 768 769 770 771 772 773 774 775 776 777 778 779 780 781 782 783 784 785 786 787 788 789 790 791 792 793 794 795 796 797 798 799 800 801 802 803 804 805 806 807 808 809 810 811 812 813 814 815 816 817 818 819 820 821 822 823 824 825 826 827 828 829 830 831 832 833 834 835 836 837 838 839 840 841 842 843 844 845 846 847 848 849 850 851 852 853 854 855 856 857 858 859 860 861 862 863 864 865 866 867 868 869 870 871 872 873 874 875 876 877 878 879 880 881 882 883 884 885 886 887 888 889 890 891 892 893 894 895 896 897 898 899 900 901 902 903 904 905 906 907 908 909 910 911 912 913 914 915 916 917 918 919 920 921 922 923 924 925 926 927 928 929 930 931 932 933 934 935 936 937 938 939 940 941 942 943 944 945 946 947 948 949 950 951 952 953 954 955 956 957 958 959 960 961 962 963 964 965 966 967 968 969 970 971 972 973 974 975 976 977 978 979 980 981 982 983 984 985 986 987 988 989 990 991 992 993 994 995 996 997 998 999 1000 1001 1002 1003 1004 1005 1006 1007 1008 1009 1010 1011 1012 1013 1014 1015 1016 1017 1018 1019 1020 1021 1022 1023 1024 1025 1026 1027 1028 1029 1030 1031 1032 1033 1034 1035 1036 1037 1038 1039 1040 1041 1042 1043 1044 1045 1046 1047 1048 1049 1050 1051 1052 1053 1054 1055 1056 1057 1058 1059 1060 1061 1062 1063 1064 1065 1066 1067 1068 1069 1070 1071 1072 1073 1074 1075 1076 1077 1078 1079 1080 1081 1082 1083 1084 1085 1086 1087 1088 1089 1090 1091 1092 1093 1094 1095 1096 1097 1098 1099 1100 1101 1102 1103 1104 1105 1106 1107 1108 1109 1110 1111 1112 1113 1114 1115 1116 1117 1118 1119 1120 1121 1122 1123 1124 1125 1126 1127 1128 1129 1130 1131 1132 1133 1134 1135 1136 1137 1138 1139 1140 1141 1142 1143 1144 1145 1146 1147 1148 1149 1150 1151 1152 1153 1154 1155 1156 1157 1158 1159 1160 1161 1162 1163 1164 1165 1166 1167 1168 1169 1170 1171 1172 1173 1174 1175 1176 1177 1178 1179 1180 1181 1182 1183 1184 1185 1186 1187 1188 1189 1190 1191 1192 1193 1194 1195 1196 1197 1198 1199 1200 1201 1202 1203 1204 1205 1206 1207 1208 1209 1210 1211 1212 1213 1214 1215 1216 1217 1218 1219 1220 1221 1222 1223 1224 1225 1226 1227 1228 1229 1230 1231 1232 1233 1234 1235 1236 1237 1238 1239 1240 1241 1242 1243 1244 1245 1246 1247 1248 1249 1250 1251 1252 1253 1254 1255 1256 1257 1258 1259 1260 1261 1262 1263 1264 1265 1266 1267 1268 1269 1270 1271 1272 1273 1274 1275 1276 1277 1278 1279 1280 1281 1282 1283 1284 1285 1286 1287 1288 1289 1290 1291 1292 1293 1294 1295 1296 1297 1298 1299 1300 1301 1302 1303 1304 1305 1306 1307 1308 1309 1310 1311 1312 1313 1314 1315 1316 1317 1318 1319 1320 1321 1322 1323 1324 1325 1326 1327 1328 1329 1330 1331 1332 1333 1334 1335 1336 1337 1338 1339 1340 1341 1342 1343 1344 1345 1346 1347 1348 1349 1350 1351 1352 1353 1354 1355 1356 1357 1358 1359 1360 1361 1362 1363 1364 1365 1366 1367 1368 1369 1370 1371 1372 1373 1374 1375 1376 1377 1378 1379 1380 1381 1382 1383 1384 1385 1386 1387 1388 1389 1390 1391 1392 1393 1394 1395 1396 1397 1398 1399 1400 1401 1402 1403 1404 1405 1406 1407 1408 1409 1410 1411 1412 1413 1414 1415 1416 1417 1418 1419 1420 1421 1422 1423 1424 1425 1426 1427 1428 1429 1430 1431 1432 1433 1434 1435 1436 1437 1438 1439 1440 1441 1442 1443 1444 1445 1446 1447 1448 1449 1450 1451 1452 1453 1454 1455 1456 1457 1458 1459 1460 1461 1462 1463 1464 1465 1466 1467 1468 1469 1470 1471 1472 1473 1474 1475 1476 1477 1478 1479 1480 1481 1482 1483 1484 1485 1486 1487 1488 1489 1490 1491 1492 1493 1494 1495 1496 1497 1498 1499 1500 1501 1502 1503 1504 1505 1506 1507 1508 1509 1510 1511 1512 1513 1514 1515 1516 1517 1518 1519 1520 1521 1522 1523 1524 1525 1526 1527 1528 1529 1530 1531 1532 1533 1534 1535 1536 1537 1538 1539 1540 1541 1542 1543 1544 1545 1546 1547 1548 1549 1550 1551 1552 1553 1554 1555 1556 1557 1558 1559 1560 1561 1562 1563 1564 1565 1566 1567 1568 1569 1570 1571 1572 1573 1574 1575 1576 1577 1578 1579 1580 1581 1582 1583 1584 1585 1586 1587 1588 1589 1590 1591 1592 1593 1594 1595 1596 1597 1598 1599 1600 1601 1602 1603 1604 1605 1606 1607 1608 1609 1610 1611 1612 1613 1614 1615 1616 1617 1618 1619 1620 1621 1622 1623 1624 1625 1626 1627 1628 1629 1630 1631 1632 1633 1634 1635 1636 1637 1638 1639 1640 1641 1642 1643 1644 1645 1646 1647 1648 1649 1650 1651 1652 1653 1654 1655 1656 1657 1658 1659 1660 1661 1662 1663 1664 1665 1666 1667 1668 1669 1670 1671 1672 1673 1674 1675 1676 1677 1678 1679 1680 1681 1682 1683 1684 1685 1686 1687 1688 1689 1690 1691 1692 1693 1694 1695 1696 1697 1698 1699 1700 1701 1702 1703 1704 1705 1706 1707 1708 1709 1710 1711 1712 1713 1714 1715 1716 1717 1718 1719 1720 1721 1722 1723 1724 1725 1726 1727 1728 1729 1730 1731 1732 1733 1734 1735 1736 1737 1738 1739 1740 1741 1742 1743 1744 1745 1746 1747 1748 1749 1750 1751 1752 1753 1754 1755 1756 1757 1758 1759 1760 1761 1762 1763 1764 1765 1766 1767 1768 1769 1770 1771 1772 1773 1774 1775 1776 1777 1778 1779 1780 1781 1782 1783 1784 1785 1786 1787 1788 1789 1790 1791 1792 1793 1794 1795 1796 1797 1798 1799 1800 1801 1802 1803 1804 1805 1806 1807 1808 1809 1810 1811 1812 1813 1814 1815 1816 1817 1818 1819 1820 1821 1822 1823 1824 1825 1826 1827 1828 1829 1830 1831 1832 1833 1834 1835 1836 1837 1838 1839 1840 1841 1842 1843 1844 1845 1846 1847 1848 1849 1850 1851 1852 1853 1854 1855 1856 1857 1858 1859 1860 1861 1862 1863 1864 1865 1866 1867 1868 1869 1870 1871 1872 1873 1874 1875 1876 1877 1878 1879 1880 1881 1882 1883 1884 1885 1886 1887 1888 1889 1890 1891 1892 1893 1894 1895 1896 1897 1898 1899 1900 1901 1902 1903 1904 1905 1906 1907 1908 1909 1910 1911 1912 1913 1914 1915 1916 1917 1918 1919 1920 1921 1922 1923 1924 1925 1926 1927 1928 1929 1930 1931 1932 1933 1934 1935 1936 1937 1938 1939 1940 1941 1942 1943 1944 1945 1946 1947 1948 1949 1950 1951 1952 1953 1954 1955 1956 1957 1958 1959 1960 1961 1962 1963 1964 1965 1966 1967 1968 1969 1970 1971 1972 1973 1974 1975 1976 1977 1978 1979 1980 1981 1982 1983 1984 1985 1986 1987 1988 1989 1990 1991 1992 1993 1994 1995 1996 1997 1998 1999 2000 2001 2002 2003 2004 2005 2006 2007 2008 2009 2010 2011 2012 2013 2014 2015 2016 2017 2018 2019 2020 2021 2022 2023 2024 2025 2026 2027 2028 2029 2030 2031 2032 2033 2034 2035 2036 2037 2038 2039 2040 2041 2042 2043 2044 2045 2046 2047 2048 2049 2050 2051 2052 2053 2054 2055 2056 2057 2058 2059 2060 2061 2062 2063 2064 2065 2066 2067 2068 2069 2070 2071 2072 2073 2074 2075 2076 2077 2078 2079 2080 2081 2082 2083 2084 2085 2086 2087 2088 2089 2090 2091 2092 2093 2094 2095 2096 2097 2098 2099 2100 2101 2102 2103 2104 2105 2106 2107 2108 2109 2110 2111 2112 2113 2114 2115 2116 2117 2118 2119 2120 2121 2122 2123 2124 2125 2126 2127 2128 2129 2130 2131 2132 2133 2134 2135 2136 2137 2138 2139 2140 2141 2142 2143 2144 2145 2146 2147 2148 2149 2150 2151 2152 2153 2154 2155 2156 2157 2158 2159 2160 2161 2162 2163 2164 2165 2166 2167 2168 2169 2170 2171 2172 2173 2174 2175 2176 2177 2178 2179 2180 2181 2182 2183 2184 2185 2186 2187 2188 2189 2190 2191 2192 2193 2194 2195 2196 2197 2198 2199 2200 2201 2202 2203 2204 2205 2206 2207 2208 2209 2210 2211 2212 2213 2214 2215 2216 2217 2218 2219 2220 2221 2222 2223 2224 2225 2226 2227 2228 2229 2230 2231 2232 2233 2234 2235 2236 2237 2238 2239 2240 2241 2242 2243 2244 2245 2246 2247 2248 2249 2250 2251 2252 2253 2254 2255 2256 2257 2258 2259 2260 2261 2262 2263 2264 2265 2266 2267 2268 2269 2270 2271 2272 2273 2274 2275 2276 2277 2278 2279 2280 2281 2282 2283 2284 2285 2286 2287 2288 2289 2290 2291 2292 2293 2294 2295 2296 2297 2298 2299 2300 2301 2302 2303 2304 2305 2306 2307 2308 2309 2310 2311 2312 2313 2314 2315 2316 2317 2318 2319 2320 2321 2322 2323 2324 2325 2326 2327 2328 2329 2330 2331 2332 2333 2334 2335 2336 2337 2338 2339 2340 2341 2342 2343 2344 2345 2346 2347 2348 2349 2350 2351 2352 2353 2354 2355 2356 2357 2358 2359 2360 2361 2362 2363 2364 2365 2366 2367 2368 2369 2370 2371 2372 2373 2374 2375 2376 2377 2378 2379 2380 2381 2382 2383 2384 2385 2386 2387 2388 2389 2390 2391 2392 2393 2394 2395 2396 2397 2398 2399 2400 2401 2402 2403 2404 2405 2406 2407 2408 2409 2410 2411 2412 2413 2414 2415 2416 2417 2418 2419 2420 2421 2422 2423 2424 2425 2426 2427 2428 2429 2430 2431 2432 2433 2434 2435 2436 2437 2438 2439 2440 2441 2442 2443 2444 2445 2446 2447 2448 2449 2450 2451 2452 2453 2454 2455 2456 2457 2458 2459 2460 2461 2462 2463 2464 2465 2466 2467 2468 2469 2470 2471 2472 2473 2474 2475 2476 2477 2478 2479 2480 2481 2482 2483 2484 2485 2486 2487 2488 2489 2490 2491 2492 2493 2494 2495 2496 2497 2498 2499 2500 2501 2502 2503 2504 2505 2506 2507 2508 2509 2510 2511 2512 2513 2514 2515 2516 2517 2518 2519 2520 2521 2522 2523 2524 2525 2526 2527 2528 2529 2530 2531 2532 2533 2534 2535 2536 2537 2538 2539 2540 2541 2542 2543 2544 2545 2546 2547 2548 2549 2550 2551 2552 2553 2554 2555 2556 2557 2558 2559 2560 2561 2562 2563 2564 2565 2566 2567 2568 2569 2570 2571 2572 2573 2574 2575 2576 2577 2578 2579 2580 2581 2582 2583 2584 2585 2586 2587 2588 2589 2590 2591 2592 2593 2594 2595 2596 2597 2598 2599 2600 2601 2602 2603 2604 2605 2606 2607 2608 2609 2610 2611 2612 2613 2614 2615 2616 2617 2618 2619 2620 2621 2622 2623 2624 2625 2626 2627 2628 2629 2630 2631 2632 2633 2634 2635 2636 2637 2638 2639 2640 2641 2642 2643 2644 2645 2646 2647 2648 2649 2650 2651 2652 2653 2654 2655 2656 2657 2658 2659 2660 2661 2662 2663 2664 2665 2666 2667 2668 2669 2670 2671 2672 2673 2674 2675 2676 2677 2678 2679 2680 2681 2682 2683 2684 2685 2686 2687 2688 2689 2690 2691 2692 2693 2694 2695 2696 2697 2698 2699 2700 2701 2702 2703 2704 2705 2706 2707 2708 2709 2710 2711 2712 2713 2714 2715 2716 2717 2718 2719 2720 2721 2722 2723 2724 2725 2726 2727 2728 2729 2730 2731 2732 2733 2734 2735 2736 2737 2738 2739 2740 2741 2742 2743 2744 2745 2746 2747 2748 2749 2750 2751 2752 2753 2754 2755 2756 2757 2758 2759 2760 2761 2762 2763 2764 2765 2766 2767 2768 2769 2770 2771 2772 2773 2774 2775 2776 2777 2778 2779 2780 2781 2782 2783 2784 2785 2786 2787 2788 2789 2790 2791 2792 2793 2794 2795 2796 2797 2798 2799 2800 2801 2802 2803 2804 2805 2806 2807 2808 2809 2810 2811 2812 2813 2814 2815 2816 2817 2818 2819 2820 2821 2822 2823 2824 2825 2826 2827 2828 2829 2830 2831 2832 2833 2834 2835 2836 2837 2838 2839 2840 2841 2842 2843 2844 2845 2846 2847 2848 2849 2850 2851 2852 2853 2854 2855 2856 2857 2858 2859 2860 2861 2862 2863 2864 2865 2866 2867 2868 2869 2870 2871 2872 2873 2874 2875 2876 2877 2878 2879 2880 2881 2882 2883 2884 2885 2886 2887 2888 2889 2890 2891 2892 2893 2894 2895 2896 2897 2898 2899 2900 2901 2902 2903 2904 2905 2906 2907 2908 2909 2910 2911 2912 2913 2914 2915 2916 2917 2918 2919 2920 2921 2922 2923 2924 2925 2926 2927 2928 2929 2930 2931 2932 2933 2934 2935 2936 2937 2938 2939 2940 2941 2942 2943 2944 2945 2946 2947 2948 2949 2950 2951 2952 2953 2954 2955 2956 2957 2958 2959 2960 2961 2962 2963 2964 2965 2966 2967 2968 2969 2970 2971 2972 2973 2974 2975 2976 2977 2978 2979 2980 2981 2982 2983 2984 2985 2986 2987 2988 2989 2990 2991 2992 2993 2994 2995 2996 2997 2998 2999 3000 3001 3002 3003 3004 3005 3006 3007 3008 3009 3010 3011 3012 3013 3014 3015 3016 3017 3018 3019 3020 3021 3022 3023 3024 3025 3026 3027 3028 3029 3030 3031 3032 3033 3034 3035 3036 3037 3038 3039 3040 3041 3042 3043 3044 3045 3046 3047 3048 3049 3050 3051 3052 3053 3054 3055 3056 3057 3058 3059 3060 3061 3062 3063 3064 3065 3066 3067 3068 3069 3070 3071 3072 3073 3074 3075 3076 3077 3078 3079 3080 3081 3082 3083 3084 3085 3086 3087 3088 3089 3090 3091 3092 3093 3094 3095 3096 3097 3098 3099 3100 3101 3102 3103 3104 3105 3106 3107 3108 3109 3110 3111 3112 3113 3114 3115 3116 3117 3118 3119 3120 3121 3122 3123 3124 3125 3126 3127 3128 3129 3130 3131 3132 3133 3134 3135 3136 3137 3138 3139 3140 3141 3142 3143 3144 3145 3146 3147 3148 3149 3150 3151 3152 3153 3154 3155 3156 3157 3158 3159 3160 3161 3162 3163 3164 3165 3166 3167 3168 3169 3170 3171 3172 3173 3174 3175 3176 3177 3178 3179 3180 3181 3182 3183 3184 3185 3186 3187 3188 3189 3190 3191 3192 3193 3194 3195 3196 3197 3198 3199 3200 3201 3202 3203 3204 3205 3206 3207 3208 3209 3210 3211 3212 3213 3214 3215 3216 3217 3218 3219 3220 3221 3222 3223 3224 3225 3226 3227 3228 3229 3230 3231 3232 3233 3234 3235 3236 3237 3238 3239 3240 3241 3242 3243 3244 3245 3246 3247 3248 3249 3250 3251 3252 3253 3254 3255 3256 3257 3258 3259 3260 3261 3262 3263 3264 3265 3266 3267 3268 3269 3270 3271 3272 3273 3274 3275 3276 3277 3278 3279 3280 3281 3282 3283 3284 3285 3286 3287 3288 3289 3290 3291 3292 3293 3294 3295 3296 3297 3298 3299 3300 3301 3302 3303 3304 3305 3306 3307 3308 3309 3310 3311 3312 3313 3314 3315 3316 3317 3318 3319 3320 3321 3322 3323 3324 3325 3326 3327 3328 3329 3330 3331 3332 3333 3334 3335 3336 3337 3338 3339 3340 3341 3342 3343 3344 3345 3346 3347 3348 3349 3350 3351 3352 3353 3354 3355 3356 3357 3358 3359 3360 3361 3362 3363 3364 3365 3366 3367 3368 3369 3370 3371 3372 3373 3374 3375 3376 3377 3378 3379 3380 3381 3382 3383 3384 3385 3386 3387 3388 3389 3390 3391 3392 3393 3394 3395 3396 3397 3398 3399 3400 3401 3402 3403 3404 3405 3406 3407 3408 3409 3410 3411 3412 3413 3414 3415 3416 3417 3418 3419 3420 3421 3422 3423 3424 3425 3426 3427 3428 3429 3430 3431 3432 3433 3434 3435 3436 3437 3438 3439 3440 3441 3442 3443 3444 3445 3446 3447 3448 3449 3450 3451 3452 3453 3454 3455 3456 3457 3458 3459 3460 3461 3462 3463 3464 3465 3466 3467 3468 3469 3470 3471 3472 3473 3474 3475 3476 3477 3478 3479 3480 3481 3482 3483 3484 3485 3486 3487 3488 3489 3490 3491 3492 3493 3494 3495 3496 3497 3498 3499 3500 3501 3502 3503 3504 3505 3506 3507 3508 3509 3510 3511 3512 3513 3514 3515 3516 3517 3518 3519 3520 3521 3522 3523 3524 3525 3526 3527 3528 3529 3530 3531 3532 3533 3534 3535 3536 3537 3538 3539 3540 3541 3542 3543 3544 3545 3546 3547 3548 3549 3550 3551 3552 3553 3554 3555 3556 3557 3558 3559 3560 3561 3562 3563 3564 3565 3566 3567 3568 3569 3570 3571 3572 3573 3574 3575 3576 3577 3578 3579 3580 3581 3582 3583 3584 3585 3586 3587 3588 3589 3590 3591 3592 3593 3594 3595 3596 3597 3598 3599 3600 3601 3602 3603 3604 3605 3606 3607 3608 3609 3610 3611 3612 3613 3614 3615 3616 3617 3618 3619 3620 3621 3622 3623 3624 3625 3626 3627 3628 3629 3630 3631 3632 3633 3634 3635 3636 3637 3638 3639 3640 3641 3642 3643 3644 3645 3646 3647 3648 3649 3650 3651 3652 3653 3654 3655 3656 3657 3658 3659 3660 3661 3662 3663 3664 3665 3666 3667 3668 3669 3670 3671 3672 3673 3674 3675 3676 3677 3678 3679 3680 3681 3682 3683 3684 3685 3686 3687 3688 3689 3690 3691 3692 3693 3694 3695 3696 3697 3698 3699 3700 3701 3702 3703 3704 3705 3706 3707 3708 3709 3710 3711 3712 3713 3714 3715 3716 3717 3718 3719 3720 3721 3722 3723 3724 3725 3726 3727 3728 3729 3730 3731 3732 3733 3734 3735 3736 3737 3738 3739 3740 3741 3742 3743 3744 3745 3746 3747 3748 3749 3750 3751 3752 3753 3754 3755 3756 3757 3758 3759 3760 3761 3762 3763 3764 3765 3766 3767 3768 3769 3770 3771 3772 3773 3774 3775 3776 3777 3778 3779 3780 3781 3782 3783 3784 3785 3786 3787 3788 3789 3790 3791 3792 3793 3794 3795 3796 3797 3798 3799 3800 3801 3802 3803 3804 3805 3806 3807 3808 3809 3810 3811 3812 3813 3814 3815 3816 3817 3818 3819 3820 3821 3822 3823 3824 3825 3826 3827 3828 3829 3830 3831 3832 3833 3834 3835 3836 3837 3838 3839 3840 3841 3842 3843 3844 3845 3846 3847 3848 3849 3850 3851 3852 3853 3854 3855 3856 3857 3858 3859 3860 3861 3862 3863 3864 3865 3866 3867 3868 3869 3870 3871 3872 3873 3874 3875 3876 3877 3878 3879 3880 3881 3882 3883 3884 3885 3886 3887 3888 3889 3890 3891 3892 3893 3894 3895 3896 3897 3898 3899 3900 3901 3902 3903 3904 3905 3906 3907 3908 3909 3910 3911 3912 3913 3914 3915 3916 3917 3918 3919 3920 3921 3922 3923 3924 3925 3926 3927 3928 3929 3930 3931 3932 3933 3934 3935 3936 3937 3938 3939 3940 3941 3942 3943 3944 3945 3946 3947 3948 3949 3950 3951 3952 3953 3954 3955 3956 3957 3958 3959 3960 3961 3962 3963 3964 3965 3966 3967 3968 3969 3970 3971 3972 3973 3974 3975 3976 3977 3978 3979 3980 3981 3982 3983 3984 3985 3986 3987 3988 3989 3990 3991 3992 3993 3994 3995 3996 3997 3998 3999 4000 4001 4002 4003 4004 4005 4006 4007 4008 4009 4010 4011 4012 4013 4014 4015 4016 4017 4018 4019 4020 4021 4022 4023 4024 4025 4026 4027 4028 4029 4030 4031 4032 4033 4034 4035 4036 4037 4038 4039 4040 4041 4042 4043 4044 4045 4046 4047 4048 4049 4050 4051 4052 4053 4054 4055 4056 4057 4058 4059 4060 4061 4062 4063 4064 4065 4066 4067 4068 4069 4070 4071 4072 4073 4074 4075 4076 4077 4078 4079 4080 4081 4082 4083 4084 4085 4086 4087 4088 4089 4090 4091 4092 4093 4094 4095 4096 4097 4098 4099 4100 4101 4102 4103 4104 4105 4106 4107 4108 4109 4110 4111 4112 4113 4114 4115 4116 4117 4118 4119 4120 4121 4122 4123 4124 4125 4126 4127 4128 4129 4130 4131 4132 4133 4134 4135 4136 4137 4138 4139 4140 4141 4142 4143 4144 4145 4146 4147 4148 4149 4150 4151 4152 4153 4154 4155 4156 4157 4158 4159 4160 4161 4162 4163 4164 4165 4166 4167 4168 4169 4170 4171 4172 4173 4174 4175 4176 4177 4178 4179 4180 4181 4182 4183 4184 4185 4186 4187 4188 4189 4190 4191 4192 4193 4194 4195 4196 4197 4198 4199 4200 4201 4202 4203 4204 4205 4206 4207 4208 4209 4210 4211 4212 4213 4214 4215 4216 4217 4218 4219 4220 4221 4222 4223 4224 4225 4226 4227 4228 4229 4230 4231 4232 4233 4234 4235 4236 4237 4238 4239 4240 4241 4242 4243 4244 4245 4246 4247 4248 4249 4250 4251 4252 4253 4254 4255 4256 4257 4258 4259 4260 4261 4262 4263 4264 4265 4266 4267 4268 4269 4270 4271 4272 4273 4274 4275 4276 4277 4278 4279 4280 4281 4282 4283 4284 4285 4286 4287 4288 4289 4290 4291 4292 4293 4294 4295 4296 4297 4298 4299 4300 4301 4302 4303 4304 4305 4306 4307 4308 4309 4310 4311 4312 4313 4314 4315 4316 4317 4318 4319 4320 4321 4322 4323 4324 4325 4326 4327 4328 4329 4330 4331 4332 4333 4334 4335 4336 4337 4338 4339 4340 4341 4342 4343 4344 4345 4346 4347 4348 4349 4350 4351 4352 4353 4354 4355 4356 4357 4358 4359 4360 4361 4362 4363 4364 4365 4366 4367 4368 4369 4370 4371 4372 4373 4374 4375 4376 4377 4378 4379 4380 4381 4382 4383 4384 4385 4386 4387 4388 4389 4390 4391 4392 4393 4394 4395 4396 4397 4398 4399 4400 4401 4402 4403 4404 4405 4406 4407 4408 4409 4410 4411 4412 4413 4414 4415 4416 4417 4418 4419 4420 4421 4422 4423 4424 4425 4426 4427 4428 4429 4430 4431 4432 4433 4434 4435 4436 4437 4438 4439 4440 4441 4442 4443 4444 4445 4446 4447 4448 4449 4450 4451 4452 4453 4454 4455 4456 4457 4458 4459 4460 4461 4462 4463 4464 4465 4466 4467 4468 4469 4470 4471 4472 4473 4474 4475 4476 4477 4478 4479 4480 4481 4482 4483 4484 4485 4486 4487 4488 4489 4490 4491 4492 4493 4494 4495 4496 4497 4498 4499 4500 4501 4502 4503 4504 4505 4506 4507 4508 4509 4510 4511 4512 4513 4514 4515 4516 4517 4518 4519 4520 4521 4522 4523 4524 4525 4526 4527 4528 4529 4530 4531 4532 4533 4534 4535 4536 4537 4538 4539 4540 4541 4542 4543 4544 4545 4546 4547 4548 4549 4550 4551 4552 4553 4554 4555 4556 4557 4558 4559 4560 4561 4562 4563 4564 4565 4566 4567 4568 4569 4570 4571 4572 4573 4574 4575 4576 4577 4578 4579 4580 4581 4582 4583 4584 4585 4586 4587 4588 4589 4590 4591 4592 4593 4594 4595 4596 4597 4598 4599 4600 4601 4602 4603 4604 4605 4606 4607 4608 4609 4610 4611 4612 4613 4614 4615 4616 4617 4618 4619 4620 4621 4622 4623 4624 4625 4626 4627 4628 4629 4630 4631 4632 4633 4634 4635 4636 4637 4638 4639 4640 4641 4642 4643 4644 4645 4646 4647 4648 4649 4650 4651 4652 4653 4654 4655 4656 4657 4658 4659 4660 4661 4662 4663 4664 4665 4666 4667 4668 4669 4670 4671 4672 4673 4674 4675 4676 4677 4678 4679 4680 4681 4682 4683 4684 4685 4686 4687 4688 4689 4690 4691 4692 4693 4694 4695 4696 4697 4698 4699 4700 4701 4702 4703 4704 4705 4706 4707 4708 4709 4710 4711 4712 4713 4714 4715 4716 4717 4718 4719 4720 4721 4722 4723 4724 4725 4726 4727 4728 4729 4730 4731 4732 4733 4734 4735 4736 4737 4738 4739 4740 4741 4742 4743 4744 4745 4746 4747 4748 4749 4750 4751 4752 4753 4754 4755 4756 4757 4758 4759 4760 4761 4762 4763 4764 4765 4766 4767 4768 4769 4770 4771 4772 4773 4774 4775 4776 4777 4778 4779 4780 4781 4782 4783 4784 4785 4786 4787 4788 4789 4790 4791 4792 4793 4794 4795 4796 4797 4798 4799 4800 4801 4802 4803 4804 4805 4806 4807 4808 4809 4810 4811 4812 4813 4814 4815 4816 4817 4818 4819 4820 4821 4822 4823 4824 4825 4826 4827 4828 4829 4830 4831 4832 4833 4834 4835 4836 4837 4838 4839 4840 4841 4842 4843 4844 4845 4846 4847 4848 4849 4850 4851 4852 4853 4854 4855 4856 4857 4858 4859 4860 4861 4862 4863 4864 4865 4866 4867 4868 4869 4870 4871 4872 4873 4874 4875 4876 4877 4878 4879 4880 4881 4882 4883 4884 4885 4886 4887 4888 4889 4890 4891 4892 4893 4894 4895 4896 4897 4898 4899 4900 4901 4902 4903 4904 4905 4906 4907 4908 4909 4910 4911 4912 4913 4914 4915 4916 4917 4918 4919 4920 4921 4922 4923 4924 4925 4926 4927 4928 4929 4930 4931 4932 4933 4934 4935 4936 4937 4938 4939 4940 4941 4942 4943 4944 4945 4946 4947 4948 4949 4950 4951 4952 4953 4954 4955 4956 4957 4958 4959 4960 4961 4962 4963 4964 4965 4966 4967 4968 4969 4970 4971 4972 4973 4974 4975 4976 4977 4978 4979 4980 4981 4982 4983 4984 4985 4986 4987 4988 4989 4990 4991 4992 4993 4994 4995 4996 4997 4998 4999 5000 5001 5002 5003 5004 5005 5006 5007 5008 5009 5010 5011 5012 5013 5014 5015 5016 5017 5018 5019 5020 5021 5022 5023 5024 5025 5026 5027 5028 5029 5030 5031 5032 5033 5034 5035 5036 5037 5038 5039 5040 5041 5042 5043 5044 5045 5046 5047 5048 5049 5050 5051 5052 5053 5054 5055 5056 5057 5058 5059 5060 5061 5062 5063 5064 5065 5066 5067 5068 5069 5070 5071 5072 5073 5074 5075 5076 5077 5078 5079 5080 5081 5082 5083 5084 5085 5086 5087 5088 5089 5090 5091 5092 5093 5094 5095 5096 5097 5098 5099 5100 5101 5102 5103 5104 5105 5106 5107 5108 5109 5110 5111 5112 5113 5114 5115 5116 5117 5118 5119 5120 5121 5122 5123 5124 5125 5126 5127 5128 5129 5130 5131 5132 5133 5134 5135 5136 5137 5138 5139 5140 5141 5142 5143 5144 5145 5146 5147 5148 5149 5150 5151 5152 5153 5154 5155 5156 5157 5158 5159 5160 5161 5162 5163 5164 5165 5166 5167 5168 5169 5170 5171 5172 5173 5174 5175 5176 5177 5178 5179 5180 5181 5182 5183 5184 5185 5186 5187 5188 5189 5190 5191 5192 5193 5194 5195 5196 5197 5198 5199 5200 5201 5202 5203 5204 5205 5206 5207 5208 5209 5210 5211 5212 5213 5214 5215 5216 5217 5218 5219 5220 5221 5222 5223 5224 5225 5226 5227 5228 5229 5230 5231 5232 5233 5234 5235 5236 5237 5238 5239 5240 5241 5242 5243 5244 5245 5246 5247 5248 5249 5250 5251 5252 5253 5254 5255 5256 5257 5258 5259 5260 5261 5262 5263 5264 5265 5266 5267 5268 5269 5270 5271 5272 5273 5274 5275 5276 5277 5278 5279 5280 5281 5282 5283 5284 5285 5286 5287 5288 5289 5290 5291 5292 5293 5294 5295 5296 5297 5298 5299 5300 5301 5302 5303 5304 5305 5306 5307 5308 5309 5310 5311 5312 5313 5314 5315 5316 5317 5318 5319 5320 5321 5322 5323 5324 5325 5326 5327 5328 5329 5330 5331 5332 5333 5334 5335 5336 5337 5338 5339 5340 5341 5342 5343 5344 5345 5346 5347 5348 5349 5350 5351 5352 5353 5354 5355 5356 5357 5358 5359 5360 5361 5362 5363 5364 5365 5366 5367 5368 5369 5370 5371 5372 5373 5374 5375 5376 5377 5378 5379 5380 5381 5382 5383 5384 5385 5386 5387 5388 5389 5390 5391 5392 5393 5394 5395 5396 5397 5398 5399 5400 5401 5402 5403 5404 5405 5406 5407 5408 5409 5410 5411 5412 5413 5414 5415 5416 5417 5418 5419 5420 5421 5422 5423 5424 5425 5426 5427 5428 5429 5430 5431 5432 5433 5434 5435 5436 5437 5438 5439 5440 5441 5442 5443 5444 5445 5446 5447 5448 5449 5450 5451 5452 5453 5454 5455 5456 5457 5458 5459 5460 5461 5462 5463 5464 5465 5466 5467 5468 5469 5470 5471 5472 5473 5474 5475 5476 5477 5478 5479 5480 5481 5482 5483 5484 5485 5486 5487 5488 5489 5490 5491 5492 5493 5494 5495 5496 5497 5498 5499 5500 5501 5502 5503 5504 5505 5506 5507 5508 5509 5510 5511 5512 5513 5514 5515 5516 5517 5518 5519 5520 5521 5522 5523 5524 5525 5526 5527 5528 5529 5530 5531 5532 5533 5534 5535 5536 5537 5538 5539 5540 5541 5542 5543 5544 5545 5546 5547 5548 5549 5550 5551 5552 5553 5554 5555 5556 5557 5558 5559 5560 5561 5562 5563 5564 5565 5566 5567 5568 5569 5570 5571 5572 5573 5574 5575 5576 5577 5578 5579 5580 5581 5582 5583 5584 5585 5586 5587 5588 5589 5590 5591 5592 5593 5594 5595 5596 5597 5598 5599 5600 5601 5602 5603 5604 5605 5606 5607 5608 5609 5610 5611 5612 5613 5614 5615 5616 5617 5618 5619 5620 5621 5622 5623 5624 5625 5626 5627 5628 5629 5630 5631 5632 5633 5634 5635 5636 5637 5638 5639 5640 5641 5642 5643 5644 5645 5646 5647 5648 5649 5650 5651 5652 5653 5654 5655 5656 5657 5658 5659 5660 5661 5662 5663 5664 5665 5666 5667 5668 5669 5670 5671 5672 5673 5674 5675 5676 5677 5678 5679 5680 5681 5682 5683 5684 5685 5686 5687 5688 5689 5690 5691 5692 5693 5694 5695 5696 5697 5698 5699 5700 5701 5702 5703 5704 5705 5706 5707 5708 5709 5710 5711 5712 5713 5714 5715 5716 5717 5718 5719 5720 5721 5722 5723 5724 5725 5726 5727 5728 5729 5730 5731 5732 5733 5734 5735 5736 5737 5738 5739 5740 5741 5742 5743 5744 5745 5746 5747 5748 5749 5750 5751 5752 5753 5754 5755 5756 5757 5758 5759 5760 5761 5762 5763 5764 5765 5766 5767 5768 5769 5770 5771 5772 5773 5774 5775 5776 5777 5778 5779 5780 5781 5782 5783 5784 5785 5786 5787 5788 5789 5790 5791 5792 5793 5794 5795 5796 5797 5798 5799 5800 5801 5802 5803 5804 5805 5806 5807 5808 5809 5810 5811 5812 5813 5814 5815 5816 5817 5818 5819 5820 5821 5822 5823 5824 5825 5826 5827 5828 5829 5830 5831 5832 5833 5834 5835 5836 5837 5838 5839 5840 5841 5842 5843 5844 5845 5846 5847 5848 5849 5850 5851 5852 5853 5854 5855 5856 5857 5858 5859 5860 5861 5862 5863 5864 5865 5866 5867 5868 5869 5870 5871 5872 5873 5874 5875 5876 5877 5878 5879 5880 5881 5882 5883 5884 5885 5886 5887 5888 5889 5890 5891 5892 5893 5894 5895 5896 5897 5898 5899 5900 5901 5902 5903 5904 5905 5906 5907 5908 5909 5910 5911 5912 5913 5914 5915 5916 5917 5918 5919 5920 5921 5922 5923 5924 5925 5926 5927 5928 5929 5930 5931 5932 5933 5934 5935 5936 5937 5938 5939 5940 5941 5942 5943 5944 5945 5946 5947 5948 5949 5950 5951 5952 5953 5954 5955 5956 5957 5958 5959 5960 5961 5962 5963 5964 5965 5966 5967 5968 5969 5970 5971 5972 5973 5974 5975 5976 5977 5978 5979 5980 5981 5982 5983 5984 5985 5986 5987 5988 5989 5990 5991 5992 5993 5994 5995 5996 5997 5998 5999 6000 6001 6002 6003 6004 6005 6006 6007 6008 6009 6010 6011 6012 6013 6014 6015 6016 6017 6018 6019 6020 6021 6022 6023 6024 6025 6026 6027 6028 6029 6030 6031 6032 6033 6034 6035 6036 6037 6038 6039 6040 6041 6042 6043 6044 6045 6046 6047 6048 6049 6050 6051 6052 6053 6054 6055 6056 6057 6058 6059 6060 6061 6062 6063 6064 6065 6066 6067 6068 6069 6070 6071 6072 6073 6074 6075 6076 6077 6078 6079 6080 6081 6082 6083 6084 6085 6086 6087 6088 6089 6090 6091 6092 6093 6094 6095 6096 6097 6098 6099 6100 6101 6102 6103 6104 6105 6106 6107 6108 6109 6110 6111 6112 6113 6114 6115 6116 6117 6118 6119 6120 6121 6122 6123 6124 6125 6126 6127 6128 6129 6130 6131 6132 6133 6134 6135 6136 6137 6138 6139 6140 6141 6142 6143 6144 6145 6146 6147 6148 6149 6150 6151 6152 6153 6154 6155 6156 6157 6158 6159 6160 6161 6162 6163 6164 6165 6166 6167 6168 6169 6170 6171 6172 6173 6174 6175 6176 6177 6178 6179 6180 6181 6182 6183 6184 6185 6186 6187 6188 6189 6190 6191 6192 6193 6194 6195 6196 6197 6198 6199 6200 6201 6202 6203 6204 6205 6206 6207 6208 6209 6210 6211 6212 6213 6214 6215 6216 6217 6218 6219 6220 6221 6222 6223 6224 6225 6226 6227 6228 6229 6230 6231 6232 6233 6234 6235 6236 6237 6238 6239 6240 6241 6242 6243 6244 6245 6246 6247 6248 6249 6250 6251 6252 6253 6254 6255 6256 6257 6258 6259 6260 6261 6262 6263 6264 6265 6266 6267 6268 6269 6270 6271 6272 6273 6274 6275 6276 6277 6278 6279 6280 6281 6282 6283 6284 6285 6286 6287 6288 6289 6290 6291 6292 6293 6294 6295 6296 6297 6298 6299 6300 6301 6302 6303 6304 6305 6306 6307 6308 6309 6310 6311 6312 6313 6314 6315 6316 6317 6318 6319 6320 6321 6322 6323 6324 6325 6326 6327 6328 6329 6330 6331 6332 6333 6334 6335 6336 6337 6338 6339 6340 6341 6342 6343 6344 6345 6346 6347 6348 6349 6350 6351 6352 6353 6354 6355 6356 6357 6358 6359 6360 6361 6362 6363 6364 6365 6366 6367 6368 6369 6370 6371 6372 6373 6374 6375 6376 6377 6378 6379 6380 6381 6382 6383 6384 6385 6386 6387 6388 6389 6390 6391 6392 6393 6394 6395 6396 6397 6398 6399 6400 6401 6402 6403 6404 6405 6406 6407 6408 6409 6410 6411 6412 6413 6414 6415 6416 6417 6418 6419 6420 6421 6422 6423 6424 6425 6426 6427 6428 6429 6430 6431 6432 6433 6434 6435 6436 6437 6438 6439 6440 6441 6442 6443 6444 6445 6446 6447 6448 6449 6450 6451 6452 6453 6454 6455 6456 6457 6458 6459 6460 6461 6462 6463 6464 6465 6466 6467 6468 6469 6470 6471 6472 6473 6474 6475 6476 6477 6478 6479 6480 6481 6482 6483 6484 6485 6486 6487 6488 6489 6490 6491 6492 6493 6494 6495 6496 6497 6498 6499 6500 6501 6502 6503 6504 6505 6506 6507 6508 6509 6510 6511 6512 6513 6514 6515 6516 6517 6518 6519 6520 6521 6522 6523 6524 6525 6526 6527 6528 6529 6530 6531 6532 6533 6534 6535 6536 6537 6538 6539 6540 6541 6542 6543 6544 6545 6546 6547 6548 6549 6550 6551 6552 6553 6554 6555 6556 6557 6558 6559 6560 6561 6562 6563 6564 6565 6566 6567 6568 6569 6570 6571 6572 6573 6574 6575 6576 6577 6578 6579 6580 6581 6582 6583 6584 6585 6586 6587 6588 6589 6590 6591 6592 6593 6594 6595 6596 6597 6598 6599 6600 6601 6602 6603 6604 6605 6606 6607 6608 6609 6610 6611 6612 6613 6614 6615 6616 6617 6618 6619 6620 6621 6622 6623 6624 6625 6626 6627 6628 6629 6630 6631 6632 6633 6634 6635 6636 6637 6638 6639 6640 6641 6642 6643 6644 6645 6646 6647 6648 6649 6650 6651 6652 6653 6654 6655 6656 6657 6658 6659 6660 6661 6662 6663 6664 6665 6666 6667 6668 6669 6670 6671 6672 6673 6674 6675 6676 6677 6678 6679 6680 6681 6682 6683 6684 6685 6686 6687 6688 6689 6690 6691 6692 6693 6694 6695 6696 6697 6698 6699 6700 6701 6702 6703 6704 6705 6706 6707 6708 6709 6710 6711 6712 6713 6714 6715 6716 6717 6718 6719 6720 6721 6722 6723 6724 6725 6726 6727 6728 6729 6730 6731 6732 6733 6734 6735 6736 6737 6738 6739 6740 6741 6742 6743 6744 6745 6746 6747 6748 6749 6750 6751 6752 6753 6754 6755 6756 6757 6758 6759 6760 6761 6762 6763 6764 6765 6766 6767 6768 6769 6770 6771 6772 6773 6774 6775 6776 6777 6778 6779 6780 6781 6782 6783 6784 6785 6786 6787 6788 6789 6790 6791 6792 6793 6794 6795 6796 6797 6798 6799 6800 6801 6802 6803 6804 6805 6806 6807 6808 6809 6810 6811 6812 6813 6814 6815 6816 6817 6818 6819 6820 6821 6822 6823 6824 6825 6826 6827 6828 6829 6830 6831 6832 6833 6834 6835 6836 6837 6838 6839 6840 6841 6842 6843 6844 6845 6846 6847 6848 6849 6850 6851 6852 6853 6854 6855 6856 6857 6858 6859 6860 6861 6862 6863 6864 6865 6866 6867 6868 6869 6870 6871 6872 6873 6874 6875 6876 6877 6878 6879 6880 6881 6882 6883 6884 6885 6886 6887 6888 6889 6890 6891 6892 6893 6894 6895 6896 6897 6898 6899 6900 6901 6902 6903 6904 6905 6906 6907 6908 6909 6910 6911 6912 6913 6914 6915 6916 6917 6918 6919 6920 6921 6922 6923 6924 6925 6926 6927 6928 6929 6930 6931 6932 6933 6934 6935 6936 6937 6938 6939 6940 6941 6942 6943 6944 6945 6946 6947 6948 6949 6950 6951 6952 6953 6954 6955 6956 6957 6958 6959 6960 6961 6962 6963 6964 6965 6966 6967 6968 6969 6970 6971 6972 6973 6974 6975 6976 6977 6978 6979 6980 6981 6982 6983 6984 6985 6986 6987 6988 6989 6990 6991 6992 6993 6994 6995 6996 6997 6998 6999 7000 7001 7002 7003 7004 7005 7006 7007 7008 7009 7010 7011 7012 7013 7014 7015 7016 7017 7018 7019 7020 7021 7022 7023 7024 7025 7026 7027 7028 7029 7030 7031 7032 7033 7034 7035 7036 7037 7038 7039 7040 7041 7042 7043 7044 7045 7046 7047 7048 7049 7050 7051 7052 7053 7054 7055 7056 7057 7058 7059 7060 7061 7062 7063 7064 7065 7066 7067 7068 7069 7070 7071 7072 7073 7074 7075 7076 7077 7078 7079 7080 7081 7082 7083 7084 7085 7086 7087 7088 7089 7090 7091 7092 7093 7094 7095 7096 7097 7098 7099 7100 7101 7102 7103 7104 7105 7106 7107 7108 7109 7110 7111 7112 7113 7114 7115 7116 7117 7118 7119 7120 7121 7122 7123 7124 7125 7126 7127 7128 7129 7130 7131 7132 7133 7134 7135 7136 7137 7138 7139 7140 7141 7142 7143 7144 7145 7146 7147 7148 7149 7150 7151 7152 7153 7154 7155 7156 7157 7158 7159 7160 7161 7162 7163 7164 7165 7166 7167 7168 7169 7170 7171 7172 7173 7174 7175 7176 7177 7178 7179 7180 7181 7182 7183 7184 7185 7186 7187 7188 7189 7190 7191 7192 7193 7194 7195 7196 7197 7198 7199 7200 7201 7202 7203 7204 7205 7206 7207 7208 7209 7210 7211 7212 7213 7214 7215 7216 7217 7218 7219 7220 7221 7222 7223 7224 7225 7226 7227 7228 7229 7230 7231 7232 7233 7234 7235 7236 7237 7238 7239 7240 7241 7242 7243 7244 7245 7246 7247 7248 7249 7250 7251 7252 7253 7254 7255 7256 7257 7258 7259 7260 7261 7262 7263 7264 7265 7266 7267 7268 7269 7270 7271 7272 7273 7274 7275 7276 7277 7278 7279 7280 7281 7282 7283 7284 7285 7286 7287 7288 7289 7290 7291 7292 7293 7294 7295 7296 7297 7298 7299 7300 7301 7302 7303 7304 7305 7306 7307 7308 7309 7310 7311 7312 7313 7314 7315 7316 7317 7318 7319 7320 7321 7322 7323 7324 7325 7326 7327 7328 7329 7330 7331 7332 7333 7334 7335 7336 7337 7338 7339 7340 7341 7342 7343 7344 7345 7346 7347 7348 7349 7350 7351 7352 7353 7354 7355 7356 7357 7358 7359 7360 7361 7362 7363 7364 7365 7366 7367 7368 7369 7370 7371 7372 7373 7374 7375 7376 7377 7378 7379 7380 7381 7382 7383 7384 7385 7386 7387 7388 7389 7390 7391 7392 7393 7394 7395 7396 7397 7398 7399 7400 7401 7402 7403 7404 7405 7406 7407 7408 7409 7410 7411 7412 7413 7414 7415 7416 7417 7418 7419 7420 7421 7422 7423 7424 7425 7426 7427 7428 7429 7430 7431 7432 7433 7434 7435 7436 7437 7438 7439 7440 7441 7442 7443 7444 7445 7446 7447 7448 7449 7450 7451 7452 7453 7454 7455 7456 7457 7458 7459 7460 7461 7462 7463 7464 7465 7466 7467 7468 7469 7470 7471 7472 7473 7474 7475 7476 7477 7478 7479 7480 7481 7482 7483 7484 7485 7486 7487 7488 7489 7490 7491 7492 7493 7494 7495 7496 7497 7498 7499 7500 7501 7502 7503 7504 7505 7506 7507 7508 7509 7510 7511 7512 7513 7514 7515 7516 7517 7518 7519 7520 7521 7522 7523 7524 7525 7526 7527 7528 7529 7530 7531 7532 7533 7534 7535 7536 7537 7538 7539 7540 7541 7542 7543 7544 7545 7546 7547 7548 7549 7550 7551 7552 7553 7554 7555 7556 7557 7558 7559 7560 7561 7562 7563 7564 7565 7566 7567 7568 7569 7570 7571 7572 7573 7574 7575 7576 7577 7578 7579 7580 7581 7582 7583 7584 7585 7586 7587 7588 7589 7590 7591 7592 7593 7594 7595 7596 7597 7598 7599 7600 7601 7602 7603 7604 7605 7606 7607 7608 7609 7610 7611 7612 7613 7614 7615 7616 7617 7618 7619 7620 7621 7622 7623 7624 7625 7626 7627 7628 7629 7630 7631 7632 7633 7634 7635 7636 7637 7638 7639 7640 7641 7642 7643 7644 7645 7646 7647 7648 7649 7650 7651 7652 7653 7654 7655 7656 7657 7658 7659 7660 7661 7662 7663 7664 7665 7666 7667 7668 7669 7670 7671 7672 7673 7674 7675 7676 7677 7678 7679 7680 7681 7682 7683 7684 7685 7686 7687 7688 7689 7690 7691 7692 7693 7694 7695 7696 7697 7698 7699 7700 7701 7702 7703 7704 7705 7706 7707 7708 7709 7710 7711 7712 7713 7714 7715 7716 7717 7718 7719 7720 7721 7722 7723 7724 7725 7726 7727 7728 7729 7730 7731 7732 7733 7734 7735 7736 7737 7738 7739 7740 7741 7742 7743 7744 7745 7746 7747 7748 7749 7750 7751 7752 7753 7754 7755 7756 7757 7758 7759 7760 7761 7762 7763 7764 7765 7766 7767 7768 7769 7770 7771 7772 7773 7774 7775 7776 7777 7778 7779 7780 7781 7782 7783 7784 7785 7786 7787 7788 7789 7790 7791 7792 7793 7794 7795 7796 7797 7798 7799 7800 7801 7802 7803 7804 7805 7806 7807 7808 7809 7810 7811 7812 7813 7814 7815 7816 7817 7818 7819 7820 7821 7822 7823 7824 7825 7826 7827 7828 7829 7830 7831 7832 7833 7834 7835 7836 7837 7838 7839 7840 7841 7842 7843 7844 7845 7846 7847 7848 7849 7850 7851 7852 7853 7854 7855 7856 7857 7858 7859 7860 7861 7862 7863 7864 7865 7866 7867 7868 7869 7870 7871 7872 7873 7874 7875 7876 7877 7878 7879 7880 7881 7882 7883 7884 7885 7886 7887 7888 7889 7890 7891 7892 7893 7894 7895 7896 7897 7898 7899 7900 7901 7902 7903 7904 7905 7906 7907 7908 7909 7910 7911 7912 7913 7914 7915 7916 7917 7918 7919 7920 7921 7922 7923 7924 7925 7926 7927 7928 7929 7930 7931 7932 7933 7934 7935 7936 7937 7938 7939 7940 7941 7942 7943 7944 7945 7946 7947 7948 7949 7950 7951 7952 7953 7954 7955 7956 7957 7958 7959 7960 7961 7962 7963 7964 7965 7966 7967 7968 7969 7970 7971 7972 7973 7974 7975 7976 7977 7978 7979 7980 7981 7982 7983 7984 7985 7986 7987 7988 7989 7990 7991 7992 7993 7994 7995 7996 7997 7998 7999 8000 8001 8002 8003 8004 8005 8006 8007 8008 8009 8010 8011 8012 8013 8014 8015 8016 8017 8018 8019 8020 8021 8022 8023 8024 8025 8026 8027 8028 8029 8030 8031 8032 8033 8034 8035 8036 8037 8038 8039 8040 8041 8042 8043 8044 8045 8046 8047 8048 8049 8050 8051 8052 8053 8054 8055 8056 8057 8058 8059 8060 8061 8062 8063 8064 8065 8066 8067 8068 8069 8070 8071 8072 8073 8074 8075 8076 8077 8078 8079 8080 8081 8082 8083 8084 8085 8086 8087 8088 8089 8090 8091 8092 8093 8094 8095 8096 8097 8098 8099 8100 8101 8102 8103 8104 8105 8106 8107 8108 8109 8110 8111 8112 8113 8114 8115 8116 8117 8118 8119 8120 8121 8122 8123 8124 8125 8126 8127 8128 8129 8130 8131 8132 8133 8134 8135 8136 8137 8138 8139 8140 8141 8142 8143 8144 8145 8146 8147 8148 8149 8150 8151 8152 8153 8154 8155 8156 8157 8158 8159 8160 8161 8162 8163 8164 8165 8166 8167 8168 8169 8170 8171 8172 8173 8174 8175 8176 8177 8178 8179 8180 8181 8182 8183 8184 8185 8186 8187 8188 8189 8190 8191 8192 8193 8194 8195 8196 8197 8198 8199 8200 8201 8202 8203 8204 8205 8206 8207 8208 8209 8210 8211 8212 8213 8214 8215 8216 8217 8218 8219 8220 8221 8222 8223 8224 8225 8226 8227 8228 8229 8230 8231 8232 8233 8234 8235 8236 8237 8238 8239 8240 8241 8242 8243 8244 8245 8246 8247 8248 8249 8250 8251 8252 8253 8254 8255 8256 8257 8258 8259 8260 8261 8262 8263 8264 8265 8266 8267 8268 8269 8270 8271 8272 8273 8274 8275 8276 8277 8278 8279 8280 8281 8282 8283 8284 8285 8286 8287 8288 8289 8290 8291 8292 8293 8294 8295 8296 8297 8298 8299 8300 8301 8302 8303 8304 8305 8306 8307 8308 8309 8310 8311 8312 8313 8314 8315 8316 8317 8318 8319 8320 8321 8322 8323 8324 8325 8326 8327 8328 8329 8330 8331 8332 8333 8334 8335 8336 8337 8338 8339 8340 8341 8342 8343 8344 8345 8346 8347 8348 8349 8350 8351 8352 8353 8354 8355 8356 8357 8358 8359 8360 8361 8362 8363 8364 8365 8366 8367 8368 8369 8370 8371 8372 8373 8374 8375 8376 8377 8378 8379 8380 8381 8382 8383 8384 8385 8386 8387 8388 8389 8390 8391 8392 8393 8394 8395 8396 8397 8398 8399 8400 8401 8402 8403 8404 8405 8406 8407 8408 8409 8410 8411 8412 8413 8414 8415 8416 8417 8418 8419 8420 8421 8422 8423 8424 8425 8426 8427 8428 8429 8430 8431 8432 8433 8434 8435 8436 8437 8438 8439 8440 8441 8442 8443 8444 8445 8446 8447 8448 8449 8450 8451 8452 8453 8454 8455 8456 8457 8458 8459 8460 8461 8462 8463 8464 8465 8466 8467 8468 8469 8470 8471 8472 8473 8474 8475 8476 8477 8478 8479 8480 8481 8482 8483 8484 8485 8486 8487 8488 8489 8490 8491 8492 8493 8494 8495 8496 8497 8498 8499 8500 8501 8502 8503 8504 8505 8506 8507 8508 8509 8510 8511 8512 8513 8514 8515 8516 8517 8518 8519 8520 8521 8522 8523 8524 8525 8526 8527 8528 8529 8530 8531 8532 8533 8534 8535 8536 8537 8538 8539 8540 8541 8542 8543 8544 8545 8546 8547 8548 8549 8550 8551 8552 8553 8554 8555 8556 8557 8558 8559 8560 8561 8562 8563 8564 8565 8566 8567 8568 8569 8570 8571 8572 8573 8574 8575 8576 8577 8578 8579 8580 8581 8582 8583 8584 8585 8586 8587 8588 8589 8590 8591 8592 8593 8594 8595 8596 8597 8598 8599 8600 8601 8602 8603 8604 8605 8606 8607 8608 8609 8610 8611 8612 8613 8614 8615 8616 8617 8618 8619 8620 8621 8622 8623 8624 8625 8626 8627 8628 8629 8630 8631 8632 8633 8634 8635 8636 8637 8638 8639 8640 8641 8642 8643 8644 8645 8646 8647 8648 8649 8650 8651 8652 8653 8654 8655 8656 8657 8658 8659 8660 8661 8662 8663 8664 8665 8666 8667 8668 8669 8670 8671 8672 8673 8674 8675 8676 8677 8678 8679 8680 8681 8682 8683 8684 8685 8686 8687 8688 8689 8690 8691 8692 8693 8694 8695 8696 8697 8698 8699 8700 8701 8702 8703 8704 8705 8706 8707 8708 8709 8710 8711 8712 8713 8714 8715 8716 8717 8718 8719 8720 8721 8722 8723 8724 8725 8726 8727 8728 8729 8730 8731 8732 8733 8734 8735 8736 8737 8738 8739 8740 8741 8742 8743 8744 8745 8746 8747 8748 8749 8750 8751 8752 8753 8754 8755 8756 8757 8758 8759 8760 8761 8762 8763 8764 8765 8766 8767 8768 8769 8770 8771 8772 8773 8774 8775 8776 8777 8778 8779 8780 8781 8782 8783 8784 8785 8786 8787 8788 8789 8790 8791 8792 8793 8794 8795 8796 8797 8798 8799 8800 8801 8802 8803 8804 8805 8806 8807 8808 8809 8810 8811 8812 8813 8814 8815 8816 8817 8818 8819 8820 8821 8822 8823 8824 8825 8826 8827 8828 8829 8830 8831 8832 8833 8834 8835 8836 8837 8838 8839 8840 8841 8842 8843 8844 8845 8846 8847 8848 8849 8850 8851 8852 8853 8854 8855 8856 8857 8858 8859 8860 8861 8862 8863 8864 8865 8866 8867 8868 8869 8870 8871 8872 8873 8874 8875 8876 8877 8878 8879 8880 8881 8882 8883 8884 8885 8886 8887 8888 8889 8890 8891 8892 8893 8894 8895 8896 8897 8898 8899 8900 8901 8902 8903 8904 8905 8906 8907 8908 8909 8910 8911 8912 8913 8914 8915 8916 8917 8918 8919 8920 8921 8922 8923 8924 8925 8926 8927 8928 8929 8930 8931 8932 8933 8934 8935 8936 8937 8938 8939 8940 8941 8942 8943 8944 8945 8946 8947 8948 8949 8950 8951 8952 8953 8954 8955 8956 8957 8958 8959 8960 8961 8962 8963 8964 8965 8966 8967 8968 8969 8970 8971 8972 8973 8974 8975 8976 8977 8978 8979 8980 8981 8982 8983 8984 8985 8986 8987 8988 8989 8990 8991 8992 8993 8994 8995 8996 8997 8998 8999 9000 9001 9002 9003 9004 9005 9006 9007 9008 9009 9010 9011 9012 9013 9014 9015 9016 9017 9018 9019 9020 9021 9022 9023 9024 9025 9026 9027 9028 9029 9030 9031 9032 9033 9034 9035 9036 9037 9038 9039 9040 9041 9042 9043 9044 9045 9046 9047 9048 9049 9050 9051 9052 9053 9054 9055 9056 9057 9058 9059 9060 9061 9062 9063 9064 9065 9066 9067 9068 9069 9070 9071 9072 9073 9074 9075 9076 9077 9078 9079 9080 9081 9082 9083 9084 9085 9086 9087 9088 9089 9090 9091 9092 9093 9094 9095 9096 9097 9098 9099 9100 9101 9102 9103 9104 9105 9106 9107 9108 9109 9110 9111 9112 9113 9114 9115 9116 9117 9118 9119 9120 9121 9122 9123 9124 9125 9126 9127 9128 9129 9130 9131 9132 9133 9134 9135 9136 9137 9138 9139 9140 9141 9142 9143 9144 9145 9146 9147 9148 9149 9150 9151 9152 9153 9154 9155 9156 9157 9158 9159 9160 9161 9162 9163 9164 9165 9166 9167 9168 9169 9170 9171 9172 9173 9174 9175 9176 9177 9178 9179 9180 9181 9182 9183 9184 9185 9186 9187 9188 9189 9190 9191 9192 9193 9194 9195 9196 9197 9198 9199 9200 9201 9202 9203 9204 9205 9206 9207 9208 9209 9210 9211 9212 9213 9214 9215 9216 9217 9218 9219 9220 9221 9222 9223 9224 9225 9226 9227 9228 9229 9230 9231 9232 9233 9234 9235 9236 9237 9238 9239 9240 9241 9242 9243 9244 9245 9246 9247 9248 9249 9250 9251 9252 9253 9254 9255 9256 9257 9258 9259 9260 9261 9262 9263 9264 9265 9266 9267 9268 9269 9270 9271 9272 9273 9274 9275 9276 9277 9278 9279 9280 9281 9282 9283 9284 9285 9286 9287 9288 9289 9290 9291 9292 9293 9294 9295 9296 9297 9298 9299 9300 9301 9302 9303 9304 9305 9306 9307 9308 9309 9310 9311 9312 9313 9314 9315 9316 9317 9318 9319 9320 9321 9322 9323 9324 9325 9326 9327 9328 9329 9330 9331 9332 9333 9334 9335 9336 9337 9338 9339 9340 9341 9342 9343 9344 9345 9346 9347 9348 9349 9350 9351 9352 9353 9354 9355 9356 9357 9358 9359 9360 9361 9362 9363 9364 9365 9366 9367 9368 9369 9370 9371 9372 9373 9374 9375 9376 9377 9378 9379 9380 9381 9382 9383 9384 9385 9386 9387 9388 9389 9390 9391 9392 9393 9394 9395 9396 9397 9398 9399 9400 9401 9402 9403 9404 9405 9406 9407 9408 9409 9410 9411 9412 9413 9414 9415 9416 9417 9418 9419 9420 9421 9422 9423 9424 9425 9426 9427 9428 9429 9430 9431 9432 9433 9434 9435 9436 9437 9438 9439 9440 9441 9442 9443 9444 9445 9446 9447 9448 9449 9450 9451 9452 9453 9454 9455 9456 9457 9458 9459 9460 9461 9462 9463 9464 9465 9466 9467 9468 9469 9470 9471 9472 9473 9474 9475 9476 9477 9478 9479 9480 9481 9482 9483 9484 9485 9486 9487 9488 9489 9490 9491 9492 9493 9494 9495 9496 9497 9498 9499 9500 9501 9502 9503 9504 9505 9506 9507 9508 9509 9510 9511 9512 9513 9514 9515 9516 9517 9518 9519 9520 9521 9522 9523 9524 9525 9526 9527 9528 9529 9530 9531 9532 9533 9534 9535 9536 9537 9538 9539 9540 9541 9542 9543 9544 9545 9546 9547 9548 9549 9550 9551 9552 9553 9554 9555 9556 9557 9558 9559 9560 9561 9562 9563 9564 9565 9566 9567 9568 9569 9570 9571 9572 9573 9574 9575 9576 9577 9578 9579 9580 9581 9582 9583 9584 9585 9586 9587 9588 9589 9590 9591 9592 9593 9594 9595 9596 9597 9598 9599 9600 9601 9602 9603 9604 9605 9606 9607 9608 9609 9610 9611 9612 9613 9614 9615 9616 9617 9618 9619 9620 9621 9622 9623 9624 9625 9626 9627 9628 9629 9630 9631 9632 9633 9634 9635 9636 9637 9638 9639 9640 9641 9642 9643 9644 9645 9646 9647 9648 9649 9650 9651 9652 9653 9654 9655 9656 9657 9658 9659 9660 9661 9662 9663 9664 9665 9666 9667 9668 9669 9670 9671 9672 9673 9674 9675 9676 9677 9678 9679 9680 9681 9682 9683 9684 9685 9686 9687 9688 9689 9690 9691 9692 9693 9694 9695 9696 9697 9698 9699 9700 9701 9702 9703 9704 9705 9706 9707 9708 9709 9710 9711 9712 9713 9714 9715 9716 9717 9718 9719 9720 9721 9722 9723 9724 9725 9726 9727 9728 9729 9730 9731 9732 9733 9734 9735 9736 9737 9738 9739 9740 9741 9742 9743 9744 9745 9746 9747 9748 9749 9750 9751 9752 9753 9754 9755 9756 9757 9758 9759 9760 9761 9762 9763 9764 9765 9766 9767 9768 9769 9770 9771 9772 9773 9774 9775 9776 9777 9778 9779 9780 9781 9782 9783 9784 9785 9786 9787 9788 9789 9790 9791 9792 9793 9794 9795 9796 9797 9798 9799 9800 9801 9802 9803 9804 9805 9806 9807 9808 9809 9810 9811 9812 9813 9814 9815 9816 9817 9818 9819 9820 9821 9822 9823 9824 9825 9826 9827 9828 9829 9830 9831 9832 9833 9834 9835 9836 9837 9838 9839 9840 9841 9842 9843 9844 9845 9846 9847 9848 9849 9850 9851 9852 9853 9854 9855 9856 9857 9858 9859 9860 9861 9862 9863 9864 9865 9866 9867 9868 9869 9870 9871 9872 9873 9874 9875 9876 9877 9878 9879 9880 9881 9882 9883 9884 9885 9886 9887 9888 9889 9890 9891 9892 9893 9894 9895 9896 9897 9898 9899 9900 9901 9902 9903 9904 9905 9906 9907 9908 9909 9910 9911 9912 9913 9914 9915 9916 9917 9918 9919 9920 9921 9922 9923 9924 9925 9926 9927 9928 9929 9930 9931 9932 9933 9934 9935 9936 9937 9938 9939 9940 9941 9942 9943 9944 9945 9946 9947 9948 9949 9950 9951 9952 9953 9954 9955 9956 9957 9958 9959 9960 9961 9962 9963 9964 9965 9966 9967 9968 9969 9970 9971 9972 9973 9974 9975 9976 9977 9978 9979 9980 9981 9982 9983 9984 9985 9986 9987 9988 9989 9990 9991 9992 9993 9994 9995 9996 9997 9998 9999 10000 10001 10002 10003 10004 10005 10006 10007 10008 10009 10010 10011 10012 10013 10014 10015 10016 10017 10018 10019 10020 10021 10022 10023 10024 10025 10026 10027 10028 10029 10030 10031 10032 10033 10034 10035 10036 10037 10038 10039 10040 10041 10042 10043 10044 10045 10046 10047 10048 10049 10050 10051 10052 10053 10054 10055 10056 10057 10058 10059 10060 10061 10062 10063 10064 10065 10066 10067 10068 10069 10070 10071 10072 10073 10074 10075 10076 10077 10078 10079 10080 10081 10082 10083 10084 10085 10086 10087 10088 10089 10090 10091 10092 10093 10094 10095 10096 10097 10098 10099 10100 10101 10102 10103 10104 10105 10106 10107 10108 10109 10110 10111 10112 10113 10114 10115 10116 10117 10118 10119 10120 10121 10122 10123 10124 10125 10126 10127 10128 10129 10130 10131 10132 10133 10134 10135 10136 10137 10138 10139 10140 10141 10142 10143 10144 10145 10146 10147 10148 10149 10150 10151 10152 10153 10154 10155 10156 10157 10158 10159 10160 10161 10162 10163 10164 10165 10166 10167 10168 10169 10170 10171 10172 10173 10174 10175 10176 10177 10178 10179 10180 10181 10182 10183 10184 10185 10186 10187 10188 10189 10190 10191 10192 10193 10194 10195 10196 10197 10198 10199 10200 10201 10202 10203 10204 10205 10206 10207 10208 10209 10210 10211 10212 10213 10214 10215 10216 10217 10218 10219 10220 10221 10222 10223 10224 10225 10226 10227 10228 10229 10230 10231 10232 10233 10234 10235 10236 10237 10238 10239 10240 10241 10242 10243 10244 10245 10246 10247 10248 10249 10250 10251 10252 10253 10254 10255 10256 10257 10258 10259 10260 10261 10262 10263 10264 10265 10266 10267 10268 10269 10270 10271 10272 10273 10274 10275 10276 10277 10278 10279 10280 10281 10282 10283 10284 10285 10286 10287 10288 10289 10290 10291 10292 10293 10294 10295 10296 10297 10298 10299 10300 10301 10302 10303 10304 10305 10306 10307 10308 10309 10310 10311 10312 10313 10314 10315 10316 10317 10318 10319 10320 10321 10322 10323 10324 10325 10326 10327 10328 10329 10330 10331 10332 10333 10334 10335 10336 10337 10338 10339 10340 10341 10342 10343 10344 10345 10346 10347 10348 10349 10350 10351 10352 10353 10354 10355 10356 10357 10358 10359 10360 10361 10362 10363 10364 10365 10366 10367 10368 10369 10370 10371 10372 10373 10374 10375 10376 10377 10378 10379 10380 10381 10382 10383 10384 10385 10386 10387 10388 10389 10390 10391 10392 10393 10394 10395 10396 10397 10398 10399 10400 10401 10402 10403 10404 10405 10406 10407 10408 10409 10410 10411 10412 10413 10414 10415 10416 10417 10418 10419 10420 10421 10422 10423 10424 10425 10426 10427 10428 10429 10430 10431 10432 10433 10434 10435 10436 10437 10438 10439 10440 10441 10442 10443 10444 10445 10446 10447 10448 10449 10450 10451 10452 10453 10454 10455 10456 10457 10458 10459 10460 10461 10462 10463 10464 10465 10466 10467 10468 10469 10470 10471 10472 10473 10474 10475 10476 10477 10478 10479 10480 10481 10482 10483 10484 10485 10486 10487 10488 10489 10490 10491 10492 10493 10494 10495 10496 10497 10498 10499 10500 10501 10502 10503 10504 10505 10506 10507 10508 10509 10510 10511 10512 10513 10514 10515 10516 10517 10518 10519 10520 10521 10522 10523 10524 10525 10526 10527 10528 10529 10530 10531 10532 10533 10534 10535 10536 10537 10538 10539 10540 10541 10542 10543 10544 10545 10546 10547 10548 10549 10550 10551 10552 10553 10554 10555 10556 10557 10558 10559 10560 10561 10562 10563 10564 10565 10566 10567 10568 10569 10570 10571 10572 10573 10574 10575 10576 10577 10578 10579 10580 10581 10582 10583 10584 10585 10586 10587 10588 10589 10590 10591 10592 10593 10594 10595 10596 10597 10598 10599 10600 10601 10602 10603 10604 10605 10606 10607 10608 10609 10610 10611 10612 10613 10614 10615 10616 10617 10618 10619 10620 10621 10622 10623 10624 10625 10626 10627 10628 10629 10630 10631 10632 10633 10634 10635 10636 10637 10638 10639 10640 10641 10642 10643 10644 10645 10646 10647 10648 10649 10650 10651 10652 10653 10654 10655 10656 10657 10658 10659 10660 10661 10662 10663 10664 10665 10666 10667 10668 10669 10670 10671 10672 10673 10674 10675 10676 10677 10678 10679 10680 10681 10682 10683 10684 10685 10686 10687 10688 10689 10690 10691 10692 10693 10694 10695 10696 10697 10698 10699 10700 10701 10702 10703 10704 10705 10706 10707 10708 10709 10710 10711 10712 10713 10714 10715 10716 10717 10718 10719 10720 10721 10722 10723 10724 10725 10726 10727 10728 10729 10730 10731 10732 10733 10734 10735 10736 10737 10738 10739 10740 10741 10742 10743 10744 10745 10746 10747 10748 10749 10750 10751 10752 10753 10754 10755 10756 10757 10758 10759 10760 10761 10762 10763 10764 10765 10766 10767 10768 10769 10770 10771 10772 10773 10774 10775 10776 10777 10778 10779 10780 10781 10782 10783 10784 10785 10786 10787 10788 10789 10790 10791 10792 10793 10794 10795 10796 10797 10798 10799 10800 10801 10802 10803 10804 10805 10806 10807 10808 10809 10810 10811 10812 10813 10814 10815 10816 10817 10818 10819 10820 10821 10822 10823 10824 10825 10826 10827 10828 10829 10830 10831 10832 10833 10834 10835 10836 10837 10838 10839 10840 10841 10842 10843 10844 10845 10846 10847 10848 10849 10850 10851 10852 10853 10854 10855 10856 10857 10858 10859 10860 10861 10862 10863 10864 10865 10866 10867 10868 10869 10870 10871 10872 10873 10874 10875 10876 10877 10878 10879 10880 10881 10882 10883 10884 10885 10886 10887 10888 10889 10890 10891 10892 10893 10894 10895 10896 10897 10898 10899 10900 10901 10902 10903 10904 10905 10906 10907 10908 10909 10910 10911 10912 10913 10914 10915 10916 10917 10918 10919 10920 10921 10922 10923 10924 10925 10926 10927 10928 10929 10930 10931 10932 10933 10934 10935 10936 10937 10938 10939 10940 10941 10942 10943 10944 10945 10946 10947 10948 10949 10950 10951 10952 10953 10954 10955 10956 10957 10958 10959 10960 10961 10962 10963 10964 10965 10966 10967 10968 10969 10970 10971 10972 10973 10974 10975 10976 10977 10978 10979 10980 10981 10982 10983 10984 10985 10986 10987 10988 10989 10990 10991 10992 10993 10994 10995 10996 10997 10998 10999 11000 11001 11002 11003 11004 11005 11006 11007 11008 11009 11010 11011 11012 11013 11014 11015 11016 11017 11018 11019 11020 11021 11022 11023 11024 11025 11026 11027 11028 11029 11030 11031 11032 11033 11034 11035 11036 11037 11038 11039 11040 11041 11042 11043 11044 11045 11046 11047 11048 11049 11050 11051 11052 11053 11054 11055 11056 11057 11058 11059 11060 11061 11062 11063 11064 11065 11066 11067 11068 11069 11070 11071 11072 11073 11074 11075 11076 11077 11078 11079 11080 11081 11082 11083 11084 11085 11086 11087 11088 11089 11090 11091 11092 11093 11094 11095 11096 11097 11098 11099 11100 11101 11102 11103 11104 11105 11106 11107 11108 11109 11110 11111 11112 11113 11114 11115 11116 11117 11118 11119 11120 11121 11122 11123 11124 11125 11126 11127 11128 11129 11130 11131 11132 11133 11134 11135 11136 11137 11138 11139 11140 11141 11142 11143 11144 11145 11146 11147 11148 11149 11150 11151 11152 11153 11154 11155 11156 11157 11158 11159 11160 11161 11162 11163 11164 11165 11166 11167 11168 11169 11170 11171 11172 11173 11174 11175 11176 11177 11178 11179 11180 11181 11182 11183 11184 11185 11186 11187 11188 11189 11190 11191 11192 11193 11194 11195 11196 11197 11198 11199 11200 11201 11202 11203 11204 11205 11206 11207 11208 11209 11210 11211 11212 11213 11214 11215 11216 11217 11218 11219 11220 11221 11222 11223 11224 11225 11226 11227 11228 11229 11230 11231 11232 11233 11234 11235 11236 11237 11238 11239 11240 11241 11242 11243 11244 11245 11246 11247 11248 11249 11250 11251 11252 11253 11254 11255 11256 11257 11258 11259 11260 11261 11262 11263 11264 11265 11266 11267 11268 11269 11270 11271 11272 11273 11274 11275 11276 11277 11278 11279 11280 11281 11282 11283 11284 11285 11286 11287 11288 11289 11290 11291 11292 11293 11294 11295 11296 11297 11298 11299 11300 11301 11302 11303 11304 11305 11306 11307 11308 11309 11310 11311 11312 11313 11314 11315 11316 11317 11318 11319 11320 11321 11322 11323 11324 11325 11326 11327 11328 11329 11330 11331 11332 11333 11334 11335 11336 11337 11338 11339 11340 11341 11342 11343 11344 11345 11346 11347 11348 11349 11350 11351 11352 11353 11354 11355 11356 11357 11358 11359 11360 11361 11362 11363 11364 11365 11366 11367 11368 11369 11370 11371 11372 11373 11374 11375 11376 11377 11378 11379 11380 11381 11382 11383 11384 11385 11386 11387 11388 11389 11390 11391 11392 11393 11394 11395 11396 11397 11398 11399 11400 11401 11402 11403 11404 11405 11406 11407 11408 11409 11410 11411 11412 11413 11414 11415 11416 11417 11418 11419 11420 11421 11422 11423 11424 11425 11426 11427 11428 11429 11430 11431 11432 11433 11434 11435 11436 11437 11438 11439 11440 11441 11442 11443 11444 11445 11446 11447 11448 11449 11450 11451 11452 11453 11454 11455 11456 11457 11458 11459 11460 11461 11462 11463 11464 11465 11466 11467 11468 11469 11470 11471 11472 11473 11474 11475 11476 11477 11478 11479 11480 11481 11482 11483 11484 11485 11486 11487 11488 11489 11490 11491 11492 11493 11494 11495 11496 11497 11498 11499 11500 11501 11502 11503 11504 11505 11506 11507 11508 11509 11510 11511 11512 11513 11514 11515 11516 11517 11518 11519 11520 11521 11522 11523 11524 11525 11526 11527 11528 11529 11530 11531 11532 11533 11534 11535 11536 11537 11538 11539 11540 11541 11542 11543 11544 11545 11546 11547 11548 11549 11550 11551 11552 11553 11554 11555 11556 11557 11558 11559 11560 11561 11562 11563 11564 11565 11566 11567 11568 11569 11570 11571 11572 11573 11574 11575 11576 11577 11578 11579 11580 11581 11582 11583 11584 11585 11586 11587 11588 11589 11590 11591 11592 11593 11594 11595 11596 11597 11598 11599 11600 11601 11602 11603 11604 11605 11606 11607 11608 11609 11610 11611 11612 11613 11614 11615 11616 11617 11618 11619 11620 11621 11622 11623 11624 11625 11626 11627 11628 11629 11630 11631 11632 11633 11634 11635 11636 11637 11638 11639 11640 11641 11642 11643 11644 11645 11646 11647 11648 11649 11650 11651 11652 11653 11654 11655 11656 11657 11658 11659 11660 11661 11662 11663 11664 11665 11666 11667 11668 11669 11670 11671 11672 11673 11674 11675 11676 11677 11678 11679 11680 11681 11682 11683 11684 11685 11686 11687 11688 11689 11690 11691 11692 11693 11694 11695 11696 11697 11698 11699 11700 11701 11702 11703 11704 11705 11706 11707 11708 11709 11710 11711 11712 11713 11714 11715 11716 11717 11718 11719 11720 11721 11722 11723 11724 11725 11726 11727 11728 11729 11730 11731 11732 11733 11734 11735 11736 11737 11738 11739 11740 11741 11742 11743 11744 11745 11746 11747 11748 11749 11750 11751 11752 11753 11754 11755 11756 11757 11758 11759 11760 11761 11762 11763 11764 11765 11766 11767 11768 11769 11770 11771 11772 11773 11774 11775 11776 11777 11778 11779 11780 11781 11782 11783 11784 11785 11786 11787 11788 11789 11790 11791 11792 11793 11794 11795 11796 11797 11798 11799 11800 11801 11802 11803 11804 11805 11806 11807 11808 11809 11810 11811 11812 11813 11814 11815 11816 11817 11818 11819 11820 11821 11822 11823 11824 11825 11826 11827 11828 11829 11830 11831 11832 11833 11834 11835 11836 11837 11838 11839 11840 11841 11842 11843 11844 11845 11846 11847 11848 11849 11850 11851 11852 11853 11854 11855 11856 11857 11858 11859 11860 11861 11862 11863 11864 11865 11866 11867 11868 11869 11870 11871 11872 11873 11874 11875 11876 11877 11878 11879 11880 11881 11882 11883 11884 11885 11886 11887 11888 11889 11890 11891 11892 11893 11894 11895 11896 11897 11898 11899 11900 11901 11902 11903 11904 11905 11906 11907 11908 11909 11910 11911 11912 11913 11914 11915 11916 11917 11918 11919 11920 11921 11922 11923 11924 11925 11926 11927 11928 11929 11930 11931 11932 11933 11934 11935 11936 11937 11938 11939 11940 11941 11942 11943 11944 11945 11946 11947 11948 11949 11950 11951 11952 11953 11954 11955 11956 11957 11958 11959 11960 11961 11962 11963 11964 11965 11966 11967 11968 11969 11970 11971 11972 11973 11974 11975 11976 11977 11978 11979 11980 11981 11982 11983 11984 11985 11986 11987 11988 11989 11990 11991 11992 11993 11994 11995 11996 11997 11998 11999 12000 12001 12002 12003 12004 12005 12006 12007 12008 12009 12010 12011 12012 12013 12014 12015 12016 12017 12018 12019 12020 12021 12022 12023 12024 12025 12026 12027 12028 12029 12030 12031 12032 12033 12034 12035 12036 12037 12038 12039 12040 12041 12042 12043 12044 12045 12046 12047 12048 12049 12050 12051 12052 12053 12054 12055 12056 12057 12058 12059 12060 12061 12062 12063 12064 12065 12066 12067 12068 12069 12070 12071 12072 12073 12074 12075 12076 12077 12078 12079 12080 12081 12082 12083 12084 12085 12086 12087 12088 12089 12090 12091 12092 12093 12094 12095 12096 12097 12098 12099 12100 12101 12102 12103 12104 12105 12106 12107 12108 12109 12110 12111 12112 12113 12114 12115 12116 12117 12118 12119 12120 12121 12122 12123 12124 12125 12126 12127 12128 12129 12130 12131 12132 12133 12134 12135 12136 12137 12138 12139 12140 12141 12142 12143 12144 12145 12146 12147 12148 12149 12150 12151 12152 12153 12154 12155 12156 12157 12158 12159 12160 12161 12162 12163 12164 12165 12166 12167 12168 12169 12170 12171 12172 12173 12174 12175 12176 12177 12178 12179 12180 12181 12182 12183 12184 12185 12186 12187 12188 12189 12190 12191 12192 12193 12194 12195 12196 12197 12198 12199 12200 12201 12202 12203 12204 12205 12206 12207 12208 12209 12210 12211 12212 12213 12214 12215 12216 12217 12218 12219 12220 12221 12222 12223 12224 12225 12226 12227 12228 12229 12230 12231 12232 12233 12234 12235 12236 12237 12238 12239 12240 12241 12242 12243 12244 12245 12246 12247 12248 12249 12250 12251 12252 12253 12254 12255 12256 12257 12258 12259 12260 12261 12262 12263 12264 12265 12266 12267 12268 12269 12270 12271 12272 12273 12274 12275 12276 12277 12278 12279 12280 12281 12282 12283 12284 12285 12286 12287 12288 12289 12290 12291 12292 12293 12294 12295 12296 12297 12298 12299 12300 12301 12302 12303 12304 12305 12306 12307 12308 12309 12310 12311 12312 12313 12314 12315 12316 12317 12318 12319 12320 12321 12322 12323 12324 12325 12326 12327 12328 12329 12330 12331 12332 12333 12334 12335 12336 12337 12338 12339 12340 12341 12342 12343 12344 12345 12346 12347 12348 12349 12350 12351 12352 12353 12354 12355 12356 12357 12358 12359 12360 12361 12362 12363 12364 12365 12366 12367 12368 12369 12370 12371 12372 12373 12374 12375 12376 12377 12378 12379 12380 12381 12382 12383 12384 12385 12386 12387 12388 12389 12390 12391 12392 12393 12394 12395 12396 12397 12398 12399 12400 12401 12402 12403 12404 12405 12406 12407 12408 12409 12410 12411 12412 12413 12414 12415 12416 12417 12418 12419 12420 12421 12422 12423 12424 12425 12426 12427 12428 12429 12430 12431 12432 12433 12434 12435 12436 12437 12438 12439 12440 12441 12442 12443 12444 12445 12446 12447 12448 12449 12450 12451 12452 12453 12454 12455 12456 12457 12458 12459 12460 12461 12462 12463 12464 12465 12466 12467 12468 12469 12470 12471 12472 12473 12474 12475 12476 12477 12478 12479 12480 12481 12482 12483 12484 12485 12486 12487 12488 12489 12490 12491 12492 12493 12494 12495 12496 12497 12498 12499 12500 12501 12502 12503 12504 12505 12506 12507 12508 12509 12510 12511 12512 12513 12514 12515 12516 12517 12518 12519 12520 12521 12522 12523 12524 12525 12526 12527 12528 12529 12530 12531 12532 12533 12534 12535 12536 12537 12538 12539 12540 12541 12542 12543 12544 12545 12546 12547 12548 12549 12550 12551 12552 12553 12554 12555 12556 12557 12558 12559 12560 12561 12562 12563 12564 12565 12566 12567 12568 12569 12570 12571 12572 12573 12574 12575 12576 12577 12578 12579 12580 12581 12582 12583 12584 12585 12586 12587 12588 12589 12590 12591 12592 12593 12594 12595 12596 12597 12598 12599 12600 12601 12602 12603 12604 12605 12606 12607 12608 12609 12610 12611 12612 12613 12614 12615 12616 12617 12618 12619 12620 12621 12622 12623 12624 12625 12626 12627 12628 12629 12630 12631 12632 12633 12634 12635 12636 12637 12638 12639 12640 12641 12642 12643 12644 12645 12646 12647 12648 12649 12650 12651 12652 12653 12654 12655 12656 12657 12658 12659 12660 12661 12662 12663 12664 12665 12666 12667 12668 12669 12670 12671 12672 12673 12674 12675 12676 12677 12678 12679 12680 12681 12682 12683 12684 12685 12686 12687 12688 12689 12690 12691 12692 12693 12694 12695 12696 12697 12698 12699 12700 12701 12702 12703 12704 12705 12706 12707 12708 12709 12710 12711 12712 12713 12714 12715 12716 12717 12718 12719 12720 12721 12722 12723 12724 12725 12726 12727 12728 12729 12730 12731 12732 12733 12734 12735 12736 12737 12738 12739 12740 12741 12742 12743 12744 12745 12746 12747 12748 12749 12750 12751 12752 12753 12754 12755 12756 12757 12758 12759 12760 12761 12762 12763 12764 12765 12766 12767 12768 12769 12770 12771 12772 12773 12774 12775 12776 12777 12778 12779 12780 12781 12782 12783 12784 12785 12786 12787 12788 12789 12790 12791 12792 12793 12794 12795 12796 12797 12798 12799 12800 12801 12802 12803 12804 12805 12806 12807 12808 12809 12810 12811 12812 12813 12814 12815 12816 12817 12818 12819 12820 12821 12822 12823 12824 12825 12826 12827 12828 12829 12830 12831 12832 12833 12834 12835 12836 12837 12838 12839 12840 12841 12842 12843 12844 12845 12846 12847 12848 12849 12850 12851 12852 12853 12854 12855 12856 12857 12858 12859 12860 12861 12862 12863 12864 12865 12866 12867 12868 12869 12870 12871 12872 12873 12874 12875 12876 12877 12878 12879 12880 12881 12882 12883 12884 12885 12886 12887 12888 12889 12890 12891 12892 12893 12894 12895 12896 12897 12898 12899 12900 12901 12902 12903 12904 12905 12906 12907 12908 12909 12910 12911 12912 12913 12914 12915 12916 12917 12918 12919 12920 12921 12922 12923 12924 12925 12926 12927 12928 12929 12930 12931 12932 12933 12934 12935 12936 12937 12938 12939 12940 12941 12942 12943 12944 12945 12946 12947 12948 12949 12950 12951 12952 12953 12954 12955 12956 12957 12958 12959 12960 12961 12962 12963 12964 12965 12966 12967 12968 12969 12970 12971 12972 12973 12974 12975 12976 12977 12978 12979 12980 12981 12982 12983 12984 12985 12986 12987 12988 12989 12990 12991 12992 12993 12994 12995 12996 12997 12998 12999 13000 13001 13002 13003 13004 13005 13006 13007 13008 13009 13010 13011 13012 13013 13014 13015 13016 13017 13018 13019 13020 13021 13022 13023 13024 13025 13026 13027 13028 13029 13030 13031 13032 13033 13034 13035 13036 13037 13038 13039 13040 13041 13042 13043 13044 13045 13046 13047 13048 13049 13050 13051 13052 13053 13054 13055 13056 13057 13058 13059 13060 13061 13062 13063 13064 13065 13066 13067 13068 13069 13070 13071 13072 13073 13074 13075 13076 13077 13078 13079 13080 13081 13082 13083 13084 13085 13086 13087 13088 13089 13090 13091 13092 13093 13094 13095 13096 13097 13098 13099 13100 13101 13102 13103 13104 13105 13106 13107 13108 13109 13110 13111 13112 13113 13114 13115 13116 13117 13118 13119 13120 13121 13122 13123 13124 13125 13126 13127 13128 13129 13130 13131 13132 13133 13134 13135 13136 13137 13138 13139 13140 13141 13142 13143 13144 13145 13146 13147 13148 13149 13150 13151 13152 13153 13154 13155 13156 13157 13158 13159 13160 13161 13162 13163 13164 13165 13166 13167 13168 13169 13170 13171 13172 13173 13174 13175 13176 13177 13178 13179 13180 13181 13182 13183 13184 13185 13186 13187 13188 13189 13190 13191 13192 13193 13194 13195 13196 13197 13198 13199 13200 13201 13202 13203 13204 13205 13206 13207 13208 13209 13210 13211 13212 13213 13214 13215 13216 13217 13218 13219 13220 13221 13222 13223 13224 13225 13226 13227 13228 13229 13230 13231 13232 13233 13234 13235 13236 13237 13238 13239 13240 13241 13242 13243 13244 13245 13246 13247 13248 13249 13250 13251 13252 13253 13254 13255 13256 13257 13258 13259 13260 13261 13262 13263 13264 13265 13266 13267 13268 13269 13270 13271 13272 13273 13274 13275 13276 13277 13278 13279 13280 13281 13282 13283 13284 13285 13286 13287 13288 13289 13290 13291 13292 13293 13294 13295 13296 13297 13298 13299 13300 13301 13302 13303 13304 13305 13306 13307 13308 13309 13310 13311 13312 13313 13314 13315 13316 13317 13318 13319 13320 13321 13322 13323 13324 13325 13326 13327 13328 13329 13330 13331 13332 13333 13334 13335 13336 13337 13338 13339 13340 13341 13342 13343 13344 13345 13346 13347 13348 13349 13350 13351 13352 13353 13354 13355 13356 13357 13358 13359 13360 13361 13362 13363 13364 13365 13366 13367 13368 13369 13370 13371 13372 13373 13374 13375 13376 13377 13378 13379 13380 13381 13382 13383 13384 13385 13386 13387 13388 13389 13390 13391 13392 13393 13394 13395 13396 13397 13398 13399 13400 13401 13402 13403 13404 13405 13406 13407 13408 13409 13410 13411 13412 13413 13414 13415 13416 13417 13418 13419 13420 13421 13422 13423 13424 13425 13426 13427 13428 13429 13430 13431 13432 13433 13434 13435 13436 13437 13438 13439 13440 13441 13442 13443 13444 13445 13446 13447 13448 13449 13450 13451 13452 13453 13454 13455 13456 13457 13458 13459 13460 13461 13462 13463 13464 13465 13466 13467 13468 13469 13470 13471 13472 13473 13474 13475 13476 13477 13478 13479 13480 13481 13482 13483 13484 13485 13486 13487 13488 13489 13490 13491 13492 13493 13494 13495 13496 13497 13498 13499 13500 13501 13502 13503 13504 13505 13506 13507 13508 13509 13510 13511 13512 13513 13514 13515 13516 13517 13518 13519 13520 13521 13522 13523 13524 13525 13526 13527 13528 13529 13530 13531 13532 13533 13534 13535 13536 13537 13538 13539 13540 13541 13542 13543 13544 13545 13546 13547 13548 13549 13550 13551 13552 13553 13554 13555 13556 13557 13558 13559 13560 13561 13562 13563 13564 13565 13566 13567 13568 13569 13570 13571 13572 13573 13574 13575 13576 13577 13578 13579 13580 13581 13582 13583 13584 13585 13586 13587 13588 13589 13590 13591 13592 13593 13594 13595 13596 13597 13598 13599 13600 13601 13602 13603 13604 13605 13606 13607 13608 13609 13610 13611 13612 13613 13614 13615 13616 13617 13618 13619 13620 13621 13622 13623 13624 13625 13626 13627 13628 13629 13630 13631 13632 13633 13634 13635 13636 13637 13638 13639 13640 13641 13642 13643 13644 13645 13646 13647 13648 13649 13650 13651 13652 13653 13654 13655 13656 13657 13658 13659 13660 13661 13662 13663 13664 13665 13666 13667 13668 13669 13670 13671 13672 13673 13674 13675 13676 13677 13678 13679 13680 13681 13682 13683 13684 13685 13686 13687 13688 13689 13690 13691 13692 13693 13694 13695 13696 13697 13698 13699 13700 13701 13702 13703 13704 13705 13706 13707 13708 13709 13710 13711 13712 13713 13714 13715 13716 13717 13718 13719 13720 13721 13722 13723 13724 13725 13726 13727 13728 13729 13730 13731 13732 13733 13734 13735 13736 13737 13738 13739 13740 13741 13742 13743 13744 13745 13746 13747 13748 13749 13750 13751 13752 13753 13754 13755 13756 13757 13758 13759 13760 13761 13762 13763 13764 13765 13766 13767 13768 13769 13770 13771 13772 13773 13774 13775 13776 13777 13778 13779 13780 13781 13782 13783 13784 13785 13786 13787 13788 13789 13790 13791 13792 13793 13794 13795 13796 13797 13798 13799 13800 13801 13802 13803 13804 13805 13806 13807 13808 13809 13810 13811 13812 13813 13814 13815 13816 13817 13818 13819 13820 13821 13822 13823 13824 13825 13826 13827 13828 13829 13830 13831 13832 13833 13834 13835 13836 13837 13838 13839 13840 13841 13842 13843 13844 13845 13846 13847 13848 13849 13850 13851 13852 13853 13854 13855 13856 13857 13858 13859 13860 13861 13862 13863 13864 13865 13866 13867 13868 13869 13870 13871 13872 13873 13874 13875 13876 13877 13878 13879 13880 13881 13882 13883 13884 13885 13886 13887 13888 13889 13890 13891 13892 13893 13894 13895 13896 13897 13898 13899 13900 13901 13902 13903 13904 13905 13906 13907 13908 13909 13910 13911 13912 13913 13914 13915 13916 13917 13918 13919 13920 13921 13922 13923 13924 13925 13926 13927 13928 13929 13930 13931 13932 13933 13934 13935 13936 13937 13938 13939 13940 13941 13942 13943 13944 13945 13946 13947 13948 13949 13950 13951 13952 13953 13954 13955 13956 13957 13958 13959 13960 13961 13962 13963 13964 13965 13966 13967 13968 13969 13970 13971 13972 13973 13974 13975 13976 13977 13978 13979 13980 13981 13982 13983 13984 13985 13986 13987 13988 13989 13990 13991 13992 13993 13994 13995 13996 13997 13998 13999 14000 14001 14002 14003 14004 14005 14006 14007 14008 14009 14010 14011 14012 14013 14014 14015 14016 14017 14018 14019 14020 14021 14022 14023 14024 14025 14026 14027 14028 14029 14030 14031 14032 14033 14034 14035 14036 14037 14038 14039 14040 14041 14042 14043 14044 14045 14046 14047 14048 14049 14050 14051 14052 14053 14054 14055 14056 14057 14058 14059 14060 14061 14062 14063 14064 14065 14066 14067 14068 14069 14070 14071 14072 14073 14074 14075 14076 14077 14078 14079 14080 14081 14082 14083 14084 14085 14086 14087 14088 14089 14090 14091 14092 14093 14094 14095 14096 14097 14098 14099 14100 14101 14102 14103 14104 14105 14106 14107 14108 14109 14110 14111 14112 14113 14114 14115 14116 14117 14118 14119 14120 14121 14122 14123 14124 14125 14126 14127 14128 14129 14130 14131 14132 14133 14134 14135 14136 14137 14138 14139 14140 14141 14142 14143 14144 14145 14146 14147 14148 14149 14150 14151 14152 14153 14154 14155 14156 14157 14158 14159 14160 14161 14162 14163 14164 14165 14166 14167 14168 14169 14170 14171 14172 14173 14174 14175 14176 14177 14178 14179 14180 14181 14182 14183 14184 14185 14186 14187 14188 14189 14190 14191 14192 14193 14194 14195 14196 14197 14198 14199 14200 14201 14202 14203 14204 14205 14206 14207 14208 14209 14210 14211 14212 14213 14214 14215 14216 14217 14218 14219 14220 14221 14222 14223 14224 14225 14226 14227 14228 14229 14230 14231 14232 14233 14234 14235 14236 14237 14238 14239 14240 14241 14242 14243 14244 14245 14246 14247 14248 14249 14250 14251 14252 14253 14254 14255 14256 14257 14258 14259 14260 14261 14262 14263 14264 14265 14266 14267 14268 14269 14270 14271 14272 14273 14274 14275 14276 14277 14278 14279 14280 14281 14282 14283 14284 14285 14286 14287 14288 14289 14290 14291 14292 14293 14294 14295 14296 14297 14298 14299 14300 14301 14302 14303 14304 14305 14306 14307 14308 14309 14310 14311 14312 14313 14314 14315 14316 14317 14318 14319 14320 14321 14322 14323 14324 14325 14326 14327 14328 14329 14330 14331 14332 14333 14334 14335 14336 14337 14338 14339 14340 14341 14342 14343 14344 14345 14346 14347 14348 14349 14350 14351 14352 14353 14354 14355 14356 14357 14358 14359 14360 14361 14362 14363 14364 14365 14366 14367 14368 14369 14370 14371 14372 14373 14374 14375 14376 14377 14378 14379 14380 14381 14382 14383 14384 14385 14386 14387 14388 14389 14390 14391 14392 14393 14394 14395 14396 14397 14398 14399 14400 14401 14402 14403 14404 14405 14406 14407 14408 14409 14410 14411 14412 14413 14414 14415 14416 14417 14418 14419 14420 14421 14422 14423 14424 14425 14426 14427 14428 14429 14430 14431 14432 14433 14434 14435 14436 14437 14438 14439 14440 14441 14442 14443 14444 14445 14446 14447 14448 14449 14450 14451 14452 14453 14454 14455 14456 14457 14458 14459 14460 14461 14462 14463 14464 14465 14466 14467 14468 14469 14470 14471 14472 14473 14474 14475 14476 14477 14478 14479 14480 14481 14482 14483 14484 14485 14486 14487 14488 14489 14490 14491 14492 14493 14494 14495 14496 14497 14498 14499 14500 14501 14502 14503 14504 14505 14506 14507 14508 14509 14510 14511 14512 14513 14514 14515 14516 14517 14518 14519 14520 14521 14522 14523 14524 14525 14526 14527 14528 14529 14530 14531 14532 14533 14534 14535 14536 14537 14538 14539 14540 14541 14542 14543 14544 14545 14546 14547 14548 14549 14550 14551 14552 14553 14554 14555 14556 14557 14558 14559 14560 14561 14562 14563 14564 14565 14566 14567 14568 14569 14570 14571 14572 14573 14574 14575 14576 14577 14578 14579 14580 14581 14582 14583 14584 14585 14586 14587 14588 14589 14590 14591 14592 14593 14594 14595 14596 14597 14598 14599 14600 14601 14602 14603 14604 14605 14606 14607 14608 14609 14610 14611 14612 14613 14614 14615 14616 14617 14618 14619 14620 14621 14622 14623 14624 14625 14626 14627 14628 14629 14630 14631 14632 14633 14634 14635 14636 14637 14638 14639 14640 14641 14642 14643 14644 14645 14646 14647 14648 14649 14650 14651 14652 14653 14654 14655 14656 14657 14658 14659 14660 14661 14662 14663 14664 14665 14666 14667 14668 14669 14670 14671 14672 14673 14674 14675 14676 14677 14678 14679 14680 14681 14682 14683 14684 14685 14686 14687 14688 14689 14690 14691 14692 14693 14694 14695 14696 14697 14698 14699 14700 14701 14702 14703 14704 14705 14706 14707 14708 14709 14710 14711 14712 14713 14714 14715 14716 14717 14718 14719 14720 14721 14722 14723 14724 14725 14726 14727 14728 14729 14730 14731 14732 14733 14734 14735 14736 14737 14738 14739 14740 14741 14742 14743 14744 14745 14746 14747 14748 14749 14750 14751 14752 14753 14754 14755 14756 14757 14758 14759 14760 14761 14762 14763 14764 14765 14766 14767 14768 14769 14770 14771 14772 14773 14774 14775 14776 14777 14778 14779 14780 14781 14782 14783 14784 14785 14786 14787 14788 14789 14790 14791 14792 14793 14794 14795 14796 14797 14798 14799 14800 14801 14802 14803 14804 14805 14806 14807 14808 14809 14810 14811 14812 14813 14814 14815 14816 14817 14818 14819 14820 14821 14822 14823 14824 14825 14826 14827 14828 14829 14830 14831 14832 14833 14834 14835 14836 14837 14838 14839 14840 14841 14842 14843 14844 14845 14846 14847 14848 14849 14850 14851 14852 14853 14854 14855 14856 14857 14858 14859 14860 14861 14862 14863 14864 14865 14866 14867 14868 14869 14870 14871 14872 14873 14874 14875 14876 14877 14878 14879 14880 14881 14882 14883 14884 14885 14886 14887 14888 14889 14890 14891 14892 14893 14894 14895 14896 14897 14898 14899 14900 14901 14902 14903 14904 14905 14906 14907 14908 14909 14910 14911 14912 14913 14914 14915 14916 14917 14918 14919 14920 14921 14922 14923 14924 14925 14926 14927 14928 14929 14930 14931 14932 14933 14934 14935 14936 14937 14938 14939 14940 14941 14942 14943 14944 14945 14946 14947 14948 14949 14950 14951 14952 14953 14954 14955 14956 14957 14958 14959 14960 14961 14962 14963 14964 14965 14966 14967 14968 14969 14970 14971 14972 14973 14974 14975 14976 14977 14978 14979 14980 14981 14982 14983 14984 14985 14986 14987 14988 14989 14990 14991 14992 14993 14994 14995 14996 14997 14998 14999 15000 15001 15002 15003 15004 15005 15006 15007 15008 15009 15010 15011 15012 15013 15014 15015 15016 15017 15018 15019 15020 15021 15022 15023 15024 15025 15026 15027 15028 15029 15030 15031 15032 15033 15034 15035 15036 15037 15038 15039 15040 15041 15042 15043 15044 15045 15046 15047 15048 15049 15050 15051 15052 15053 15054 15055 15056 15057 15058 15059 15060 15061 15062 15063 15064 15065 15066 15067 15068 15069 15070 15071 15072 15073 15074 15075 15076 15077 15078 15079 15080 15081 15082 15083 15084 15085 15086 15087 15088 15089 15090 15091 15092 15093 15094 15095 15096 15097 15098 15099 15100 15101 15102 15103 15104 15105 15106 15107 15108 15109 15110 15111 15112 15113 15114 15115 15116 15117 15118 15119 15120 15121 15122 15123 15124 15125 15126 15127 15128 15129 15130 15131 15132 15133 15134 15135 15136 15137 15138 15139 15140 15141 15142 15143 15144 15145 15146 15147 15148 15149 15150 15151 15152 15153 15154 15155 15156 15157 15158 15159 15160 15161 15162 15163 15164 15165 15166 15167 15168 15169 15170 15171 15172 15173 15174 15175 15176 15177 15178 15179 15180 15181 15182 15183 15184 15185 15186 15187 15188 15189 15190 15191 15192 15193 15194 15195 15196 15197 15198 15199 15200 15201 15202 15203 15204 15205 15206 15207 15208 15209 15210 15211 15212 15213 15214 15215 15216 15217 15218 15219 15220 15221 15222 15223 15224 15225 15226 15227 15228 15229 15230 15231 15232 15233 15234 15235 15236 15237 15238 15239 15240 15241 15242 15243 15244 15245 15246 15247 15248 15249 15250 15251 15252 15253 15254 15255 15256 15257 15258 15259 15260 15261 15262 15263 15264 15265 15266 15267 15268 15269 15270 15271 15272 15273 15274 15275 15276 15277 15278 15279 15280 15281 15282 15283 15284 15285 15286 15287 15288 15289 15290 15291 15292 15293 15294 15295 15296 15297 15298 15299 15300 15301 15302 15303 15304 15305 15306 15307 15308 15309 15310 15311 15312 15313 15314 15315 15316 15317 15318 15319 15320 15321 15322 15323 15324 15325 15326 15327 15328 15329 15330 15331 15332 15333 15334 15335 15336 15337 15338 15339 15340 15341 15342 15343 15344 15345 15346 15347 15348 15349 15350 15351 15352 15353 15354 15355 15356 15357 15358 15359 15360 15361 15362 15363 15364 15365 15366 15367 15368 15369 15370 15371 15372 15373 15374 15375 15376 15377 15378 15379 15380 15381 15382 15383 15384 15385 15386 15387 15388 15389 15390 15391 15392 15393 15394 15395 15396 15397 15398 15399 15400 15401 15402 15403 15404 15405 15406 15407 15408 15409 15410 15411 15412 15413 15414 15415 15416 15417 15418 15419 15420 15421 15422 15423 15424 15425 15426 15427 15428 15429 15430 15431 15432 15433 15434 15435 15436 15437 15438 15439 15440 15441 15442 15443 15444 15445 15446 15447 15448 15449 15450 15451 15452 15453 15454 15455 15456 15457 15458 15459 15460 15461 15462 15463 15464 15465 15466 15467 15468 15469 15470 15471 15472 15473 15474 15475 15476 15477 15478 15479 15480 15481 15482 15483 15484 15485 15486 15487 15488 15489 15490 15491 15492 15493 15494 15495 15496 15497 15498 15499 15500 15501 15502 15503 15504 15505 15506 15507 15508 15509 15510 15511 15512 15513 15514 15515 15516 15517 15518 15519 15520 15521 15522 15523 15524 15525 15526 15527 15528 15529 15530 15531 15532 15533 15534 15535 15536 15537 15538 15539 15540 15541 15542 15543 15544 15545 15546 15547 15548 15549 15550 15551 15552 15553 15554 15555 15556 15557 15558 15559 15560 15561 15562 15563 15564 15565 15566 15567 15568 15569 15570 15571 15572 15573 15574 15575 15576 15577 15578 15579 15580 15581 15582 15583 15584 15585 15586 15587 15588 15589 15590 15591 15592 15593 15594 15595 15596 15597 15598 15599 15600 15601 15602 15603 15604 15605 15606 15607 15608 15609 15610 15611 15612 15613 15614 15615 15616 15617 15618 15619 15620 15621 15622 15623 15624 15625 15626 15627 15628 15629 15630 15631 15632 15633 15634 15635 15636 15637 15638 15639 15640 15641 15642 15643 15644 15645 15646 15647 15648 15649 15650 15651 15652 15653 15654 15655 15656 15657 15658 15659 15660 15661 15662 15663 15664 15665 15666 15667 15668 15669 15670 15671 15672 15673 15674 15675 15676 15677 15678 15679 15680 15681 15682 15683 15684 15685 15686 15687 15688 15689 15690 15691 15692 15693 15694 15695 15696 15697 15698 15699 15700 15701 15702 15703 15704 15705 15706 15707 15708 15709 15710 15711 15712 15713 15714 15715 15716 15717 15718 15719 15720 15721 15722 15723 15724 15725 15726 15727 15728 15729 15730 15731 15732 15733 15734 15735 15736 15737 15738 15739 15740 15741 15742 15743 15744 15745 15746 15747 15748 15749 15750 15751 15752 15753 15754 15755 15756 15757 15758 15759 15760 15761 15762 15763 15764 15765 15766 15767 15768 15769 15770 15771 15772 15773 15774 15775 15776 15777 15778 15779 15780 15781 15782 15783 15784 15785 15786 15787 15788 15789 15790 15791 15792 15793 15794 15795 15796 15797 15798 15799 15800 15801 15802 15803 15804 15805 15806 15807 15808 15809 15810 15811 15812 15813 15814 15815 15816 15817 15818 15819 15820 15821 15822 15823 15824 15825 15826 15827 15828 15829 15830 15831 15832 15833 15834 15835 15836 15837 15838 15839 15840 15841 15842 15843 15844 15845 15846 15847 15848 15849 15850 15851 15852 15853 15854 15855 15856 15857 15858 15859 15860 15861 15862 15863 15864 15865 15866 15867 15868 15869 15870 15871 15872 15873 15874 15875 15876 15877 15878 15879 15880 15881 15882 15883 15884 15885 15886 15887 15888 15889 15890 15891 15892 15893 15894 15895 15896 15897 15898 15899 15900 15901 15902 15903 15904 15905 15906 15907 15908 15909 15910 15911 15912 15913 15914 15915 15916 15917 15918 15919 15920 15921 15922 15923 15924 15925 15926 15927 15928 15929 15930 15931 15932 15933 15934 15935 15936 15937 15938 15939 15940 15941 15942 15943 15944 15945 15946 15947 15948 15949 15950 15951 15952 15953 15954 15955 15956 15957 15958 15959 15960 15961 15962 15963 15964 15965 15966 15967 15968 15969 15970 15971 15972 15973 15974 15975 15976 15977 15978 15979 15980 15981 15982 15983 15984 15985 15986 15987 15988 15989 15990 15991 15992 15993 15994 15995 15996 15997 15998 15999 16000 16001 16002 16003 16004 16005 16006 16007 16008 16009 16010 16011 16012 16013 16014 16015 16016 16017 16018 16019 16020 16021 16022 16023 16024 16025 16026 16027 16028 16029 16030 16031 16032 16033 16034 16035 16036 16037 16038 16039 16040 16041 16042 16043 16044 16045 16046 16047 16048 16049 16050 16051 16052 16053 16054 16055 16056 16057 16058 16059 16060 16061 16062 16063 16064 16065 16066 16067 16068 16069 16070 16071 16072 16073 16074 16075 16076 16077 16078 16079 16080 16081 16082 16083 16084 16085 16086 16087 16088 16089 16090 16091 16092 16093 16094 16095 16096 16097 16098 16099 16100 16101 16102 16103 16104 16105 16106 16107 16108 16109 16110 16111 16112 16113 16114 16115 16116 16117 16118 16119 16120 16121 16122 16123 16124 16125 16126 16127 16128 16129 16130 16131 16132 16133 16134 16135 16136 16137 16138 16139 16140 16141 16142 16143 16144 16145 16146 16147 16148 16149 16150 16151 16152 16153 16154 16155 16156 16157 16158 16159 16160 16161 16162 16163 16164 16165 16166 16167 16168 16169 16170 16171 16172 16173 16174 16175 16176 16177 16178 16179 16180 16181 16182 16183 16184 16185 16186 16187 16188 16189 16190 16191 16192 16193 16194 16195 16196 16197 16198 16199 16200 16201 16202 16203 16204 16205 16206 16207 16208 16209 16210 16211 16212 16213 16214 16215 16216 16217 16218 16219 16220 16221 16222 16223 16224 16225 16226 16227 16228 16229 16230 16231 16232 16233 16234 16235 16236 16237 16238 16239 16240 16241 16242 16243 16244 16245 16246 16247 16248 16249 16250 16251 16252 16253 16254 16255 16256 16257 16258 16259 16260 16261 16262 16263 16264 16265 16266 16267 16268 16269 16270 16271 16272 16273 16274 16275 16276 16277 16278 16279 16280 16281 16282 16283 16284 16285 16286 16287 16288 16289 16290 16291 16292 16293 16294 16295 16296 16297 16298 16299 16300 16301 16302 16303 16304 16305 16306 16307 16308 16309 16310 16311 16312 16313 16314 16315 16316 16317 16318 16319 16320 16321 16322 16323 16324 16325 16326 16327 16328 16329 16330 16331 16332 16333 16334 16335 16336 16337 16338 16339 16340 16341 16342 16343 16344 16345 16346 16347 16348 16349 16350 16351 16352 16353 16354 16355 16356 16357 16358 16359 16360 16361 16362 16363 16364 16365 16366 16367 16368 16369 16370 16371 16372 16373 16374 16375 16376 16377 16378 16379 16380 16381 16382 16383 16384 16385 16386 16387 16388 16389 16390 16391 16392 16393 16394 16395 16396 16397 16398 16399 16400 16401 16402 16403 16404 16405 16406 16407 16408 16409 16410 16411 16412 16413 16414 16415 16416 16417 16418 16419 16420 16421 16422 16423 16424 16425 16426 16427 16428 16429 16430 16431 16432 16433 16434 16435 16436 16437 16438 16439 16440 16441 16442 16443 16444 16445 16446 16447 16448 16449 16450 16451 16452 16453 16454 16455 16456 16457 16458 16459 16460 16461 16462 16463 16464 16465 16466 16467 16468 16469 16470 16471 16472 16473 16474 16475 16476 16477 16478 16479 16480 16481 16482 16483 16484 16485 16486 16487 16488 16489 16490 16491 16492 16493 16494 16495 16496 16497 16498 16499 16500 16501 16502 16503 16504 16505 16506 16507 16508 16509 16510 16511 16512 16513 16514 16515 16516 16517 16518 16519 16520 16521 16522 16523 16524 16525 16526 16527 16528 16529 16530 16531 16532 16533 16534 16535 16536 16537 16538 16539 16540 16541 16542 16543 16544 16545 16546 16547 16548 16549 16550 16551 16552 16553 16554 16555 16556 16557 16558 16559 16560 16561 16562 16563 16564 16565 16566 16567 16568 16569 16570 16571 16572 16573 16574 16575 16576 16577 16578 16579 16580 16581 16582 16583 16584 16585 16586 16587 16588 16589 16590 16591 16592 16593 16594 16595 16596 16597 16598 16599 16600 16601 16602 16603 16604 16605 16606 16607 16608 16609 16610 16611 16612 16613 16614 16615 16616 16617 16618 16619 16620 16621 16622 16623 16624 16625 16626 16627 16628 16629 16630 16631 16632 16633 16634 16635 16636 16637 16638 16639 16640 16641 16642 16643 16644 16645 16646 16647 16648 16649 16650 16651 16652 16653 16654 16655 16656 16657 16658 16659 16660 16661 16662 16663 16664 16665 16666 16667 16668 16669 16670 16671 16672 16673 16674 16675 16676 16677 16678 16679 16680 16681 16682 16683 16684 16685 16686 16687 16688 16689 16690 16691 16692 16693 16694 16695 16696 16697 16698 16699 16700 16701 16702 16703 16704 16705 16706 16707 16708 16709 16710 16711 16712 16713 16714 16715 16716 16717 16718 16719 16720 16721 16722 16723 16724 16725 16726 16727 16728 16729 16730 16731 16732 16733 16734 16735 16736 16737 16738 16739 16740 16741 16742 16743 16744 16745 16746 16747 16748 16749 16750 16751 16752 16753 16754 16755 16756 16757 16758 16759 16760 16761 16762 16763 16764 16765 16766 16767 16768 16769 16770 16771 16772 16773 16774 16775 16776 16777 16778 16779 16780 16781 16782 16783 16784 16785 16786 16787 16788 16789 16790 16791 16792 16793 16794 16795 16796 16797 16798 16799 16800 16801 16802 16803 16804 16805 16806 16807 16808 16809 16810 16811 16812 16813 16814 16815 16816 16817 16818 16819 16820 16821 16822 16823 16824 16825 16826 16827 16828 16829 16830 16831 16832 16833 16834 16835 16836 16837 16838 16839 16840 16841 16842 16843 16844 16845 16846 16847 16848 16849 16850 16851 16852 16853 16854 16855 16856 16857 16858 16859 16860 16861 16862 16863 16864 16865 16866 16867 16868 16869 16870 16871 16872 16873 16874 16875 16876 16877 16878 16879 16880 16881 16882 16883 16884 16885 16886 16887 16888 16889 16890 16891 16892 16893 16894 16895 16896 16897 16898 16899 16900 16901 16902 16903 16904 16905 16906 16907 16908 16909 16910 16911 16912 16913 16914 16915 16916 16917 16918 16919 16920 16921 16922 16923 16924 16925 16926 16927 16928 16929 16930 16931 16932 16933 16934 16935 16936 16937 16938 16939 16940 16941 16942 16943 16944 16945 16946 16947 16948 16949 16950 16951 16952 16953 16954 16955 16956 16957 16958 16959 16960 16961 16962 16963 16964 16965 16966 16967 16968 16969 16970 16971 16972 16973 16974 16975 16976 16977 16978 16979 16980 16981 16982 16983 16984 16985 16986 16987 16988 16989 16990 16991 16992 16993 16994 16995 16996 16997 16998 16999 17000 17001 17002 17003 17004 17005 17006 17007 17008 17009 17010 17011 17012 17013 17014 17015 17016 17017 17018 17019 17020 17021 17022 17023 17024 17025 17026 17027 17028 17029 17030 17031 17032 17033 17034 17035 17036 17037 17038 17039 17040 17041 17042 17043 17044 17045 17046 17047 17048 17049 17050 17051 17052 17053 17054 17055 17056 17057 17058 17059 17060 17061 17062 17063 17064 17065 17066 17067 17068 17069 17070 17071 17072 17073 17074 17075 17076 17077 17078 17079 17080 17081 17082 17083 17084 17085 17086 17087 17088 17089 17090 17091 17092 17093 17094 17095 17096 17097 17098 17099 17100 17101 17102 17103 17104 17105 17106 17107 17108 17109 17110 17111 17112 17113 17114 17115 17116 17117 17118 17119 17120 17121 17122 17123 17124 17125 17126 17127 17128 17129 17130 17131 17132 17133 17134 17135 17136 17137 17138 17139 17140 17141 17142 17143 17144 17145 17146 17147 17148 17149 17150 17151 17152 17153 17154 17155 17156 17157 17158 17159 17160 17161 17162 17163 17164 17165 17166 17167 17168 17169 17170 17171 17172 17173 17174 17175 17176 17177 17178 17179 17180 17181 17182 17183 17184 17185 17186 17187 17188 17189 17190 17191 17192 17193 17194 17195 17196 17197 17198 17199 17200 17201 17202 17203 17204 17205 17206 17207 17208 17209 17210 17211 17212 17213 17214 17215 17216 17217 17218 17219 17220 17221 17222 17223 17224 17225 17226 17227 17228 17229 17230 17231 17232 17233 17234 17235 17236 17237 17238 17239 17240 17241 17242 17243 17244 17245 17246 17247 17248 17249 17250 17251 17252 17253 17254 17255 17256 17257 17258 17259 17260 17261 17262 17263 17264 17265 17266 17267 17268 17269 17270 17271 17272 17273 17274 17275 17276 17277 17278 17279 17280 17281 17282 17283 17284 17285 17286 17287 17288 17289 17290 17291 17292 17293 17294 17295 17296 17297 17298 17299 17300 17301 17302 17303 17304 17305 17306 17307 17308 17309 17310 17311 17312 17313 17314 17315 17316 17317 17318 17319 17320 17321 17322 17323 17324 17325 17326 17327 17328 17329 17330 17331 17332 17333 17334 17335 17336 17337 17338 17339 17340 17341 17342 17343 17344 17345 17346 17347 17348 17349 17350 17351 17352 17353 17354 17355 17356 17357 17358 17359 17360 17361 17362 17363 17364 17365 17366 17367 17368 17369 17370 17371 17372 17373 17374 17375 17376 17377 17378 17379 17380 17381 17382 17383 17384 17385 17386 17387 17388 17389 17390 17391 17392 17393 17394 17395 17396 17397 17398 17399 17400 17401 17402 17403 17404 17405 17406 17407 17408 17409 17410 17411 17412 17413 17414 17415 17416 17417 17418 17419 17420 17421 17422 17423 17424 17425 17426 17427 17428 17429 17430 17431 17432 17433 17434 17435 17436 17437 17438 17439 17440 17441 17442 17443 17444 17445 17446 17447 17448 17449 17450 17451 17452 17453 17454 17455 17456 17457 17458 17459 17460 17461 17462 17463 17464 17465 17466 17467 17468 17469 17470 17471 17472 17473 17474 17475 17476 17477 17478 17479 17480 17481 17482 17483 17484 17485 17486 17487 17488 17489 17490 17491 17492 17493 17494 17495 17496 17497 17498 17499 17500 17501 17502 17503 17504 17505 17506 17507 17508 17509 17510 17511 17512 17513 17514 17515 17516 17517 17518 17519 17520 17521 17522 17523 17524 17525 17526 17527 17528 17529 17530 17531 17532 17533 17534 17535 17536 17537 17538 17539 17540 17541 17542 17543 17544 17545 17546 17547 17548 17549 17550 17551 17552 17553 17554 17555 17556 17557 17558 17559 17560 17561 17562 17563 17564 17565 17566 17567 17568 17569 17570 17571 17572 17573 17574 17575 17576 17577 17578 17579 17580 17581 17582 17583 17584 17585 17586 17587 17588 17589 17590 17591 17592 17593 17594 17595 17596 17597 17598 17599 17600 17601 17602 17603 17604 17605 17606 17607 17608 17609 17610 17611 17612 17613 17614 17615 17616 17617 17618 17619 17620 17621 17622 17623 17624 17625 17626 17627 17628 17629 17630 17631 17632 17633 17634 17635 17636 17637 17638 17639 17640 17641 17642 17643 17644 17645 17646 17647 17648 17649 17650 17651 17652 17653 17654 17655 17656 17657 17658 17659 17660 17661 17662 17663 17664 17665 17666 17667 17668 17669 17670 17671 17672 17673 17674 17675 17676 17677 17678 17679 17680 17681 17682 17683 17684 17685 17686 17687 17688 17689 17690 17691 17692 17693 17694 17695 17696 17697 17698 17699 17700 17701 17702 17703 17704 17705 17706 17707 17708 17709 17710 17711 17712 17713 17714 17715 17716 17717 17718 17719 17720 17721 17722 17723 17724 17725 17726 17727 17728 17729 17730 17731 17732 17733 17734 17735 17736 17737 17738 17739 17740 17741 17742 17743 17744 17745 17746 17747 17748 17749 17750 17751 17752 17753 17754 17755 17756 17757 17758 17759 17760 17761 17762 17763 17764 17765 17766 17767 17768 17769 17770 17771 17772 17773 17774 17775 17776 17777 17778 17779 17780 17781 17782 17783 17784 17785 17786 17787 17788 17789 17790 17791 17792 17793 17794 17795 17796 17797 17798 17799 17800 17801 17802 17803 17804 17805 17806 17807 17808 17809 17810 17811 17812 17813 17814 17815 17816 17817 17818 17819 17820 17821 17822 17823 17824 17825 17826 17827 17828 17829 17830 17831 17832 17833 17834 17835 17836 17837 17838 17839 17840 17841 17842 17843 17844 17845 17846 17847 17848 17849 17850 17851 17852 17853 17854 17855 17856 17857 17858 17859 17860 17861 17862 17863 17864 17865 17866 17867 17868 17869 17870 17871 17872 17873 17874 17875 17876 17877 17878 17879 17880 17881 17882 17883 17884 17885 17886 17887 17888 17889 17890 17891 17892 17893 17894 17895 17896 17897 17898 17899 17900 17901 17902 17903 17904 17905 17906 17907 17908 17909 17910 17911 17912 17913 17914 17915 17916 17917 17918 17919 17920 17921 17922 17923 17924 17925 17926 17927 17928 17929 17930 17931 17932 17933 17934 17935 17936 17937 17938 17939 17940 17941 17942 17943 17944 17945 17946 17947 17948 17949 17950 17951 17952 17953 17954 17955 17956 17957 17958 17959 17960 17961 17962 17963 17964 17965 17966 17967 17968 17969 17970 17971 17972 17973 17974 17975 17976 17977 17978 17979 17980 17981 17982 17983 17984 17985 17986 17987 17988 17989 17990 17991 17992 17993 17994 17995 17996 17997 17998 17999 18000 18001 18002 18003 18004 18005 18006 18007 18008 18009 18010 18011 18012 18013 18014 18015 18016 18017 18018 18019 18020 18021 18022 18023 18024 18025 18026 18027 18028 18029 18030 18031 18032 18033 18034 18035 18036 18037 18038 18039 18040 18041 18042 18043 18044 18045 18046 18047 18048 18049 18050 18051 18052 18053 18054 18055 18056 18057 18058 18059 18060 18061 18062 18063 18064 18065 18066 18067 18068 18069 18070 18071 18072 18073 18074 18075 18076 18077 18078 18079 18080 18081 18082 18083 18084 18085 18086 18087 18088 18089 18090 18091 18092 18093 18094 18095 18096 18097 18098 18099 18100 18101 18102 18103 18104 18105 18106 18107 18108 18109 18110 18111 18112 18113 18114 18115 18116 18117 18118 18119 18120 18121 18122 18123 18124 18125 18126 18127 18128 18129 18130 18131 18132 18133 18134 18135 18136 18137 18138 18139 18140 18141 18142 18143 18144 18145 18146 18147 18148 18149 18150 18151 18152 18153 18154 18155 18156 18157 18158 18159 18160 18161 18162 18163 18164 18165 18166 18167 18168 18169 18170 18171 18172 18173 18174 18175 18176 18177 18178 18179 18180 18181 18182 18183 18184 18185 18186 18187 18188 18189 18190 18191 18192 18193 18194 18195 18196 18197 18198 18199 18200 18201 18202 18203 18204 18205 18206 18207 18208 18209 18210 18211 18212 18213 18214 18215 18216 18217 18218 18219 18220 18221 18222 18223 18224 18225 18226 18227 18228 18229 18230 18231 18232 18233 18234 18235 18236 18237 18238 18239 18240 18241 18242 18243 18244 18245 18246 18247 18248 18249 18250 18251 18252 18253 18254 18255 18256 18257 18258 18259 18260 18261 18262 18263 18264 18265 18266 18267 18268 18269 18270 18271 18272 18273 18274 18275 18276 18277 18278 18279 18280 18281 18282 18283 18284 18285 18286 18287 18288 18289 18290 18291 18292 18293 18294 18295 18296 18297 18298 18299 18300 18301 18302 18303 18304 18305 18306 18307 18308 18309 18310 18311 18312 18313 18314 18315 18316 18317 18318 18319 18320 18321 18322 18323 18324 18325 18326 18327 18328 18329 18330 18331 18332 18333 18334 18335 18336 18337 18338 18339 18340 18341 18342 18343 18344 18345 18346 18347 18348 18349 18350 18351 18352 18353 18354 18355 18356 18357 18358 18359 18360 18361 18362 18363 18364 18365 18366 18367 18368 18369 18370 18371 18372 18373 18374 18375 18376 18377 18378 18379 18380 18381 18382 18383 18384 18385 18386 18387 18388 18389 18390 18391 18392 18393 18394 18395 18396 18397 18398 18399 18400 18401 18402 18403 18404 18405 18406 18407 18408 18409 18410 18411 18412 18413 18414 18415 18416 18417 18418 18419 18420 18421 18422 18423 18424 18425 18426 18427 18428 18429 18430 18431 18432 18433 18434 18435 18436 18437 18438 18439 18440 18441 18442 18443 18444 18445 18446 18447 18448 18449 18450 18451 18452 18453 18454 18455 18456 18457 18458 18459 18460 18461 18462 18463 18464 18465 18466 18467 18468 18469 18470 18471 18472 18473 18474 18475 18476 18477 18478 18479 18480 18481 18482 18483 18484 18485 18486 18487 18488 18489 18490 18491 18492 18493 18494 18495 18496 18497 18498 18499 18500 18501 18502 18503 18504 18505 18506 18507 18508 18509 18510 18511 18512 18513 18514 18515 18516 18517 18518 18519 18520 18521 18522 18523 18524 18525 18526 18527 18528 18529 18530 18531 18532 18533 18534 18535 18536 18537 18538 18539 18540 18541 18542 18543 18544 18545 18546 18547 18548 18549 18550 18551 18552 18553 18554 18555 18556 18557 18558 18559 18560 18561 18562 18563 18564 18565 18566 18567 18568 18569 18570 18571 18572 18573 18574 18575 18576 18577 18578 18579 18580 18581 18582 18583 18584 18585 18586 18587 18588 18589 18590 18591 18592 18593 18594 18595 18596 18597 18598 18599 18600 18601 18602 18603 18604 18605 18606 18607 18608 18609 18610 18611 18612 18613 18614 18615 18616 18617 18618 18619 18620 18621 18622 18623 18624 18625 18626 18627 18628 18629 18630 18631 18632 18633 18634 18635 18636 18637 18638 18639 18640 18641 18642 18643 18644 18645 18646 18647 18648 18649 18650 18651 18652 18653 18654 18655 18656 18657 18658 18659 18660 18661 18662 18663 18664 18665 18666 18667 18668 18669 18670 18671 18672 18673 18674 18675 18676 18677 18678 18679 18680 18681 18682 18683 18684 18685 18686 18687 18688 18689 18690 18691 18692 18693 18694 18695 18696 18697 18698 18699 18700 18701 18702 18703 18704 18705 18706 18707 18708 18709 18710 18711 18712 18713 18714 18715 18716 18717 18718 18719 18720 18721 18722 18723 18724 18725 18726 18727 18728 18729 18730 18731 18732 18733 18734 18735 18736 18737 18738 18739 18740 18741 18742 18743 18744 18745 18746 18747 18748 18749 18750 18751 18752 18753 18754 18755 18756 18757 18758 18759 18760 18761 18762 18763 18764 18765 18766 18767 18768 18769 18770 18771 18772 18773 18774 18775 18776 18777 18778 18779 18780 18781 18782 18783 18784 18785 18786 18787 18788 18789 18790 18791 18792 18793 18794 18795 18796 18797 18798 18799 18800 18801 18802 18803 18804 18805 18806 18807 18808 18809 18810 18811 18812 18813 18814 18815 18816 18817 18818 18819 18820 18821 18822 18823 18824 18825 18826 18827 18828 18829 18830 18831 18832 18833 18834 18835 18836 18837 18838 18839 18840 18841 18842 18843 18844 18845 18846 18847 18848 18849 18850 18851 18852 18853 18854 18855 18856 18857 18858 18859 18860 18861 18862 18863 18864 18865 18866 18867 18868 18869 18870 18871 18872 18873 18874 18875 18876 18877 18878 18879 18880 18881 18882 18883 18884 18885 18886 18887 18888 18889 18890 18891 18892 18893 18894 18895 18896 18897 18898 18899 18900 18901 18902 18903 18904 18905 18906 18907 18908 18909 18910 18911 18912 18913 18914 18915 18916 18917 18918 18919 18920 18921 18922 18923 18924 18925 18926 18927 18928 18929 18930 18931 18932 18933 18934 18935 18936 18937 18938 18939 18940 18941 18942 18943 18944 18945 18946 18947 18948 18949 18950 18951 18952 18953 18954 18955 18956 18957 18958 18959 18960 18961 18962 18963 18964 18965 18966 18967 18968 18969 18970 18971 18972 18973 18974 18975 18976 18977 18978 18979 18980 18981 18982 18983 18984 18985 18986 18987 18988 18989 18990 18991 18992 18993 18994 18995 18996 18997 18998 18999 19000 19001 19002 19003 19004 19005 19006 19007 19008 19009 19010 19011 19012 19013 19014 19015 19016 19017 19018 19019 19020 19021 19022 19023 19024 19025 19026 19027 19028 19029 19030 19031 19032 19033 19034 19035 19036 19037 19038 19039 19040 19041 19042 19043 19044 19045 19046 19047 19048 19049 19050 19051 19052 19053 19054 19055 19056 19057 19058 19059 19060 19061 19062 19063 19064 19065 19066 19067 19068 19069 19070 19071 19072 19073 19074 19075 19076 19077 19078 19079 19080 19081 19082 19083 19084 19085 19086 19087 19088 19089 19090 19091 19092 19093 19094 19095 19096 19097 19098 19099 19100 19101 19102 19103 19104 19105 19106 19107 19108 19109 19110 19111 19112 19113 19114 19115 19116 19117 19118 19119 19120 19121 19122 19123 19124 19125 19126 19127 19128 19129 19130 19131 19132 19133 19134 19135 19136 19137 19138 19139 19140 19141 19142 19143 19144 19145 19146 19147 19148 19149 19150 19151 19152 19153 19154 19155 19156 19157 19158 19159 19160 19161 19162 19163 19164 19165 19166 19167 19168 19169 19170 19171 19172 19173 19174 19175 19176 19177 19178 19179 19180 19181 19182 19183 19184 19185 19186 19187 19188 19189 19190 19191 19192 19193 19194 19195 19196 19197 19198 19199 19200 19201 19202 19203 19204 19205 19206 19207 19208 19209 19210 19211 19212 19213 19214 19215 19216 19217 19218 19219 19220 19221 19222 19223 19224 19225 19226 19227 19228 19229 19230 19231 19232 19233 19234 19235 19236 19237 19238 19239 19240 19241 19242 19243 19244 19245 19246 19247 19248 19249 19250 19251 19252 19253 19254 19255 19256 19257 19258 19259 19260 19261 19262 19263 19264 19265 19266 19267 19268 19269 19270 19271 19272 19273 19274 19275 19276 19277 19278 19279 19280 19281 19282 19283 19284 19285 19286 19287 19288 19289 19290 19291 19292 19293 19294 19295 19296 19297 19298 19299 19300 19301 19302 19303 19304 19305 19306 19307 19308 19309 19310 19311 19312 19313 19314 19315 19316 19317 19318 19319 19320 19321 19322 19323 19324 19325 19326 19327 19328 19329 19330 19331 19332 19333 19334 19335 19336 19337 19338 19339 19340 19341 19342 19343 19344 19345 19346 19347 19348 19349 19350 19351 19352 19353 19354 19355 19356 19357 19358 19359 19360 19361 19362 19363 19364 19365 19366 19367 19368 19369 19370 19371 19372 19373 19374 19375 19376 19377 19378 19379 19380 19381 19382 19383 19384 19385 19386 19387 19388 19389 19390 19391 19392 19393 19394 19395 19396 19397 19398 19399 19400 19401 19402 19403 19404 19405 19406 19407 19408 19409 19410 19411 19412 19413 19414 19415 19416 19417 19418 19419 19420 19421 19422 19423 19424 19425 19426 19427 19428 19429 19430 19431 19432 19433 19434 19435 19436 19437 19438 19439 19440 19441 19442 19443 19444 19445 19446 19447 19448 19449 19450 19451 19452 19453 19454 19455 19456 19457 19458 19459 19460 19461 19462 19463 19464 19465 19466 19467 19468 19469 19470 19471 19472 19473 19474 19475 19476 19477 19478 19479 19480 19481 19482 19483 19484 19485 19486 19487 19488 19489 19490 19491 19492 19493 19494 19495 19496 19497 19498 19499 19500 19501 19502 19503 19504 19505 19506 19507 19508 19509 19510 19511 19512 19513 19514 19515 19516 19517 19518 19519 19520 19521 19522 19523 19524 19525 19526 19527 19528 19529 19530 19531 19532 19533 19534 19535 19536 19537 19538 19539 19540 19541 19542 19543 19544 19545 19546 19547 19548 19549 19550 19551 19552 19553 19554 19555 19556 19557 19558 19559 19560 19561 19562 19563 19564 19565 19566 19567 19568 19569 19570 19571 19572 19573 19574 19575 19576 19577 19578 19579 19580 19581 19582 19583 19584 19585 19586 19587 19588 19589 19590 19591 19592 19593 19594 19595 19596 19597 19598 19599 19600 19601 19602 19603 19604 19605 19606 19607 19608 19609 19610 19611 19612 19613 19614 19615 19616 19617 19618 19619 19620 19621 19622 19623 19624 19625 19626 19627 19628 19629 19630 19631 19632 19633 19634 19635 19636 19637 19638 19639 19640 19641 19642 19643 19644 19645 19646 19647 19648 19649 19650 19651 19652 19653 19654 19655 19656 19657 19658 19659 19660 19661 19662 19663 19664 19665 19666 19667 19668 19669 19670 19671 19672 19673 19674 19675 19676 19677 19678 19679 19680 19681 19682 19683 19684 19685 19686 19687 19688 19689 19690 19691 19692 19693 19694 19695 19696 19697 19698 19699 19700 19701 19702 19703 19704 19705 19706 19707 19708 19709 19710 19711 19712 19713 19714 19715 19716 19717 19718 19719 19720 19721 19722 19723 19724 19725 19726 19727 19728 19729 19730 19731 19732 19733 19734 19735 19736 19737 19738 19739 19740 19741 19742 19743 19744 19745 19746 19747 19748 19749 19750 19751 19752 19753 19754 19755 19756 19757 19758 19759 19760 19761 19762 19763 19764 19765 19766 19767 19768 19769 19770 19771 19772 19773 19774 19775 19776 19777 19778 19779 19780 19781 19782 19783 19784 19785 19786 19787 19788 19789 19790 19791 19792 19793 19794 19795 19796 19797 19798 19799 19800 19801 19802 19803 19804 19805 19806 19807 19808 19809 19810 19811 19812 19813 19814 19815 19816 19817 19818 19819 19820 19821 19822 19823 19824 19825 19826 19827 19828 19829 19830 19831 19832 19833 19834 19835 19836 19837 19838 19839 19840 19841 19842 19843 19844 19845 19846 19847 19848 19849 19850 19851 19852 19853 19854 19855 19856 19857 19858 19859 19860 19861 19862 19863 19864 19865 19866 19867 19868 19869 19870 19871 19872 19873 19874 19875 19876 19877 19878 19879 19880 19881 19882 19883 19884 19885 19886 19887 19888 19889 19890 19891 19892 19893 19894 19895 19896 19897 19898 19899 19900 19901 19902 19903 19904 19905 19906 19907 19908 19909 19910 19911 19912 19913 19914 19915 19916 19917 19918 19919 19920 19921 19922 19923 19924 19925 19926 19927 19928 19929 19930 19931 19932 19933 19934 19935 19936 19937 19938 19939 19940 19941 19942 19943 19944 19945 19946 19947 19948 19949 19950 19951 19952 19953 19954 19955 19956 19957 19958 19959 19960 19961 19962 19963 19964 19965 19966 19967 19968 19969 19970 19971 19972 19973 19974 19975 19976 19977 19978 19979 19980 19981 19982 19983 19984 19985 19986 19987 19988 19989 19990 19991 19992 19993 19994 19995 19996 19997 19998 19999 20000 20001 20002 20003 20004 20005 20006 20007 20008 20009 20010 20011 20012 20013 20014 20015 20016 20017 20018 20019 20020 20021 20022 20023 20024 20025 20026 20027 20028 20029 20030 20031 20032 20033 20034 20035 20036 20037 20038 20039 20040 20041 20042 20043 20044 20045 20046 20047 20048 20049 20050 20051 20052 20053 20054 20055 20056 20057 20058 20059 20060 20061 20062 20063 20064 20065 20066 20067 20068 20069 20070 20071 20072 20073 20074 20075 20076 20077 20078 20079 20080 20081 20082 20083 20084 20085 20086 20087 20088 20089 20090 20091 20092 20093 20094 20095 20096 20097 20098 20099 20100 20101 20102 20103 20104 20105 20106 20107 20108 20109 20110 20111 20112 20113 20114 20115 20116 20117 20118 20119 20120 20121 20122 20123 20124 20125 20126 20127 20128 20129 20130 20131 20132 20133 20134 20135 20136 20137 20138 20139 20140 20141 20142 20143 20144 20145 20146 20147 20148 20149 20150 20151 20152 20153 20154 20155 20156 20157 20158 20159 20160 20161 20162 20163 20164 20165 20166 20167 20168 20169 20170 20171 20172 20173 20174 20175 20176 20177 20178 20179 20180 20181 20182 20183 20184 20185 20186 20187 20188 20189 20190 20191 20192 20193 20194 20195 20196 20197 20198 20199 20200 20201 20202 20203 20204 20205 20206 20207 20208 20209 20210 20211 20212 20213 20214 20215 20216 20217 20218 20219 20220 20221 20222 20223 20224 20225 20226 20227 20228 20229 20230 20231 20232 20233 20234 20235 20236 20237 20238 20239 20240 20241 20242 20243 20244 20245 20246 20247 20248 20249 20250 20251 20252 20253 20254 20255 20256 20257 20258 20259 20260 20261 20262 20263 20264 20265 20266 20267 20268 20269 20270 20271 20272 20273 20274 20275 20276 20277 20278 20279 20280 20281 20282 20283 20284 20285 20286 20287 20288 20289 20290 20291 20292 20293 20294 20295 20296 20297 20298 20299 20300 20301 20302 20303 20304 20305 20306 20307 20308 20309 20310 20311 20312 20313 20314 20315 20316 20317 20318 20319 20320 20321 20322 20323 20324 20325 20326 20327 20328 20329 20330 20331 20332 20333 20334 20335 20336 20337 20338 20339 20340 20341 20342 20343 20344 20345 20346 20347 20348 20349 20350 20351 20352 20353 20354 20355 20356 20357 20358 20359 20360 20361 20362 20363 20364 20365 20366 20367 20368 20369 20370 20371 20372 20373 20374 20375 20376 20377 20378 20379 20380 20381 20382 20383 20384 20385 20386 20387 20388 20389 20390 20391 20392 20393 20394 20395 20396 20397 20398 20399 20400 20401 20402 20403 20404 20405 20406 20407 20408 20409 20410 20411 20412 20413 20414 20415 20416 20417 20418 20419 20420 20421 20422 20423 20424 20425 20426 20427 20428 20429 20430 20431 20432 20433 20434 20435 20436 20437 20438 20439 20440 20441 20442 20443 20444 20445 20446 20447 20448 20449 20450 20451 20452 20453 20454 20455 20456 20457 20458 20459 20460 20461 20462 20463 20464 20465 20466 20467 20468 20469 20470 20471 20472 20473 20474 20475 20476 20477 20478 20479 20480 20481 20482 20483 20484 20485 20486 20487 20488 20489 20490 20491 20492 20493 20494 20495 20496 20497 20498 20499 20500 20501 20502 20503 20504 20505 20506 20507 20508 20509 20510 20511 20512 20513 20514 20515 20516 20517 20518 20519 20520 20521 20522 20523 20524 20525 20526 20527 20528 20529 20530 20531 20532 20533 20534 20535 20536 20537 20538 20539 20540 20541 20542 20543 20544 20545 20546 20547 20548 20549 20550 20551 20552 20553 20554 20555 20556 20557 20558 20559 20560 20561 20562 20563 20564 20565 20566 20567 20568 20569 20570 20571 20572 20573 20574 20575 20576 20577 20578 20579 20580 20581 20582 20583 20584 20585 20586 20587 20588 20589 20590 20591 20592 20593 20594 20595 20596 20597 20598 20599 20600 20601 20602 20603 20604 20605 20606 20607 20608 20609 20610 20611 20612 20613 20614 20615 20616 20617 20618 20619 20620 20621 20622 20623 20624 20625 20626 20627 20628 20629 20630 20631 20632 20633 20634 20635 20636 20637 20638 20639 20640 20641 20642 20643 20644 20645 20646 20647 20648 20649 20650 20651 20652 20653 20654 20655 20656 20657 20658 20659 20660 20661 20662 20663 20664 20665 20666 20667 20668 20669 20670 20671 20672 20673 20674 20675 20676 20677 20678 20679 20680 20681 20682 20683 20684 20685 20686 20687 20688 20689 20690 20691 20692 20693 20694 20695 20696 20697 20698 20699 20700 20701 20702 20703 20704 20705 20706 20707 20708 20709 20710 20711 20712 20713 20714 20715 20716 20717 20718 20719 20720 20721 20722 20723 20724 20725 20726 20727 20728 20729 20730 20731 20732 20733 20734 20735 20736 20737 20738 20739 20740 20741 20742 20743 20744 20745 20746 20747 20748 20749 20750 20751 20752 20753 20754 20755 20756 20757 20758 20759 20760 20761 20762 20763 20764 20765 20766 20767 20768 20769 20770 20771 20772 20773 20774 20775 20776 20777 20778 20779 20780 20781 20782 20783 20784 20785 20786 20787 20788 20789 20790 20791 20792 20793 20794 20795 20796 20797 20798 20799 20800 20801 20802 20803 20804 20805 20806 20807 20808 20809 20810 20811 20812 20813 20814 20815 20816 20817 20818 20819 20820 20821 20822 20823 20824 20825 20826 20827 20828 20829 20830 20831 20832 20833 20834 20835 20836 20837 20838 20839 20840 20841 20842 20843 20844 20845 20846 20847 20848 20849 20850 20851 20852 20853 20854 20855 20856 20857 20858 20859 20860 20861 20862 20863 20864 20865 20866 20867 20868 20869 20870 20871 20872 20873 20874 20875 20876 20877 20878 20879 20880 20881 20882 20883 20884 20885 20886 20887 20888 20889 20890 20891 20892 20893 20894 20895 20896 20897 20898 20899 20900 20901 20902 20903 20904 20905 20906 20907 20908 20909 20910 20911 20912 20913 20914 20915 20916 20917 20918 20919 20920 20921 20922 20923 20924 20925 20926 20927 20928 20929 20930 20931 20932 20933 20934 20935 20936 20937 20938 20939 20940 20941 20942 20943 20944 20945 20946 20947 20948 20949 20950 20951 20952 20953 20954 20955 20956 20957 20958 20959 20960 20961 20962 20963 20964 20965 20966 20967 20968 20969 20970 20971 20972 20973 20974 20975 20976 20977 20978 20979 20980 20981 20982 20983 20984 20985 20986 20987 20988 20989 20990 20991 20992 20993 20994 20995 20996 20997 20998 20999 21000 21001 21002 21003 21004 21005 21006 21007 21008 21009 21010 21011 21012 21013 21014 21015 21016 21017 21018 21019 21020 21021 21022 21023 21024 21025 21026 21027 21028 21029 21030 21031 21032 21033 21034 21035 21036 21037 21038 21039 21040 21041 21042 21043 21044 21045 21046 21047 21048 21049 21050 21051 21052 21053 21054 21055 21056 21057 21058 21059 21060 21061 21062 21063 21064 21065 21066 21067 21068 21069 21070 21071 21072 21073 21074 21075 21076 21077 21078 21079 21080 21081 21082 21083 21084 21085 21086 21087 21088 21089 21090 21091 21092 21093 21094 21095 21096 21097 21098 21099 21100 21101 21102 21103 21104 21105 21106 21107 21108 21109 21110 21111 21112 21113 21114 21115 21116 21117 21118 21119 21120 21121 21122 21123 21124 21125 21126 21127 21128 21129 21130 21131 21132 21133 21134 21135 21136 21137 21138 21139 21140 21141 21142 21143 21144 21145 21146 21147 21148 21149 21150 21151 21152 21153 21154 21155 21156 21157 21158 21159 21160 21161 21162 21163 21164 21165 21166 21167 21168 21169 21170 21171 21172 21173 21174 21175 21176 21177 21178 21179 21180 21181 21182 21183 21184 21185 21186 21187 21188 21189 21190 21191 21192 21193 21194 21195 21196 21197 21198 21199 21200 21201 21202 21203 21204 21205 21206 21207 21208 21209 21210 21211 21212 21213 21214 21215 21216 21217 21218 21219 21220 21221 21222 21223 21224 21225 21226 21227 21228 21229 21230 21231 21232 21233 21234 21235 21236 21237 21238 21239 21240 21241 21242 21243 21244 21245 21246 21247 21248 21249 21250 21251 21252 21253 21254 21255 21256 21257 21258 21259 21260 21261 21262 21263 21264 21265 21266 21267 21268 21269 21270 21271 21272 21273 21274 21275 21276 21277 21278 21279 21280 21281 21282 21283 21284 21285 21286 21287 21288 21289 21290 21291 21292 21293 21294 21295 21296 21297 21298 21299 21300 21301 21302 21303 21304 21305 21306 21307 21308 21309 21310 21311 21312 21313 21314 21315 21316 21317 21318 21319 21320 21321 21322 21323 21324 21325 21326 21327 21328 21329 21330 21331 21332 21333 21334 21335 21336 21337 21338 21339 21340 21341 21342 21343 21344 21345 21346 21347 21348 21349 21350 21351 21352 21353 21354 21355 21356 21357 21358 21359 21360 21361 21362 21363 21364 21365 21366 21367 21368 21369 21370 21371 21372 21373 21374 21375 21376 21377 21378 21379 21380 21381 21382 21383 21384 21385 21386 21387 21388 21389 21390 21391 21392 21393 21394 21395 21396 21397 21398 21399 21400 21401 21402 21403 21404 21405 21406 21407 21408 21409 21410 21411 21412 21413 21414 21415 21416 21417 21418 21419 21420 21421 21422 21423 21424 21425 21426 21427 21428 21429 21430 21431 21432 21433 21434 21435 21436 21437 21438 21439 21440 21441 21442 21443 21444 21445 21446 21447 21448 21449 21450 21451 21452 21453 21454 21455 21456 21457 21458 21459 21460 21461 21462 21463 21464 21465 21466 21467 21468 21469 21470 21471 21472 21473 21474 21475 21476 21477 21478 21479 21480 21481 21482 21483 21484 21485 21486 21487 21488 21489 21490 21491 21492 21493 21494 21495 21496 21497 21498 21499 21500 21501 21502 21503 21504 21505 21506 21507 21508 21509 21510 21511 21512 21513 21514 21515 21516 21517 21518 21519 21520 21521 21522 21523 21524 21525 21526 21527 21528 21529 21530 21531 21532 21533 21534 21535 21536 21537 21538 21539 21540 21541 21542 21543 21544 21545 21546 21547 21548 21549 21550 21551 21552 21553 21554 21555 21556 21557 21558 21559 21560 21561 21562 21563 21564 21565 21566 21567 21568 21569 21570 21571 21572 21573 21574 21575 21576 21577 21578 21579 21580 21581 21582 21583 21584 21585 21586 21587 21588 21589 21590 21591 21592 21593 21594 21595 21596 21597 21598 21599 21600 21601 21602 21603 21604 21605 21606 21607 21608 21609 21610 21611 21612 21613 21614 21615 21616 21617 21618 21619 21620 21621 21622 21623 21624 21625 21626 21627 21628 21629 21630 21631 21632 21633 21634 21635 21636 21637 21638 21639 21640 21641 21642 21643 21644 21645 21646 21647 21648 21649 21650 21651 21652 21653 21654 21655 21656 21657 21658 21659 21660 21661 21662 21663 21664 21665 21666 21667 21668 21669 21670 21671 21672 21673 21674 21675 21676 21677 21678 21679 21680 21681 21682 21683 21684 21685 21686 21687 21688 21689 21690 21691 21692 21693 21694 21695 21696 21697 21698 21699 21700 21701 21702 21703 21704 21705 21706 21707 21708 21709 21710 21711 21712 21713 21714 21715 21716 21717 21718 21719 21720 21721 21722 21723 21724 21725 21726 21727 21728 21729 21730 21731 21732 21733 21734 21735 21736 21737 21738 21739 21740 21741 21742 21743 21744 21745 21746 21747 21748 21749 21750 21751 21752 21753 21754 21755 21756 21757 21758 21759 21760 21761 21762 21763 21764 21765 21766 21767 21768 21769 21770 21771 21772 21773 21774 21775 21776 21777 21778 21779 21780 21781 21782 21783 21784 21785 21786 21787 21788 21789 21790 21791 21792 21793 21794 21795 21796 21797 21798 21799 21800 21801 21802 21803 21804 21805 21806 21807 21808 21809 21810 21811 21812 21813 21814 21815 21816 21817 21818 21819 21820 21821 21822 21823 21824 21825 21826 21827 21828 21829 21830 21831 21832 21833 21834 21835 21836 21837 21838 21839 21840 21841 21842 21843 21844 21845 21846 21847 21848 21849 21850 21851 21852 21853 21854 21855 21856 21857 21858 21859 21860 21861 21862 21863 21864 21865 21866 21867 21868 21869 21870 21871 21872 21873 21874 21875 21876 21877 21878 21879 21880 21881 21882 21883 21884 21885 21886 21887 21888 21889 21890 21891 21892 21893 21894 21895 21896 21897 21898 21899 21900 21901 21902 21903 21904 21905 21906 21907 21908 21909 21910 21911 21912 21913 21914 21915 21916 21917 21918 21919 21920 21921 21922 21923 21924 21925 21926 21927 21928 21929 21930 21931 21932 21933 21934 21935 21936 21937 21938 21939 21940 21941 21942 21943 21944 21945 21946 21947 21948 21949 21950 21951 21952 21953 21954 21955 21956 21957 21958 21959 21960 21961 21962 21963 21964 21965 21966 21967 21968 21969 21970 21971 21972 21973 21974 21975 21976 21977 21978 21979 21980 21981 21982 21983 21984 21985 21986 21987 21988 21989 21990 21991 21992 21993 21994 21995 21996 21997 21998 21999 22000 22001 22002 22003 22004 22005 22006 22007 22008 22009 22010 22011 22012 22013 22014 22015 22016 22017 22018 22019 22020 22021 22022 22023 22024 22025 22026 22027 22028 22029 22030 22031 22032 22033 22034 22035 22036 22037 22038 22039 22040 22041 22042 22043 22044 22045 22046 22047 22048 22049 22050 22051 22052 22053 22054 22055 22056 22057 22058 22059 22060 22061 22062 22063 22064 22065 22066 22067 22068 22069 22070 22071 22072 22073 22074 22075 22076 22077 22078 22079 22080 22081 22082 22083 22084 22085 22086 22087 22088 22089 22090 22091 22092 22093 22094 22095 22096 22097 22098 22099 22100 22101 22102 22103 22104 22105 22106 22107 22108 22109 22110 22111 22112 22113 22114 22115 22116 22117 22118 22119 22120 22121 22122 22123 22124 22125 22126 22127 22128 22129 22130 22131 22132 22133 22134 22135 22136 22137 22138 22139 22140 22141 22142 22143 22144 22145 22146 22147 22148 22149 22150 22151 22152 22153 22154 22155 22156 22157 22158 22159 22160 22161 22162 22163 22164 22165 22166 22167 22168 22169 22170 22171 22172 22173 22174 22175 22176 22177 22178 22179 22180 22181 22182 22183 22184 22185 22186 22187 22188 22189 22190 22191 22192 22193 22194 22195 22196 22197 22198 22199 22200 22201 22202 22203 22204 22205 22206 22207 22208 22209 22210 22211 22212 22213 22214 22215 22216 22217 22218 22219 22220 22221 22222 22223 22224 22225 22226 22227 22228 22229 22230 22231 22232 22233 22234 22235 22236 22237 22238 22239 22240 22241 22242 22243 22244 22245 22246 22247 22248 22249 22250 22251 22252 22253 22254 22255 22256 22257 22258 22259 22260 22261 22262 22263 22264 22265 22266 22267 22268 22269 22270 22271 22272 22273 22274 22275 22276 22277 22278 22279 22280 22281 22282 22283 22284 22285 22286 22287 22288 22289 22290 22291 22292 22293 22294 22295 22296 22297 22298 22299 22300 22301 22302 22303 22304 22305 22306 22307 22308 22309 22310 22311 22312 22313 22314 22315 22316 22317 22318 22319 22320 22321 22322 22323 22324 22325 22326 22327 22328 22329 22330 22331 22332 22333 22334 22335 22336 22337 22338 22339 22340 22341 22342 22343 22344 22345 22346 22347 22348 22349 22350 22351 22352 22353 22354 22355 22356 22357 22358 22359 22360 22361 22362 22363 22364 22365 22366 22367 22368 22369 22370 22371 22372 22373 22374 22375 22376 22377 22378 22379 22380 22381 22382 22383 22384 22385 22386 22387 22388 22389 22390 22391 22392 22393 22394 22395 22396 22397 22398 22399 22400 22401 22402 22403 22404 22405 22406 22407 22408 22409 22410 22411 22412 22413 22414 22415 22416 22417 22418 22419 22420 22421 22422 22423 22424 22425 22426 22427 22428 22429 22430 22431 22432 22433 22434 22435 22436 22437 22438 22439 22440 22441 22442 22443 22444 22445 22446 22447 22448 22449 22450 22451 22452 22453 22454 22455 22456 22457 22458 22459 22460 22461 22462 22463 22464 22465 22466 22467 22468 22469 22470 22471 22472 22473 22474 22475 22476 22477 22478 22479 22480 22481 22482 22483 22484 22485 22486 22487 22488 22489 22490 22491 22492 22493 22494 22495 22496 22497 22498 22499 22500 22501 22502 22503 22504 22505 22506 22507 22508 22509 22510 22511 22512 22513 22514 22515 22516 22517 22518 22519 22520 22521 22522 22523 22524 22525 22526 22527 22528 22529 22530 22531 22532 22533 22534 22535 22536 22537 22538 22539 22540 22541 22542 22543 22544 22545 22546 22547 22548 22549 22550 22551 22552 22553 22554 22555 22556 22557 22558 22559 22560 22561 22562 22563 22564 22565 22566 22567 22568 22569 22570 22571 22572 22573 22574 22575 22576 22577 22578 22579 22580 22581 22582 22583 22584 22585 22586 22587 22588 22589 22590 22591 22592 22593 22594 22595 22596 22597 22598 22599 22600 22601 22602 22603 22604 22605 22606 22607 22608 22609 22610 22611 22612 22613 22614 22615 22616 22617 22618 22619 22620 22621 22622 22623 22624 22625 22626 22627 22628 22629 22630 22631 22632 22633 22634 22635 22636 22637 22638 22639 22640 22641 22642 22643 22644 22645 22646 22647 22648 22649 22650 22651 22652 22653 22654 22655 22656 22657 22658 22659 22660 22661 22662 22663 22664 22665 22666 22667 22668 22669 22670 22671 22672 22673 22674 22675 22676 22677 22678 22679 22680 22681 22682 22683 22684 22685 22686 22687 22688 22689 22690 22691 22692 22693 22694 22695 22696 22697 22698 22699 22700 22701 22702 22703 22704 22705 22706 22707 22708 22709 22710 22711 22712 22713 22714 22715 22716 22717 22718 22719 22720 22721 22722 22723 22724 22725 22726 22727 22728 22729 22730 22731 22732 22733 22734 22735 22736 22737 22738 22739 22740 22741 22742 22743 22744 22745 22746 22747 22748 22749 22750 22751 22752 22753 22754 22755 22756 22757 22758 22759 22760 22761 22762 22763 22764 22765 22766 22767 22768 22769 22770 22771 22772 22773 22774 22775 22776 22777 22778 22779 22780 22781 22782 22783 22784 22785 22786 22787 22788 22789 22790 22791 22792 22793 22794 22795 22796 22797 22798 22799 22800 22801 22802 22803 22804 22805 22806 22807 22808 22809 22810 22811 22812 22813 22814 22815 22816 22817 22818 22819 22820 22821 22822 22823 22824 22825 22826 22827 22828 22829 22830 22831 22832 22833 22834 22835 22836 22837 22838 22839 22840 22841 22842 22843 22844 22845 22846 22847 22848 22849 22850 22851 22852 22853 22854 22855 22856 22857 22858 22859 22860 22861 22862 22863 22864 22865 22866 22867 22868 22869 22870 22871 22872 22873 22874 22875 22876 22877 22878 22879 22880 22881 22882 22883 22884 22885 22886 22887 22888 22889 22890 22891 22892 22893 22894 22895 22896 22897 22898 22899 22900 22901 22902 22903 22904 22905 22906 22907 22908 22909 22910 22911 22912 22913 22914 22915 22916 22917 22918 22919 22920 22921 22922 22923 22924 22925 22926 22927 22928 22929 22930 22931 22932 22933 22934 22935 22936 22937 22938 22939 22940 22941 22942 22943 22944 22945 22946 22947 22948 22949 22950 22951 22952 22953 22954 22955 22956 22957 22958 22959 22960 22961 22962 22963 22964 22965 22966 22967 22968 22969 22970 22971 22972 22973 22974 22975 22976 22977 22978 22979 22980 22981 22982 22983 22984 22985 22986 22987 22988 22989 22990 22991 22992 22993 22994 22995 22996 22997 22998 22999 23000 23001 23002 23003 23004 23005 23006 23007 23008 23009 23010 23011 23012 23013 23014 23015 23016 23017 23018 23019 23020 23021 23022 23023 23024 23025 23026 23027 23028 23029 23030 23031 23032 23033 23034 23035 23036 23037 23038 23039 23040 23041 23042 23043 23044 23045 23046 23047 23048 23049 23050 23051 23052 23053 23054 23055 23056 23057 23058 23059 23060 23061 23062 23063 23064 23065 23066 23067 23068 23069 23070 23071 23072 23073 23074 23075 23076 23077 23078 23079 23080 23081 23082 23083 23084 23085 23086 23087 23088 23089 23090 23091 23092 23093 23094 23095 23096 23097 23098 23099 23100 23101 23102 23103 23104 23105 23106 23107 23108 23109 23110 23111 23112 23113 23114 23115 23116 23117 23118 23119 23120 23121 23122 23123 23124 23125 23126 23127 23128 23129 23130 23131 23132 23133 23134 23135 23136 23137 23138 23139 23140 23141 23142 23143 23144 23145 23146 23147 23148 23149 23150 23151 23152 23153 23154 23155 23156 23157 23158 23159 23160 23161 23162 23163 23164 23165 23166 23167 23168 23169 23170 23171 23172 23173 23174 23175 23176 23177 23178 23179 23180 23181 23182 23183 23184 23185 23186 23187 23188 23189 23190 23191 23192 23193 23194 23195 23196 23197 23198 23199 23200 23201 23202 23203 23204 23205 23206 23207 23208 23209 23210 23211 23212 23213 23214 23215 23216 23217 23218 23219 23220 23221 23222 23223 23224 23225 23226 23227 23228 23229 23230 23231 23232 23233 23234 23235 23236 23237 23238 23239 23240 23241 23242 23243 23244 23245 23246 23247 23248 23249 23250 23251 23252 23253 23254 23255 23256 23257 23258 23259 23260 23261 23262 23263 23264 23265 23266 23267 23268 23269 23270 23271 23272 23273 23274 23275 23276 23277 23278 23279 23280 23281 23282 23283 23284 23285 23286 23287 23288 23289 23290 23291 23292 23293 23294 23295 23296 23297 23298 23299 23300 23301 23302 23303 23304 23305 23306 23307 23308 23309 23310 23311 23312 23313 23314 23315 23316 23317 23318 23319 23320 23321 23322 23323 23324 23325 23326 23327 23328 23329 23330 23331 23332 23333 23334 23335 23336 23337 23338 23339 23340 23341 23342 23343 23344 23345 23346 23347 23348 23349 23350 23351 23352 23353 23354 23355 23356 23357 23358 23359 23360 23361 23362 23363 23364 23365 23366 23367 23368 23369 23370 23371 23372 23373 23374 23375 23376 23377 23378 23379 23380 23381 23382 23383 23384 23385 23386 23387 23388 23389 23390 23391 23392 23393 23394 23395 23396 23397 23398 23399 23400 23401 23402 23403 23404 23405 23406 23407 23408 23409 23410 23411 23412 23413 23414 23415 23416 23417 23418 23419 23420 23421 23422 23423 23424 23425 23426 23427 23428 23429 23430 23431 23432 23433 23434 23435 23436 23437 23438 23439 23440 23441 23442 23443 23444 23445 23446 23447 23448 23449 23450 23451 23452 23453 23454 23455 23456 23457 23458 23459 23460 23461 23462 23463 23464 23465 23466 23467 23468 23469 23470 23471 23472 23473 23474 23475 23476 23477 23478 23479 23480 23481 23482 23483 23484 23485 23486 23487 23488 23489 23490 23491 23492 23493 23494 23495 23496 23497 23498 23499 23500 23501 23502 23503 23504 23505 23506 23507 23508 23509 23510 23511 23512 23513 23514 23515 23516 23517 23518 23519 23520 23521 23522 23523 23524 23525 23526 23527 23528 23529 23530 23531 23532 23533 23534 23535 23536 23537 23538 23539 23540 23541 23542 23543 23544 23545 23546 23547 23548 23549 23550 23551 23552 23553 23554 23555 23556 23557 23558 23559 23560 23561 23562 23563 23564 23565 23566 23567 23568 23569 23570 23571 23572 23573 23574 23575 23576 23577 23578 23579 23580 23581 23582 23583 23584 23585 23586 23587 23588 23589 23590 23591 23592 23593 23594 23595 23596 23597 23598 23599 23600 23601 23602 23603 23604 23605 23606 23607 23608 23609 23610 23611 23612 23613 23614 23615 23616 23617 23618 23619 23620 23621 23622 23623 23624 23625 23626 23627 23628 23629 23630 23631 23632 23633 23634 23635 23636 23637 23638 23639 23640 23641 23642 23643 23644 23645 23646 23647 23648 23649 23650 23651 23652 23653 23654 23655 23656 23657 23658 23659 23660 23661 23662 23663 23664 23665 23666 23667 23668 23669 23670 23671 23672 23673 23674 23675 23676 23677 23678 23679 23680 23681 23682 23683 23684 23685 23686 23687 23688 23689 23690 23691 23692 23693 23694 23695 23696 23697 23698 23699 23700 23701 23702 23703 23704 23705 23706 23707 23708 23709 23710 23711 23712 23713 23714 23715 23716 23717 23718 23719 23720 23721 23722 23723 23724 23725 23726 23727 23728 23729 23730 23731 23732 23733 23734 23735 23736 23737 23738 23739 23740 23741 23742 23743 23744 23745 23746 23747 23748 23749 23750 23751 23752 23753 23754 23755 23756 23757 23758 23759 23760 23761 23762 23763 23764 23765 23766 23767 23768 23769 23770 23771 23772 23773 23774 23775 23776 23777 23778 23779 23780 23781 23782 23783 23784 23785 23786 23787 23788 23789 23790 23791 23792 23793 23794 23795 23796 23797 23798 23799 23800 23801 23802 23803 23804 23805 23806 23807 23808 23809 23810 23811 23812 23813 23814 23815 23816 23817 23818 23819 23820 23821 23822 23823 23824 23825 23826 23827 23828 23829 23830 23831 23832 23833 23834 23835 23836 23837 23838 23839 23840 23841 23842 23843 23844 23845 23846 23847 23848 23849 23850 23851 23852 23853 23854 23855 23856 23857 23858 23859 23860 23861 23862 23863 23864 23865 23866 23867 23868 23869 23870 23871 23872 23873 23874 23875 23876 23877 23878 23879 23880 23881 23882 23883 23884 23885 23886 23887 23888 23889 23890 23891 23892 23893 23894 23895 23896 23897 23898 23899 23900 23901 23902 23903 23904 23905 23906 23907 23908 23909 23910 23911 23912 23913 23914 23915 23916 23917 23918 23919 23920 23921 23922 23923 23924 23925 23926 23927 23928 23929 23930 23931 23932 23933 23934 23935 23936 23937 23938 23939 23940 23941 23942 23943 23944 23945 23946 23947 23948 23949 23950 23951 23952 23953 23954 23955 23956 23957 23958 23959 23960 23961 23962 23963 23964 23965 23966 23967 23968 23969 23970 23971 23972 23973 23974 23975 23976 23977 23978 23979 23980 23981 23982 23983 23984 23985 23986 23987 23988 23989 23990 23991 23992 23993 23994 23995 23996 23997 23998 23999 24000 24001 24002 24003 24004 24005 24006 24007 24008 24009 24010 24011 24012 24013 24014 24015 24016 24017 24018 24019 24020 24021 24022 24023 24024 24025 24026 24027 24028 24029 24030 24031 24032 24033 24034 24035 24036 24037 24038 24039 24040 24041 24042 24043 24044 24045 24046 24047 24048 24049 24050 24051 24052 24053 24054 24055 24056 24057 24058 24059 24060 24061 24062 24063 24064 24065 24066 24067 24068 24069 24070 24071 24072 24073 24074 24075 24076 24077 24078 24079 24080 24081 24082 24083 24084 24085 24086 24087 24088 24089 24090 24091 24092 24093 24094 24095 24096 24097 24098 24099 24100 24101 24102 24103 24104 24105 24106 24107 24108 24109 24110 24111 24112 24113 24114 24115 24116 24117 24118 24119 24120 24121 24122 24123 24124 24125 24126 24127 24128 24129 24130 24131 24132 24133 24134 24135 24136 24137 24138 24139 24140 24141 24142 24143 24144 24145 24146 24147 24148 24149 24150 24151 24152 24153 24154 24155 24156 24157 24158 24159 24160 24161 24162 24163 24164 24165 24166 24167 24168 24169 24170 24171 24172 24173 24174 24175 24176 24177 24178 24179 24180 24181 24182 24183 24184 24185 24186 24187 24188 24189 24190 24191 24192 24193 24194 24195 24196 24197 24198 24199 24200 24201 24202 24203 24204 24205 24206 24207 24208 24209 24210 24211 24212 24213 24214 24215 24216 24217 24218 24219 24220 24221 24222 24223 24224 24225 24226 24227 24228 24229 24230 24231 24232 24233 24234 24235 24236 24237 24238 24239 24240 24241 24242 24243 24244 24245 24246 24247 24248 24249 24250 24251 24252 24253 24254 24255 24256 24257 24258 24259 24260 24261 24262 24263 24264 24265 24266 24267 24268 24269 24270 24271 24272 24273 24274 24275 24276 24277 24278 24279 24280 24281 24282 24283 24284 24285 24286 24287 24288 24289 24290 24291 24292 24293 24294 24295 24296 24297 24298 24299 24300 24301 24302 24303 24304 24305 24306 24307 24308 24309 24310 24311 24312 24313 24314 24315 24316 24317 24318 24319 24320 24321 24322 24323 24324 24325 24326 24327 24328 24329 24330 24331 24332 24333 24334 24335 24336 24337 24338 24339 24340 24341 24342 24343 24344 24345 24346 24347 24348 24349 24350 24351 24352 24353 24354 24355 24356 24357 24358 24359 24360 24361 24362 24363 24364 24365 24366 24367 24368 24369 24370 24371 24372 24373 24374 24375 24376 24377 24378 24379 24380 24381 24382 24383 24384 24385 24386 24387 24388 24389 24390 24391 24392 24393 24394 24395 24396 24397 24398 24399 24400 24401 24402 24403 24404 24405 24406 24407 24408 24409 24410 24411 24412 24413 24414 24415 24416 24417 24418 24419 24420 24421 24422 24423 24424 24425 24426 24427 24428 24429 24430 24431 24432 24433 24434 24435 24436 24437 24438 24439 24440 24441 24442 24443 24444 24445 24446 24447 24448 24449 24450 24451 24452 24453 24454 24455 24456 24457 24458 24459 24460 24461 24462 24463 24464 24465 24466 24467 24468 24469 24470 24471 24472 24473 24474 24475 24476 24477 24478 24479 24480 24481 24482 24483 24484 24485 24486 24487 24488 24489 24490 24491 24492 24493 24494 24495 24496 24497 24498 24499 24500 24501 24502 24503 24504 24505 24506 24507 24508 24509 24510 24511 24512 24513 24514 24515 24516 24517 24518 24519 24520 24521 24522 24523 24524 24525 24526 24527 24528 24529 24530 24531 24532 24533 24534 24535 24536 24537 24538 24539 24540 24541 24542 24543 24544 24545 24546 24547 24548 24549 24550 24551 24552 24553 24554 24555 24556 24557 24558 24559 24560 24561 24562 24563 24564 24565 24566 24567 24568 24569 24570 24571 24572 24573 24574 24575 24576 24577 24578 24579 24580 24581 24582 24583 24584 24585 24586 24587 24588 24589 24590 24591 24592 24593 24594 24595 24596 24597 24598 24599 24600 24601 24602 24603 24604 24605 24606 24607 24608 24609 24610 24611 24612 24613 24614 24615 24616 24617 24618 24619 24620 24621 24622 24623 24624 24625 24626 24627 24628 24629 24630 24631 24632 24633 24634 24635 24636 24637 24638 24639 24640 24641 24642 24643 24644 24645 24646 24647 24648 24649 24650 24651 24652 24653 24654 24655 24656 24657 24658 24659 24660 24661 24662 24663 24664 24665 24666 24667 24668 24669 24670 24671 24672 24673 24674 24675 24676 24677 24678 24679 24680 24681 24682 24683 24684 24685 24686 24687 24688 24689 24690 24691 24692 24693 24694 24695 24696 24697 24698 24699 24700 24701 24702 24703 24704 24705 24706 24707 24708 24709 24710 24711 24712 24713 24714 24715 24716 24717 24718 24719 24720 24721 24722 24723 24724 24725 24726 24727 24728 24729 24730 24731 24732 24733 24734 24735 24736 24737 24738 24739 24740 24741 24742 24743 24744 24745 24746 24747 24748 24749 24750 24751 24752 24753 24754 24755 24756 24757 24758 24759 24760 24761 24762 24763 24764 24765 24766 24767 24768 24769 24770 24771 24772 24773 24774 24775 24776 24777 24778 24779 24780 24781 24782 24783 24784 24785 24786 24787 24788 24789 24790 24791 24792 24793 24794 24795 24796 24797 24798 24799 24800 24801 24802 24803 24804 24805 24806 24807 24808 24809 24810 24811 24812 24813 24814 24815 24816 24817 24818 24819 24820 24821 24822 24823 24824 24825 24826 24827 24828 24829 24830 24831 24832 24833 24834 24835 24836 24837 24838 24839 24840 24841 24842 24843 24844 24845 24846 24847 24848 24849 24850 24851 24852 24853 24854 24855 24856 24857 24858 24859 24860 24861 24862 24863 24864 24865 24866 24867 24868 24869 24870 24871 24872 24873 24874 24875 24876 24877 24878 24879 24880 24881 24882 24883 24884 24885 24886 24887 24888 24889 24890 24891 24892 24893 24894 24895 24896 24897 24898 24899 24900 24901 24902 24903 24904 24905 24906 24907 24908 24909 24910 24911 24912 24913 24914 24915 24916 24917 24918 24919 24920 24921 24922 24923 24924 24925 24926 24927 24928 24929 24930 24931 24932 24933 24934 24935 24936 24937 24938 24939 24940 24941 24942 24943 24944 24945 24946 24947 24948 24949 24950 24951 24952 24953 24954 24955 24956 24957 24958 24959 24960 24961 24962 24963 24964 24965 24966 24967 24968 24969 24970 24971 24972 24973 24974 24975 24976 24977 24978 24979 24980 24981 24982 24983 24984 24985 24986 24987 24988 24989 24990 24991 24992 24993 24994 24995 24996 24997 24998 24999 25000 25001 25002 25003 25004 25005 25006 25007 25008 25009 25010 25011 25012 25013 25014 25015 25016 25017 25018 25019 25020 25021 25022 25023 25024 25025 25026 25027 25028 25029 25030 25031 25032 25033 25034 25035 25036 25037 25038 25039 25040 25041 25042 25043 25044 25045 25046 25047 25048 25049 25050 25051 25052 25053 25054 25055 25056 25057 25058 25059 25060 25061 25062 25063 25064 25065 25066 25067 25068 25069 25070 25071 25072 25073 25074 25075 25076 25077 25078 25079 25080 25081 25082 25083 25084 25085 25086 25087 25088 25089 25090 25091 25092 25093 25094 25095 25096 25097 25098 25099 25100 25101 25102 25103 25104 25105 25106 25107 25108 25109 25110 25111 25112 25113 25114 25115 25116 25117 25118 25119 25120 25121 25122 25123 25124 25125 25126 25127 25128 25129 25130 25131 25132 25133 25134 25135 25136 25137 25138 25139 25140 25141 25142 25143 25144 25145 25146 25147 25148 25149 25150 25151 25152 25153 25154 25155 25156 25157 25158 25159 25160 25161 25162 25163 25164 25165 25166 25167 25168 25169 25170 25171 25172 25173 25174 25175 25176 25177 25178 25179 25180 25181 25182 25183 25184 25185 25186 25187 25188 25189 25190 25191 25192 25193 25194 25195 25196 25197 25198 25199 25200 25201 25202 25203 25204 25205 25206 25207 25208 25209 25210 25211 25212 25213 25214 25215 25216 25217 25218 25219 25220 25221 25222 25223 25224 25225 25226 25227 25228 25229 25230 25231 25232 25233 25234 25235 25236 25237 25238 25239 25240 25241 25242 25243 25244 25245 25246 25247 25248 25249 25250 25251 25252 25253 25254 25255 25256 25257 25258 25259 25260 25261 25262 25263 25264 25265 25266 25267 25268 25269 25270 25271 25272 25273 25274 25275 25276 25277 25278 25279 25280 25281 25282 25283 25284 25285 25286 25287 25288 25289 25290 25291 25292 25293 25294 25295 25296 25297 25298 25299 25300 25301 25302 25303 25304 25305 25306 25307 25308 25309 25310 25311 25312 25313 25314 25315 25316 25317 25318 25319 25320 25321 25322 25323 25324 25325 25326 25327 25328 25329 25330 25331 25332 25333 25334 25335 25336 25337 25338 25339 25340 25341 25342 25343 25344 25345 25346 25347 25348 25349 25350 25351 25352 25353 25354 25355 25356 25357 25358 25359 25360 25361 25362 25363 25364 25365 25366 25367 25368 25369 25370 25371 25372 25373 25374 25375 25376 25377 25378 25379 25380 25381 25382 25383 25384 25385 25386 25387 25388 25389 25390 25391 25392 25393 25394 25395 25396 25397 25398 25399 25400 25401 25402 25403 25404 25405 25406 25407 25408 25409 25410 25411 25412 25413 25414 25415 25416 25417 25418 25419 25420 25421 25422 25423 25424 25425 25426 25427 25428 25429 25430 25431 25432 25433 25434 25435 25436 25437 25438 25439 25440 25441 25442 25443 25444 25445 25446 25447 25448 25449 25450 25451 25452 25453 25454 25455 25456 25457 25458 25459 25460 25461 25462 25463 25464 25465 25466 25467 25468 25469 25470 25471 25472 25473 25474 25475 25476 25477 25478 25479 25480 25481 25482 25483 25484 25485 25486 25487 25488 25489 25490 25491 25492 25493 25494 25495 25496 25497 25498 25499 25500 25501 25502 25503 25504 25505 25506 25507 25508 25509 25510 25511 25512 25513 25514 25515 25516 25517 25518 25519 25520 25521 25522 25523 25524 25525 25526 25527 25528 25529 25530 25531 25532 25533 25534 25535 25536 25537 25538 25539 25540 25541 25542 25543 25544 25545 25546 25547 25548 25549 25550 25551 25552 25553 25554 25555 25556 25557 25558 25559 25560 25561 25562 25563 25564 25565 25566 25567 25568 25569 25570 25571 25572 25573 25574 25575 25576 25577 25578 25579 25580 25581 25582 25583 25584 25585 25586 25587 25588 25589 25590 25591 25592 25593 25594 25595 25596 25597 25598 25599 25600 25601 25602 25603 25604 25605 25606 25607 25608 25609 25610 25611 25612 25613 25614 25615 25616 25617 25618 25619 25620 25621 25622 25623 25624 25625 25626 25627 25628 25629 25630 25631 25632 25633 25634 25635 25636 25637 25638 25639 25640 25641 25642 25643 25644 25645 25646 25647 25648 25649 25650 25651 25652 25653 25654 25655 25656 25657 25658 25659 25660 25661 25662 25663 25664 25665 25666 25667 25668 25669 25670 25671 25672 25673 25674 25675 25676 25677 25678 25679 25680 25681 25682 25683 25684 25685 25686 25687 25688 25689 25690 25691 25692 25693 25694 25695 25696 25697 25698 25699 25700 25701 25702 25703 25704 25705 25706 25707 25708 25709 25710 25711 25712 25713 25714 25715 25716 25717 25718 25719 25720 25721 25722 25723 25724 25725 25726 25727 25728 25729 25730 25731 25732 25733 25734 25735 25736 25737 25738 25739 25740 25741 25742 25743 25744 25745 25746 25747 25748 25749 25750 25751 25752 25753 25754 25755 25756 25757 25758 25759 25760 25761 25762 25763 25764 25765 25766 25767 25768 25769 25770 25771 25772 25773 25774 25775 25776 25777 25778 25779 25780 25781 25782 25783 25784 25785 25786 25787 25788 25789 25790 25791 25792 25793 25794 25795 25796 25797 25798 25799 25800 25801 25802 25803 25804 25805 25806 25807 25808 25809 25810 25811 25812 25813 25814 25815 25816 25817 25818 25819 25820 25821 25822 25823 25824 25825 25826 25827 25828 25829 25830 25831 25832 25833 25834 25835 25836 25837 25838 25839 25840 25841 25842 25843 25844 25845 25846 25847 25848 25849 25850 25851 25852 25853 25854 25855 25856 25857 25858 25859 25860 25861 25862 25863 25864 25865 25866 25867 25868 25869 25870 25871 25872 25873 25874 25875 25876 25877 25878 25879 25880 25881 25882 25883 25884 25885 25886 25887 25888 25889 25890 25891 25892 25893 25894 25895 25896 25897 25898 25899 25900 25901 25902 25903 25904 25905 25906 25907 25908 25909 25910 25911 25912 25913 25914 25915 25916 25917 25918 25919 25920 25921 25922 25923 25924 25925 25926 25927 25928 25929 25930 25931 25932 25933 25934 25935 25936 25937 25938 25939 25940 25941 25942 25943 25944 25945 25946 25947 25948 25949 25950 25951 25952 25953 25954 25955 25956 25957 25958 25959 25960 25961 25962 25963 25964 25965 25966 25967 25968 25969 25970 25971 25972 25973 25974 25975 25976 25977 25978 25979 25980 25981 25982 25983 25984 25985 25986 25987 25988 25989 25990 25991 25992 25993 25994 25995 25996 25997 25998 25999 26000 26001 26002 26003 26004 26005 26006 26007 26008 26009 26010 26011 26012 26013 26014 26015 26016 26017 26018 26019 26020 26021 26022 26023 26024 26025 26026 26027 26028 26029 26030 26031 26032 26033 26034 26035 26036 26037 26038 26039 26040 26041 26042 26043 26044 26045 26046 26047 26048 26049 26050 26051 26052 26053 26054 26055 26056 26057 26058 26059 26060 26061 26062 26063 26064 26065 26066 26067 26068 26069 26070 26071 26072 26073 26074 26075 26076 26077 26078 26079 26080 26081 26082 26083 26084 26085 26086 26087 26088 26089 26090 26091 26092 26093 26094 26095 26096 26097 26098 26099 26100 26101 26102 26103 26104 26105 26106 26107 26108 26109 26110 26111 26112 26113 26114 26115 26116 26117 26118 26119 26120 26121 26122 26123 26124 26125 26126 26127 26128 26129 26130 26131 26132 26133 26134 26135 26136 26137 26138 26139 26140 26141 26142 26143 26144 26145 26146 26147 26148 26149 26150 26151 26152 26153 26154 26155 26156 26157 26158 26159 26160 26161 26162 26163 26164 26165 26166 26167 26168 26169 26170 26171 26172 26173 26174 26175 26176 26177 26178 26179 26180 26181 26182 26183 26184 26185 26186 26187 26188 26189 26190 26191 26192 26193 26194 26195 26196 26197 26198 26199 26200 26201 26202 26203 26204 26205 26206 26207 26208 26209 26210 26211 26212 26213 26214 26215 26216 26217 26218 26219 26220 26221 26222 26223 26224 26225 26226 26227 26228 26229 26230 26231 26232 26233 26234 26235 26236 26237 26238 26239 26240 26241 26242 26243 26244 26245 26246 26247 26248 26249 26250 26251 26252 26253 26254 26255 26256 26257 26258 26259 26260 26261 26262 26263 26264 26265 26266 26267 26268 26269 26270 26271 26272 26273 26274 26275 26276 26277 26278 26279 26280 26281 26282 26283 26284 26285 26286 26287 26288 26289 26290 26291 26292 26293 26294 26295 26296 26297 26298 26299 26300 26301 26302 26303 26304 26305 26306 26307 26308 26309 26310 26311 26312 26313 26314 26315 26316 26317 26318 26319 26320 26321 26322 26323 26324 26325 26326 26327 26328 26329 26330 26331 26332 26333 26334 26335 26336 26337 26338 26339 26340 26341 26342 26343 26344 26345 26346 26347 26348 26349 26350 26351 26352 26353 26354 26355 26356 26357 26358 26359 26360 26361 26362 26363 26364 26365 26366 26367 26368 26369 26370 26371 26372 26373 26374 26375 26376 26377 26378 26379 26380 26381 26382 26383 26384 26385 26386 26387 26388 26389 26390 26391 26392 26393 26394 26395 26396 26397 26398 26399 26400 26401 26402 26403 26404 26405 26406 26407 26408 26409 26410 26411 26412 26413 26414 26415 26416 26417 26418 26419 26420 26421 26422 26423 26424 26425 26426 26427 26428 26429 26430 26431 26432 26433 26434 26435 26436 26437 26438 26439 26440 26441 26442 26443 26444 26445 26446 26447 26448 26449 26450 26451 26452 26453 26454 26455 26456 26457 26458 26459 26460 26461 26462 26463 26464 26465 26466 26467 26468 26469 26470 26471 26472 26473 26474 26475 26476 26477 26478 26479 26480 26481 26482 26483 26484 26485 26486 26487 26488 26489 26490 26491 26492 26493 26494 26495 26496 26497 26498 26499 26500 26501 26502 26503 26504 26505 26506 26507 26508 26509 26510 26511 26512 26513 26514 26515 26516 26517 26518 26519 26520 26521 26522 26523 26524 26525 26526 26527 26528 26529 26530 26531 26532 26533 26534 26535 26536 26537 26538 26539 26540 26541 26542 26543 26544 26545 26546 26547 26548 26549 26550 26551 26552 26553 26554 26555 26556 26557 26558 26559 26560 26561 26562 26563 26564 26565 26566 26567 26568 26569 26570 26571 26572 26573 26574 26575 26576 26577 26578 26579 26580 26581 26582 26583 26584 26585 26586 26587 26588 26589 26590 26591 26592 26593 26594 26595 26596 26597 26598 26599 26600 26601 26602 26603 26604 26605 26606 26607 26608 26609 26610 26611 26612 26613 26614 26615 26616 26617 26618 26619 26620 26621 26622 26623 26624 26625 26626 26627 26628 26629 26630 26631 26632 26633 26634 26635 26636 26637 26638 26639 26640 26641 26642 26643 26644 26645 26646 26647 26648 26649 26650 26651 26652 26653 26654 26655 26656 26657 26658 26659 26660 26661 26662 26663 26664 26665 26666 26667 26668 26669 26670 26671 26672 26673 26674 26675 26676 26677 26678 26679 26680 26681 26682 26683 26684 26685 26686 26687 26688 26689 26690 26691 26692 26693 26694 26695 26696 26697 26698 26699 26700 26701 26702 26703 26704 26705 26706 26707 26708 26709 26710 26711 26712 26713 26714 26715 26716 26717 26718 26719 26720 26721 26722 26723 26724 26725 26726 26727 26728 26729 26730 26731 26732 26733 26734 26735 26736 26737 26738 26739 26740 26741 26742 26743 26744 26745 26746 26747 26748 26749 26750 26751 26752 26753 26754 26755 26756 26757 26758 26759 26760 26761 26762 26763 26764 26765 26766 26767 26768 26769 26770 26771 26772 26773 26774 26775 26776 26777 26778 26779 26780 26781 26782 26783 26784 26785 26786 26787 26788 26789 26790 26791 26792 26793 26794 26795 26796 26797 26798 26799 26800 26801 26802 26803 26804 26805 26806 26807 26808 26809 26810 26811 26812 26813 26814 26815 26816 26817 26818 26819 26820 26821 26822 26823 26824 26825 26826 26827 26828 26829 26830 26831 26832 26833 26834 26835 26836 26837 26838 26839 26840 26841 26842 26843 26844 26845 26846 26847 26848 26849 26850 26851 26852 26853 26854 26855 26856 26857 26858 26859 26860 26861 26862 26863 26864 26865 26866 26867 26868 26869 26870 26871 26872 26873 26874 26875 26876 26877 26878 26879 26880 26881 26882 26883 26884 26885 26886 26887 26888 26889 26890 26891 26892 26893 26894 26895 26896 26897 26898 26899 26900 26901 26902 26903 26904 26905 26906 26907 26908 26909 26910 26911 26912 26913 26914 26915 26916 26917 26918 26919 26920 26921 26922 26923 26924 26925 26926 26927 26928 26929 26930 26931 26932 26933 26934 26935 26936 26937 26938 26939 26940 26941 26942 26943 26944 26945 26946 26947 26948 26949 26950 26951 26952 26953 26954 26955 26956 26957 26958 26959 26960 26961 26962 26963 26964 26965 26966 26967 26968 26969 26970 26971 26972 26973 26974 26975 26976 26977 26978 26979 26980 26981 26982 26983 26984 26985 26986 26987 26988 26989 26990 26991 26992 26993 26994 26995 26996 26997 26998 26999 27000 27001 27002 27003 27004 27005 27006 27007 27008 27009 27010 27011 27012 27013 27014 27015 27016 27017 27018 27019 27020 27021 27022 27023 27024 27025 27026 27027 27028 27029 27030 27031 27032 27033 27034 27035 27036 27037 27038 27039 27040 27041 27042 27043 27044 27045 27046 27047 27048 27049 27050 27051 27052 27053 27054 27055 27056 27057 27058 27059 27060 27061 27062 27063 27064 27065 27066 27067 27068 27069 27070 27071 27072 27073 27074 27075 27076 27077 27078 27079 27080 27081 27082 27083 27084 27085 27086 27087 27088 27089 27090 27091 27092 27093 27094 27095 27096 27097 27098 27099 27100 27101 27102 27103 27104 27105 27106 27107 27108 27109 27110 27111 27112 27113 27114 27115 27116 27117 27118 27119 27120 27121 27122 27123 27124 27125 27126 27127 27128 27129 27130 27131 27132 27133 27134 27135 27136 27137 27138 27139 27140 27141 27142 27143 27144 27145 27146 27147 27148 27149 27150 27151 27152 27153 27154 27155 27156 27157 27158 27159 27160 27161 27162 27163 27164 27165 27166 27167 27168 27169 27170 27171 27172 27173 27174 27175 27176 27177 27178 27179 27180 27181 27182 27183 27184 27185 27186 27187 27188 27189 27190 27191 27192 27193 27194 27195 27196 27197 27198 27199 27200 27201 27202 27203 27204 27205 27206 27207 27208 27209 27210 27211 27212 27213 27214 27215 27216 27217 27218 27219 27220 27221 27222 27223 27224 27225 27226 27227 27228 27229 27230 27231 27232 27233 27234 27235 27236 27237 27238 27239 27240 27241 27242 27243 27244 27245 27246 27247 27248 27249 27250 27251 27252 27253 27254 27255 27256 27257 27258 27259 27260 27261 27262 27263 27264 27265 27266 27267 27268 27269 27270 27271 27272 27273 27274 27275 27276 27277 27278 27279 27280 27281 27282 27283 27284 27285 27286 27287 27288 27289 27290 27291 27292 27293 27294 27295 27296 27297 27298 27299 27300 27301 27302 27303 27304 27305 27306 27307 27308 27309 27310 27311 27312 27313 27314 27315 27316 27317 27318 27319 27320 27321 27322 27323 27324 27325 27326 27327 27328 27329 27330 27331 27332 27333 27334 27335 27336 27337 27338 27339 27340 27341 27342 27343 27344 27345 27346 27347 27348 27349 27350 27351 27352 27353 27354 27355 27356 27357 27358 27359 27360 27361 27362 27363 27364 27365 27366 27367 27368 27369 27370 27371 27372 27373 27374 27375 27376 27377 27378 27379 27380 27381 27382 27383 27384 27385 27386 27387 27388 27389 27390 27391 27392 27393 27394 27395 27396 27397 27398 27399 27400 27401 27402 27403 27404 27405 27406 27407 27408 27409 27410 27411 27412 27413 27414 27415 27416 27417 27418 27419 27420 27421 27422 27423 27424 27425 27426 27427 27428 27429 27430 27431 27432 27433 27434 27435 27436 27437 27438 27439 27440 27441 27442 27443 27444 27445 27446 27447 27448 27449 27450 27451 27452 27453 27454 27455 27456 27457 27458 27459 27460 27461 27462 27463 27464 27465 27466 27467 27468 27469 27470 27471 27472 27473 27474 27475 27476 27477 27478 27479 27480 27481 27482 27483 27484 27485 27486 27487 27488 27489 27490 27491 27492 27493 27494 27495 27496 27497 27498 27499 27500 27501 27502 27503 27504 27505 27506 27507 27508 27509 27510 27511 27512 27513 27514 27515 27516 27517 27518 27519 27520 27521 27522 27523 27524 27525 27526 27527 27528 27529 27530 27531 27532 27533 27534 27535 27536 27537 27538 27539 27540 27541 27542 27543 27544 27545 27546 27547 27548 27549 27550 27551 27552 27553 27554 27555 27556 27557 27558 27559 27560 27561 27562 27563 27564 27565 27566 27567 27568 27569 27570 27571 27572 27573 27574 27575 27576 27577 27578 27579 27580 27581 27582 27583 27584 27585 27586 27587 27588 27589 27590 27591 27592 27593 27594 27595 27596 27597 27598 27599 27600 27601 27602 27603 27604 27605 27606 27607 27608 27609 27610 27611 27612 27613 27614 27615 27616 27617 27618 27619 27620 27621 27622 27623 27624 27625 27626 27627 27628 27629 27630 27631 27632 27633 27634 27635 27636 27637 27638 27639 27640 27641 27642 27643 27644 27645 27646 27647 27648 27649 27650 27651 27652 27653 27654 27655 27656 27657 27658 27659 27660 27661 27662 27663 27664 27665 27666 27667 27668 27669 27670 27671 27672 27673 27674 27675 27676 27677 27678 27679 27680 27681 27682 27683 27684 27685 27686 27687 27688 27689 27690 27691 27692 27693 27694 27695 27696 27697 27698 27699 27700 27701 27702 27703 27704 27705 27706 27707 27708 27709 27710 27711 27712 27713 27714 27715 27716 27717 27718 27719 27720 27721 27722 27723 27724 27725 27726 27727 27728 27729 27730 27731 27732 27733 27734 27735 27736 27737 27738 27739 27740 27741 27742 27743 27744 27745 27746 27747 27748 27749 27750 27751 27752 27753 27754 27755 27756 27757 27758 27759 27760 27761 27762 27763 27764 27765 27766 27767 27768 27769 27770 27771 27772 27773 27774 27775 27776 27777 27778 27779 27780 27781 27782 27783 27784 27785 27786 27787 27788 27789 27790 27791 27792 27793 27794 27795 27796 27797 27798 27799 27800 27801 27802 27803 27804 27805 27806 27807 27808 27809 27810 27811 27812 27813 27814 27815 27816 27817 27818 27819 27820 27821 27822 27823 27824 27825 27826 27827 27828 27829 27830 27831 27832 27833 27834 27835 27836 27837 27838 27839 27840 27841 27842 27843 27844 27845 27846 27847 27848 27849 27850 27851 27852 27853 27854 27855 27856 27857 27858 27859 27860 27861 27862 27863 27864 27865 27866 27867 27868 27869 27870 27871 27872 27873 27874 27875 27876 27877 27878 27879 27880 27881 27882 27883 27884 27885 27886 27887 27888 27889 27890 27891 27892 27893 27894 27895 27896 27897 27898 27899 27900 27901 27902 27903 27904 27905 27906 27907 27908 27909 27910 27911 27912 27913 27914 27915 27916 27917 27918 27919 27920 27921 27922 27923 27924 27925 27926 27927 27928 27929 27930 27931 27932 27933 27934 27935 27936 27937 27938 27939 27940 27941 27942 27943 27944 27945 27946 27947 27948 27949 27950 27951 27952 27953 27954 27955 27956 27957 27958 27959 27960 27961 27962 27963 27964 27965 27966 27967 27968 27969 27970 27971 27972 27973 27974 27975 27976 27977 27978 27979 27980 27981 27982 27983 27984 27985 27986 27987 27988 27989 27990 27991 27992 27993 27994 27995 27996 27997 27998 27999 28000 28001 28002 28003 28004 28005 28006 28007 28008 28009 28010 28011 28012 28013 28014 28015 28016 28017 28018 28019 28020 28021 28022 28023 28024 28025 28026 28027 28028 28029 28030 28031 28032 28033 28034 28035 28036 28037 28038 28039 28040 28041 28042 28043 28044 28045 28046 28047 28048 28049 28050 28051 28052 28053 28054 28055 28056 28057 28058 28059 28060 28061 28062 28063 28064 28065 28066 28067 28068 28069 28070 28071 28072 28073 28074 28075 28076 28077 28078 28079 28080 28081 28082 28083 28084 28085 28086 28087 28088 28089 28090 28091 28092 28093 28094 28095 28096 28097 28098 28099 28100 28101 28102 28103 28104 28105 28106 28107 28108 28109 28110 28111 28112 28113 28114 28115 28116 28117 28118 28119 28120 28121 28122 28123 28124 28125 28126 28127 28128 28129 28130 28131 28132 28133 28134 28135 28136 28137 28138 28139 28140 28141 28142 28143 28144 28145 28146 28147 28148 28149 28150 28151 28152 28153 28154 28155 28156 28157 28158 28159 28160 28161 28162 28163 28164 28165 28166 28167 28168 28169 28170 28171 28172 28173 28174 28175 28176 28177 28178 28179 28180 28181 28182 28183 28184 28185 28186 28187 28188 28189 28190 28191 28192 28193 28194 28195 28196 28197 28198 28199 28200 28201 28202 28203 28204 28205 28206 28207 28208 28209 28210 28211 28212 28213 28214 28215 28216 28217 28218 28219 28220 28221 28222 28223 28224 28225 28226 28227 28228 28229 28230 28231 28232 28233 28234 28235 28236 28237 28238 28239 28240 28241 28242 28243 28244 28245 28246 28247 28248 28249 28250 28251 28252 28253 28254 28255 28256 28257 28258 28259 28260 28261 28262 28263 28264 28265 28266 28267 28268 28269 28270 28271 28272 28273 28274 28275 28276 28277 28278 28279 28280 28281 28282 28283 28284 28285 28286 28287 28288 28289 28290 28291 28292 28293 28294 28295 28296 28297 28298 28299 28300 28301 28302 28303 28304 28305 28306 28307 28308 28309 28310 28311 28312 28313 28314 28315 28316 28317 28318 28319 28320 28321 28322 28323 28324 28325 28326 28327 28328 28329 28330 28331 28332 28333 28334 28335 28336 28337 28338 28339 28340 28341 28342 28343 28344 28345 28346 28347 28348 28349 28350 28351 28352 28353 28354 28355 28356 28357 28358 28359 28360 28361 28362 28363 28364 28365 28366 28367 28368 28369 28370 28371 28372 28373 28374 28375 28376 28377 28378 28379 28380 28381 28382 28383 28384 28385 28386 28387 28388 28389 28390 28391 28392 28393 28394 28395 28396 28397 28398 28399 28400 28401 28402 28403 28404 28405 28406 28407 28408 28409 28410 28411 28412 28413 28414 28415 28416 28417 28418 28419 28420 28421 28422 28423 28424 28425 28426 28427 28428 28429 28430 28431 28432 28433 28434 28435 28436 28437 28438 28439 28440 28441 28442 28443 28444 28445 28446 28447 28448 28449 28450 28451 28452 28453 28454 28455 28456 28457 28458 28459 28460 28461 28462 28463 28464 28465 28466 28467 28468 28469 28470 28471 28472 28473 28474 28475 28476 28477 28478 28479 28480 28481 28482 28483 28484 28485 28486 28487 28488 28489 28490 28491 28492 28493 28494 28495 28496 28497 28498 28499 28500 28501 28502 28503 28504 28505 28506 28507 28508 28509 28510 28511 28512 28513 28514 28515 28516 28517 28518 28519 28520 28521 28522 28523 28524 28525 28526 28527 28528 28529 28530 28531 28532 28533 28534 28535 28536 28537 28538 28539 28540 28541 28542 28543 28544 28545 28546 28547 28548 28549 28550 28551 28552 28553 28554 28555 28556 28557 28558 28559 28560 28561 28562 28563 28564 28565 28566 28567 28568 28569 28570 28571 28572 28573 28574 28575 28576 28577 28578 28579 28580 28581 28582 28583 28584 28585 28586 28587 28588 28589 28590 28591 28592 28593 28594 28595 28596 28597 28598 28599 28600 28601 28602 28603 28604 28605 28606 28607 28608 28609 28610 28611 28612 28613 28614 28615 28616 28617 28618 28619 28620 28621 28622 28623 28624 28625 28626 28627 28628 28629 28630 28631 28632 28633 28634 28635 28636 28637 28638 28639 28640 28641 28642 28643 28644 28645 28646 28647 28648 28649 28650 28651 28652 28653 28654 28655 28656 28657 28658 28659 28660 28661 28662 28663 28664 28665 28666 28667 28668 28669 28670 28671 28672 28673 28674 28675 28676 28677 28678 28679 28680 28681 28682 28683 28684 28685 28686 28687 28688 28689 28690 28691 28692 28693 28694 28695 28696 28697 28698 28699 28700 28701 28702 28703 28704 28705 28706 28707 28708 28709 28710 28711 28712 28713 28714 28715 28716 28717 28718 28719 28720 28721 28722 28723 28724 28725 28726 28727 28728 28729 28730 28731 28732 28733 28734 28735 28736 28737 28738 28739 28740 28741 28742 28743 28744 28745 28746 28747 28748 28749 28750 28751 28752 28753 28754 28755 28756 28757 28758 28759 28760 28761 28762 28763 28764 28765 28766 28767 28768 28769 28770 28771 28772 28773 28774 28775 28776 28777 28778 28779 28780 28781 28782 28783 28784 28785 28786 28787 28788 28789 28790 28791 28792 28793 28794 28795 28796 28797 28798 28799 28800 28801 28802 28803 28804 28805 28806 28807 28808 28809 28810 28811 28812 28813 28814 28815 28816 28817 28818 28819 28820 28821 28822 28823 28824 28825 28826 28827 28828 28829 28830 28831 28832 28833 28834 28835 28836 28837 28838 28839 28840 28841 28842 28843 28844 28845 28846 28847 28848 28849 28850 28851 28852 28853 28854 28855 28856 28857 28858 28859 28860 28861 28862 28863 28864 28865 28866 28867 28868 28869 28870 28871 28872 28873 28874 28875 28876 28877 28878 28879 28880 28881 28882 28883 28884 28885 28886 28887 28888 28889 28890 28891 28892 28893 28894 28895 28896 28897 28898 28899 28900 28901 28902 28903 28904 28905 28906 28907 28908 28909 28910 28911 28912 28913 28914 28915 28916 28917 28918 28919 28920 28921 28922 28923 28924 28925 28926 28927 28928 28929 28930 28931 28932 28933 28934 28935 28936 28937 28938 28939 28940 28941 28942 28943 28944 28945 28946 28947 28948 28949 28950 28951 28952 28953 28954 28955 28956 28957 28958 28959 28960 28961 28962 28963 28964 28965 28966 28967 28968 28969 28970 28971 28972 28973 28974 28975 28976 28977 28978 28979 28980 28981 28982 28983 28984 28985 28986 28987 28988 28989 28990 28991 28992 28993 28994 28995 28996 28997 28998 28999 29000 29001 29002 29003 29004 29005 29006 29007 29008 29009 29010 29011 29012 29013 29014 29015 29016 29017 29018 29019 29020 29021 29022 29023 29024 29025 29026 29027 29028 29029 29030 29031 29032 29033 29034 29035 29036 29037 29038 29039 29040 29041 29042 29043 29044 29045 29046 29047 29048 29049 29050 29051 29052 29053 29054 29055 29056 29057 29058 29059 29060 29061 29062 29063 29064 29065 29066 29067 29068 29069 29070 29071 29072 29073 29074 29075 29076 29077 29078 29079 29080 29081 29082 29083 29084 29085 29086 29087 29088 29089 29090 29091 29092 29093 29094 29095 29096 29097 29098 29099 29100 29101 29102 29103 29104 29105 29106 29107 29108 29109 29110 29111 29112 29113 29114 29115 29116 29117 29118 29119 29120 29121 29122 29123 29124 29125 29126 29127 29128 29129 29130 29131 29132 29133 29134 29135 29136 29137 29138 29139 29140 29141 29142 29143 29144 29145 29146 29147 29148 29149 29150 29151 29152 29153 29154 29155 29156 29157 29158 29159 29160 29161 29162 29163 29164 29165 29166 29167 29168 29169 29170 29171 29172 29173 29174 29175 29176 29177 29178 29179 29180 29181 29182 29183 29184 29185 29186 29187 29188 29189 29190 29191 29192 29193 29194 29195 29196 29197 29198 29199 29200 29201 29202 29203 29204 29205 29206 29207 29208 29209 29210 29211 29212 29213 29214 29215 29216 29217 29218 29219 29220 29221 29222 29223 29224 29225 29226 29227 29228 29229 29230 29231 29232 29233 29234 29235 29236 29237 29238 29239 29240 29241 29242 29243 29244 29245 29246 29247 29248 29249 29250 29251 29252 29253 29254 29255 29256 29257 29258 29259 29260 29261 29262 29263 29264 29265 29266 29267 29268 29269 29270 29271 29272 29273 29274 29275 29276 29277 29278 29279 29280 29281 29282 29283 29284 29285 29286 29287 29288 29289 29290 29291 29292 29293 29294 29295 29296 29297 29298 29299 29300 29301 29302 29303 29304 29305 29306 29307 29308 29309 29310 29311 29312 29313 29314 29315 29316 29317 29318 29319 29320 29321 29322 29323 29324 29325 29326 29327 29328 29329 29330 29331 29332 29333 29334 29335 29336 29337 29338 29339 29340 29341 29342 29343 29344 29345 29346 29347 29348 29349 29350 29351 29352 29353 29354 29355 29356 29357 29358 29359 29360 29361 29362 29363 29364 29365 29366 29367 29368 29369 29370 29371 29372 29373 29374 29375 29376 29377 29378 29379 29380 29381 29382 29383 29384 29385 29386 29387 29388 29389 29390 29391 29392 29393 29394 29395 29396 29397 29398 29399 29400 29401 29402 29403 29404 29405 29406 29407 29408 29409 29410 29411 29412 29413 29414 29415 29416 29417 29418 29419 29420 29421 29422 29423 29424 29425 29426 29427 29428 29429 29430 29431 29432 29433 29434 29435 29436 29437 29438 29439 29440 29441 29442 29443 29444 29445 29446 29447 29448 29449 29450 29451 29452 29453 29454 29455 29456 29457 29458 29459 29460 29461 29462 29463 29464 29465 29466 29467 29468 29469 29470 29471 29472 29473 29474 29475 29476 29477 29478 29479 29480 29481 29482 29483 29484 29485 29486 29487 29488 29489 29490 29491 29492 29493 29494 29495 29496 29497 29498 29499 29500 29501 29502 29503 29504 29505 29506 29507 29508 29509 29510 29511 29512 29513 29514 29515 29516 29517 29518 29519 29520 29521 29522 29523 29524 29525 29526 29527 29528 29529 29530 29531 29532 29533 29534 29535 29536 29537 29538 29539 29540 29541 29542 29543 29544 29545 29546 29547 29548 29549 29550 29551 29552 29553 29554 29555 29556 29557 29558 29559 29560 29561 29562 29563 29564 29565 29566 29567 29568 29569 29570 29571 29572 29573 29574 29575 29576 29577 29578 29579 29580 29581 29582 29583 29584 29585 29586 29587 29588 29589 29590 29591 29592 29593 29594 29595 29596 29597 29598 29599 29600 29601 29602 29603 29604 29605 29606 29607 29608 29609 29610 29611 29612 29613 29614 29615 29616 29617 29618 29619 29620 29621 29622 29623 29624 29625 29626 29627 29628 29629 29630 29631 29632 29633 29634 29635 29636 29637 29638 29639 29640 29641 29642 29643 29644 29645 29646 29647 29648 29649 29650 29651 29652 29653 29654 29655 29656 29657 29658 29659 29660 29661 29662 29663 29664 29665 29666 29667 29668 29669 29670 29671 29672 29673 29674 29675 29676 29677 29678 29679 29680 29681 29682 29683 29684 29685 29686 29687 29688 29689 29690 29691 29692 29693 29694 29695 29696 29697 29698 29699 29700 29701 29702 29703 29704 29705 29706 29707 29708 29709 29710 29711 29712 29713 29714 29715 29716 29717 29718 29719 29720 29721 29722 29723 29724 29725 29726 29727 29728 29729 29730 29731 29732 29733 29734 29735 29736 29737 29738 29739 29740 29741 29742 29743 29744 29745 29746 29747 29748 29749 29750 29751 29752 29753 29754 29755 29756 29757 29758 29759 29760 29761 29762 29763 29764 29765 29766 29767 29768 29769 29770 29771 29772 29773 29774 29775 29776 29777 29778 29779 29780 29781 29782 29783 29784 29785 29786 29787 29788 29789 29790 29791 29792 29793 29794 29795 29796 29797 29798 29799 29800 29801 29802 29803 29804 29805 29806 29807 29808 29809 29810 29811 29812 29813 29814 29815 29816 29817 29818 29819 29820 29821 29822 29823 29824 29825 29826 29827 29828 29829 29830 29831 29832 29833 29834 29835 29836 29837 29838 29839 29840 29841 29842 29843 29844 29845 29846 29847 29848 29849 29850 29851 29852 29853 29854 29855 29856 29857 29858 29859 29860 29861 29862 29863 29864 29865 29866 29867 29868 29869 29870 29871 29872 29873 29874 29875 29876 29877 29878 29879 29880 29881 29882 29883 29884 29885 29886 29887 29888 29889 29890 29891 29892 29893 29894 29895 29896 29897 29898 29899 29900 29901 29902 29903 29904 29905 29906 29907 29908 29909 29910 29911 29912 29913 29914 29915 29916 29917 29918 29919 29920 29921 29922 29923 29924 29925 29926 29927 29928 29929 29930 29931 29932 29933 29934 29935 29936 29937 29938 29939 29940 29941 29942 29943 29944 29945 29946 29947 29948 29949 29950 29951 29952 29953 29954 29955 29956 29957 29958 29959 29960 29961 29962 29963 29964 29965 29966 29967 29968 29969 29970 29971 29972 29973 29974 29975 29976 29977 29978 29979 29980 29981 29982 29983 29984 29985 29986 29987 29988 29989 29990 29991 29992 29993 29994 29995 29996 29997 29998 29999 30000 30001 30002 30003 30004 30005 30006 30007 30008 30009 30010 30011 30012 30013 30014 30015 30016 30017 30018 30019 30020 30021 30022 30023 30024 30025 30026 30027 30028 30029 30030 30031 30032 30033 30034 30035 30036 30037 30038 30039 30040 30041 30042 30043 30044 30045 30046 30047 30048 30049 30050 30051 30052 30053 30054 30055 30056 30057 30058 30059 30060 30061 30062 30063 30064 30065 30066 30067 30068 30069 30070 30071 30072 30073 30074 30075 30076 30077 30078 30079 30080 30081 30082 30083 30084 30085 30086 30087 30088 30089 30090 30091 30092 30093 30094 30095 30096 30097 30098 30099 30100 30101 30102 30103 30104 30105 30106 30107 30108 30109 30110 30111 30112 30113 30114 30115 30116 30117 30118 30119 30120 30121 30122 30123 30124 30125 30126 30127 30128 30129 30130 30131 30132 30133 30134 30135 30136 30137 30138 30139 30140 30141 30142 30143 30144 30145 30146 30147 30148 30149 30150 30151 30152 30153 30154 30155 30156 30157 30158 30159 30160 30161 30162 30163 30164 30165 30166 30167 30168 30169 30170 30171 30172 30173 30174 30175 30176 30177 30178 30179 30180 30181 30182 30183 30184 30185 30186 30187 30188 30189 30190 30191 30192 30193 30194 30195 30196 30197 30198 30199 30200 30201 30202 30203 30204 30205 30206 30207 30208 30209 30210 30211 30212 30213 30214 30215 30216 30217 30218 30219 30220 30221 30222 30223 30224 30225 30226 30227 30228 30229 30230 30231 30232 30233 30234 30235 30236 30237 30238 30239 30240 30241 30242 30243 30244 30245 30246 30247 30248 30249 30250 30251 30252 30253 30254 30255 30256 30257 30258 30259 30260 30261 30262 30263 30264 30265 30266 30267 30268 30269 30270 30271 30272 30273 30274 30275 30276 30277 30278 30279 30280 30281 30282 30283 30284 30285 30286 30287 30288 30289 30290 30291 30292 30293 30294 30295 30296 30297 30298 30299 30300 30301 30302 30303 30304 30305 30306 30307 30308 30309 30310 30311 30312 30313 30314 30315 30316 30317 30318 30319 30320 30321 30322 30323 30324 30325 30326 30327 30328 30329 30330 30331 30332 30333 30334 30335 30336 30337 30338 30339 30340 30341 30342 30343 30344 30345 30346 30347 30348 30349 30350 30351 30352 30353 30354 30355 30356 30357 30358 30359 30360 30361 30362 30363 30364 30365 30366 30367 30368 30369 30370 30371 30372 30373 30374 30375 30376 30377 30378 30379 30380 30381 30382 30383 30384 30385 30386 30387 30388 30389 30390 30391 30392 30393 30394 30395 30396 30397 30398 30399 30400 30401 30402 30403 30404 30405 30406 30407 30408 30409 30410 30411 30412 30413 30414 30415 30416 30417 30418 30419 30420 30421 30422 30423 30424 30425 30426 30427 30428 30429 30430 30431 30432 30433 30434 30435 30436 30437 30438 30439 30440 30441 30442 30443 30444 30445 30446 30447 30448 30449 30450 30451 30452 30453 30454 30455 30456 30457 30458 30459 30460 30461 30462 30463 30464 30465 30466 30467 30468 30469 30470 30471 30472 30473 30474 30475 30476 30477 30478 30479 30480 30481 30482 30483 30484 30485 30486 30487 30488 30489 30490 30491 30492 30493 30494 30495 30496 30497 30498 30499 30500 30501 30502 30503 30504 30505 30506 30507 30508 30509 30510 30511 30512 30513 30514 30515 30516 30517 30518 30519 30520 30521 30522 30523 30524 30525 30526 30527 30528 30529 30530 30531 30532 30533 30534 30535 30536 30537 30538 30539 30540 30541 30542 30543 30544 30545 30546 30547 30548 30549 30550 30551 30552 30553 30554 30555 30556 30557 30558 30559 30560 30561 30562 30563 30564 30565 30566 30567 30568 30569 30570 30571 30572 30573 30574 30575 30576 30577 30578 30579 30580 30581 30582 30583 30584 30585 30586 30587 30588 30589 30590 30591 30592 30593 30594 30595 30596 30597 30598 30599 30600 30601 30602 30603 30604 30605 30606 30607 30608 30609 30610 30611 30612 30613 30614 30615 30616 30617 30618 30619 30620 30621 30622 30623 30624 30625 30626 30627 30628 30629 30630 30631 30632 30633 30634 30635 30636 30637 30638 30639 30640 30641 30642 30643 30644 30645 30646 30647 30648 30649 30650 30651 30652 30653 30654 30655 30656 30657 30658 30659 30660 30661 30662 30663 30664 30665 30666 30667 30668 30669 30670 30671 30672 30673 30674 30675 30676 30677 30678 30679 30680 30681 30682 30683 30684 30685 30686 30687 30688 30689 30690 30691 30692 30693 30694 30695 30696 30697 30698 30699 30700 30701 30702 30703 30704 30705 30706 30707 30708 30709 30710 30711 30712 30713 30714 30715 30716 30717 30718 30719 30720 30721 30722 30723 30724 30725 30726 30727 30728 30729 30730 30731 30732 30733 30734 30735 30736 30737 30738 30739 30740 30741 30742 30743 30744 30745 30746 30747 30748 30749 30750 30751 30752 30753 30754 30755 30756 30757 30758 30759 30760 30761 30762 30763 30764 30765 30766 30767 30768 30769 30770 30771 30772 30773 30774 30775 30776 30777 30778 30779 30780 30781 30782 30783 30784 30785 30786 30787 30788 30789 30790 30791 30792 30793 30794 30795 30796 30797 30798 30799 30800 30801 30802 30803 30804 30805 30806 30807 30808 30809 30810 30811 30812 30813 30814 30815 30816 30817 30818 30819 30820 30821 30822 30823 30824 30825 30826 30827 30828 30829 30830 30831 30832 30833 30834 30835 30836 30837 30838 30839 30840 30841 30842 30843 30844 30845 30846 30847 30848 30849 30850 30851 30852 30853 30854 30855 30856 30857 30858 30859 30860 30861 30862 30863 30864 30865 30866 30867 30868 30869 30870 30871 30872 30873 30874 30875 30876 30877 30878 30879 30880 30881 30882 30883 30884 30885 30886 30887 30888 30889 30890 30891 30892 30893 30894 30895 30896 30897 30898 30899 30900 30901 30902 30903 30904 30905 30906 30907 30908 30909 30910 30911 30912 30913 30914 30915 30916 30917 30918 30919 30920 30921 30922 30923 30924 30925 30926 30927 30928 30929 30930 30931 30932 30933 30934 30935 30936 30937 30938 30939 30940 30941 30942 30943 30944 30945 30946 30947 30948 30949 30950 30951 30952 30953 30954 30955 30956 30957 30958 30959 30960 30961 30962 30963 30964 30965 30966 30967 30968 30969 30970 30971 30972 30973 30974 30975 30976 30977 30978 30979 30980 30981 30982 30983 30984 30985 30986 30987 30988 30989 30990 30991 30992 30993 30994 30995 30996 30997 30998 30999 31000 31001 31002 31003 31004 31005 31006 31007 31008 31009 31010 31011 31012 31013 31014 31015 31016 31017 31018 31019 31020 31021 31022 31023 31024 31025 31026 31027 31028 31029 31030 31031 31032 31033 31034 31035 31036 31037 31038 31039 31040 31041 31042 31043 31044 31045 31046 31047 31048 31049 31050 31051 31052 31053 31054 31055 31056 31057 31058 31059 31060 31061 31062 31063 31064 31065 31066 31067 31068 31069 31070 31071 31072 31073 31074 31075 31076 31077 31078 31079 31080 31081 31082 31083 31084 31085 31086 31087 31088 31089 31090 31091 31092 31093 31094 31095 31096 31097 31098 31099 31100 31101 31102 31103 31104 31105 31106 31107 31108 31109 31110 31111 31112 31113 31114 31115 31116 31117 31118 31119 31120 31121 31122 31123 31124 31125 31126 31127 31128 31129 31130 31131 31132 31133 31134 31135 31136 31137 31138 31139 31140 31141 31142 31143 31144 31145 31146 31147 31148 31149 31150 31151 31152 
</DataArray>
<DataArray type="UInt32" Name="offsets" format="ascii">
3 6 9 12 15 17 20 23 26 29 32 35 38 41 44 47 49 52 55 58 61 64 67 70 73 75 77 80 82 85 88 90 93 96 98 101 103 106 108 111 114 117 119 122 124 127 129 132 135 138 141 144 147 150 153 156 159 162 165 168 170 173 176 178 181 184 187 190 193 196 198 201 204 207 210 213 216 218 221 224 227 230 233 236 239 242 244 247 250 253 256 259 262 265 268 271 274 276 279 282 285 288 291 294 297 300 303 305 308 310 313 316 319 322 325 328 331 334 337 340 343 346 349 352 355 357 360 362 364 367 369 372 375 378 380 382 385 388 391 394 397 400 403 406 409 412 415 418 421 424 427 430 433 436 439 442 445 448 451 453 456 459 462 465 468 471 474 477 480 483 486 489 492 495 498 501 504 507 510 513 516 519 522 525 528 531 534 537 540 543 546 549 552 555 558 561 564 567 570 573 576 579 582 585 588 591 594 597 599 602 604 607 610 613 616 619 622 625 628 631 634 637 640 643 646 649 652 655 658 661 663 666 669 672 675 678 680 683 686 688 690 693 696 699 701 704 707 710 713 716 718 720 723 725 728 731 734 737 740 743 746 749 752 755 758 761 763 766 769 772 775 778 781 784 787 790 793 795 798 801 804 807 810 813 816 819 822 825 828 831 834 836 839 842 845 848 851 854 857 860 863 866 869 872 875 878 881 884 887 890 893 896 899 902 905 908 911 914 917 920 923 926 929 932 935 938 941 944 947 950 953 956 958 961 963 966 969 971 974 977 979 982 985 988 991 993 996 999 1001 1004 1007 1010 1013 1016 1019 1021 1024 1027 1029 1032 1035 1038 1041 1043 1046 1049 1052 1054 1057 1059 1061 1064 1067 1069 1071 1074 1077 1080 1083 1086 1089 1092 1095 1098 1101 1104 1107 1110 1113 1116 1119 1122 1125 1128 1130 1133 1136 1139 1142 1145 1148 1151 1154 1157 1159 1162 1165 1168 1171 1174 1177 1180 1183 1186 1189 1192 1195 1198 1201 1204 1207 1210 1213 1216 1219 1222 1225 1228 1231 1234 1237 1240 1243 1246 1249 1252 1255 1258 1261 1264 1267 1270 1273 1276 1279 1282 1285 1288 1291 1294 1297 1300 1303 1306 1309 1312 1315 1318 1321 1324 1327 1329 1332 1335 1338 1341 1344 1347 1350 1353 1356 1359 1362 1365 1368 1371 1374 1377 1380 1383 1386 1389 1392 1395 1398 1401 1404 1407 1410 1413 1416 1419 1422 1425 1428 1431 1434 1437 1440 1443 1446 1449 1452 1455 1458 1461 1464 1467 1470 1473 1476 1479 1482 1485 1488 1491 1494 1497 1500 1503 1506 1509 1512 1515 1518 1521 1524 1527 1530 1533 1536 1539 1542 1544 1547 1549 1552 1555 1558 1561 1564 1567 1570 1573 1576 1579 1582 1585 1588 1591 1594 1597 1600 1602 1605 1608 1611 1614 1617 1619 1622 1625 1628 1631 1634 1637 1640 1643 1646 1649 1652 1655 1658 1661 1664 1667 1670 1673 1676 1679 1682 1685 1688 1691 1694 1697 1700 1703 1706 1709 1712 1715 1718 1721 1724 1727 1730 1732 1735 1738 1741 1743 1746 1749 1752 1755 1758 1761 1764 1767 1770 1773 1776 1778 1781 1783 1786 1789 1792 1794 1797 1799 1802 1805 1808 1811 1814 1817 1820 1823 1826 1829 1832 1835 1838 1841 1844 1847 1850 1853 1856 1859 1862 1865 1868 1871 1874 1877 1880 1883 1886 1889 1892 1895 1898 1901 1904 1907 1910 1913 1916 1919 1922 1925 1928 1930 1933 1936 1939 1942 1945 1947 1950 1953 1956 1959 1962 1965 1967 1970 1973 1976 1979 1982 1985 1987 1990 1993 1996 1999 2002 2005 2008 2011 2013 2016 2019 2022 2025 2028 2031 2034 2037 2040 2043 2045 2048 2051 2054 2057 2059 2062 2065 2068 2071 2074 2076 2078 2081 2083 2086 2089 2092 2095 2097 2100 2102 2104 2106 2109 2112 2115 2118 2121 2123 2126 2129 2132 2135 2138 2140 2143 2146 2148 2151 2154 2157 2160 2163 2166 2169 2172 2175 2178 2181 2184 2187 2190 2193 2196 2199 2202 2205 2208 2211 2214 2217 2219 2222 2225 2228 2231 2234 2237 2239 2242 2245 2248 2251 2254 2257 2260 2263 2266 2269 2272 2275 2278 2280 2283 2286 2289 2292 2295 2298 2301 2304 2306 2309 2312 2315 2318 2321 2324 2327 2330 2333 2336 2339 2342 2345 2348 2351 2354 2357 2360 2363 2366 2369 2372 2375 2378 2381 2384 2387 2390 2393 2396 2399 2402 2405 2408 2411 2414 2417 2420 2423 2426 2429 2432 2435 2438 2441 2444 2447 2450 2453 2456 2459 2462 2465 2468 2471 2474 2477 2480 2483 2486 2489 2492 2495 2498 2501 2504 2507 2510 2513 2516 2519 2522 2525 2528 2531 2534 2537 2540 2543 2546 2549 2552 2555 2558 2561 2564 2567 2570 2573 2576 2579 2582 2585 2588 2591 2594 2597 2600 2603 2605 2608 2611 2614 2617 2620 2623 2625 2628 2631 2634 2637 2640 2643 2646 2649 2652 2655 2658 2661 2664 2667 2670 2673 2676 2679 2682 2685 2688 2691 2694 2697 2700 2703 2706 2708 2711 2713 2716 2719 2722 2725 2728 2731 2733 2735 2738 2741 2744 2747 2750 2753 2756 2759 2762 2764 2767 2770 2772 2775 2778 2781 2784 2787 2790 2793 2796 2798 2801 2804 2806 2808 2811 2814 2817 2820 2823 2826 2829 2831 2834 2837 2839 2842 2845 2848 2851 2854 2857 2859 2862 2865 2868 2871 2874 2877 2880 2883 2886 2889 2892 2895 2898 2901 2904 2907 2910 2912 2915 2917 2920 2923 2926 2929 2932 2935 2938 2941 2944 2947 2950 2952 2955 2958 2961 2964 2967 2970 2973 2976 2979 2982 2985 2988 2991 2994 2997 3000 3003 3006 3009 3012 3015 3018 3021 3024 3027 3030 3033 3036 3039 3042 3045 3048 3051 3054 3057 3060 3063 3066 3069 3072 3075 3078 3081 3084 3087 3090 3093 3096 3099 3102 3105 3108 3111 3114 3117 3119 3122 3125 3128 3131 3134 3137 3140 3143 3146 3148 3151 3154 3157 3159 3161 3164 3166 3169 3171 3174 3176 3179 3182 3185 3188 3191 3193 3196 3199 3201 3204 3207 3209 3212 3215 3218 3221 3224 3227 3229 3232 3234 3236 3239 3242 3245 3248 3251 3254 3257 3260 3263 3265 3268 3271 3274 3277 3280 3282 3285 3288 3291 3294 3296 3299 3302 3305 3308 3311 3313 3316 3319 3321 3324 3327 3329 3332 3335 3338 3341 3344 3347 3350 3353 3355 3358 3361 3364 3367 3370 3373 3376 3378 3381 3384 3386 3388 3391 3394 3397 3400 3403 3406 3409 3412 3415 3417 3420 3422 3425 3428 3431 3434 3437 3440 3443 3446 3449 3452 3455 3458 3461 3464 3467 3470 3473 3476 3479 3482 3484 3487 3490 3493 3495 3498 3501 3504 3507 3509 3511 3513 3516 3519 3522 3524 3527 3530 3533 3535 3538 3540 3543 3545 3547 3550 3553 3556 3558 3561 3564 3567 3569 3572 3575 3577 3580 3582 3585 3588 3590 3593 3596 3599 3602 3605 3608 3611 3614 3617 3620 3623 3626 3629 3632 3634 3637 3640 3643 3646 3649 3652 3654 3657 3659 3662 3665 3668 3670 3673 3676 3678 3681 3684 3686 3689 3692 3695 3698 3701 3704 3707 3710 3712 3715 3718 3721 3724 3726 3729 3732 3735 3738 3740 3743 3746 3749 3752 3755 3758 3761 3764 3766 3769 3772 3775 3777 3780 3783 3786 3789 3792 3795 3798 3801 3804 3807 3810 3813 3816 3819 3822 3825 3828 3831 3834 3836 3839 3842 3844 3847 3850 3853 3856 3859 3862 3865 3868 3871 3873 3876 3879 3882 3885 3888 3890 3893 3896 3899 3901 3904 3907 3909 3912 3914 3916 3919 3922 3925 3928 3931 3934 3936 3939 3941 3944 3947 3950 3952 3955 3958 3961 3963 3966 3969 3972 3975 3978 3981 3984 3987 3990 3993 3996 3999 4002 4005 4008 4011 4014 4017 4020 4023 4025 4028 4031 4034 4037 4039 4042 4045 4048 4051 4054 4057 4060 4063 4066 4069 4071 4074 4077 4080 4083 4086 4089 4092 4095 4098 4101 4104 4107 4110 4113 4116 4119 4122 4125 4127 4130 4133 4136 4139 4142 4145 4148 4151 4154 4157 4160 4163 4166 4169 4171 4174 4177 4180 4183 4185 4188 4191 4194 4197 4200 4203 4206 4208 4211 4214 4217 4220 4223 4226 4229 4232 4235 4238 4241 4244 4247 4250 4253 4256 4259 4261 4264 4267 4270 4273 4275 4278 4281 4284 4287 4290 4293 4296 4299 4301 4304 4307 4309 4312 4315 4317 4320 4323 4326 4329 4332 4335 4338 4341 4344 4347 4349 4352 4355 4358 4360 4363 4366 4369 4372 4375 4378 4381 4384 4387 4390 4393 4396 4399 4402 4405 4408 4411 4414 4417 4420 4423 4426 4429 4432 4435 4438 4440 4443 4446 4449 4452 4455 4458 4461 4464 4467 4470 4472 4475 4477 4480 4483 4486 4489 4492 4495 4498 4500 4503 4505 4508 4511 4513 4516 4518 4521 4523 4526 4529 4532 4535 4538 4540 4543 4546 4549 4552 4555 4558 4561 4563 4566 4569 4572 4575 4578 4581 4584 4587 4590 4593 4596 4599 4602 4605 4608 4611 4614 4617 4620 4623 4626 4629 4632 4635 4638 4641 4644 4647 4650 4653 4656 4659 4661 4664 4667 4670 4673 4676 4679 4682 4684 4687 4690 4693 4696 4699 4702 4705 4707 4710 4713 4716 4719 4722 4724 4727 4730 4733 4736 4739 4742 4745 4748 4751 4754 4757 4760 4762 4765 4768 4771 4774 4777 4779 4782 4784 4787 4790 4793 4796 4799 4802 4805 4808 4810 4813 4816 4819 4822 4825 4828 4830 4833 4836 4838 4841 4844 4847 4850 4853 4856 4859 4862 4865 4868 4871 4874 4877 4880 4883 4886 4889 4892 4895 4898 4901 4903 4906 4909 4912 4914 4917 4920 4923 4926 4928 4930 4933 4935 4937 4939 4942 4945 4948 4950 4952 4955 4958 4961 4964 4967 4970 4973 4976 4979 4981 4984 4986 4989 4992 4995 4998 5000 5003 5006 5009 5012 5014 5017 5019 5022 5025 5028 5030 5033 5036 5039 5042 5045 5047 5050 5053 5055 5058 5061 5064 5067 5070 5072 5075 5078 5081 5084 5087 5090 5093 5096 5099 5102 5105 5108 5111 5114 5117 5120 5123 5126 5129 5132 5135 5138 5141 5144 5147 5150 5153 5156 5159 5162 5165 5168 5171 5174 5177 5180 5183 5186 5189 5192 5195 5198 5200 5203 5206 5209 5212 5215 5218 5220 5223 5225 5228 5231 5234 5237 5240 5243 5246 5249 5252 5254 5257 5259 5262 5265 5268 5271 5274 5277 5280 5282 5285 5288 5291 5294 5296 5299 5302 5304 5307 5310 5313 5316 5319 5322 5325 5328 5331 5334 5337 5339 5341 5344 5347 5350 5352 5354 5357 5360 5363 5366 5369 5372 5375 5378 5381 5384 5387 5390 5393 5396 5399 5402 5405 5408 5411 5414 5417 5420 5423 5426 5429 5432 5435 5437 5440 5443 5446 5449 5451 5454 5457 5460 5463 5466 5469 5472 5474 5476 5479 5481 5484 5487 5490 5493 5496 5499 5502 5505 5508 5511 5514 5517 5519 5522 5525 5528 5531 5534 5537 5540 5543 5545 5548 5551 5554 5557 5560 5562 5565 5568 5571 5573 5576 5579 5582 5585 5588 5591 5593 5596 5599 5602 5605 5608 5611 5614 5617 5620 5623 5626 5629 5632 5635 5638 5641 5644 5647 5650 5653 5656 5659 5662 5665 5668 5671 5674 5677 5680 5682 5685 5688 5691 5694 5697 5700 5703 5706 5709 5712 5715 5718 5721 5724 5727 5730 5733 5736 5739 5742 5745 5748 5751 5754 5757 5760 5763 5766 5769 5772 5775 5778 5781 5784 5787 5790 5793 5796 5799 5802 5805 5808 5811 5814 5817 5820 5823 5826 5829 5832 5835 5838 5840 5843 5846 5849 5852 5855 5858 5861 5864 5867 5870 5873 5876 5879 5882 5885 5888 5891 5894 5897 5899 5902 5905 5907 5910 5913 5916 5919 5922 5925 5928 5931 5934 5937 5940 5943 5946 5949 5952 5955 5958 5961 5964 5967 5970 5973 5976 5979 5982 5985 5988 5991 5994 5997 6000 6003 6006 6009 6012 6015 6018 6021 6024 6027 6030 6033 6036 6039 6042 6045 6048 6051 6054 6057 6060 6062 6065 6068 6071 6074 6077 6080 6083 6085 6088 6091 6094 6097 6100 6102 6105 6108 6111 6114 6117 6120 6123 6126 6129 6132 6135 6138 6141 6144 6147 6150 6153 6156 6159 6161 6164 6167 6170 6173 6176 6179 6182 6185 6187 6190 6192 6195 6198 6201 6204 6207 6209 6211 6214 6217 6219 6222 6225 6228 6231 6234 6237 6240 6242 6245 6248 6251 6254 6257 6260 6263 6266 6269 6272 6275 6278 6281 6284 6287 6290 6293 6296 6298 6301 6304 6307 6310 6313 6316 6319 6322 6324 6327 6330 6333 6336 6339 6342 6345 6348 6351 6354 6357 6360 6363 6366 6369 6372 6375 6378 6381 6384 6387 6390 6393 6396 6398 6401 6404 6407 6410 6413 6416 6419 6422 6425 6428 6431 6434 6437 6440 6443 6446 6449 6452 6455 6458 6461 6464 6467 6470 6473 6476 6478 6481 6483 6486 6489 6492 6495 6498 6501 6504 6507 6510 6513 6516 6519 6522 6525 6528 6531 6534 6537 6540 6543 6546 6549 6552 6555 6558 6561 6564 6566 6569 6572 6574 6577 6580 6583 6586 6589 6592 6594 6597 6600 6603 6606 6608 6611 6613 6615 6618 6621 6624 6627 6630 6633 6636 6639 6642 6645 6648 6651 6654 6657 6660 6663 6666 6669 6672 6675 6677 6679 6682 6685 6688 6691 6693 6696 6699 6702 6705 6708 6711 6714 6717 6720 6723 6726 6729 6732 6735 6738 6740 6742 6745 6748 6750 6753 6756 6759 6762 6765 6768 6771 6774 6777 6780 6783 6786 6789 6792 6795 6798 6801 6804 6806 6809 6812 6815 6818 6821 6824 6826 6828 6831 6833 6836 6839 6842 6845 6848 6851 6854 6857 6860 6863 6866 6869 6872 6874 6877 6880 6883 6886 6889 6892 6895 6898 6901 6904 6907 6910 6913 6916 6919 6922 6925 6928 6931 6934 6937 6940 6943 6946 6949 6952 6955 6957 6960 6962 6965 6968 6971 6974 6977 6980 6983 6986 6989 6992 6995 6998 7001 7003 7006 7009 7012 7014 7017 7020 7023 7025 7028 7031 7034 7037 7040 7043 7045 7048 7051 7053 7056 7059 7062 7065 7068 7071 7074 7077 7080 7083 7086 7089 7092 7095 7098 7101 7104 7107 7109 7112 7115 7118 7121 7123 7126 7128 7131 7134 7136 7139 7142 7145 7148 7151 7154 7157 7160 7163 7166 7169 7172 7175 7177 7179 7182 7185 7187 7190 7192 7194 7197 7200 7203 7206 7209 7212 7215 7218 7221 7224 7227 7229 7232 7235 7237 7240 7243 7246 7249 7251 7253 7256 7258 7261 7263 7265 7268 7271 7274 7276 7278 7280 7283 7286 7288 7290 7293 7295 7298 7301 7303 7306 7309 7312 7314 7317 7320 7323 7325 7328 7331 7333 7336 7339 7341 7344 7346 7349 7352 7355 7357 7360 7362 7365 7368 7370 7372 7374 7376 7379 7381 7384 7387 7390 7392 7395 7398 7401 7403 7405 7408 7411 7413 7416 7418 7421 7424 7426 7428 7431 7433 7436 7439 7442 7444 7447 7450 7453 7456 7459 7462 7464 7467 7470 7473 7475 7478 7481 7484 7487 7490 7493 7496 7499 7502 7505 7508 7511 7513 7516 7519 7522 7525 7528 7531 7534 7537 7540 7543 7546 7549 7552 7555 7558 7560 7563 7566 7569 7571 7574 7577 7579 7582 7585 7588 7591 7594 7597 7600 7603 7606 7609 7612 7615 7618 7621 7624 7627 7630 7632 7635 7638 7640 7643 7646 7649 7651 7654 7656 7659 7662 7664 7667 7670 7673 7675 7678 7681 7684 7686 7689 7692 7695 7698 7701 7704 7707 7710 7713 7716 7719 7721 7724 7726 7729 7731 7734 7737 7740 7743 7746 7749 7752 7754 7757 7760 7763 7766 7768 7771 7773 7776 7778 7781 7784 7787 7789 7792 7794 7797 7800 7802 7805 7807 7809 7812 7815 7818 7821 7824 7827 7830 7832 7835 7838 7840 7843 7846 7849 7852 7855 7858 7860 7863 7866 7869 7872 7875 7878 7881 7884 7886 7889 7892 7895 7898 7900 7903 7905 7908 7911 7913 7916 7918 7921 7924 7927 7930 7933 7936 7939 7942 7944 7947 7950 7953 7956 7959 7962 7965 7968 7971 7974 7977 7980 7983 7986 7989 7992 7995 7997 8000 8002 8004 8007 8010 8013 8016 8019 8021 8024 8027 8030 8033 8036 8039 8042 8045 8047 8050 8053 8055 8058 8061 8064 8067 8070 8072 8075 8078 8081 8084 8087 8090 8093 8096 8098 8101 8104 8106 8109 8112 8115 8118 8121 8124 8126 8129 8132 8134 8136 8139 8141 8144 8146 8148 8150 8153 8156 8159 8161 8163 8166 8169 8171 8173 8176 8178 8181 8184 8186 8188 8191 8194 8196 8199 8202 8205 8207 8210 8212 8214 8217 8220 8223 8226 8229 8232 8235 8238 8240 8243 8246 8249 8252 8255 8258 8261 8264 8267 8270 8272 8275 8278 8280 8283 8285 8288 8291 8294 8297 8300 8303 8306 8309 8311 8314 8317 8320 8322 8325 8328 8331 8334 8337 8340 8343 8345 8348 8351 8354 8357 8360 8363 8365 8368 8371 8374 8377 8380 8383 8385 8388 8391 8394 8396 8399 8402 8405 8407 8410 8412 8415 8417 8420 8423 8426 8429 8431 8433 8436 8439 8442 8445 8448 8451 8454 8457 8460 8463 8466 8469 8472 8475 8478 8481 8484 8487 8490 8493 8495 8498 8501 8503 8506 8509 8512 8514 8516 8519 8521 8524 8527 8530 8533 8536 8539 8542 8545 8548 8550 8553 8556 8559 8562 8565 8568 8570 8573 8576 8579 8582 8585 8588 8591 8594 8596 8599 8602 8605 8607 8609 8612 8615 8618 8621 8624 8627 8630 8633 8636 8639 8642 8645 8648 8651 8653 8656 8659 8662 8665 8668 8671 8674 8677 8680 8682 8685 8687 8690 8693 8696 8699 8702 8705 8708 8711 8714 8717 8720 8723 8726 8729 8732 8735 8738 8741 8744 8747 8750 8753 8756 8759 8762 8765 8768 8771 8774 8777 8780 8783 8786 8789 8792 8795 8798 8801 8804 8807 8810 8813 8816 8819 8822 8825 8828 8831 8834 8837 8840 8843 8846 8848 8851 8853 8856 8858 8861 8864 8867 8870 8873 8876 8879 8881 8884 8887 8890 8893 8895 8898 8901 8904 8907 8910 8913 8916 8919 8921 8924 8927 8930 8933 8936 8938 8940 8943 8946 8949 8952 8954 8957 8960 8962 8965 8968 8971 8973 8976 8979 8981 8984 8987 8990 8993 8996 8998 9001 9003 9005 9008 9011 9013 9015 9018 9021 9024 9026 9029 9031 9034 9036 9039 9042 9045 9047 9049 9052 9055 9058 9060 9062 9065 9067 9070 9073 9076 9078 9080 9083 9086 9089 9091 9093 9096 9098 9100 9103 9105 9107 9110 9113 9116 9119 9121 9124 9126 9129 9131 9134 9136 9139 9142 9145 9148 9151 9154 9157 9160 9163 9166 9168 9171 9174 9176 9179 9181 9184 9187 9190 9192 9194 9197 9200 9203 9205 9208 9210 9213 9215 9217 9220 9223 9226 9229 9232 9235 9238 9241 9244 9247 9250 9253 9255 9258 9261 9264 9267 9270 9273 9275 9278 9281 9283 9286 9289 9292 9295 9298 9301 9304 9307 9310 9312 9315 9318 9320 9323 9326 9329 9332 9335 9338 9341 9344 9347 9350 9353 9356 9359 9362 9365 9368 9371 9374 9377 9380 9383 9386 9389 9392 9395 9398 9401 9404 9407 9410 9413 9416 9419 9422 9425 9428 9431 9434 9437 9439 9442 9445 9448 9451 9454 9457 9459 9462 9465 9468 9471 9474 9477 9480 9483 9486 9489 9492 9495 9497 9500 9502 9505 9508 9511 9514 9517 9520 9523 9526 9529 9532 9535 9538 9541 9544 9547 9550 9553 9556 9559 9562 9564 9567 9570 9572 9575 9578 9581 9583 9585 9588 9591 9594 9597 9600 9603 9606 9609 9611 9614 9617 9620 9623 9626 9629 9632 9635 9638 9641 9644 9647 9650 9653 9656 9659 9661 9664 9667 9670 9673 9676 9679 9681 9683 9686 9689 9692 9695 9698 9701 9704 9707 9709 9712 9715 9718 9720 9723 9726 9729 9732 9735 9738 9740 9743 9746 9749 9752 9755 9758 9761 9763 9766 9769 9772 9775 9778 9781 9784 9787 9790 9793 9796 9799 9801 9804 9807 9810 9812 9815 9818 9821 9824 9826 9829 9832 9835 9838 9841 9844 9847 9850 9853 9856 9859 9862 9865 9868 9871 9874 9876 9879 9882 9885 9888 9891 9894 9897 9900 9903 9906 9909 9911 9914 9916 9919 9922 9925 9928 9931 9934 9937 9940 9942 9945 9948 9950 9953 9956 9959 9962 9965 9968 9970 9973 9976 9978 9980 9983 9986 9989 9992 9995 9998 10001 10004 10007 10009 10012 10015 10018 10020 10023 10026 10029 10032 10035 10038 10041 10044 10047 10050 10052 10055 10058 10061 10064 10067 10070 10073 10076 10079 10082 10085 10088 10091 10094 10097 10100 10103 10106 10109 10112 10115 10118 10121 10124 10127 10130 10133 10136 10139 10142 10144 10147 10150 10153 10156 10159 10161 10164 10167 10170 10173 10176 10179 10182 10185 10188 10190 10193 10195 10198 10201 10204 10207 10210 10213 10215 10218 10221 10223 10226 10229 10232 10235 10238 10241 10244 10247 10250 10253 10256 10259 10262 10265 10268 10271 10274 10277 10280 10283 10286 10289 10291 10294 10296 10299 10302 10305 10308 10311 10314 10317 10320 10323 10326 10329 10332 10335 10338 10341 10344 10347 10350 10353 10356 10359 10362 10365 10367 10370 10373 10376 10379 10381 10384 10387 10390 10393 10396 10398 10401 10404 10406 10409 10411 10414 10417 10420 10423 10425 10427 10429 10432 10435 10437 10440 10443 10445 10447 10450 10452 10455 10458 10461 10464 10467 10469 10472 10475 10478 10480 10482 10484 10486 10489 10492 10495 10497 10499 10502 10505 10508 10510 10512 10515 10517 10520 10523 10526 10529 10532 10535 10538 10541 10544 10547 10550 10553 10556 10559 10562 10565 10568 10571 10573 10576 10579 10582 10585 10588 10591 10594 10597 10600 10603 10606 10609 10611 10614 10617 10620 10623 10626 10629 10632 10635 10638 10641 10644 10647 10650 10652 10654 10657 10660 10663 10666 10669 10672 10675 10678 10680 10683 10685 10688 10691 10694 10697 10699 10702 10704 10707 10710 10713 10716 10719 10722 10724 10727 10730 10733 10736 10739 10742 10745 10748 10751 10754 10757 10760 10763 10766 10769 10772 10774 10777 10780 10782 10785 10788 10791 10794 10797 10800 10803 10806 10809 10812 10815 10818 10821 10824 10827 10830 10833 10836 10839 10842 10844 10847 10850 10853 10856 10859 10862 10865 10868 10870 10873 10876 10879 10882 10885 10888 10891 10894 10897 10900 10903 10905 10908 10910 10913 10916 10919 10922 10925 10927 10930 10933 10936 10938 10941 10943 10946 10949 10952 10955 10958 10961 10964 10967 10970 10972 10975 10978 10981 10984 10987 10990 10993 10996 10999 11002 11005 11007 11010 11013 11015 11018 11021 11024 11027 11030 11032 11034 11037 11040 11043 11046 11049 11051 11054 11057 11059 11062 11065 11067 11070 11073 11076 11079 11082 11085 11088 11091 11094 11097 11100 11103 11106 11109 11112 11115 11117 11120 11123 11125 11128 11131 11134 11137 11140 11143 11146 11149 11152 11155 11158 11161 11164 11167 11170 11173 11176 11179 11182 11184 11187 11190 11193 11196 11198 11201 11204 11207 11210 11213 11215 11218 11221 11224 11227 11230 11232 11235 11238 11241 11244 11246 11249 11252 11255 11258 11261 11263 11266 11269 11272 11275 11278 11281 11284 11287 11290 11293 11296 11299 11302 11305 11308 11311 11314 11317 11320 11323 11326 11329 11332 11334 11337 11340 11343 11346 11349 11352 11355 11357 11360 11363 11366 11369 11372 11375 11378 11380 11383 11386 11389 11391 11394 11397 11400 11403 11406 11409 11412 11415 11418 11421 11424 11426 11429 11432 11435 11438 11441 11444 11446 11449 11452 11455 11458 11461 11464 11467 11470 11473 11476 11479 11482 11485 11488 11491 11494 11497 11500 11503 11506 11508 11511 11514 11517 11520 11523 11526 11528 11531 11534 11537 11540 11543 11546 11549 11552 11554 11557 11560 11563 11565 11568 11571 11574 11577 11580 11583 11586 11589 11592 11595 11598 11601 11604 11607 11610 11613 11616 11619 11622 11625 11628 11631 11634 11637 11640 11643 11646 11649 11652 11655 11658 11661 11664 11667 11670 11673 11676 11679 11682 11685 11688 11691 11693 11696 11699 11702 11705 11708 11711 11714 11717 11720 11723 11726 11729 11732 11735 11738 11741 11744 11747 11750 11753 11756 11759 11762 11765 11768 11771 11773 11776 11779 11782 11785 11788 11791 11794 11797 11800 11803 11806 11809 11811 11814 11817 11820 11823 11826 11829 11832 11835 11838 11841 11844 11846 11849 11852 11854 11857 11860 11863 11866 11869 11872 11875 11877 11880 11883 11886 11889 11892 11895 11898 11901 11904 11907 11910 11913 11915 11918 11920 11923 11925 11928 11930 11933 11936 11939 11942 11945 11947 11950 11953 11956 11959 11962 11965 11968 11971 11974 11977 11980 11983 11986 11989 11992 11995 11997 12000 12003 12006 12009 12012 12015 12018 12021 12024 12027 12030 12032 12035 12037 12040 12043 12046 12049 12051 12054 12056 12059 12062 12065 12068 12071 12074 12077 12080 12083 12086 12088 12090 12093 12096 12099 12102 12105 12108 12111 12113 12116 12119 12122 12125 12127 12129 12132 12135 12138 12141 12143 12146 12149 12152 12155 12158 12161 12164 12167 12170 12173 12176 12179 12182 12185 12188 12191 12194 12197 12200 12203 12206 12209 12212 12215 12218 12221 12224 12227 12230 12233 12236 12239 12242 12245 12248 12251 12254 12257 12260 12263 12266 12269 12272 12275 12278 12281 12284 12287 12290 12293 12296 12299 12302 12305 12308 12311 12314 12317 12320 12323 12326 12329 12332 12335 12338 12341 12344 12347 12350 12353 12356 12358 12361 12364 12367 12370 12373 12376 12379 12382 12385 12388 12391 12394 12397 12400 12403 12406 12409 12412 12415 12418 12421 12423 12426 12429 12432 12435 12438 12440 12443 12446 12449 12452 12454 12457 12460 12463 12466 12469 12472 12475 12477 12480 12483 12486 12488 12491 12494 12497 12500 12503 12506 12509 12512 12515 12518 12521 12524 12527 12530 12532 12535 12538 12541 12544 12546 12549 12551 12554 12557 12560 12563 12566 12569 12571 12574 12577 12580 12583 12586 12589 12592 12595 12598 12601 12603 12606 12609 12611 12614 12617 12620 12623 12626 12629 12632 12635 12638 12641 12644 12646 12649 12652 12655 12658 12661 12664 12667 12669 12672 12675 12678 12681 12684 12687 12690 12693 12696 12699 12702 12705 12708 12711 12713 12716 12718 12721 12724 12726 12729 12732 12734 12736 12739 12742 12745 12748 12750 12753 12755 12758 12761 12763 12766 12768 12771 12774 12777 12780 12783 12786 12789 12792 12795 12798 12801 12804 12806 12809 12812 12815 12817 12820 12823 12826 12828 12831 12834 12837 12840 12843 12846 12849 12852 12855 12858 12861 12863 12866 12869 12872 12874 12877 12879 12882 12885 12888 12891 12893 12896 12899 12902 12905 12908 12911 12914 12917 12920 12923 12926 12928 12931 12934 12937 12940 12943 12946 12949 12951 12954 12957 12960 12963 12965 12968 12970 12973 12975 12978 12981 12984 12987 12990 12993 12996 12998 13001 13004 13007 13010 13013 13016 13018 13021 13024 13027 13030 13033 13036 13039 13041 13044 13047 13050 13053 13056 13058 13061 13064 13067 13070 13072 13074 13077 13080 13083 13086 13089 13091 13094 13097 13100 13103 13106 13108 13111 13113 13116 13119 13122 13125 13127 13130 13133 13136 13138 13141 13144 13147 13150 13153 13156 13159 13162 13165 13168 13171 13174 13177 13180 13183 13186 13189 13192 13195 13198 13201 13204 13207 13210 13213 13216 13219 13221 13224 13227 13230 13232 13234 13237 13240 13243 13246 13249 13252 13255 13258 13260 13263 13266 13269 13272 13274 13277 13280 13283 13286 13289 13292 13295 13298 13301 13303 13306 13309 13311 13314 13317 13320 13323 13325 13328 13331 13333 13336 13339 13342 13345 13347 13350 13353 13355 13358 13361 13363 13366 13369 13371 13374 13377 13380 13383 13386 13389 13392 13395 13398 13401 13404 13407 13410 13413 13416 13419 13421 13424 13427 13430 13432 13435 13438 13441 13444 13447 13450 13453 13455 13458 13461 13464 13466 13469 13472 13474 13476 13479 13482 13485 13487 13490 13492 13495 13498 13501 13503 13505 13508 13511 13514 13517 13520 13523 13526 13529 13532 13534 13537 13539 13542 13545 13548 13551 13553 13555 13558 13561 13564 13566 13569 13572 13575 13578 13581 13583 13586 13589 13592 13595 13598 13601 13604 13607 13610 13613 13616 13619 13622 13625 13628 13631 13634 13637 13640 13643 13646 13649 13652 13655 13658 13661 13664 13667 13669 13672 13675 13678 13681 13684 13687 13690 13693 13696 13699 13701 13704 13707 13709 13712 13715 13718 13721 13723 13726 13729 13732 13735 13738 13741 13744 13747 13750 13753 13756 13759 13762 13765 13768 13771 13773 13776 13779 13782 13785 13788 13791 13794 13796 13798 13801 13804 13807 13810 13813 13816 13819 13821 13823 13826 13829 13832 13835 13838 13841 13844 13846 13849 13852 13855 13858 13861 13863 13866 13869 13872 13875 13878 13880 13883 13885 13887 13890 13892 13895 13898 13901 13904 13907 13910 13913 13916 13919 13922 13925 13928 13931 13934 13937 13940 13943 13946 13949 13952 13955 13958 13961 13964 13967 13970 13973 13976 13979 13982 13985 13988 13991 13993 13996 13999 14002 14005 14008 14011 14014 14017 14020 14023 14026 14028 14031 14034 14037 14040 14043 14046 14049 14052 14054 14057 14060 14062 14064 14067 14069 14072 14074 14077 14079 14082 14085 14088 14090 14092 14095 14098 14100 14103 14106 14109 14111 14114 14117 14120 14123 14126 14129 14131 14134 14137 14139 14142 14145 14148 14151 14154 14157 14159 14162 14165 14168 14170 14173 14176 14179 14182 14185 14188 14191 14194 14197 14200 14203 14205 14208 14211 14214 14217 14220 14223 14226 14228 14231 14234 14237 14239 14242 14245 14248 14251 14254 14257 14260 14262 14265 14268 14271 14274 14276 14279 14282 14285 14288 14291 14294 14297 14300 14302 14305 14308 14311 14313 14316 14319 14322 14324 14327 14330 14333 14336 14338 14341 14344 14347 14350 14353 14355 14358 14360 14363 14366 14369 14371 14374 14376 14379 14382 14385 14388 14390 14393 14396 14398 14401 14404 14406 14409 14412 14415 14418 14421 14424 14427 14430 14433 14436 14439 14442 14445 14448 14451 14454 14457 14460 14463 14466 14469 14472 14475 14478 14481 14484 14487 14490 14493 14496 14499 14502 14505 14508 14511 14514 14517 14520 14523 14526 14529 14532 14535 14538 14541 14544 14547 14550 14553 14555 14557 14560 14563 14566 14569 14572 14575 14577 14580 14583 14586 14589 14592 14595 14598 14601 14604 14607 14610 14613 14616 14619 14622 14625 14628 14631 14634 14637 14640 14643 14646 14649 14652 14655 14658 14661 14664 14666 14669 14672 14675 14678 14681 14684 14686 14689 14692 14694 14697 14700 14703 14706 14709 14712 14715 14718 14720 14723 14726 14729 14732 14735 14737 14740 14743 14746 14748 14751 14754 14757 14759 14762 14765 14768 14771 14774 14776 14779 14782 14785 14787 14790 14792 14795 14797 14799 14802 14804 14807 14810 14813 14816 14818 14821 14824 14827 14830 14833 14836 14839 14842 14845 14847 14850 14853 14856 14859 14862 14865 14867 14870 14873 14875 14878 14881 14884 14887 14890 14893 14896 14898 14901 14904 14907 14910 14913 14916 14919 14922 14925 14928 14931 14934 14937 14940 14943 14946 14949 14952 14955 14958 14961 14964 14967 14970 14973 14976 14979 14982 14984 14987 14989 14992 14994 14997 15000 15003 15006 15008 15010 15013 15016 15019 15022 15025 15028 15030 15033 15035 15038 15041 15044 15047 15050 15053 15056 15059 15062 15065 15068 15071 15074 15077 15080 15083 15086 15089 15092 15095 15098 15101 15103 15106 15108 15111 15113 15115 15117 15120 15123 15126 15129 15132 15135 15138 15140 15143 15145 15148 15151 15154 15157 15160 15163 15166 15169 15171 15173 15176 15178 15181 15184 15186 15189 15192 15195 15197 15200 15202 15205 15208 15211 15214 15216 15219 15222 15225 15228 15231 15234 15237 15240 15243 15246 15249 15252 15255 15257 15260 15263 15266 15269 15272 15275 15278 15281 15284 15286 15289 15292 15295 15298 15301 15304 15307 15310 15312 15315 15318 15321 15324 15327 15329 15332 15335 15338 15341 15344 15346 15349 15352 15355 15358 15361 15364 15367 15369 15372 15375 15377 15380 15383 15385 15388 15391 15394 15397 15400 15403 15405 15408 15411 15414 15417 15419 15422 15424 15427 15430 15433 15436 15439 15442 15445 15447 15450 15453 15455 15457 15460 15462 15465 15467 15470 15473 15476 15478 15481 15483 15486 15488 15491 15494 15497 15500 15502 15505 15508 15511 15514 15517 15519 15522 15525 15528 15531 15534 15537 15540 15543 15545 15548 15551 15554 15557 15560 15563 15566 15569 15572 15575 15578 15581 15584 15586 15589 15592 15595 15598 15601 15604 15607 15610 15613 15616 15618 15621 15624 15627 15629 15632 15635 15638 15641 15644 15647 15650 15653 15656 15659 15662 15664 15667 15670 15673 15675 15678 15680 15683 15686 15688 15691 15694 15697 15699 15702 15705 15708 15710 15713 15716 15718 15721 15724 15727 15730 15733 15736 15739 15742 15744 15747 15749 15752 15755 15758 15761 15764 15767 15770 15773 15776 15779 15782 15785 15788 15791 15794 15797 15800 15803 15806 15809 15812 15815 15818 15821 15824 15827 15829 15832 15835 15837 15840 15843 15845 15848 15851 15854 15857 15860 15863 15866 15869 15872 15875 15878 15881 15884 15887 15890 15893 15896 15899 15902 15905 15908 15911 15914 15917 15920 15923 15926 15929 15932 15935 15938 15941 15944 15947 15949 15952 15955 15958 15961 15964 15967 15970 15973 15976 15979 15982 15985 15988 15991 15994 15997 16000 16002 16005 16008 16010 16013 16016 16019 16022 16025 16028 16031 16033 16036 16039 16042 16045 16048 16051 16054 16057 16060 16063 16066 16068 16071 16073 16076 16079 16082 16084 16087 16090 16092 16095 16098 16101 16103 16106 16108 16111 16114 16117 16120 16123 16126 16129 16131 16134 16136 16139 16142 16145 16148 16151 16154 16157 16160 16163 16166 16169 16172 16175 16178 16181 16184 16187 16189 16192 16195 16197 16200 16203 16206 16209 16211 16214 16216 16219 16222 16225 16227 16230 16233 16236 16238 16241 16243 16246 16249 16252 16255 16258 16261 16263 16266 16269 16272 16275 16278 16281 16284 16287 16290 16293 16295 16298 16301 16304 16307 16309 16312 16315 16318 16321 16324 16327 16330 16333 16336 16339 16342 16345 16348 16351 16354 16357 16360 16363 16366 16369 16372 16375 16378 16381 16384 16387 16390 16393 16396 16399 16402 16405 16408 16411 16414 16417 16420 16423 16426 16429 16432 16434 16437 16440 16443 16446 16449 16451 16453 16456 16459 16462 16465 16467 16470 16472 16475 16478 16481 16484 16487 16490 16493 16495 16497 16500 16503 16506 16509 16512 16515 16518 16521 16524 16526 16529 16532 16535 16538 16541 16544 16547 16550 16553 16556 16559 16562 16565 16568 16571 16574 16577 16580 16583 16586 16589 16592 16595 16598 16601 16604 16607 16610 16613 16616 16619 16622 16625 16628 16631 16634 16637 16640 16643 16646 16649 16652 16655 16658 16661 16664 16667 16670 16673 16676 16679 16682 16685 16687 16690 16693 16696 16698 16701 16704 16707 16710 16713 16716 16719 16722 16725 16728 16731 16734 16737 16740 16743 16746 16749 16752 16755 16758 16761 16764 16767 16770 16773 16776 16779 16782 16785 16788 16791 16794 16797 16800 16803 16806 16809 16811 16814 16816 16819 16822 16825 16828 16831 16834 16837 16840 16843 16846 16849 16852 16855 16858 16861 16864 16867 16870 16872 16875 16878 16881 16884 16887 16890 16893 16896 16899 16902 16905 16907 16910 16913 16916 16919 16922 16924 16927 16930 16933 16936 16939 16942 16944 16947 16950 16953 16956 16959 16962 16965 16968 16971 16974 16977 16980 16983 16986 16989 16992 16995 16998 17001 17004 17007 17010 17013 17016 17019 17022 17025 17028 17031 17033 17036 17039 17042 17045 17048 17051 17054 17057 17060 17063 17066 17069 17072 17075 17078 17081 17084 17087 17090 17093 17096 17099 17102 17105 17108 17111 17114 17117 17120 17122 17125 17128 17130 17133 17136 17138 17141 17144 17146 17149 17151 17154 17157 17160 17163 17166 17169 17172 17175 17178 17181 17184 17187 17190 17193 17196 17199 17202 17205 17208 17211 17214 17217 17220 17223 17226 17229 17232 17235 17237 17240 17243 17246 17249 17252 17255 17258 17261 17263 17266 17268 17271 17274 17277 17279 17282 17285 17287 17290 17292 17295 17297 17300 17302 17305 17307 17310 17312 17315 17318 17321 17324 17327 17330 17333 17336 17339 17342 17345 17348 17351 17354 17357 17360 17363 17366 17369 17372 17375 17378 17381 17384 17387 17390 17393 17396 17399 17401 17404 17407 17409 17412 17414 17417 17420 17423 17426 17429 17431 17434 17437 17439 17442 17445 17448 17451 17453 17456 17458 17461 17463 17466 17468 17470 17473 17475 17477 17479 17482 17484 17487 17490 17493 17496 17499 17502 17505 17508 17511 17513 17516 17519 17522 17525 17528 17530 17533 17536 17538 17541 17544 17547 17550 17553 17556 17559 17561 17564 17567 17569 17572 17575 17577 17580 17583 17586 17589 17592 17595 17598 17601 17604 17607 17610 17613 17616 17619 17622 17625 17627 17630 17633 17635 17638 17641 17643 17646 17649 17652 17655 17658 17660 17663 17666 17669 17672 17675 17677 17680 17683 17686 17689 17692 17694 17697 17700 17703 17706 17708 17711 17714 17716 17719 17722 17724 17726 17729 17732 17735 17738 17740 17743 17746 17749 17751 17754 17757 17760 17762 17765 17768 17771 17774 17777 17780 17783 17786 17788 17791 17794 17797 17800 17803 17806 17809 17812 17815 17818 17820 17823 17826 17829 17832 17834 17837 17839 17842 17845 17848 17851 17853 17856 17859 17861 17864 17867 17870 17873 17876 17879 17882 17885 17888 17891 17893 17896 17899 17902 17904 17907 17910 17913 17916 17919 17922 17925 17928 17931 17934 17937 17939 17941 17944 17947 17950 17953 17956 17958 17961 17964 17967 17970 17972 17975 17978 17981 17983 17986 17989 17991 17994 17997 18000 18003 18006 18009 18012 18014 18016 18019 18022 18025 18028 18031 18034 18036 18039 18041 18044 18046 18049 18052 18055 18057 18060 18063 18065 18068 18071 18074 18077 18079 18081 18083 18086 18089 18092 18095 18098 18101 18104 18107 18110 18113 18116 18119 18122 18125 18128 18131 18134 18137 18140 18143 18145 18148 18151 18154 18157 18160 18163 18166 18169 18172 18175 18178 18181 18184 18187 18189 18192 18195 18198 18200 18202 18205 18207 18210 18213 18215 18217 18219 18222 18224 18227 18229 18232 18235 18238 18240 18243 18245 18248 18251 18253 18256 18259 18261 18263 18265 18268 18270 18273 18275 18277 18280 18283 18285 18288 18291 18294 18297 18299 18301 18304 18307 18310 18313 18316 18319 18321 18323 18326 18328 18330 18333 18335 18338 18341 18343 18346 18349 18352 18354 18356 18359 18362 18365 18367 18370 18373 18376 18379 18382 18385 18388 18391 18394 18397 18399 18402 18405 18408 18411 18414 18417 18420 18423 18426 18429 18432 18435 18438 18441 18444 18447 18450 18452 18455 18458 18461 18464 18466 18469 18472 18475 18478 18481 18484 18487 18490 18493 18496 18499 18502 18505 18508 18510 18513 18516 18519 18522 18525 18528 18530 18533 18535 18538 18541 18544 18547 18550 18552 18554 18557 18560 18563 18566 18569 18572 18575 18578 18581 18584 18587 18590 18593 18596 18599 18602 18605 18608 18611 18614 18617 18620 18623 18626 18629 18632 18635 18638 18641 18644 18647 18650 18653 18656 18659 18662 18665 18668 18671 18674 18677 18680 18683 18686 18689 18692 18695 18698 18701 18704 18707 18710 18713 18716 18719 18722 18725 18728 18730 18733 18736 18739 18741 18744 18747 18750 18753 18756 18759 18762 18765 18768 18771 18774 18777 18779 18782 18785 18788 18791 18794 18797 18800 18803 18805 18808 18811 18813 18816 18819 18821 18824 18827 18830 18833 18835 18838 18840 18843 18846 18849 18851 18854 18856 18859 18862 18865 18868 18870 18873 18876 18878 18880 18883 18886 18888 18891 18894 18896 18899 18902 18905 18908 18911 18914 18917 18920 18923 18926 18929 18932 18935 18938 18941 18943 18946 18949 18952 18955 18958 18961 18964 18967 18970 18973 18976 18979 18982 18985 18988 18991 18994 18997 19000 19003 19006 19009 19012 19015 19018 19021 19024 19027 19030 19033 19036 19039 19042 19045 19048 19051 19054 19057 19060 19063 19066 19069 19072 19075 19078 19081 19084 19086 19089 19091 19094 19097 19100 19103 19106 19109 19112 19115 19117 19120 19123 19126 19129 19132 19135 19138 19140 19143 19146 19148 19151 19154 19156 19159 19162 19165 19168 19171 19174 19177 19180 19183 19186 19189 19192 19195 19198 19201 19204 19207 19210 19213 19215 19218 19221 19224 19227 19230 19233 19236 19238 19241 19244 19247 19249 19252 19255 19257 19259 19261 19264 19267 19270 19273 19275 19277 19280 19283 19286 19289 19292 19294 19297 19300 19303 19306 19308 19311 19314 19317 19320 19323 19326 19328 19331 19334 19337 19339 19341 19344 19347 19350 19353 19356 19359 19362 19365 19368 19371 19374 19377 19380 19382 19385 19388 19390 19393 19396 19399 19402 19405 19408 19411 19414 19417 19420 19423 19426 19429 19432 19435 19438 19441 19444 19447 19449 19452 19455 19458 19461 19464 19467 19470 19473 19476 19479 19482 19485 19488 19491 19493 19496 19499 19502 19505 19508 19510 19513 19516 19518 19521 19524 19527 19530 19533 19536 19538 19541 19543 19546 19548 19551 19553 19556 19559 19561 19564 19567 19569 19572 19575 19578 19580 19583 19585 19588 19591 19594 19597 19600 19603 19606 19609 19611 19614 19617 19620 19623 19626 19629 19632 19635 19638 19641 19644 19647 19650 19653 19656 19659 19662 19665 19668 19671 19674 19677 19680 19682 19685 19688 19690 19693 19696 19699 19701 19704 19706 19708 19711 19714 19717 19720 19723 19726 19729 19732 19735 19738 19740 19743 19745 19748 19750 19753 19756 19759 19762 19765 19768 19771 19774 19777 19780 19783 19786 19788 19791 19794 19797 19800 19803 19806 19809 19812 19815 19818 19821 19824 19827 19830 19833 19836 19839 19842 19845 19848 19851 19853 19856 19858 19861 19864 19867 19869 19871 19873 19876 19879 19882 19885 19887 19890 19893 19896 19899 19901 19904 19907 19910 19913 19916 19919 19921 19924 19927 19930 19933 19936 19939 19941 19943 19946 19948 19950 19953 19956 19959 19962 19965 19967 19970 19973 19976 19979 19982 19985 19988 19991 19993 19996 19999 20002 20005 20008 20011 20014 20016 20019 20022 20025 20027 20030 20033 20036 20038 20041 20044 20047 20050 20053 20056 20058 20061 20064 20066 20069 20072 20074 20077 20080 20082 20085 20088 20090 20093 20095 20098 20101 20104 20107 20110 20112 20115 20118 20121 20124 20127 20130 20133 20136 20139 20142 20145 20148 20151 20153 20156 20158 20161 20164 20167 20170 20173 20176 20179 20182 20185 20188 20191 20194 20197 20200 20203 20206 20209 20212 20215 20218 20221 20224 20227 20230 20233 20236 20239 20242 20245 20248 20251 20254 20257 20260 20263 20265 20268 20271 20273 20276 20279 20282 20285 20288 20291 20293 20296 20299 20302 20305 20308 20311 20314 20317 20320 20323 20326 20329 20331 20334 20337 20340 20343 20345 20348 20351 20354 20357 20360 20362 20365 20368 20371 20374 20377 20379 20382 20385 20388 20391 20394 20397 20400 20403 20406 20409 20412 20415 20418 20421 20424 20427 20430 20433 20436 20439 20442 20445 20448 20451 20454 20457 20460 20463 20466 20469 20472 20475 20478 20481 20484 20487 20490 20493 20496 20498 20501 20504 20507 20510 20513 20515 20518 20521 20523 20526 20529 20532 20535 20538 20541 20543 20546 20549 20551 20554 20557 20559 20562 20565 20567 20569 20571 20574 20577 20579 20582 20585 20587 20590 20593 20596 20599 20602 20605 20607 20610 20613 20616 20619 20622 20625 20628 20631 20634 20636 20639 20641 20644 20647 20650 20653 20656 20658 20661 20664 20666 20669 20672 20674 20677 20680 20683 20686 20689 20692 20695 20697 20700 20703 20706 20709 20711 20714 20717 20719 20722 20725 20728 20731 20734 20736 20739 20742 20745 20748 20751 20754 20757 20759 20762 20765 20767 20770 20772 20775 20778 20781 20784 20787 20790 20793 20796 20799 20802 20805 20808 20811 20814 20817 20820 20823 20826 20829 20832 20835 20838 20841 20844 20847 20850 20853 20856 20859 20862 20864 20867 20870 20873 20876 20879 20881 20884 20887 20890 20892 20895 20898 20901 20904 20907 20910 20913 20916 20919 20922 20925 20928 20931 20934 20937 20940 20943 20946 20949 20952 20954 20957 20960 20963 20966 20969 20972 20974 20977 20980 20983 20986 20989 20992 20995 20998 21001 21004 21006 21009 21012 21015 21018 21021 21023 21026 21029 21031 21033 21036 21039 21042 21045 21048 21050 21053 21056 21059 21062 21065 21068 21070 21073 21076 21079 21082 21084 21087 21090 21093 21096 21099 21102 21105 21108 21111 21114 21117 21120 21123 21126 21128 21131 21133 21136 21139 21142 21145 21148 21151 21154 21157 21160 21163 21166 21169 21172 21175 21178 21181 21184 21187 21190 21193 21196 21198 21201 21203 21206 21209 21211 21213 21216 21219 21222 21225 21228 21231 21234 21236 21239 21242 21245 21247 21250 21253 21255 21258 21261 21264 21266 21269 21272 21275 21277 21280 21283 21285 21288 21291 21294 21297 21300 21302 21305 21308 21311 21314 21317 21320 21323 21326 21329 21332 21334 21337 21340 21342 21345 21348 21351 21354 21357 21360 21363 21366 21368 21371 21374 21376 21379 21382 21384 21387 21390 21393 21396 21399 21402 21404 21407 21410 21413 21415 21418 21421 21424 21427 21430 21432 21435 21438 21441 21444 21446 21449 21452 21455 21457 21460 21463 21465 21467 21470 21473 21476 21479 21481 21484 21487 21490 21492 21495 21498 21501 21504 21507 21510 21512 21515 21518 21521 21524 21526 21529 21531 21534 21536 21539 21542 21544 21547 21550 21552 21554 21557 21560 21563 21566 21568 21571 21574 21577 21580 21583 21585 21588 21591 21594 21597 21600 21603 21606 21609 21612 21615 21618 21620 21623 21626 21629 21632 21635 21638 21641 21644 21647 21649 21652 21655 21658 21661 21664 21667 21670 21673 21676 21679 21682 21685 21688 21691 21694 21697 21700 21703 21706 21709 21712 21715 21718 21721 21724 21727 21730 21733 21736 21739 21741 21744 21747 21750 21753 21756 21759 21762 21765 21768 21770 21773 21775 21778 21781 21784 21787 21789 21792 21795 21798 21801 21804 21807 21810 21813 21816 21819 21822 21824 21827 21830 21833 21836 21839 21842 21845 21848 21851 21854 21857 21860 21863 21866 21869 21871 21874 21877 21880 21883 21885 21888 21891 21894 21897 21900 21903 21905 21908 21911 21914 21917 21920 21923 21926 21929 21932 21935 21938 21941 21944 21947 21950 21953 21956 21959 21962 21965 21968 21971 21974 21977 21980 21983 21986 21989 21992 21995 21998 22001 22004 22007 22010 22013 22016 22019 22022 22025 22028 22031 22034 22037 22040 22043 22046 22049 22052 22054 22057 22060 22063 22065 22068 22071 22074 22077 22080 22083 22086 22089 22092 22095 22098 22101 22103 22106 22109 22112 22114 22117 22120 22123 22126 22128 22131 22134 22137 22139 22142 22144 22146 22149 22152 22154 22156 22159 22161 22163 22166 22169 22172 22175 22178 22181 22184 22187 22190 22193 22196 22199 22202 22205 22208 22211 22214 22217 22220 22223 22226 22229 22232 22235 22238 22241 22244 22247 22250 22252 22255 22258 22261 22264 22267 22269 22272 22275 22277 22279 22282 22285 22288 22291 22293 22296 22299 22302 22304 22307 22309 22312 22315 22317 22320 22322 22325 22327 22329 22332 22335 22338 22341 22344 22347 22350 22353 22356 22359 22362 22364 22367 22370 22373 22375 22378 22381 22384 22387 22389 22391 22394 22397 22399 22401 22404 22406 22408 22411 22413 22416 22419 22421 22424 22427 22430 22433 22436 22438 22441 22444 22447 22450 22453 22456 22459 22462 22464 22467 22469 22472 22475 22478 22481 22484 22487 22490 22493 22496 22498 22501 22504 22507 22510 22512 22515 22518 22521 22524 22527 22530 22533 22535 22538 22541 22544 22546 22549 22552 22555 22558 22561 22564 22567 22570 22572 22574 22577 22580 22582 22584 22586 22589 22592 22595 22598 22601 22604 22607 22610 22613 22616 22619 22622 22625 22628 22631 22634 22637 22640 22643 22645 22648 22651 22654 22657 22659 22662 22665 22667 22670 22673 22676 22679 22682 22685 22688 22691 22694 22697 22700 22703 22706 22709 22712 22715 22717 22720 22723 22726 22729 22732 22735 22738 22740 22743 22745 22748 22751 22754 22757 22760 22763 22766 22769 22772 22774 22777 22780 22782 22785 22788 22790 22793 22795 22798 22801 22804 22806 22809 22812 22815 22818 22820 22823 22826 22829 22832 22835 22838 22841 22844 22847 22850 22853 22855 22858 22861 22864 22867 22870 22873 22876 22879 22882 22884 22887 22890 22893 22896 22899 22902 22905 22908 22911 22913 22916 22919 22921 22924 22927 22930 22932 22935 22938 22940 22943 22946 22949 22952 22954 22957 22960 22962 22965 22968 22970 22973 22976 22979 22982 22985 22988 22991 22994 22997 23000 23003 23006 23009 23012 23015 23017 23020 23022 23025 23028 23030 23033 23035 23038 23041 23044 23047 23050 23053 23056 23059 23062 23065 23068 23071 23074 23076 23079 23082 23085 23087 23090 23092 23094 23097 23100 23103 23106 23108 23111 23114 23117 23120 23123 23126 23129 23132 23134 23137 23140 23143 23146 23149 23152 23155 23158 23160 23163 23166 23169 23172 23175 23178 23181 23183 23186 23189 23192 23195 23198 23201 23204 23207 23210 23213 23216 23219 23222 23225 23228 23230 23233 23236 23239 23242 23245 23248 23251 23254 23256 23259 23262 23264 23267 23270 23273 23276 23278 23281 23284 23287 23290 23293 23296 23299 23302 23305 23308 23311 23314 23317 23320 23323 23326 23329 23331 23334 23337 23340 23343 23346 23349 23352 23355 23358 23361 23364 23367 23370 23373 23376 23379 23382 23384 23387 23390 23393 23396 23399 23402 23405 23408 23411 23414 23417 23419 23422 23425 23428 23430 23433 23436 23439 23442 23445 23448 23451 23454 23456 23459 23462 23465 23467 23470 23473 23476 23479 23482 23485 23488 23491 23494 23497 23500 23503 23506 23509 23512 23514 23517 23520 23523 23526 23529 23532 23535 23538 23541 23543 23546 23549 23552 23555 23558 23561 23564 23567 23570 23573 23576 23578 23581 23584 23587 23590 23593 23596 23599 23602 23605 23608 23611 23614 23616 23618 23621 23624 23627 23630 23633 23636 23639 23641 23644 23647 23650 23652 23655 23658 23661 23664 23667 23670 23672 23675 23678 23681 23684 23687 23690 23693 23696 23699 23702 23705 23708 23711 23714 23717 23720 23723 23726 23729 23732 23735 23738 23741 23744 23747 23750 23753 23756 23759 23762 23765 23768 23771 23774 23777 23780 23783 23786 23789 23792 23794 23797 23800 23803 23806 23809 23812 23815 23818 23821 23824 23827 23830 23833 23836 23839 23842 23845 23848 23851 23854 23857 23860 23863 23866 23869 23872 23874 23877 23879 23882 23885 23888 23891 23893 23896 23899 23902 23905 23907 23910 23913 23916 23919 23922 23925 23928 23931 23934 23937 23940 23943 23945 23948 23951 23954 23957 23960 23962 23965 23968 23970 23973 23975 23978 23981 23983 23986 23989 23992 23995 23998 24001 24004 24007 24010 24013 24016 24019 24022 24025 24028 24031 24034 24037 24040 24043 24046 24048 24051 24054 24057 24060 24063 24066 24069 24071 24074 24077 24080 24083 24086 24089 24092 24095 24098 24101 24104 24107 24110 24113 24116 24118 24121 24124 24127 24130 24133 24136 24139 24142 24145 24148 24150 24153 24156 24159 24162 24164 24167 24170 24172 24175 24178 24181 24184 24187 24190 24193 24196 24198 24201 24204 24207 24210 24213 24216 24219 24221 24224 24227 24229 24232 24235 24238 24241 24244 24247 24250 24253 24256 24258 24261 24264 24267 24270 24273 24276 24279 24282 24285 24288 24291 24294 24297 24300 24303 24306 24309 24312 24315 24318 24321 24324 24327 24330 24333 24336 24339 24342 24345 24348 24351 24354 24357 24360 24363 24366 24369 24372 24375 24378 24381 24384 24387 24390 24393 24396 24399 24402 24405 24408 24411 24414 24417 24420 24423 24426 24429 24431 24434 24437 24440 24443 24446 24448 24451 24454 24457 24460 24463 24466 24469 24472 24475 24477 24480 24483 24486 24489 24492 24495 24498 24501 24504 24507 24509 24512 24515 24518 24521 24524 24527 24530 24533 24536 24539 24542 24545 24548 24551 24554 24557 24560 24563 24566 24569 24572 24574 24577 24579 24582 24585 24588 24591 24594 24597 24599 24602 24605 24608 24611 24614 24617 24620 24623 24626 24628 24631 24634 24637 24640 24642 24645 24648 24650 24653 24656 24659 24662 24665 24668 24671 24674 24677 24680 24683 24686 24689 24692 24695 24698 24701 24704 24707 24710 24713 24716 24719 24722 24725 24728 24731 24734 24737 24740 24743 24746 24749 24752 24755 24758 24761 24764 24767 24770 24773 24776 24779 24782 24785 24788 24791 24794 24797 24800 24803 24806 24809 24812 24815 24818 24821 24824 24827 24830 24833 24836 24839 24842 24845 24848 24851 24854 24857 24860 24863 24866 24869 24872 24875 24878 24881 24884 24887 24890 24893 24896 24899 24902 24905 24908 24911 24914 24917 24920 24923 24926 24929 24932 24935 24938 24941 24944 24947 24950 24953 24956 24959 24962 24965 24968 24971 24974 24977 24980 24983 24986 24989 24992 24995 24998 25001 25004 25007 25010 25013 25016 25019 25022 25025 25028 25031 25034 25037 25040 25043 25046 25049 25052 25055 25057 25060 25063 25066 25069 25072 25075 25078 25080 25083 25086 25089 25092 25095 25097 25100 25103 25106 25109 25112 25115 25118 25121 25124 25127 25130 25133 25136 25139 25142 25145 25148 25151 25154 25157 25160 25162 25165 25168 25171 25174 25176 25179 25182 25185 25188 25191 25194 25197 25200 25203 25206 25209 25212 25215 25218 25221 25224 25227 25230 25233 25236 25239 25242 25245 25247 25250 25253 25256 25259 25262 25265 25268 25271 25274 25277 25280 25283 25286 25289 25292 25295 25298 25301 25304 25307 25310 25312 25315 25318 25321 25324 25326 25329 25332 25334 25336 25339 25342 25345 25347 25350 25353 25356 25359 25361 25363 25366 25369 25371 25374 25377 25380 25383 25386 25389 25392 25395 25398 25401 25404 25407 25410 25413 25416 25419 25422 25425 25428 25431 25434 25437 25440 25443 25446 25448 25451 25454 25457 25459 25462 25465 25467 25469 25472 25475 25478 25481 25484 25487 25490 25492 25495 25498 25500 25503 25506 25508 25511 25513 25516 25519 25521 25524 25527 25530 25533 25536 25539 25541 25544 25547 25550 25552 25555 25558 25561 25564 25567 25570 25573 25576 25579 25582 25585 25588 25591 25594 25597 25600 25603 25606 25609 25612 25615 25617 25620 25623 25626 25629 25631 25634 25637 25639 25642 25645 25648 25651 25654 25657 25659 25662 25664 25667 25670 25673 25675 25678 25681 25684 25687 25689 25691 25694 25697 25700 25703 25706 25708 25710 25713 25716 25718 25721 25723 25726 25729 25732 25735 25738 25741 25744 25746 25749 25751 25754 25757 25760 25763 25766 25769 25772 25775 25778 25780 25783 25786 25789 25792 25795 25798 25801 25804 25806 25808 25811 25814 25817 25820 25823 25826 25829 25832 25835 25838 25841 25844 25847 25849 25852 25854 25857 25859 25862 25865 25868 25870 25873 25876 25879 25882 25885 25887 25890 25892 25894 25897 25900 25903 25906 25909 25912 25915 25918 25921 25924 25927 25930 25932 25935 25938 25941 25944 25947 25950 25952 25955 25958 25961 25963 25966 25969 25972 25974 25977 25980 25983 25986 25989 25992 25995 25998 26001 26003 26006 26008 26011 26013 26016 26019 26022 26025 26028 26031 26034 26037 26040 26043 26046 26049 26052 26055 26058 26061 26063 26066 26069 26072 26074 26077 26079 26082 26085 26088 26091 26093 26096 26099 26102 26104 26107 26110 26113 26116 26119 26122 26125 26128 26131 26133 26136 26139 26142 26145 26148 26151 26154 26157 26160 26163 26166 26169 26172 26175 26178 26181 26184 26187 26190 26193 26196 26199 26202 26205 26208 26211 26214 26216 26219 26222 26225 26228 26231 26234 26237 26239 26242 26245 26247 26250 26252 26255 26257 26260 26262 26265 26268 26271 26274 26277 26280 26282 26285 26288 26290 26293 26296 26298 26301 26304 26306 26309 26312 26315 26318 26320 26323 26325 26327 26330 26333 26336 26339 26342 26345 26347 26350 26353 26356 26359 26362 26365 26368 26370 26373 26376 26379 26382 26385 26387 26390 26393 26396 26398 26400 26403 26406 26409 26411 26414 26417 26419 26422 26425 26427 26430 26432 26435 26437 26440 26443 26446 26448 26451 26454 26457 26460 26463 26466 26469 26472 26475 26478 26481 26484 26486 26488 26491 26494 26497 26500 26503 26506 26509 26511 26514 26517 26519 26522 26525 26528 26531 26534 26537 26540 26542 26545 26548 26551 26553 26556 26559 26562 26564 26567 26570 26573 26576 26579 26582 26585 26588 26591 26594 26597 26600 26603 26606 26609 26611 26614 26617 26620 26623 26626 26629 26631 26633 26636 26638 26641 26644 26647 26650 26653 26656 26659 26662 26665 26668 26671 26674 26677 26680 26683 26686 26689 26692 26695 26698 26701 26704 26707 26710 26713 26716 26719 26722 26725 26728 26731 26734 26737 26740 26743 26746 26749 26752 26755 26758 26761 26764 26767 26770 26773 26776 26778 26780 26782 26785 26788 26791 26794 26797 26800 26803 26806 26809 26811 26813 26816 26819 26821 26824 26827 26829 26831 26834 26837 26840 26843 26846 26849 26852 26854 26857 26860 26863 26866 26869 26872 26875 26878 26881 26884 26887 26890 26893 26896 26899 26902 26905 26908 26910 26913 26916 26918 26921 26923 26926 26928 26930 26933 26936 26939 26942 26945 26948 26951 26953 26956 26958 26961 26964 26967 26969 26972 26975 26978 26980 26983 26986 26989 26992 26995 26998 27001 27004 27007 27010 27013 27016 27019 27022 27024 27027 27030 27033 27036 27039 27041 27044 27047 27050 27052 27055 27058 27061 27063 27066 27069 27072 27075 27078 27081 27084 27087 27090 27093 27096 27099 27102 27105 27108 27111 27114 27117 27120 27123 27126 27129 27132 27135 27138 27141 27144 27147 27150 27153 27156 27159 27162 27165 27168 27171 27174 27177 27180 27183 27186 27189 27192 27195 27198 27201 27204 27206 27209 27212 27215 27218 27221 27224 27227 27230 27233 27236 27238 27241 27244 27247 27250 27253 27256 27259 27262 27265 27268 27271 27274 27277 27280 27283 27286 27289 27292 27295 27298 27301 27304 27307 27310 27313 27316 27319 27321 27324 27327 27330 27333 27336 27339 27342 27345 27348 27351 27354 27357 27360 27363 27366 27369 27371 27374 27377 27380 27383 27386 27389 27392 27395 27398 27400 27403 27406 27409 27412 27415 27418 27421 27423 27426 27429 27432 27435 27438 27441 27444 27447 27450 27452 27455 27458 27461 27464 27467 27470 27473 27475 27478 27481 27484 27487 27490 27493 27496 27499 27502 27504 27507 27510 27513 27516 27519 27522 27525 27528 27530 27533 27536 27538 27541 27544 27547 27550 27553 27556 27559 27562 27564 27567 27570 27572 27574 27577 27580 27583 27586 27589 27592 27594 27597 27600 27603 27606 27609 27612 27615 27618 27621 27624 27627 27630 27632 27635 27638 27641 27644 27647 27650 27653 27656 27658 27661 27664 27666 27669 27672 27675 27678 27681 27684 27687 27690 27693 27696 27699 27702 27704 27707 27710 27713 27716 27719 27722 27725 27728 27731 27734 27737 27739 27742 27745 27747 27750 27753 27756 27758 27761 27764 27767 27769 27772 27775 27777 27779 27781 27783 27785 27788 27791 27794 27797 27800 27803 27805 27807 27810 27812 27814 27816 27819 27821 27824 27826 27829 27832 27834 27837 27839 27842 27845 27847 27849 27852 27855 27858 27861 27864 27867 27870 27872 27875 27878 27881 27884 27887 27890 27893 27895 27898 27900 27902 27904 27907 27910 27913 27916 27918 27920 27923 27926 27929 27932 27934 27936 27939 27942 27945 27947 27950 27953 27956 27959 27962 27965 27967 27970 27973 27976 27978 27981 27984 27987 27990 27993 27996 27998 28001 28004 28007 28010 28013 28016 28019 28022 28025 28028 28031 28034 28037 28040 28043 28046 28049 28052 28055 28058 28061 28064 28067 28070 28073 28076 28078 28081 28084 28086 28089 28092 28095 28098 28101 28104 28107 28110 28113 28116 28119 28122 28125 28128 28131 28134 28137 28140 28143 28146 28149 28152 28155 28157 28160 28163 28166 28169 28171 28173 28176 28179 28182 28185 28188 28191 28193 28196 28199 28202 28205 28207 28209 28212 28215 28218 28221 28224 28227 28230 28233 28236 28239 28242 28245 28248 28251 28254 28257 28260 28263 28266 28269 28272 28275 28278 28281 28284 28287 28290 28293 28296 28299 28302 28305 28308 28311 28314 28317 28320 28323 28326 28329 28332 28335 28338 28341 28344 28347 28350 28353 28356 28359 28362 28365 28368 28371 28374 28377 28379 28382 28385 28388 28391 28393 28396 28399 28401 28404 28407 28410 28413 28416 28419 28422 28425 28428 28431 28434 28437 28439 28442 28445 28448 28451 28454 28457 28460 28463 28466 28469 28472 28475 28478 28481 28484 28487 28490 28493 28496 28499 28502 28504 28506 28509 28512 28515 28518 28521 28524 28527 28530 28533 28536 28539 28542 28545 28547 28550 28553 28556 28559 28562 28565 28567 28570 28573 28575 28578 28581 28584 28587 28590 28593 28596 28599 28602 28604 28607 28610 28613 28616 28619 28622 28625 28628 28631 28634 28637 28640 28643 28646 28649 28652 28655 28658 28661 28663 28666 28669 28672 28675 28678 28680 28683 28685 28688 28691 28694 28697 28700 28702 28705 28708 28711 28714 28717 28719 28722 28725 28728 28731 28734 28736 28738 28741 28743 28746 28749 28752 28755 28758 28761 28764 28767 28770 28773 28776 28779 28782 28785 28788 28791 28794 28797 28800 28803 28805 28808 28811 28814 28817 28820 28822 28825 28828 28830 28832 28835 28838 28841 28844 28847 28850 28853 28856 28859 28862 28865 28868 28871 28874 28876 28879 28882 28885 28888 28891 28894 28897 28899 28902 28905 28907 28910 28912 28915 28918 28920 28923 28926 28929 28932 28935 28938 28941 28944 28947 28950 28953 28956 28959 28962 28965 28968 28971 28974 28977 28980 28983 28986 28989 28991 28994 28997 29000 29003 29006 29009 29012 29015 29018 29021 29023 29026 29029 29032 29035 29037 29040 29043 29046 29049 29052 29055 29058 29061 29064 29067 29070 29072 29075 29078 29081 29084 29087 29090 29093 29096 29099 29102 29105 29108 29111 29114 29117 29120 29123 29126 29129 29132 29135 29138 29141 29144 29147 29150 29153 29156 29158 29161 29164 29167 29170 29172 29175 29178 29181 29184 29187 29189 29192 29195 29198 29201 29204 29207 29210 29213 29216 29219 29222 29225 29228 29231 29234 29237 29239 29242 29245 29248 29251 29254 29257 29260 29263 29266 29269 29272 29274 29277 29280 29282 29285 29288 29291 29294 29296 29299 29302 29305 29308 29311 29314 29317 29320 29323 29326 29329 29332 29335 29338 29341 29344 29347 29350 29353 29355 29358 29361 29363 29366 29368 29371 29373 29376 29379 29381 29384 29387 29390 29393 29396 29399 29402 29405 29408 29411 29414 29417 29420 29422 29425 29427 29430 29433 29436 29439 29442 29445 29448 29451 29454 29457 29460 29463 29466 29469 29472 29475 29478 29481 29484 29487 29490 29493 29496 29499 29502 29505 29508 29511 29514 29516 29519 29522 29525 29528 29531 29534 29537 29540 29542 29545 29547 29550 29552 29555 29558 29561 29563 29566 29569 29572 29575 29578 29581 29584 29587 29589 29592 29595 29598 29601 29603 29606 29609 29612 29615 29618 29621 29624 29626 29629 29631 29634 29637 29640 29643 29646 29649 29652 29655 29658 29661 29664 29667 29670 29673 29676 29679 29682 29685 29688 29691 29694 29697 29700 29703 29706 29709 29711 29714 29717 29720 29723 29726 29729 29732 29734 29737 29740 29743 29745 29748 29750 29753 29756 29758 29761 29764 29766 29768 29770 29773 29776 29779 29782 29784 29787 29790 29792 29795 29797 29800 29803 29806 29809 29812 29815 29818 29821 29824 29826 29829 29831 29834 29836 29839 29841 29843 29845 29848 29851 29854 29857 29860 29863 29865 29868 29871 29874 29877 29880 29883 29886 29889 29892 29895 29898 29901 29904 29907 29910 29913 29916 29919 29922 29925 29928 29931 29934 29937 29940 29943 29946 29949 29952 29954 29957 29960 29963 29966 29969 29972 29975 29978 29981 29984 29986 29988 29991 29994 29997 30000 30003 30006 30009 30011 30014 30017 30020 30023 30026 30029 30032 30035 30038 30040 30043 30046 30049 30051 30054 30057 30060 30063 30066 30069 30071 30074 30077 30079 30082 30085 30088 30090 30093 30096 30099 30101 30104 30106 30109 30112 30115 30118 30121 30123 30126 30129 30132 30135 30138 30141 30143 30146 30149 30152 30155 30158 30161 30164 30167 30170 30173 30176 30178 30181 30184 30187 30190 30193 30196 30199 30202 30205 30208 30211 30214 30217 30220 30223 30226 30229 30232 30235 30238 30240 30243 30246 30249 30252 30254 30257 30260 30263 30265 30268 30271 30273 30276 30279 30282 30285 30288 30291 30294 30297 30300 30302 30305 30307 30310 30313 30316 30319 30322 30325 30328 30331 30334 30336 30339 30341 30344 30346 30349 30352 30355 30358 30360 30363 30365 30368 30371 30374 30377 30380 30383 30385 30388 30391 30394 30397 30400 30402 30405 30408 30411 30414 30417 30420 30422 30425 30428 30431 30434 30437 30440 30443 30446 30449 30451 30454 30457 30460 30463 30465 30467 30470 30472 30475 30478 30480 30483 30486 30489 30492 30495 30498 30501 30504 30507 30510 30513 30516 30519 30522 30525 30528 30531 30534 30537 30540 30543 30546 30548 30551 30554 30556 30559 30562 30565 30567 30570 30573 30576 30579 30581 30584 30587 30590 30592 30595 30598 30601 30604 30607 30610 30612 30615 30617 30620 30623 30626 30629 30632 30635 30638 30641 30644 30647 30650 30652 30655 30658 30660 30663 30666 30669 30672 30675 30678 30681 30683 30686 30689 30692 30695 30698 30701 30703 30706 30709 30712 30715 30718 30721 30724 30727 30730 30733 30735 30738 30741 30744 30747 30750 30753 30756 30759 30762 30765 30767 30770 30773 30775 30778 30780 30782 30785 30788 30791 30794 30796 30799 30801 30804 30807 30810 30813 30816 30818 30821 30824 30827 30830 30832 30835 30838 30841 30843 30846 30849 30852 30855 30858 30861 30863 30866 30869 30872 30874 30877 30880 30882 30885 30888 30891 30894 30897 30900 30903 30906 30909 30912 30915 30918 30921 30924 30927 30930 30933 30935 30938 30941 30943 30946 30949 30952 30955 30958 30960 30963 30966 30969 30972 30975 30978 30981 30984 30986 30989 30991 30993 30996 30999 31002 31005 31008 31011 31014 31016 31018 31021 31024 31027 31030 31033 31035 31038 31040 31042 31045 31047 31050 31053 31055 31058 31061 31064 31067 31070 31073 31076 31079 31082 31085 31088 31091 31094 31097 31100 31103 31106 31109 31111 31114 31117 31120 31123 31126 31129 31132 31135 31138 31141 31144 31147 31150 31153 
</DataArray>
<DataArray type="UInt32" Name="types" format="ascii">
5 5 5 5 5 3 5 5 5 5 5 5 5 5 5 5 3 5 5 5 5 5 5 5 5 3 3 5 3 5 5 3 5 5 3 5 3 5 3 5 5 5 3 5 3 5 3 5 5 5 5 5 5 5 5 5 5 5 5 5 3 5 5 3 5 5 5 5 5 5 3 5 5 5 5 5 5 3 5 5 5 5 5 5 5 5 3 5 5 5 5 5 5 5 5 5 5 3 5 5 5 5 5 5 5 5 5 3 5 3 5 5 5 5 5 5 5 5 5 5 5 5 5 5 5 3 5 3 3 5 3 5 5 5 3 3 5 5 5 5 5 5 5 5 5 5 5 5 5 5 5 5 5 5 5 5 5 5 5 3 5 5 5 5 5 5 5 5 5 5 5 5 5 5 5 5 5 5 5 5 5 5 5 5 5 5 5 5 5 5 5 5 5 5 5 5 5 5 5 5 5 5 5 5 5 5 5 5 3 5 3 5 5 5 5 5 5 5 5 5 5 5 5 5 5 5 5 5 5 5 3 5 5 5 5 5 3 5 5 3 3 5 5 5 3 5 5 5 5 5 3 3 5 3 5 5 5 5 5 5 5 5 5 5 5 5 3 5 5 5 5 5 5 5 5 5 5 3 5 5 5 5 5 5 5 5 5 5 5 5 5 3 5 5 5 5 5 5 5 5 5 5 5 5 5 5 5 5 5 5 5 5 5 5 5 5 5 5 5 5 5 5 5 5 5 5 5 5 5 5 5 5 3 5 3 5 5 3 5 5 3 5 5 5 5 3 5 5 3 5 5 5 5 5 5 3 5 5 3 5 5 5 5 3 5 5 5 3 5 3 3 5 5 3 3 5 5 5 5 5 5 5 5 5 5 5 5 5 5 5 5 5 5 5 3 5 5 5 5 5 5 5 5 5 3 5 5 5 5 5 5 5 5 5 5 5 5 5 5 5 5 5 5 5 5 5 5 5 5 5 5 5 5 5 5 5 5 5 5 5 5 5 5 5 5 5 5 5 5 5 5 5 5 5 5 5 5 5 5 5 5 3 5 5 5 5 5 5 5 5 5 5 5 5 5 5 5 5 5 5 5 5 5 5 5 5 5 5 5 5 5 5 5 5 5 5 5 5 5 5 5 5 5 5 5 5 5 5 5 5 5 5 5 5 5 5 5 5 5 5 5 5 5 5 5 5 5 5 5 5 5 5 5 3 5 3 5 5 5 5 5 5 5 5 5 5 5 5 5 5 5 5 5 3 5 5 5 5 5 3 5 5 5 5 5 5 5 5 5 5 5 5 5 5 5 5 5 5 5 5 5 5 5 5 5 5 5 5 5 5 5 5 5 5 5 5 5 3 5 5 5 3 5 5 5 5 5 5 5 5 5 5 5 3 5 3 5 5 5 3 5 3 5 5 5 5 5 5 5 5 5 5 5 5 5 5 5 5 5 5 5 5 5 5 5 5 5 5 5 5 5 5 5 5 5 5 5 5 5 5 5 5 5 5 5 3 5 5 5 5 5 3 5 5 5 5 5 5 3 5 5 5 5 5 5 3 5 5 5 5 5 5 5 5 3 5 5 5 5 5 5 5 5 5 5 3 5 5 5 5 3 5 5 5 5 5 3 3 5 3 5 5 5 5 3 5 3 3 3 5 5 5 5 5 3 5 5 5 5 5 3 5 5 3 5 5 5 5 5 5 5 5 5 5 5 5 5 5 5 5 5 5 5 5 5 5 5 3 5 5 5 5 5 5 3 5 5 5 5 5 5 5 5 5 5 5 5 5 3 5 5 5 5 5 5 5 5 3 5 5 5 5 5 5 5 5 5 5 5 5 5 5 5 5 5 5 5 5 5 5 5 5 5 5 5 5 5 5 5 5 5 5 5 5 5 5 5 5 5 5 5 5 5 5 5 5 5 5 5 5 5 5 5 5 5 5 5 5 5 5 5 5 5 5 5 5 5 5 5 5 5 5 5 5 5 5 5 5 5 5 5 5 5 5 5 5 5 5 5 5 5 5 5 5 5 5 5 3 5 5 5 5 5 5 3 5 5 5 5 5 5 5 5 5 5 5 5 5 5 5 5 5 5 5 5 5 5 5 5 5 5 5 3 5 3 5 5 5 5 5 5 3 3 5 5 5 5 5 5 5 5 5 3 5 5 3 5 5 5 5 5 5 5 5 3 5 5 3 3 5 5 5 5 5 5 5 3 5 5 3 5 5 5 5 5 5 3 5 5 5 5 5 5 5 5 5 5 5 5 5 5 5 5 5 3 5 3 5 5 5 5 5 5 5 5 5 5 5 3 5 5 5 5 5 5 5 5 5 5 5 5 5 5 5 5 5 5 5 5 5 5 5 5 5 5 5 5 5 5 5 5 5 5 5 5 5 5 5 5 5 5 5 5 5 5 5 5 5 5 5 5 5 5 5 3 5 5 5 5 5 5 5 5 5 3 5 5 5 3 3 5 3 5 3 5 3 5 5 5 5 5 3 5 5 3 5 5 3 5 5 5 5 5 5 3 5 3 3 5 5 5 5 5 5 5 5 5 3 5 5 5 5 5 3 5 5 5 5 3 5 5 5 5 5 3 5 5 3 5 5 3 5 5 5 5 5 5 5 5 3 5 5 5 5 5 5 5 3 5 5 3 3 5 5 5 5 5 5 5 5 5 3 5 3 5 5 5 5 5 5 5 5 5 5 5 5 5 5 5 5 5 5 5 5 3 5 5 5 3 5 5 5 5 3 3 3 5 5 5 3 5 5 5 3 5 3 5 3 3 5 5 5 3 5 5 5 3 5 5 3 5 3 5 5 3 5 5 5 5 5 5 5 5 5 5 5 5 5 5 3 5 5 5 5 5 5 3 5 3 5 5 5 3 5 5 3 5 5 3 5 5 5 5 5 5 5 5 3 5 5 5 5 3 5 5 5 5 3 5 5 5 5 5 5 5 5 3 5 5 5 3 5 5 5 5 5 5 5 5 5 5 5 5 5 5 5 5 5 5 5 3 5 5 3 5 5 5 5 5 5 5 5 5 3 5 5 5 5 5 3 5 5 5 3 5 5 3 5 3 3 5 5 5 5 5 5 3 5 3 5 5 5 3 5 5 5 3 5 5 5 5 5 5 5 5 5 5 5 5 5 5 5 5 5 5 5 5 3 5 5 5 5 3 5 5 5 5 5 5 5 5 5 5 3 5 5 5 5 5 5 5 5 5 5 5 5 5 5 5 5 5 5 3 5 5 5 5 5 5 5 5 5 5 5 5 5 5 3 5 5 5 5 3 5 5 5 5 5 5 5 3 5 5 5 5 5 5 5 5 5 5 5 5 5 5 5 5 5 3 5 5 5 5 3 5 5 5 5 5 5 5 5 3 5 5 3 5 5 3 5 5 5 5 5 5 5 5 5 5 3 5 5 5 3 5 5 5 5 5 5 5 5 5 5 5 5 5 5 5 5 5 5 5 5 5 5 5 5 5 5 3 5 5 5 5 5 5 5 5 5 5 3 5 3 5 5 5 5 5 5 5 3 5 3 5 5 3 5 3 5 3 5 5 5 5 5 3 5 5 5 5 5 5 5 3 5 5 5 5 5 5 5 5 5 5 5 5 5 5 5 5 5 5 5 5 5 5 5 5 5 5 5 5 5 5 5 5 3 5 5 5 5 5 5 5 3 5 5 5 5 5 5 5 3 5 5 5 5 5 3 5 5 5 5 5 5 5 5 5 5 5 5 3 5 5 5 5 5 3 5 3 5 5 5 5 5 5 5 5 3 5 5 5 5 5 5 3 5 5 3 5 5 5 5 5 5 5 5 5 5 5 5 5 5 5 5 5 5 5 5 5 3 5 5 5 3 5 5 5 5 3 3 5 3 3 3 5 5 5 3 3 5 5 5 5 5 5 5 5 5 3 5 3 5 5 5 5 3 5 5 5 5 3 5 3 5 5 5 3 5 5 5 5 5 3 5 5 3 5 5 5 5 5 3 5 5 5 5 5 5 5 5 5 5 5 5 5 5 5 5 5 5 5 5 5 5 5 5 5 5 5 5 5 5 5 5 5 5 5 5 5 5 5 5 5 5 3 5 5 5 5 5 5 3 5 3 5 5 5 5 5 5 5 5 5 3 5 3 5 5 5 5 5 5 5 3 5 5 5 5 3 5 5 3 5 5 5 5 5 5 5 5 5 5 5 3 3 5 5 5 3 3 5 5 5 5 5 5 5 5 5 5 5 5 5 5 5 5 5 5 5 5 5 5 5 5 5 5 5 3 5 5 5 5 3 5 5 5 5 5 5 5 3 3 5 3 5 5 5 5 5 5 5 5 5 5 5 5 3 5 5 5 5 5 5 5 5 3 5 5 5 5 5 3 5 5 5 3 5 5 5 5 5 5 3 5 5 5 5 5 5 5 5 5 5 5 5 5 5 5 5 5 5 5 5 5 5 5 5 5 5 5 5 5 3 5 5 5 5 5 5 5 5 5 5 5 5 5 5 5 5 5 5 5 5 5 5 5 5 5 5 5 5 5 5 5 5 5 5 5 5 5 5 5 5 5 5 5 5 5 5 5 5 5 5 5 5 3 5 5 5 5 5 5 5 5 5 5 5 5 5 5 5 5 5 5 5 3 5 5 3 5 5 5 5 5 5 5 5 5 5 5 5 5 5 5 5 5 5 5 5 5 5 5 5 5 5 5 5 5 5 5 5 5 5 5 5 5 5 5 5 5 5 5 5 5 5 5 5 5 5 5 3 5 5 5 5 5 5 5 3 5 5 5 5 5 3 5 5 5 5 5 5 5 5 5 5 5 5 5 5 5 5 5 5 5 3 5 5 5 5 5 5 5 5 3 5 3 5 5 5 5 5 3 3 5 5 3 5 5 5 5 5 5 5 3 5 5 5 5 5 5 5 5 5 5 5 5 5 5 5 5 5 5 3 5 5 5 5 5 5 5 5 3 5 5 5 5 5 5 5 5 5 5 5 5 5 5 5 5 5 5 5 5 5 5 5 5 3 5 5 5 5 5 5 5 5 5 5 5 5 5 5 5 5 5 5 5 5 5 5 5 5 5 5 3 5 3 5 5 5 5 5 5 5 5 5 5 5 5 5 5 5 5 5 5 5 5 5 5 5 5 5 5 5 3 5 5 3 5 5 5 5 5 5 3 5 5 5 5 3 5 3 3 5 5 5 5 5 5 5 5 5 5 5 5 5 5 5 5 5 5 5 5 3 3 5 5 5 5 3 5 5 5 5 5 5 5 5 5 5 5 5 5 5 5 3 3 5 5 3 5 5 5 5 5 5 5 5 5 5 5 5 5 5 5 5 5 5 3 5 5 5 5 5 5 3 3 5 3 5 5 5 5 5 5 5 5 5 5 5 5 5 3 5 5 5 5 5 5 5 5 5 5 5 5 5 5 5 5 5 5 5 5 5 5 5 5 5 5 5 3 5 3 5 5 5 5 5 5 5 5 5 5 5 5 5 3 5 5 5 3 5 5 5 3 5 5 5 5 5 5 3 5 5 3 5 5 5 5 5 5 5 5 5 5 5 5 5 5 5 5 5 5 3 5 5 5 5 3 5 3 5 5 3 5 5 5 5 5 5 5 5 5 5 5 5 5 3 3 5 5 3 5 3 3 5 5 5 5 5 5 5 5 5 5 5 3 5 5 3 5 5 5 5 3 3 5 3 5 3 3 5 5 5 3 3 3 5 5 3 3 5 3 5 5 3 5 5 5 3 5 5 5 3 5 5 3 5 5 3 5 3 5 5 5 3 5 3 5 5 3 3 3 3 5 3 5 5 5 3 5 5 5 3 3 5 5 3 5 3 5 5 3 3 5 3 5 5 5 3 5 5 5 5 5 5 3 5 5 5 3 5 5 5 5 5 5 5 5 5 5 5 5 3 5 5 5 5 5 5 5 5 5 5 5 5 5 5 5 3 5 5 5 3 5 5 3 5 5 5 5 5 5 5 5 5 5 5 5 5 5 5 5 5 3 5 5 3 5 5 5 3 5 3 5 5 3 5 5 5 3 5 5 5 3 5 5 5 5 5 5 5 5 5 5 5 3 5 3 5 3 5 5 5 5 5 5 5 3 5 5 5 5 3 5 3 5 3 5 5 5 3 5 3 5 5 3 5 3 3 5 5 5 5 5 5 5 3 5 5 3 5 5 5 5 5 5 3 5 5 5 5 5 5 5 5 3 5 5 5 5 3 5 3 5 5 3 5 3 5 5 5 5 5 5 5 5 3 5 5 5 5 5 5 5 5 5 5 5 5 5 5 5 5 5 3 5 3 3 5 5 5 5 5 3 5 5 5 5 5 5 5 5 3 5 5 3 5 5 5 5 5 3 5 5 5 5 5 5 5 5 3 5 5 3 5 5 5 5 5 5 3 5 5 3 3 5 3 5 3 3 3 5 5 5 3 3 5 5 3 3 5 3 5 5 3 3 5 5 3 5 5 5 3 5 3 3 5 5 5 5 5 5 5 5 3 5 5 5 5 5 5 5 5 5 5 3 5 5 3 5 3 5 5 5 5 5 5 5 5 3 5 5 5 3 5 5 5 5 5 5 5 3 5 5 5 5 5 5 3 5 5 5 5 5 5 3 5 5 5 3 5 5 5 3 5 3 5 3 5 5 5 5 3 3 5 5 5 5 5 5 5 5 5 5 5 5 5 5 5 5 5 5 5 5 3 5 5 3 5 5 5 3 3 5 3 5 5 5 5 5 5 5 5 5 3 5 5 5 5 5 5 3 5 5 5 5 5 5 5 5 3 5 5 5 3 3 5 5 5 5 5 5 5 5 5 5 5 5 5 5 3 5 5 5 5 5 5 5 5 5 3 5 3 5 5 5 5 5 5 5 5 5 5 5 5 5 5 5 5 5 5 5 5 5 5 5 5 5 5 5 5 5 5 5 5 5 5 5 5 5 5 5 5 5 5 5 5 5 5 5 5 5 5 5 5 5 3 5 3 5 3 5 5 5 5 5 5 5 3 5 5 5 5 3 5 5 5 5 5 5 5 5 3 5 5 5 5 5 3 3 5 5 5 5 3 5 5 3 5 5 5 3 5 5 3 5 5 5 5 5 3 5 3 3 5 5 3 3 5 5 5 3 5 3 5 3 5 5 5 3 3 5 5 5 3 3 5 3 5 5 5 3 3 5 5 5 3 3 5 3 3 5 3 3 5 5 5 5 3 5 3 5 3 5 3 5 5 5 5 5 5 5 5 5 5 3 5 5 3 5 3 5 5 5 3 3 5 5 5 3 5 3 5 3 3 5 5 5 5 5 5 5 5 5 5 5 5 3 5 5 5 5 5 5 3 5 5 3 5 5 5 5 5 5 5 5 5 3 5 5 3 5 5 5 5 5 5 5 5 5 5 5 5 5 5 5 5 5 5 5 5 5 5 5 5 5 5 5 5 5 5 5 5 5 5 5 5 5 5 5 3 5 5 5 5 5 5 3 5 5 5 5 5 5 5 5 5 5 5 5 3 5 3 5 5 5 5 5 5 5 5 5 5 5 5 5 5 5 5 5 5 5 5 3 5 5 3 5 5 5 3 3 5 5 5 5 5 5 5 5 3 5 5 5 5 5 5 5 5 5 5 5 5 5 5 5 5 3 5 5 5 5 5 5 3 3 5 5 5 5 5 5 5 5 3 5 5 5 3 5 5 5 5 5 5 3 5 5 5 5 5 5 5 3 5 5 5 5 5 5 5 5 5 5 5 5 3 5 5 5 3 5 5 5 5 3 5 5 5 5 5 5 5 5 5 5 5 5 5 5 5 5 3 5 5 5 5 5 5 5 5 5 5 5 3 5 3 5 5 5 5 5 5 5 5 3 5 5 3 5 5 5 5 5 5 3 5 5 3 3 5 5 5 5 5 5 5 5 5 3 5 5 5 3 5 5 5 5 5 5 5 5 5 5 3 5 5 5 5 5 5 5 5 5 5 5 5 5 5 5 5 5 5 5 5 5 5 5 5 5 5 5 5 5 5 3 5 5 5 5 5 3 5 5 5 5 5 5 5 5 5 3 5 3 5 5 5 5 5 5 3 5 5 3 5 5 5 5 5 5 5 5 5 5 5 5 5 5 5 5 5 5 5 5 5 5 3 5 3 5 5 5 5 5 5 5 5 5 5 5 5 5 5 5 5 5 5 5 5 5 5 5 3 5 5 5 5 3 5 5 5 5 5 3 5 5 3 5 3 5 5 5 5 3 3 3 5 5 3 5 5 3 3 5 3 5 5 5 5 5 3 5 5 5 3 3 3 3 5 5 5 3 3 5 5 5 3 3 5 3 5 5 5 5 5 5 5 5 5 5 5 5 5 5 5 5 5 5 3 5 5 5 5 5 5 5 5 5 5 5 5 3 5 5 5 5 5 5 5 5 5 5 5 5 5 3 3 5 5 5 5 5 5 5 5 3 5 3 5 5 5 5 3 5 3 5 5 5 5 5 5 3 5 5 5 5 5 5 5 5 5 5 5 5 5 5 5 5 3 5 5 3 5 5 5 5 5 5 5 5 5 5 5 5 5 5 5 5 5 5 5 5 3 5 5 5 5 5 5 5 5 3 5 5 5 5 5 5 5 5 5 5 5 3 5 3 5 5 5 5 5 3 5 5 5 3 5 3 5 5 5 5 5 5 5 5 5 3 5 5 5 5 5 5 5 5 5 5 5 3 5 5 3 5 5 5 5 5 3 3 5 5 5 5 5 3 5 5 3 5 5 3 5 5 5 5 5 5 5 5 5 5 5 5 5 5 5 5 3 5 5 3 5 5 5 5 5 5 5 5 5 5 5 5 5 5 5 5 5 5 5 3 5 5 5 5 3 5 5 5 5 5 3 5 5 5 5 5 3 5 5 5 5 3 5 5 5 5 5 3 5 5 5 5 5 5 5 5 5 5 5 5 5 5 5 5 5 5 5 5 5 5 5 3 5 5 5 5 5 5 5 3 5 5 5 5 5 5 5 3 5 5 5 3 5 5 5 5 5 5 5 5 5 5 5 3 5 5 5 5 5 5 3 5 5 5 5 5 5 5 5 5 5 5 5 5 5 5 5 5 5 5 5 3 5 5 5 5 5 5 3 5 5 5 5 5 5 5 5 3 5 5 5 3 5 5 5 5 5 5 5 5 5 5 5 5 5 5 5 5 5 5 5 5 5 5 5 5 5 5 5 5 5 5 5 5 5 5 5 5 5 5 5 5 5 5 3 5 5 5 5 5 5 5 5 5 5 5 5 5 5 5 5 5 5 5 5 5 5 5 5 5 5 3 5 5 5 5 5 5 5 5 5 5 5 5 3 5 5 5 5 5 5 5 5 5 5 5 3 5 5 3 5 5 5 5 5 5 5 3 5 5 5 5 5 5 5 5 5 5 5 5 3 5 3 5 3 5 3 5 5 5 5 5 3 5 5 5 5 5 5 5 5 5 5 5 5 5 5 5 5 3 5 5 5 5 5 5 5 5 5 5 5 3 5 3 5 5 5 5 3 5 3 5 5 5 5 5 5 5 5 5 5 3 3 5 5 5 5 5 5 5 3 5 5 5 5 3 3 5 5 5 5 3 5 5 5 5 5 5 5 5 5 5 5 5 5 5 5 5 5 5 5 5 5 5 5 5 5 5 5 5 5 5 5 5 5 5 5 5 5 5 5 5 5 5 5 5 5 5 5 5 5 5 5 5 5 5 5 5 5 5 5 5 5 5 5 5 5 5 5 5 5 5 5 3 5 5 5 5 5 5 5 5 5 5 5 5 5 5 5 5 5 5 5 5 5 3 5 5 5 5 5 3 5 5 5 5 3 5 5 5 5 5 5 5 3 5 5 5 3 5 5 5 5 5 5 5 5 5 5 5 5 5 5 3 5 5 5 5 3 5 3 5 5 5 5 5 5 3 5 5 5 5 5 5 5 5 5 5 3 5 5 3 5 5 5 5 5 5 5 5 5 5 5 3 5 5 5 5 5 5 5 3 5 5 5 5 5 5 5 5 5 5 5 5 5 5 3 5 3 5 5 3 5 5 3 3 5 5 5 5 3 5 3 5 5 3 5 3 5 5 5 5 5 5 5 5 5 5 5 5 3 5 5 5 3 5 5 5 3 5 5 5 5 5 5 5 5 5 5 5 3 5 5 5 3 5 3 5 5 5 5 3 5 5 5 5 5 5 5 5 5 5 5 3 5 5 5 5 5 5 5 3 5 5 5 5 3 5 3 5 3 5 5 5 5 5 5 5 3 5 5 5 5 5 5 3 5 5 5 5 5 5 5 3 5 5 5 5 5 3 5 5 5 5 3 3 5 5 5 5 5 3 5 5 5 5 5 3 5 3 5 5 5 5 3 5 5 5 3 5 5 5 5 5 5 5 5 5 5 5 5 5 5 5 5 5 5 5 5 5 5 5 5 5 5 5 3 5 5 5 3 3 5 5 5 5 5 5 5 5 3 5 5 5 5 3 5 5 5 5 5 5 5 5 5 3 5 5 3 5 5 5 5 3 5 5 3 5 5 5 5 3 5 5 3 5 5 3 5 5 3 5 5 5 5 5 5 5 5 5 5 5 5 5 5 5 5 3 5 5 5 3 5 5 5 5 5 5 5 3 5 5 5 3 5 5 3 3 5 5 5 3 5 3 5 5 5 3 3 5 5 5 5 5 5 5 5 5 3 5 3 5 5 5 5 3 3 5 5 5 3 5 5 5 5 5 3 5 5 5 5 5 5 5 5 5 5 5 5 5 5 5 5 5 5 5 5 5 5 5 5 5 5 5 5 3 5 5 5 5 5 5 5 5 5 5 3 5 5 3 5 5 5 5 3 5 5 5 5 5 5 5 5 5 5 5 5 5 5 5 5 3 5 5 5 5 5 5 5 3 3 5 5 5 5 5 5 5 3 3 5 5 5 5 5 5 5 3 5 5 5 5 5 3 5 5 5 5 5 3 5 3 3 5 3 5 5 5 5 5 5 5 5 5 5 5 5 5 5 5 5 5 5 5 5 5 5 5 5 5 5 5 5 5 5 5 5 5 3 5 5 5 5 5 5 5 5 5 5 5 3 5 5 5 5 5 5 5 5 3 5 5 3 3 5 3 5 3 5 3 5 5 5 3 3 5 5 3 5 5 5 3 5 5 5 5 5 5 3 5 5 3 5 5 5 5 5 5 3 5 5 5 3 5 5 5 5 5 5 5 5 5 5 5 3 5 5 5 5 5 5 5 3 5 5 5 3 5 5 5 5 5 5 5 3 5 5 5 5 3 5 5 5 5 5 5 5 5 3 5 5 5 3 5 5 5 3 5 5 5 5 3 5 5 5 5 5 3 5 3 5 5 5 3 5 3 5 5 5 5 3 5 5 3 5 5 3 5 5 5 5 5 5 5 5 5 5 5 5 5 5 5 5 5 5 5 5 5 5 5 5 5 5 5 5 5 5 5 5 5 5 5 5 5 5 5 5 5 5 5 5 5 5 5 5 5 3 3 5 5 5 5 5 5 3 5 5 5 5 5 5 5 5 5 5 5 5 5 5 5 5 5 5 5 5 5 5 5 5 5 5 5 5 5 3 5 5 5 5 5 5 3 5 5 3 5 5 5 5 5 5 5 5 3 5 5 5 5 5 3 5 5 5 3 5 5 5 3 5 5 5 5 5 3 5 5 5 3 5 3 5 3 3 5 3 5 5 5 5 3 5 5 5 5 5 5 5 5 5 3 5 5 5 5 5 5 3 5 5 3 5 5 5 5 5 5 5 3 5 5 5 5 5 5 5 5 5 5 5 5 5 5 5 5 5 5 5 5 5 5 5 5 5 5 5 5 3 5 3 5 3 5 5 5 5 3 3 5 5 5 5 5 5 3 5 3 5 5 5 5 5 5 5 5 5 5 5 5 5 5 5 5 5 5 5 5 5 5 3 5 3 5 3 3 3 5 5 5 5 5 5 5 3 5 3 5 5 5 5 5 5 5 5 3 3 5 3 5 5 3 5 5 5 3 5 3 5 5 5 5 3 5 5 5 5 5 5 5 5 5 5 5 5 5 3 5 5 5 5 5 5 5 5 5 3 5 5 5 5 5 5 5 5 3 5 5 5 5 5 3 5 5 5 5 5 3 5 5 5 5 5 5 5 3 5 5 3 5 5 3 5 5 5 5 5 5 3 5 5 5 5 3 5 3 5 5 5 5 5 5 5 3 5 5 3 3 5 3 5 3 5 5 5 3 5 3 5 3 5 5 5 5 3 5 5 5 5 5 3 5 5 5 5 5 5 5 5 3 5 5 5 5 5 5 5 5 5 5 5 5 5 3 5 5 5 5 5 5 5 5 5 5 3 5 5 5 3 5 5 5 5 5 5 5 5 5 5 5 3 5 5 5 3 5 3 5 5 3 5 5 5 3 5 5 5 3 5 5 3 5 5 5 5 5 5 5 5 3 5 3 5 5 5 5 5 5 5 5 5 5 5 5 5 5 5 5 5 5 5 5 5 5 5 5 5 5 3 5 5 3 5 5 3 5 5 5 5 5 5 5 5 5 5 5 5 5 5 5 5 5 5 5 5 5 5 5 5 5 5 5 5 5 5 5 5 5 5 3 5 5 5 5 5 5 5 5 5 5 5 5 5 5 5 5 5 3 5 5 3 5 5 5 5 5 5 5 3 5 5 5 5 5 5 5 5 5 5 5 3 5 3 5 5 5 3 5 5 3 5 5 5 3 5 3 5 5 5 5 5 5 5 3 5 3 5 5 5 5 5 5 5 5 5 5 5 5 5 5 5 5 5 3 5 5 3 5 5 5 5 3 5 3 5 5 5 3 5 5 5 3 5 3 5 5 5 5 5 5 3 5 5 5 5 5 5 5 5 5 5 3 5 5 5 5 3 5 5 5 5 5 5 5 5 5 5 5 5 5 5 5 5 5 5 5 5 5 5 5 5 5 5 5 5 5 5 5 5 5 5 5 5 5 5 5 5 5 3 5 5 5 5 5 3 3 5 5 5 5 3 5 3 5 5 5 5 5 5 5 3 3 5 5 5 5 5 5 5 5 5 3 5 5 5 5 5 5 5 5 5 5 5 5 5 5 5 5 5 5 5 5 5 5 5 5 5 5 5 5 5 5 5 5 5 5 5 5 5 5 5 5 5 5 5 5 5 5 5 5 5 5 5 5 5 3 5 5 5 3 5 5 5 5 5 5 5 5 5 5 5 5 5 5 5 5 5 5 5 5 5 5 5 5 5 5 5 5 5 5 5 5 5 5 5 5 5 3 5 3 5 5 5 5 5 5 5 5 5 5 5 5 5 5 5 5 5 5 3 5 5 5 5 5 5 5 5 5 5 5 3 5 5 5 5 5 3 5 5 5 5 5 5 3 5 5 5 5 5 5 5 5 5 5 5 5 5 5 5 5 5 5 5 5 5 5 5 5 5 5 5 5 5 3 5 5 5 5 5 5 5 5 5 5 5 5 5 5 5 5 5 5 5 5 5 5 5 5 5 5 5 5 5 3 5 5 3 5 5 3 5 5 3 5 3 5 5 5 5 5 5 5 5 5 5 5 5 5 5 5 5 5 5 5 5 5 5 5 5 5 5 5 5 3 5 5 5 5 5 5 5 5 3 5 3 5 5 5 3 5 5 3 5 3 5 3 5 3 5 3 5 3 5 5 5 5 5 5 5 5 5 5 5 5 5 5 5 5 5 5 5 5 5 5 5 5 5 5 5 5 5 3 5 5 3 5 3 5 5 5 5 5 3 5 5 3 5 5 5 5 3 5 3 5 3 5 3 3 5 3 3 3 5 3 5 5 5 5 5 5 5 5 5 3 5 5 5 5 5 3 5 5 3 5 5 5 5 5 5 5 3 5 5 3 5 5 3 5 5 5 5 5 5 5 5 5 5 5 5 5 5 5 5 3 5 5 3 5 5 3 5 5 5 5 5 3 5 5 5 5 5 3 5 5 5 5 5 3 5 5 5 5 3 5 5 3 5 5 3 3 5 5 5 5 3 5 5 5 3 5 5 5 3 5 5 5 5 5 5 5 5 3 5 5 5 5 5 5 5 5 5 5 3 5 5 5 5 3 5 3 5 5 5 5 3 5 5 3 5 5 5 5 5 5 5 5 5 5 3 5 5 5 3 5 5 5 5 5 5 5 5 5 5 5 3 3 5 5 5 5 5 3 5 5 5 5 3 5 5 5 3 5 5 3 5 5 5 5 5 5 5 3 3 5 5 5 5 5 5 3 5 3 5 3 5 5 5 3 5 5 3 5 5 5 5 3 3 3 5 5 5 5 5 5 5 5 5 5 5 5 5 5 5 5 5 5 5 5 3 5 5 5 5 5 5 5 5 5 5 5 5 5 5 3 5 5 5 3 3 5 3 5 5 3 3 3 5 3 5 3 5 5 5 3 5 3 5 5 3 5 5 3 3 3 5 3 5 3 3 5 5 3 5 5 5 5 3 3 5 5 5 5 5 5 3 3 5 3 3 5 3 5 5 3 5 5 5 3 3 5 5 5 3 5 5 5 5 5 5 5 5 5 5 3 5 5 5 5 5 5 5 5 5 5 5 5 5 5 5 5 5 3 5 5 5 5 3 5 5 5 5 5 5 5 5 5 5 5 5 5 5 3 5 5 5 5 5 5 3 5 3 5 5 5 5 5 3 3 5 5 5 5 5 5 5 5 5 5 5 5 5 5 5 5 5 5 5 5 5 5 5 5 5 5 5 5 5 5 5 5 5 5 5 5 5 5 5 5 5 5 5 5 5 5 5 5 5 5 5 5 5 5 5 5 5 5 3 5 5 5 3 5 5 5 5 5 5 5 5 5 5 5 5 3 5 5 5 5 5 5 5 5 3 5 5 3 5 5 3 5 5 5 5 3 5 3 5 5 5 3 5 3 5 5 5 5 3 5 5 3 3 5 5 3 5 5 3 5 5 5 5 5 5 5 5 5 5 5 5 5 5 5 3 5 5 5 5 5 5 5 5 5 5 5 5 5 5 5 5 5 5 5 5 5 5 5 5 5 5 5 5 5 5 5 5 5 5 5 5 5 5 5 5 5 5 5 5 5 5 5 3 5 3 5 5 5 5 5 5 5 5 3 5 5 5 5 5 5 5 3 5 5 3 5 5 3 5 5 5 5 5 5 5 5 5 5 5 5 5 5 5 5 5 5 5 3 5 5 5 5 5 5 5 3 5 5 5 3 5 5 3 3 3 5 5 5 5 3 3 5 5 5 5 5 3 5 5 5 5 3 5 5 5 5 5 5 3 5 5 5 3 3 5 5 5 5 5 5 5 5 5 5 5 5 5 3 5 5 3 5 5 5 5 5 5 5 5 5 5 5 5 5 5 5 5 5 5 5 3 5 5 5 5 5 5 5 5 5 5 5 5 5 5 3 5 5 5 5 5 3 5 5 3 5 5 5 5 5 5 3 5 3 5 3 5 3 5 5 3 5 5 3 5 5 5 3 5 3 5 5 5 5 5 5 5 5 3 5 5 5 5 5 5 5 5 5 5 5 5 5 5 5 5 5 5 5 5 5 5 5 3 5 5 3 5 5 5 3 5 3 3 5 5 5 5 5 5 5 5 5 5 3 5 3 5 3 5 5 5 5 5 5 5 5 5 5 5 5 3 5 5 5 5 5 5 5 5 5 5 5 5 5 5 5 5 5 5 5 5 5 3 5 3 5 5 5 3 3 3 5 5 5 5 3 5 5 5 5 3 5 5 5 5 5 5 3 5 5 5 5 5 5 3 3 5 3 3 5 5 5 5 5 3 5 5 5 5 5 5 5 5 3 5 5 5 5 5 5 5 3 5 5 5 3 5 5 5 3 5 5 5 5 5 5 3 5 5 3 5 5 3 5 5 3 5 5 3 5 3 5 5 5 5 5 3 5 5 5 5 5 5 5 5 5 5 5 5 5 3 5 3 5 5 5 5 5 5 5 5 5 5 5 5 5 5 5 5 5 5 5 5 5 5 5 5 5 5 5 5 5 5 5 5 5 5 5 3 5 5 3 5 5 5 5 5 5 3 5 5 5 5 5 5 5 5 5 5 5 5 3 5 5 5 5 3 5 5 5 5 5 3 5 5 5 5 5 3 5 5 5 5 5 5 5 5 5 5 5 5 5 5 5 5 5 5 5 5 5 5 5 5 5 5 5 5 5 5 5 5 5 5 5 5 5 5 5 3 5 5 5 5 5 3 5 5 3 5 5 5 5 5 5 3 5 5 3 5 5 3 5 5 3 3 3 5 5 3 5 5 3 5 5 5 5 5 5 3 5 5 5 5 5 5 5 5 5 3 5 3 5 5 5 5 5 3 5 5 3 5 5 3 5 5 5 5 5 5 5 3 5 5 5 5 3 5 5 3 5 5 5 5 5 3 5 5 5 5 5 5 5 3 5 5 3 5 3 5 5 5 5 5 5 5 5 5 5 5 5 5 5 5 5 5 5 5 5 5 5 5 5 5 5 5 5 5 5 3 5 5 5 5 5 3 5 5 5 3 5 5 5 5 5 5 5 5 5 5 5 5 5 5 5 5 5 5 5 5 3 5 5 5 5 5 5 3 5 5 5 5 5 5 5 5 5 5 3 5 5 5 5 5 3 5 5 3 3 5 5 5 5 5 3 5 5 5 5 5 5 3 5 5 5 5 3 5 5 5 5 5 5 5 5 5 5 5 5 5 5 3 5 3 5 5 5 5 5 5 5 5 5 5 5 5 5 5 5 5 5 5 5 5 5 3 5 3 5 5 3 3 5 5 5 5 5 5 5 3 5 5 5 3 5 5 3 5 5 5 3 5 5 5 3 5 5 3 5 5 5 5 5 3 5 5 5 5 5 5 5 5 5 5 3 5 5 3 5 5 5 5 5 5 5 5 3 5 5 3 5 5 3 5 5 5 5 5 5 3 5 5 5 3 5 5 5 5 5 3 5 5 5 5 3 5 5 5 3 5 5 3 3 5 5 5 5 3 5 5 5 3 5 5 5 5 5 5 3 5 5 5 5 3 5 3 5 3 5 5 3 5 5 3 3 5 5 5 5 3 5 5 5 5 5 3 5 5 5 5 5 5 5 5 5 5 5 3 5 5 5 5 5 5 5 5 5 3 5 5 5 5 5 5 5 5 5 5 5 5 5 5 5 5 5 5 5 5 5 5 5 5 5 5 5 5 5 5 3 5 5 5 5 5 5 5 5 5 3 5 3 5 5 5 5 3 5 5 5 5 5 5 5 5 5 5 5 3 5 5 5 5 5 5 5 5 5 5 5 5 5 5 5 3 5 5 5 5 3 5 5 5 5 5 5 3 5 5 5 5 5 5 5 5 5 5 5 5 5 5 5 5 5 5 5 5 5 5 5 5 5 5 5 5 5 5 5 5 5 5 5 5 5 5 5 5 5 5 5 5 5 5 5 5 5 3 5 5 5 3 5 5 5 5 5 5 5 5 5 5 5 5 3 5 5 5 3 5 5 5 5 3 5 5 5 3 5 3 3 5 5 3 3 5 3 3 5 5 5 5 5 5 5 5 5 5 5 5 5 5 5 5 5 5 5 5 5 5 5 5 5 5 5 5 5 3 5 5 5 5 5 3 5 5 3 3 5 5 5 5 3 5 5 5 3 5 3 5 5 3 5 3 5 3 3 5 5 5 5 5 5 5 5 5 5 5 3 5 5 5 3 5 5 5 5 3 3 5 5 3 3 5 3 3 5 3 5 5 3 5 5 5 5 5 3 5 5 5 5 5 5 5 5 3 5 3 5 5 5 5 5 5 5 5 5 3 5 5 5 5 3 5 5 5 5 5 5 5 3 5 5 5 3 5 5 5 5 5 5 5 5 3 3 5 5 3 3 3 5 5 5 5 5 5 5 5 5 5 5 5 5 5 5 5 5 5 5 3 5 5 5 5 3 5 5 3 5 5 5 5 5 5 5 5 5 5 5 5 5 5 5 5 3 5 5 5 5 5 5 5 3 5 3 5 5 5 5 5 5 5 5 5 3 5 5 3 5 5 3 5 3 5 5 5 3 5 5 5 5 3 5 5 5 5 5 5 5 5 5 5 5 3 5 5 5 5 5 5 5 5 5 3 5 5 5 5 5 5 5 5 5 3 5 5 3 5 5 5 3 5 5 3 5 5 5 5 3 5 5 3 5 5 3 5 5 5 5 5 5 5 5 5 5 5 5 5 5 5 3 5 3 5 5 3 5 3 5 5 5 5 5 5 5 5 5 5 5 5 5 3 5 5 5 3 5 3 3 5 5 5 5 3 5 5 5 5 5 5 5 5 3 5 5 5 5 5 5 5 5 3 5 5 5 5 5 5 5 3 5 5 5 5 5 5 5 5 5 5 5 5 5 5 5 3 5 5 5 5 5 5 5 5 3 5 5 3 5 5 5 5 3 5 5 5 5 5 5 5 5 5 5 5 5 5 5 5 5 5 3 5 5 5 5 5 5 5 5 5 5 5 5 5 5 5 5 5 3 5 5 5 5 5 5 5 5 5 5 5 3 5 5 5 3 5 5 5 5 5 5 5 5 3 5 5 5 3 5 5 5 5 5 5 5 5 5 5 5 5 5 5 5 3 5 5 5 5 5 5 5 5 5 3 5 5 5 5 5 5 5 5 5 5 5 3 5 5 5 5 5 5 5 5 5 5 5 5 3 3 5 5 5 5 5 5 5 3 5 5 5 3 5 5 5 5 5 5 3 5 5 5 5 5 5 5 5 5 5 5 5 5 5 5 5 5 5 5 5 5 5 5 5 5 5 5 5 5 5 5 5 5 5 5 5 5 5 5 5 3 5 5 5 5 5 5 5 5 5 5 5 5 5 5 5 5 5 5 5 5 5 5 5 5 5 5 3 5 3 5 5 5 5 3 5 5 5 5 3 5 5 5 5 5 5 5 5 5 5 5 5 3 5 5 5 5 5 3 5 5 3 5 3 5 5 3 5 5 5 5 5 5 5 5 5 5 5 5 5 5 5 5 5 5 5 5 5 3 5 5 5 5 5 5 5 3 5 5 5 5 5 5 5 5 5 5 5 5 5 5 5 3 5 5 5 5 5 5 5 5 5 5 3 5 5 5 5 3 5 5 3 5 5 5 5 5 5 5 5 3 5 5 5 5 5 5 5 3 5 5 3 5 5 5 5 5 5 5 5 5 3 5 5 5 5 5 5 5 5 5 5 5 5 5 5 5 5 5 5 5 5 5 5 5 5 5 5 5 5 5 5 5 5 5 5 5 5 5 5 5 5 5 5 5 5 5 5 5 5 5 5 5 5 5 5 5 5 5 3 5 5 5 5 5 3 5 5 5 5 5 5 5 5 5 3 5 5 5 5 5 5 5 5 5 5 3 5 5 5 5 5 5 5 5 5 5 5 5 5 5 5 5 5 5 5 5 5 3 5 3 5 5 5 5 5 5 3 5 5 5 5 5 5 5 5 5 3 5 5 5 5 3 5 5 3 5 5 5 5 5 5 5 5 5 5 5 5 5 5 5 5 5 5 5 5 5 5 5 5 5 5 5 5 5 5 5 5 5 5 5 5 5 5 5 5 5 5 5 5 5 5 5 5 5 5 5 5 5 5 5 5 5 5 5 5 5 5 5 5 5 5 5 5 5 5 5 5 5 5 5 5 5 5 5 5 5 5 5 5 5 5 5 5 5 5 5 5 5 5 5 5 5 5 5 5 5 5 5 5 5 5 5 5 5 5 5 5 5 5 5 5 5 5 5 5 5 5 5 5 5 5 5 5 5 5 5 5 5 5 5 3 5 5 5 5 5 5 5 3 5 5 5 5 5 3 5 5 5 5 5 5 5 5 5 5 5 5 5 5 5 5 5 5 5 5 5 3 5 5 5 5 3 5 5 5 5 5 5 5 5 5 5 5 5 5 5 5 5 5 5 5 5 5 5 5 3 5 5 5 5 5 5 5 5 5 5 5 5 5 5 5 5 5 5 5 5 5 3 5 5 5 5 3 5 5 3 3 5 5 5 3 5 5 5 5 3 3 5 5 3 5 5 5 5 5 5 5 5 5 5 5 5 5 5 5 5 5 5 5 5 5 5 5 5 5 3 5 5 5 3 5 5 3 3 5 5 5 5 5 5 5 3 5 5 3 5 5 3 5 3 5 5 3 5 5 5 5 5 5 3 5 5 5 3 5 5 5 5 5 5 5 5 5 5 5 5 5 5 5 5 5 5 5 5 5 3 5 5 5 5 3 5 5 3 5 5 5 5 5 5 3 5 3 5 5 5 3 5 5 5 5 3 3 5 5 5 5 5 3 3 5 5 3 5 3 5 5 5 5 5 5 5 3 5 3 5 5 5 5 5 5 5 5 5 3 5 5 5 5 5 5 5 5 3 3 5 5 5 5 5 5 5 5 5 5 5 5 5 3 5 3 5 3 5 5 5 3 5 5 5 5 5 3 5 3 3 5 5 5 5 5 5 5 5 5 5 5 5 3 5 5 5 5 5 5 3 5 5 5 3 5 5 5 3 5 5 5 5 5 5 5 5 5 3 5 3 5 3 5 5 5 5 5 5 5 5 5 5 5 5 5 5 5 5 3 5 5 5 3 5 3 5 5 5 5 3 5 5 5 3 5 5 5 5 5 5 5 5 5 3 5 5 5 5 5 5 5 5 5 5 5 5 5 5 5 5 5 5 5 5 5 5 5 5 5 5 5 3 5 5 5 5 5 5 5 3 5 5 3 5 3 5 3 5 3 5 5 5 5 5 5 3 5 5 3 5 5 3 5 5 3 5 5 5 5 3 5 3 3 5 5 5 5 5 5 3 5 5 5 5 5 5 5 3 5 5 5 5 5 3 5 5 5 3 3 5 5 5 3 5 5 3 5 5 3 5 3 5 3 5 5 5 3 5 5 5 5 5 5 5 5 5 5 5 5 3 3 5 5 5 5 5 5 5 3 5 5 3 5 5 5 5 5 5 5 3 5 5 5 3 5 5 5 3 5 5 5 5 5 5 5 5 5 5 5 5 5 5 5 3 5 5 5 5 5 5 3 3 5 3 5 5 5 5 5 5 5 5 5 5 5 5 5 5 5 5 5 5 5 5 5 5 5 5 5 5 5 5 5 5 5 5 5 5 5 5 5 5 5 5 5 5 5 5 5 5 3 3 3 5 5 5 5 5 5 5 5 5 3 3 5 5 3 5 5 3 3 5 5 5 5 5 5 5 3 5 5 5 5 5 5 5 5 5 5 5 5 5 5 5 5 5 5 3 5 5 3 5 3 5 3 3 5 5 5 5 5 5 5 3 5 3 5 5 5 3 5 5 5 3 5 5 5 5 5 5 5 5 5 5 5 5 5 5 3 5 5 5 5 5 3 5 5 5 3 5 5 5 3 5 5 5 5 5 5 5 5 5 5 5 5 5 5 5 5 5 5 5 5 5 5 5 5 5 5 5 5 5 5 5 5 5 5 5 5 5 5 5 5 5 5 5 5 5 5 5 3 5 5 5 5 5 5 5 5 5 5 3 5 5 5 5 5 5 5 5 5 5 5 5 5 5 5 5 5 5 5 5 5 5 5 5 5 5 5 3 5 5 5 5 5 5 5 5 5 5 5 5 5 5 5 5 3 5 5 5 5 5 5 5 5 5 3 5 5 5 5 5 5 5 3 5 5 5 5 5 5 5 5 5 3 5 5 5 5 5 5 5 3 5 5 5 5 5 5 5 5 5 3 5 5 5 5 5 5 5 5 3 5 5 3 5 5 5 5 5 5 5 5 3 5 5 3 3 5 5 5 5 5 5 3 5 5 5 5 5 5 5 5 5 5 5 5 3 5 5 5 5 5 5 5 5 3 5 5 3 5 5 5 5 5 5 5 5 5 5 5 5 3 5 5 5 5 5 5 5 5 5 5 5 3 5 5 3 5 5 5 3 5 5 5 3 5 5 3 3 3 3 3 5 5 5 5 5 5 3 3 5 3 3 3 5 3 5 3 5 5 3 5 3 5 5 3 3 5 5 5 5 5 5 5 3 5 5 5 5 5 5 5 3 5 3 3 3 5 5 5 5 3 3 5 5 5 5 3 3 5 5 5 3 5 5 5 5 5 5 3 5 5 5 3 5 5 5 5 5 5 3 5 5 5 5 5 5 5 5 5 5 5 5 5 5 5 5 5 5 5 5 5 5 5 5 5 5 3 5 5 3 5 5 5 5 5 5 5 5 5 5 5 5 5 5 5 5 5 5 5 5 5 5 5 3 5 5 5 5 3 3 5 5 5 5 5 5 3 5 5 5 5 3 3 5 5 5 5 5 5 5 5 5 5 5 5 5 5 5 5 5 5 5 5 5 5 5 5 5 5 5 5 5 5 5 5 5 5 5 5 5 5 5 5 5 5 5 5 5 5 5 5 5 5 5 5 5 5 5 5 3 5 5 5 5 3 5 5 3 5 5 5 5 5 5 5 5 5 5 5 5 3 5 5 5 5 5 5 5 5 5 5 5 5 5 5 5 5 5 5 5 5 5 3 3 5 5 5 5 5 5 5 5 5 5 5 5 5 3 5 5 5 5 5 5 3 5 5 3 5 5 5 5 5 5 5 5 5 3 5 5 5 5 5 5 5 5 5 5 5 5 5 5 5 5 5 5 5 3 5 5 5 5 5 3 5 3 5 5 5 5 5 3 5 5 5 5 5 3 5 5 5 5 5 3 3 5 3 5 5 5 5 5 5 5 5 5 5 5 5 5 5 5 5 5 5 5 5 3 5 5 5 5 5 3 5 5 3 3 5 5 5 5 5 5 5 5 5 5 5 5 5 5 3 5 5 5 5 5 5 5 3 5 5 3 5 3 5 5 3 5 5 5 5 5 5 5 5 5 5 5 5 5 5 5 5 5 5 5 5 5 5 5 3 5 5 5 5 5 5 5 5 5 5 3 5 5 5 5 3 5 5 5 5 5 5 5 5 5 5 5 3 5 5 5 5 5 5 5 5 5 5 5 5 5 5 5 5 5 5 5 5 5 5 5 5 5 5 5 5 3 5 5 5 5 3 5 5 5 5 5 3 5 5 5 5 5 5 5 5 5 5 5 5 5 5 5 5 3 5 5 5 5 5 5 5 5 5 5 5 3 5 5 3 5 5 5 5 3 5 5 5 5 5 5 5 5 5 5 5 5 5 5 5 5 5 5 5 3 5 5 3 5 3 5 3 5 5 3 5 5 5 5 5 5 5 5 5 5 5 5 5 3 5 3 5 5 5 5 5 5 5 5 5 5 5 5 5 5 5 5 5 5 5 5 5 5 5 5 5 5 5 5 5 3 5 5 5 5 5 5 5 5 3 5 3 5 3 5 5 5 3 5 5 5 5 5 5 5 5 3 5 5 5 5 3 5 5 5 5 5 5 5 3 5 3 5 5 5 5 5 5 5 5 5 5 5 5 5 5 5 5 5 5 5 5 5 5 5 5 5 5 3 5 5 5 5 5 5 5 3 5 5 5 3 5 3 5 5 3 5 5 3 3 3 5 5 5 5 3 5 5 3 5 3 5 5 5 5 5 5 5 5 5 3 5 3 5 3 5 3 3 3 5 5 5 5 5 5 3 5 5 5 5 5 5 5 5 5 5 5 5 5 5 5 5 5 5 5 5 5 5 5 5 5 5 5 5 5 3 5 5 5 5 5 5 5 5 5 5 3 3 5 5 5 5 5 5 5 3 5 5 5 5 5 5 5 5 5 3 5 5 5 3 5 5 5 5 5 5 3 5 5 3 5 5 5 3 5 5 5 3 5 3 5 5 5 5 5 3 5 5 5 5 5 5 3 5 5 5 5 5 5 5 5 5 5 5 3 5 5 5 5 5 5 5 5 5 5 5 5 5 5 5 5 5 5 5 5 3 5 5 5 5 3 5 5 5 3 5 5 3 5 5 5 5 5 5 5 5 5 3 5 3 5 5 5 5 5 5 5 5 5 3 5 3 5 3 5 5 5 5 3 5 3 5 5 5 5 5 5 3 5 5 5 5 5 3 5 5 5 5 5 5 3 5 5 5 5 5 5 5 5 5 3 5 5 5 5 3 3 5 3 5 5 3 5 5 5 5 5 5 5 5 5 5 5 5 5 5 5 5 5 5 5 5 5 5 3 5 5 3 5 5 5 3 5 5 5 5 3 5 5 5 3 5 5 5 5 5 5 3 5 3 5 5 5 5 5 5 5 5 5 5 5 3 5 5 3 5 5 5 5 5 5 5 3 5 5 5 5 5 5 3 5 5 5 5 5 5 5 5 5 5 3 5 5 5 5 5 5 5 5 5 5 3 5 5 3 5 3 3 5 5 5 5 3 5 3 5 5 5 5 5 3 5 5 5 5 3 5 5 5 3 5 5 5 5 5 5 3 5 5 5 3 5 5 3 5 5 5 5 5 5 5 5 5 5 5 5 5 5 5 5 5 3 5 5 3 5 5 5 5 5 3 5 5 5 5 5 5 5 5 3 5 3 3 5 5 5 5 5 5 5 3 3 5 5 5 5 5 3 5 3 3 5 3 5 5 3 5 5 5 5 5 5 5 5 5 5 5 5 5 5 5 5 5 5 3 5 5 5 5 5 5 5 5 5 5 5 5 5 5 
</DataArray>
</Cells>
<PointData Scalars="" Vectors="displacement," Tensors="">
<DataArray type="Float64" Name="displacement" NumberOfComponents="3" format="ascii">
-1.0127519564019983e-06 -0.034997876833728951 0 -0.00013616955962238495 -0.034696133790477118 0 1.8495416864458636e-07 -0.03500014311597386 0 -1.0127519564019983e-06 -0.034997876833728951 0 -7.9330874623836274e-05 -0.034089773159302596 0 -0.00013616955962238495 -0.034696133790477118 0 -1.0127519564019983e-06 -0.034997876833728951 0 -7.9330874623836274e-05 -0.034089773159302596 0 1.660681502243637e-06 -0.03297254204048642 0 -7.9330874623836274e-05 -0.034089773159302596 0 1.660681502243637e-06 -0.03297254204048642 0 0.0010503712692152868 -0.034452081947946842 0 -7.9330874623836274e-05 -0.034089773159302596 0 -0.00013616955962238495 -0.034696133790477118 0 0.0010503712692152868 -0.034452081947946842 0 -8.5057336597010599e-08 -0.034999967179441614 0 -0.00016528158931262968 -0.034925777201894583 0 -0.00013616955962238495 -0.034696133790477118 0 1.8495416864458636e-07 -0.03500014311597386 0 -0.00013939473504666168 -0.034797071113640957 0 -0.00013616955962238495 -0.034696133790477118 0 -0.00013939473504666168 -0.034797071113640957 0 -0.00018943596938117535 -0.034796705376088068 0 -0.00018299381715007693 -0.035048219030157673 0 -9.7513567989070327e-05 -0.03500576638552047 0 -0.000199909427765066 -0.034993322325134336 0 -6.1558530150335383e-08 -0.03500018990744181 0 -0.00018299381715007693 -0.035048219030157673 0 -9.7513567989070327e-05 -0.03500576638552047 0 -6.1558530150335383e-08 -0.03500018990744181 0 -9.7513567989070327e-05 -0.03500576638552047 0 -9.6667643070531392e-08 -0.034999959525454746 0 -0.00027282202313453632 -0.034894741276912368 0 -0.00032195236813898492 -0.034936097594963453 0 -0.00023839106136467106 -0.034839644316495756 0 -0.00027282202313453632 -0.034894741276912368 0 -0.00032195236813898492 -0.034936097594963453 0 -0.00029459646151873268 -0.034943323097741827 0 -0.00032195236813898492 -0.034936097594963453 0 -0.00029459646151873268 -0.034943323097741827 0 -0.00033531457411148044 -0.034968084484663299 0 -0.00029459646151873268 -0.034943323097741827 0 -0.00027139706716788913 -0.034972250069888848 0 -0.00033531457411148044 -0.034968084484663299 0 -0.00027282202313453632 -0.034894741276912368 0 -0.00029459646151873268 -0.034943323097741827 0 -0.00027139706716788913 -0.034972250069888848 0 -0.00016528158931262968 -0.034925777201894583 0 -0.00024925273470306666 -0.034899093191118662 0 -0.00018299381715007693 -0.035048219030157673 0 -0.00027282202313453632 -0.034894741276912368 0 -0.00027139706716788913 -0.034972250069888848 0 -0.00018299381715007693 -0.035048219030157673 0 -0.00027139706716788913 -0.034972250069888848 0 -0.000199909427765066 -0.034993322325134336 0 -0.00013939473504666168 -0.034797071113640957 0 -0.00027282202313453632 -0.034894741276912368 0 -0.00022706143243947339 -0.034839153584024965 0 -0.00013939473504666168 -0.034797071113640957 0 -0.00018943596938117535 -0.034796705376088068 0 -0.00022706143243947339 -0.034839153584024965 0 -0.00018943596938117535 -0.034796705376088068 0 -0.00022706143243947339 -0.034839153584024965 0 -0.00023839106136467106 -0.034839644316495756 0 -0.00027282202313453632 -0.034894741276912368 0 -0.00022706143243947339 -0.034839153584024965 0 -0.00023839106136467106 -0.034839644316495756 0 0.0009001865710834792 -0.022745650680652995 0 0.0022432708332978876 -0.023966569732891858 0 0.0018587248447390751 -0.024074576679154205 0 0.001081383366702524 -0.022319793497450204 0 0.0009001865710834792 -0.022745650680652995 0 0.0022432708332978876 -0.023966569732891858 0 0.00046345189158286838 -0.021497460776629829 0 0.00066363815717046201 -0.027670089213645308 0 0.00043063845713319816 -0.028383791375096924 0 0.0006862486550324523 -0.0306385497965069 0 0.0004934075884441329 -0.021666241193389866 0 0.00051869178634020557 -0.0216761690258323 0 0.00053094867896804471 -0.02171384321755138 0 -0.00045355740778844423 -0.035232698097155651 0 0.0006862486550324523 -0.0306385497965069 0 -0.00013616955962238495 -0.034696133790477118 0 -0.00018943596938117535 -0.034796705376088068 0 -0.00016751061627517239 -0.03473983133583091 0 -0.00018943596938117535 -0.034796705376088068 0 -0.00023839106136467106 -0.034839644316495756 0 -0.00016751061627517239 -0.03473983133583091 0 0.0006862486550324523 -0.0306385497965069 0 0.00066363815717046201 -0.027670089213645308 0 2.6602578150474032e-07 -0.032964999841583471 0 -0.00010137284357756196 -0.03202511638339052 0 -2.5984183659787219e-07 -0.032612432615593073 0 -0.00010137284357756196 -0.03202511638339052 0 -0.00026299690595000641 -0.032063768382947493 0 -2.5984183659787219e-07 -0.032612432615593073 0 1.1249861987472503e-06 -0.032970400258676577 0 0.0006862486550324523 -0.0306385497965069 0 4.1309608220782821e-05 -0.031253203980527999 0 7.208159132694529e-07 -0.032607269274719367 0 -6.8545552477664627e-07 -0.031337077534005789 0 0.00066363815717046201 -0.027670089213645308 0 1.3310523249565411e-06 -0.032611090158989442 0 4.1309608220782821e-05 -0.031253203980527999 0 -6.8545552477664627e-07 -0.031337077534005789 0 -0.00013786534505144852 -0.03077374477018761 0 0.00066363815717046201 -0.027670089213645308 0 0.00028352479548416558 -0.026122791791205892 0 0.00051869178634020557 -0.0216761690258323 0 0.00053094867896804471 -0.02171384321755138 0 0.00053002037613525453 -0.021674469020863941 0 0.00053002037613525453 -0.021674469020863941 0 0.00058123028443690542 -0.021680843830128364 0 0.00056635845884154938 -0.02164875675102983 0 -6.8545552477664627e-07 -0.031337077534005789 0 -0.00013786534505144852 -0.03077374477018761 0 6.6125138845364605e-07 -0.030066313323408179 0 0.00028352479548416558 -0.026122791791205892 0 0.0003940571950175252 -0.027323683004130014 0 -0.00013786534505144852 -0.03077374477018761 0 6.6125138845364605e-07 -0.030066313323408179 0 0.00082435798276652176 -0.030292782532625056 0 5.5534164438317693e-07 -0.030064199905462892 0 0.0003940571950175252 -0.027323683004130014 0 3.6097016859296298e-09 -0.030063894494816796 0 4.7373579406550756e-07 -0.029087914566869974 0 1.0548415837744668e-09 -0.02801776618639782 0 0.0003940571950175252 -0.027323683004130014 0 -2.8824567941953341e-07 -0.028017173348471695 0 0.00058123028443690542 -0.021680843830128364 0 0.00056635845884154938 -0.02164875675102983 0 0.00057829482082446192 -0.021618665494635786 0 0.00056635845884154938 -0.02164875675102983 0 0.00057829482082446192 -0.021618665494635786 0 0.00057289886436624824 -0.021610564343020923 0 0.00057829482082446192 -0.021618665494635786 0 0.00057289886436624824 -0.021610564343020923 0 0.00059613239554509492 -0.021514360385211029 0 0.00057289886436624824 -0.021610564343020923 0 0.00053543626243060278 -0.021655253645163158 0 0.0005394429042386294 -0.021671119499602393 0 0.0004934075884441329 -0.021666241193389866 0 0.00053543626243060278 -0.021655253645163158 0 0.0005394429042386294 -0.021671119499602393 0 0.0004934075884441329 -0.021666241193389866 0 0.00051869178634020557 -0.0216761690258323 0 0.00053543626243060278 -0.021655253645163158 0 0.00051869178634020557 -0.0216761690258323 0 0.00053002037613525453 -0.021674469020863941 0 0.00053543626243060278 -0.021655253645163158 0 0.00056635845884154938 -0.02164875675102983 0 0.00057289886436624824 -0.021610564343020923 0 0.00053543626243060278 -0.021655253645163158 0 0.00053002037613525453 -0.021674469020863941 0 0.00056635845884154938 -0.02164875675102983 0 0.00053543626243060278 -0.021655253645163158 0 -5.0340487162968038e-07 -0.026330620804139258 0 -6.4893100496117142e-05 -0.026754104605974112 0 6.8940555748201894e-06 -0.0250048403367641 0 -5.0340487162968038e-07 -0.026330620804139258 0 -6.4893100496117142e-05 -0.026754104605974112 0 1.4038174084569847e-06 -0.028014459023063321 0 0.00083935969560810088 -0.027856337572907001 0 -6.4893100496117142e-05 -0.026754104605974112 0 1.4038174084569847e-06 -0.028014459023063321 0 0.00058123028443690542 -0.021680843830128364 0 0.00057829482082446192 -0.021618665494635786 0 0.00049172421930115799 -0.021714291228005052 0 0.0003940571950175252 -0.027323683004130014 0 0.00014937588682086675 -0.023867898259098796 0 0.00057829482082446192 -0.021618665494635786 0 0.00049172421930115799 -0.021714291228005052 0 0.00054867028021151525 -0.021535846269554675 0 0.00057829482082446192 -0.021618665494635786 0 0.00054867028021151525 -0.021535846269554675 0 0.00059613239554509492 -0.021514360385211029 0 0.00014937588682086675 -0.023867898259098796 0 -9.2393322265620393e-05 -0.023311027324285416 0 0.00049172421930115799 -0.021714291228005052 0 0.0003118345931821921 -0.021492730895413686 0 -5.5328229966525372e-05 -0.021577058262169123 0 0.00049172421930115799 -0.021714291228005052 0 0.00054867028021151525 -0.021535846269554675 0 0.0003118345931821921 -0.021492730895413686 0 0.00054867028021151525 -0.021535846269554675 0 0.0003118345931821921 -0.021492730895413686 0 0.00060336932453280631 -0.021309166685923184 0 0.0003118345931821921 -0.021492730895413686 0 0.00060336932453280631 -0.021309166685923184 0 2.1835302932813742e-05 -0.020618585218077547 0 0.00054867028021151525 -0.021535846269554675 0 0.00060336932453280631 -0.021309166685923184 0 0.00059613239554509492 -0.021514360385211029 0 0.00060336932453280631 -0.021309166685923184 0 0.00059613239554509492 -0.021514360385211029 0 0.0005899335664985699 -0.02155941681337073 0 0.00061687729237879115 -0.021286680013912818 0 0.00062908917678153483 -0.021143509442436127 0 0.00060336932453280631 -0.021309166685923184 0 0.0005899335664985699 -0.02155941681337073 0 0.00080414861525514758 -0.021782973643033256 0 0.0005899335664985699 -0.02155941681337073 0 0.00080414861525514758 -0.021782973643033256 0 0.0005468707595959626 -0.021741221018105786 0 0.00049345261233195805 -0.020353341258341415 0 8.2102031926646989e-05 -0.020093373809322856 0 2.1835302932813742e-05 -0.020618585218077547 0 0.00060336932453280631 -0.021309166685923184 0 0.00049345261233195805 -0.020353341258341415 0 2.1835302932813742e-05 -0.020618585218077547 0 0.0004934075884441329 -0.021666241193389866 0 0.0005394429042386294 -0.021671119499602393 0 0.00049853004051788068 -0.021867883483204339 0 0.001081383366702524 -0.022319793497450204 0 0.0009001865710834792 -0.022745650680652995 0 0.00049853004051788068 -0.021867883483204339 0 0.00046345189158286838 -0.021497460776629829 0 0.00066498859025413293 -0.022158788688513713 0 0.00057289886436624824 -0.021610564343020923 0 0.0005394429042386294 -0.021671119499602393 0 0.00055099582735420888 -0.021659462691047307 0 0.00057289886436624824 -0.021610564343020923 0 0.00059613239554509492 -0.021514360385211029 0 0.00055099582735420888 -0.021659462691047307 0 0.00059613239554509492 -0.021514360385211029 0 0.0005899335664985699 -0.02155941681337073 0 0.00055099582735420888 -0.021659462691047307 0 0.0005394429042386294 -0.021671119499602393 0 0.00055099582735420888 -0.021659462691047307 0 0.00049853004051788068 -0.021867883483204339 0 0.00055099582735420888 -0.021659462691047307 0 0.00049229312245154531 -0.02177017795067002 0 0.0005468707595959626 -0.021741221018105786 0 0.00055099582735420888 -0.021659462691047307 0 0.00049229312245154531 -0.02177017795067002 0 0.00049853004051788068 -0.021867883483204339 0 0.00049229312245154531 -0.02177017795067002 0 0.0005468707595959626 -0.021741221018105786 0 0.0004384291345750674 -0.021710051770604012 0 0.0005899335664985699 -0.02155941681337073 0 0.00055099582735420888 -0.021659462691047307 0 0.0005468707595959626 -0.021741221018105786 0 0.00043063845713319816 -0.028383791375096924 0 -2.3944092530779422e-05 -0.028250954955471145 0 -0.00032195236813898492 -0.034936097594963453 0 -0.00023839106136467106 -0.034839644316495756 0 -0.00039837906247917654 -0.034953839205135187 0 0.00049229312245154531 -0.02177017795067002 0 0.0004384291345750674 -0.021710051770604012 0 0.00049853004051788068 -0.021867883483204339 0 0.001081383366702524 -0.022319793497450204 0 0.0004384291345750674 -0.021710051770604012 0 0.00049853004051788068 -0.021867883483204339 0 -0.00039837906247917654 -0.034953839205135187 0 -0.00037487191536144369 -0.034956605812138504 0 -0.00043638229801015662 -0.034953955809532172 0 -0.00039837906247917654 -0.034953839205135187 0 -0.00043638229801015662 -0.034953955809532172 0 -0.0005033778452823072 -0.034941924777030585 0 -0.00032195236813898492 -0.034936097594963453 0 -0.00039837906247917654 -0.034953839205135187 0 -0.00037487191536144369 -0.034956605812138504 0 -0.00037487191536144369 -0.034956605812138504 0 -0.00043638229801015662 -0.034953955809532172 0 -0.00033531457411148044 -0.034968084484663299 0 -0.00039837906247917654 -0.034953839205135187 0 -0.00061190603212090495 -0.034927128252875396 0 -0.0005033778452823072 -0.034941924777030585 0 0.0004384291345750674 -0.021710051770604012 0 0.0006119853389958467 -0.021926719457446998 0 0.00053254698066655779 -0.022252526573212351 0 0.0005468707595959626 -0.021741221018105786 0 0.0004384291345750674 -0.021710051770604012 0 0.0006119853389958467 -0.021926719457446998 0 -2.3944092530779422e-05 -0.028250954955471145 0 0.00015888020121911315 -0.029247568975195332 0 -0.00061190603212090495 -0.034927128252875396 0 -0.0005635319633031235 -0.034923255000320466 0 -0.0006427583112010518 -0.03489534209592126 0 -0.00061190603212090495 -0.034927128252875396 0 -0.0005033778452823072 -0.034941924777030585 0 -0.0005635319633031235 -0.034923255000320466 0 -0.0004746716476662123 -0.034947563867384408 0 -0.0005033778452823072 -0.034941924777030585 0 -0.0005635319633031235 -0.034923255000320466 0 -0.0004746716476662123 -0.034947563867384408 0 -0.00043638229801015662 -0.034953955809532172 0 -0.00037075610077725966 -0.03496956921405512 0 -0.0004746716476662123 -0.034947563867384408 0 -0.00043638229801015662 -0.034953955809532172 0 -0.0005033778452823072 -0.034941924777030585 0 0.00049345261233195805 -0.020353341258341415 0 8.2102031926646989e-05 -0.020093373809322856 0 0.00029352315106534016 -0.020069283375803285 0 8.2102031926646989e-05 -0.020093373809322856 0 0.00029352315106534016 -0.020069283375803285 0 1.3053675636823268e-05 -0.019873147344015414 0 0.00049345261233195805 -0.020353341258341415 0 0.00029352315106534016 -0.020069283375803285 0 0.00023095661307697649 -0.01988996670438371 0 0.00080414861525514758 -0.021782973643033256 0 0.0006119853389958467 -0.021926719457446998 0 0.00088177313118552249 -0.022210092186706262 0 0.00062908917678153483 -0.021143509442436127 0 0.0005936824455713178 -0.020858158086780276 0 0.00080414861525514758 -0.021782973643033256 0 0.0005468707595959626 -0.021741221018105786 0 0.0006119853389958467 -0.021926719457446998 0 0.000201094089038514 -0.020163926315767342 0 9.8111957897459794e-05 -0.019434449906125865 0 0.00029352315106534016 -0.020069283375803285 0 0.00023095661307697649 -0.01988996670438371 0 0.00016663407434322968 -0.019790097898259456 0 0.00053254698066655779 -0.022252526573212351 0 0.00088177313118552249 -0.022210092186706262 0 0.00087627093008493112 -0.022779265016047819 0 0.0006119853389958467 -0.021926719457446998 0 0.00053254698066655779 -0.022252526573212351 0 0.00088177313118552249 -0.022210092186706262 0 0.00023095661307697649 -0.01988996670438371 0 0.00016663407434322968 -0.019790097898259456 0 5.7372866009708713e-05 -0.019557331833918647 0 0.00029352315106534016 -0.020069283375803285 0 -2.7973567745722846e-05 -0.01980540106171038 0 1.3053675636823268e-05 -0.019873147344015414 0 -2.7973567745722846e-05 -0.01980540106171038 0 1.3053675636823268e-05 -0.019873147344015414 0 -0.00017084372173941601 -0.019787302001438471 0 1.3053675636823268e-05 -0.019873147344015414 0 -0.00017084372173941601 -0.019787302001438471 0 -7.4166125664266449e-05 -0.019818989267443909 0 8.2102031926646989e-05 -0.020093373809322856 0 1.3053675636823268e-05 -0.019873147344015414 0 -7.4166125664266449e-05 -0.019818989267443909 0 -0.00017084372173941601 -0.019787302001438471 0 -0.00030585709165869033 -0.019916203282201544 0 -8.7410168663790974e-05 -0.019678576349379629 0 -0.00017084372173941601 -0.019787302001438471 0 -0.00033639553671995604 -0.019896590338191859 0 -0.00030585709165869033 -0.019916203282201544 0 -2.7973567745722846e-05 -0.01980540106171038 0 -0.00017084372173941601 -0.019787302001438471 0 -0.00022570791460454703 -0.019828659142683953 0 -0.00022570791460454703 -0.019828659142683953 0 -0.00033639553671995604 -0.019896590338191859 0 -0.00034219484084764307 -0.01986634186067416 0 -0.00017084372173941601 -0.019787302001438471 0 -0.00022570791460454703 -0.019828659142683953 0 -0.00033639553671995604 -0.019896590338191859 0 0.00053254698066655779 -0.022252526573212351 0 0.00087627093008493112 -0.022779265016047819 0 0.00087227004005603918 -0.02282401485236301 0 -2.7973567745722846e-05 -0.01980540106171038 0 -0.00022570791460454703 -0.019828659142683953 0 -0.00034219484084764307 -0.01986634186067416 0 0.0005936824455713178 -0.020858158086780276 0 1.6603561374433487e-05 -0.022182923595149052 0 -0.00061190603212090495 -0.034927128252875396 0 -0.00075616407169583702 -0.034830846032755269 0 -0.00070694764816366378 -0.034865515444349439 0 9.8111957897459794e-05 -0.019434449906125865 0 1.6603561374433487e-05 -0.022182923595149052 0 0.00015888020121911315 -0.029247568975195332 0 -0.000180442181438951 -0.025431829761081683 0 -0.00033639553671995604 -0.019896590338191859 0 -0.00034219484084764307 -0.01986634186067416 0 -0.0003656945900690551 -0.019883865300210978 0 1.6603561374433487e-05 -0.022182923595149052 0 -0.000180442181438951 -0.025431829761081683 0 -0.00075616407169583702 -0.034830846032755269 0 -0.00070694764816366378 -0.034865515444349439 0 -0.00074021034023723199 -0.034849184439688256 0 -0.00070694764816366378 -0.034865515444349439 0 -0.00073840396525427668 -0.034856740567389945 0 -0.00069862876528305727 -0.034879023116290694 0 -0.00070694764816366378 -0.034865515444349439 0 -0.00074021034023723199 -0.034849184439688256 0 -0.00073840396525427668 -0.034856740567389945 0 -0.000180442181438951 -0.025431829761081683 0 -0.0012094905212321344 -0.023503583847847793 0 -0.000180442181438951 -0.025431829761081683 0 -0.0012368301510195456 -0.032408747037856366 0 -0.00075616407169583702 -0.034830846032755269 0 -0.00077700985314263244 -0.034848144047001248 0 -0.00080979287763533879 -0.03485073327878202 0 -0.00075616407169583702 -0.034830846032755269 0 -0.00080979287763533879 -0.03485073327878202 0 -0.00085715118395537264 -0.034853307009695245 0 -0.00073840396525427668 -0.034856740567389945 0 -0.00074121784012187199 -0.034867492314770682 0 -0.00069862876528305727 -0.034879023116290694 0 -0.00074021034023723199 -0.034849184439688256 0 -0.00073840396525427668 -0.034856740567389945 0 -0.00075864580122745457 -0.034843827502250978 0 -0.00073840396525427668 -0.034856740567389945 0 -0.00075817672099512661 -0.034850924579278041 0 -0.00075864580122745457 -0.034843827502250978 0 -0.00075817672099512661 -0.034850924579278041 0 -0.00077700985314263244 -0.034848144047001248 0 -0.00075864580122745457 -0.034843827502250978 0 -0.00073840396525427668 -0.034856740567389945 0 -0.00075817672099512661 -0.034850924579278041 0 -0.00075806531723317402 -0.034855639047783146 0 -0.00075817672099512661 -0.034850924579278041 0 -0.00075806531723317402 -0.034855639047783146 0 -0.00077700985314263244 -0.034848144047001248 0 -0.00075806531723317402 -0.034855639047783146 0 -0.00074121784012187199 -0.034867492314770682 0 -0.00077312487666954287 -0.034856722229033417 0 -0.00073840396525427668 -0.034856740567389945 0 -0.00075806531723317402 -0.034855639047783146 0 -0.00074121784012187199 -0.034867492314770682 0 -0.00074121784012187199 -0.034867492314770682 0 -0.00076988165618303156 -0.034865785931215004 0 -0.00077312487666954287 -0.034856722229033417 0 -0.00076988165618303156 -0.034865785931215004 0 -0.00079073561218392528 -0.034857165610157233 0 -0.00077312487666954287 -0.034856722229033417 0 -0.00076988165618303156 -0.034865785931215004 0 -0.00079073561218392528 -0.034857165610157233 0 -0.00080229352386433791 -0.034860598650787465 0 -0.00079073561218392528 -0.034857165610157233 0 -0.00080979287763533879 -0.03485073327878202 0 -0.00080229352386433791 -0.034860598650787465 0 -0.00078967151552026692 -0.03485265144284317 0 -0.00077700985314263244 -0.034848144047001248 0 -0.00080979287763533879 -0.03485073327878202 0 -0.00079073561218392528 -0.034857165610157233 0 -0.00078967151552026692 -0.03485265144284317 0 -0.00080979287763533879 -0.03485073327878202 0 -0.00079073561218392528 -0.034857165610157233 0 -0.00078967151552026692 -0.03485265144284317 0 -0.00077312487666954287 -0.034856722229033417 0 -0.00078967151552026692 -0.03485265144284317 0 -0.00077312487666954287 -0.034856722229033417 0 -0.00077700985314263244 -0.034848144047001248 0 -0.00075806531723317402 -0.034855639047783146 0 -0.00077312487666954287 -0.034856722229033417 0 -0.00077700985314263244 -0.034848144047001248 0 -0.00075616407169583702 -0.034830846032755269 0 -0.00077700985314263244 -0.034848144047001248 0 -0.00075864580122745457 -0.034843827502250978 0 -0.00075616407169583702 -0.034830846032755269 0 -0.00074021034023723199 -0.034849184439688256 0 -0.00075864580122745457 -0.034843827502250978 0 -0.0009515573888604418 -0.019793096050100878 0 -0.00058224774529711551 -0.02027104813673956 0 -0.0010363971410470437 -0.020684923258198092 0 -0.00058224774529711551 -0.02027104813673956 0 -0.00030585709165869033 -0.019916203282201544 0 -0.00022068792046023482 -0.020399144852624496 0 -0.000180442181438951 -0.025431829761081683 0 -0.0014592816193806711 -0.01889016284795407 0 -0.00033639553671995604 -0.019896590338191859 0 -0.0003656945900690551 -0.019883865300210978 0 -0.00058224774529711551 -0.02027104813673956 0 -0.00033639553671995604 -0.019896590338191859 0 -0.00058224774529711551 -0.02027104813673956 0 -0.00030585709165869033 -0.019916203282201544 0 -0.00051710313314567904 -0.034939939342370711 0 -0.0005635319633031235 -0.034923255000320466 0 -0.00063017265887412152 -0.034907782015498996 0 -0.0004746716476662123 -0.034947563867384408 0 -0.00051710313314567904 -0.034939939342370711 0 -0.0005635319633031235 -0.034923255000320466 0 -0.0005635319633031235 -0.034923255000320466 0 -0.0006427583112010518 -0.03489534209592126 0 -0.00063017265887412152 -0.034907782015498996 0 -0.00061190603212090495 -0.034927128252875396 0 -0.00070694764816366378 -0.034865515444349439 0 -0.0006427583112010518 -0.03489534209592126 0 -0.00070694764816366378 -0.034865515444349439 0 -0.0006427583112010518 -0.03489534209592126 0 -0.00069862876528305727 -0.034879023116290694 0 -0.0006427583112010518 -0.03489534209592126 0 -0.00063017265887412152 -0.034907782015498996 0 -0.00069862876528305727 -0.034879023116290694 0 -0.00063017265887412152 -0.034907782015498996 0 -0.00069862876528305727 -0.034879023116290694 0 -0.00072461968737003505 -0.034882488269618983 0 -0.00074121784012187199 -0.034867492314770682 0 -0.00069862876528305727 -0.034879023116290694 0 -0.00072461968737003505 -0.034882488269618983 0 -0.00074121784012187199 -0.034867492314770682 0 -0.00076988165618303156 -0.034865785931215004 0 -0.00072461968737003505 -0.034882488269618983 0 -0.00076988165618303156 -0.034865785931215004 0 -0.00072461968737003505 -0.034882488269618983 0 -0.0007860777885541941 -0.034872361763421796 0 -0.00072461968737003505 -0.034882488269618983 0 -0.00067935971790277644 -0.034901838111723586 0 -0.00075036037090967563 -0.034888810040096599 0 -0.00063017265887412152 -0.034907782015498996 0 -0.00072461968737003505 -0.034882488269618983 0 -0.00067935971790277644 -0.034901838111723586 0 -0.00067935971790277644 -0.034901838111723586 0 -0.00058179037409172624 -0.034929842617918018 0 -0.00070174029911122143 -0.034904756248971769 0 -0.00063017265887412152 -0.034907782015498996 0 -0.00067935971790277644 -0.034901838111723586 0 -0.00058179037409172624 -0.034929842617918018 0 -0.00051710313314567904 -0.034939939342370711 0 -0.00063017265887412152 -0.034907782015498996 0 -0.00058179037409172624 -0.034929842617918018 0 -0.00058179037409172624 -0.034929842617918018 0 -0.00042008017131003189 -0.034962703046045429 0 -0.00046192363449639617 -0.034954618224818698 0 -0.00051710313314567904 -0.034939939342370711 0 -0.00058179037409172624 -0.034929842617918018 0 -0.00042008017131003189 -0.034962703046045429 0 -0.00051710313314567904 -0.034939939342370711 0 -0.00042008017131003189 -0.034962703046045429 0 -0.00039825505578643117 -0.034965553290538728 0 -0.0004746716476662123 -0.034947563867384408 0 -0.00051710313314567904 -0.034939939342370711 0 -0.00039825505578643117 -0.034965553290538728 0 -0.00039825505578643117 -0.034965553290538728 0 -0.00026636680414121144 -0.034985793877635465 0 -0.00029576734111700964 -0.034981456073186361 0 -0.00042008017131003189 -0.034962703046045429 0 -0.00039825505578643117 -0.034965553290538728 0 -0.00026636680414121144 -0.034985793877635465 0 -0.00042008017131003189 -0.034962703046045429 0 -0.00029797438564905192 -0.034979352298965295 0 -0.00046192363449639617 -0.034954618224818698 0 -0.00042008017131003189 -0.034962703046045429 0 -0.00026636680414121144 -0.034985793877635465 0 -0.00029797438564905192 -0.034979352298965295 0 -0.00026636680414121144 -0.034985793877635465 0 -0.00029797438564905192 -0.034979352298965295 0 -0.00014381282653148507 -0.034994131808479476 0 -0.00029797438564905192 -0.034979352298965295 0 -0.00014381282653148507 -0.034994131808479476 0 -0.00018578365358181263 -0.034985213687897171 0 -0.00014381282653148507 -0.034994131808479476 0 -1.2157523130176212e-07 -0.034999982481620701 0 -0.00018578365358181263 -0.034985213687897171 0 -0.00014381282653148507 -0.034994131808479476 0 -1.1568186738076907e-07 -0.035000009049674256 0 -1.2157523130176212e-07 -0.034999982481620701 0 -0.00014381282653148507 -0.034994131808479476 0 -1.1568186738076907e-07 -0.035000009049674256 0 -0.0001614760394135635 -0.034994774071295094 0 -0.00026636680414121144 -0.034985793877635465 0 -0.00014381282653148507 -0.034994131808479476 0 -0.0001614760394135635 -0.034994774071295094 0 -1.1568186738076907e-07 -0.035000009049674256 0 -0.0001614760394135635 -0.034994774071295094 0 -9.6667643070531392e-08 -0.034999959525454746 0 -9.7513567989070327e-05 -0.03500576638552047 0 -0.0001614760394135635 -0.034994774071295094 0 -9.6667643070531392e-08 -0.034999959525454746 0 -9.7513567989070327e-05 -0.03500576638552047 0 -0.0001614760394135635 -0.034994774071295094 0 -0.000199909427765066 -0.034993322325134336 0 -0.0001614760394135635 -0.034994774071295094 0 -0.000199909427765066 -0.034993322325134336 0 -0.0002766754135183445 -0.034984033808227989 0 -0.00027139706716788913 -0.034972250069888848 0 -0.000199909427765066 -0.034993322325134336 0 -0.0002766754135183445 -0.034984033808227989 0 -0.00027139706716788913 -0.034972250069888848 0 -0.0002766754135183445 -0.034984033808227989 0 -0.00033531457411148044 -0.034968084484663299 0 -0.00032195236813898492 -0.034936097594963453 0 -0.00037487191536144369 -0.034956605812138504 0 -0.00033531457411148044 -0.034968084484663299 0 -0.00043638229801015662 -0.034953955809532172 0 -0.00033531457411148044 -0.034968084484663299 0 -0.00037075610077725966 -0.03496956921405512 0 -0.0002766754135183445 -0.034984033808227989 0 -0.00033531457411148044 -0.034968084484663299 0 -0.00037075610077725966 -0.03496956921405512 0 -0.0004746716476662123 -0.034947563867384408 0 -0.00039825505578643117 -0.034965553290538728 0 -0.00037075610077725966 -0.03496956921405512 0 -0.00039825505578643117 -0.034965553290538728 0 -0.00037075610077725966 -0.03496956921405512 0 -0.00029576734111700964 -0.034981456073186361 0 -0.00026636680414121144 -0.034985793877635465 0 -0.0001614760394135635 -0.034994774071295094 0 -0.00029576734111700964 -0.034981456073186361 0 -0.0001614760394135635 -0.034994774071295094 0 -0.0002766754135183445 -0.034984033808227989 0 -0.00029576734111700964 -0.034981456073186361 0 -0.0002766754135183445 -0.034984033808227989 0 -0.00037075610077725966 -0.03496956921405512 0 -0.00029576734111700964 -0.034981456073186361 0 -0.00014375274618240477 -0.018545768147015397 0 -0.00044085433451847929 -0.018842083018283801 0 -0.00035548428484377724 -0.018481022264188407 0 -0.00014375274618240477 -0.018545768147015397 0 -0.00044085433451847929 -0.018842083018283801 0 -8.4684454906110507e-05 -0.018765736515119529 0 -0.00044085433451847929 -0.018842083018283801 0 -0.00057583950043724294 -0.018666105424175454 0 -0.00079485409981815038 -0.019277392990530214 0 -0.00043626814193920807 -0.020236481163669825 0 -0.00098015419349274874 -0.018925807758422158 0 -0.00057583950043724294 -0.018666105424175454 0 -0.0010197459366430271 -0.018523971201850738 0 -0.00079485409981815038 -0.019277392990530214 0 -0.00084085366333607836 -0.019071913650572446 0 -0.00043626814193920807 -0.020236481163669825 0 -0.00057583950043724294 -0.018666105424175454 0 -0.00040742812983915287 -0.018478836929073417 0 -0.0004105812516909794 -0.018462195615804252 0 -0.00057583950043724294 -0.018666105424175454 0 -0.00040742812983915287 -0.018478836929073417 0 -0.00035548428484377724 -0.018481022264188407 0 -0.00044085433451847929 -0.018842083018283801 0 -0.00057583950043724294 -0.018666105424175454 0 -0.00035548428484377724 -0.018481022264188407 0 -0.00040742812983915287 -0.018478836929073417 0 -0.00033122611604043676 -0.01837370075603215 0 -0.00035548428484377724 -0.018481022264188407 0 -0.00040742812983915287 -0.018478836929073417 0 -0.00025742753513169418 -0.018511261466506078 0 -0.0004105812516909794 -0.018462195615804252 0 -0.00040742812983915287 -0.018478836929073417 0 -0.00025742753513169418 -0.018511261466506078 0 -0.00033122611604043676 -0.01837370075603215 0 -0.00033122611604043676 -0.01837370075603215 0 -0.00035548428484377724 -0.018481022264188407 0 -8.5724164160371516e-05 -0.018240020875244858 0 -0.00014375274618240477 -0.018545768147015397 0 -0.00035548428484377724 -0.018481022264188407 0 -8.5724164160371516e-05 -0.018240020875244858 0 -0.00014375274618240477 -0.018545768147015397 0 -8.5724164160371516e-05 -0.018240020875244858 0 0.00016700472222431632 -0.018485439825349805 0 -8.5724164160371516e-05 -0.018240020875244858 0 7.3884655319212414e-05 -0.017337707343012938 0 0.00029712787451489003 -0.01819604065259944 0 -0.00033122611604043676 -0.01837370075603215 0 -8.5724164160371516e-05 -0.018240020875244858 0 7.3884655319212414e-05 -0.017337707343012938 0 -0.00033122611604043676 -0.01837370075603215 0 7.3884655319212414e-05 -0.017337707343012938 0 -0.00018788105114500074 -0.018288939101702179 0 7.3884655319212414e-05 -0.017337707343012938 0 -0.00018788105114500074 -0.018288939101702179 0 3.1427311391873088e-07 -0.017351530377980269 0 -1.1677462983123155e-06 -0.019312874964105487 0 -0.00018788105114500074 -0.018288939101702179 0 3.1427311391873088e-07 -0.017351530377980269 0 -1.1677462983123155e-06 -0.019312874964105487 0 -0.00018788105114500074 -0.018288939101702179 0 9.0658543131655565e-06 -0.018722896003910444 0 -0.00025742753513169418 -0.018511261466506078 0 -0.00018788105114500074 -0.018288939101702179 0 9.0658543131655565e-06 -0.018722896003910444 0 -0.00025742753513169418 -0.018511261466506078 0 -0.00033122611604043676 -0.01837370075603215 0 -0.00018788105114500074 -0.018288939101702179 0 -1.1677462983123155e-06 -0.019312874964105487 0 9.0658543131655565e-06 -0.018722896003910444 0 1.9217009274559056e-06 -0.021268969884200566 0 1.058040482061527e-06 -0.021276219272851865 0 -9.7794103979370025e-06 -0.022721324192179961 0 -0.00015004746598486703 -0.022997593687111535 0 0.00031703391694998506 -0.020912330605095109 0 -7.5258470485910557e-08 -0.021272190362332466 0 0.00053575593341399894 -0.022818726426866186 0 1.058040482061527e-06 -0.021276219272851865 0 -9.7794103979370025e-06 -0.022721324192179961 0 0.00053575593341399894 -0.022818726426866186 0 -9.7794103979370025e-06 -0.022721324192179961 0 0.00022319563242094816 -0.023141851565008101 0 -9.7794103979370025e-06 -0.022721324192179961 0 0.00022319563242094816 -0.023141851565008101 0 -8.1691797258355486e-05 -0.02284804000280009 0 -0.00025742753513169418 -0.018511261466506078 0 9.0658543131655565e-06 -0.018722896003910444 0 -0.0004105812516909794 -0.018462195615804252 0 0.00053575593341399894 -0.022818726426866186 0 0.00022319563242094816 -0.023141851565008101 0 0.00061532383825203601 -0.023232630586602156 0 0.00031703391694998506 -0.020912330605095109 0 -0.00043626814193920807 -0.020236481163669825 0 -0.00087207839544705052 -0.019856462696012517 0 -0.00071645506945031275 -0.019715142611083616 0 -0.00079485409981815038 -0.019277392990530214 0 -0.00070285530616123889 -0.020227479511376385 0 -0.00087207839544705052 -0.019856462696012517 0 -0.00071645506945031275 -0.019715142611083616 0 -0.00011108637854849499 -0.021818645865293227 0 -0.00043626814193920807 -0.020236481163669825 0 -0.0005975764728437578 -0.020055003877299239 0 -0.00074038722270927562 -0.019772089350394165 0 -0.00070285530616123889 -0.020227479511376385 0 -0.00067150605534697873 -0.020308097651855539 0 -0.00071645506945031275 -0.019715142611083616 0 -0.00070285530616123889 -0.020227479511376385 0 -0.00067150605534697873 -0.020308097651855539 0 -0.00069822156929173036 -0.020656586665678465 0 -0.00067150605534697873 -0.020308097651855539 0 -0.00057090024036187152 -0.02076101640852427 0 -0.00069822156929173036 -0.020656586665678465 0 -0.0005975764728437578 -0.020055003877299239 0 -0.00037635436628527459 -0.020364228683913594 0 -0.00067150605534697873 -0.020308097651855539 0 -0.00057090024036187152 -0.02076101640852427 0 -0.00046286487264920637 -0.020606668371751846 0 -0.00049214193425149504 -0.01983327668366126 0 -0.00034056258855526375 -0.020113984271994914 0 -0.00039339157565822848 -0.019849033365501426 0 -0.00022962782331229089 -0.022688782241658663 0 -0.0005160219557143323 -0.021410923744859867 0 -0.00049766765047563118 -0.021295284995514419 0 -0.00057090024036187152 -0.02076101640852427 0 -0.00069822156929173036 -0.020656586665678465 0 -0.00049766765047563118 -0.021295284995514419 0 -0.00022962782331229089 -0.022688782241658663 0 -8.1691797258355486e-05 -0.02284804000280009 0 -0.0005160219557143323 -0.021410923744859867 0 -0.00018325171273671242 -0.022740413218303172 0 -0.00038858785741404365 -0.022556312935881062 0 -0.00040897433968712271 -0.021627893220161894 0 -0.00040045630474217923 -0.021420005108093935 0 0.00022319563242094816 -0.023141851565008101 0 -0.00022962782331229089 -0.022688782241658663 0 -8.1691797258355486e-05 -0.02284804000280009 0 -0.00011108637854849499 -0.021818645865293227 0 -0.00040897433968712271 -0.021627893220161894 0 -9.7794103979370025e-06 -0.022721324192179961 0 -8.1691797258355486e-05 -0.02284804000280009 0 -8.479370849828154e-05 -0.022923982298193899 0 -8.1691797258355486e-05 -0.02284804000280009 0 -8.479370849828154e-05 -0.022923982298193899 0 -0.00013842745581669902 -0.023186682037560222 0 -8.479370849828154e-05 -0.022923982298193899 0 -0.00015004746598486703 -0.022997593687111535 0 -0.00013842745581669902 -0.023186682037560222 0 -9.7794103979370025e-06 -0.022721324192179961 0 -8.479370849828154e-05 -0.022923982298193899 0 -0.00015004746598486703 -0.022997593687111535 0 1.058040482061527e-06 -0.021276219272851865 0 -0.00015004746598486703 -0.022997593687111535 0 -7.0514616870179094e-07 -0.022958115437830717 0 -7.0514616870179094e-07 -0.022958115437830717 0 -0.00010840391575598219 -0.02378427036693373 0 -3.6244118600981445e-08 -0.024644867106367215 0 -0.00015004746598486703 -0.022997593687111535 0 -7.0514616870179094e-07 -0.022958115437830717 0 -0.00010840391575598219 -0.02378427036693373 0 -0.00015004746598486703 -0.022997593687111535 0 -0.00010840391575598219 -0.02378427036693373 0 -0.00013842745581669902 -0.023186682037560222 0 -0.00010840391575598219 -0.02378427036693373 0 -0.00011060353329736707 -0.023556467647377941 0 -0.00013842745581669902 -0.023186682037560222 0 -8.1691797258355486e-05 -0.02284804000280009 0 -0.00011060353329736707 -0.023556467647377941 0 -0.00013842745581669902 -0.023186682037560222 0 -0.00010840391575598219 -0.02378427036693373 0 -0.00011060353329736707 -0.023556467647377941 0 6.8940555748201894e-06 -0.0250048403367641 0 -5.5328229966525372e-05 -0.021577058262169123 0 -0.00012667490987278206 -0.02117123658172981 0 -0.00049766765047563118 -0.021295284995514419 0 -0.00038858785741404365 -0.022556312935881062 0 -9.2393322265620393e-05 -0.023311027324285416 0 -0.0005160219557143323 -0.021410923744859867 0 -5.5328229966525372e-05 -0.021577058262169123 0 -0.00049766765047563118 -0.021295284995514419 0 -0.00010840391575598219 -0.02378427036693373 0 -3.6244118600981445e-08 -0.024644867106367215 0 6.8940555748201894e-06 -0.0250048403367641 0 -5.0340487162968038e-07 -0.026330620804139258 0 -3.6244118600981445e-08 -0.024644867106367215 0 6.8940555748201894e-06 -0.0250048403367641 0 0.0003118345931821921 -0.021492730895413686 0 -5.5328229966525372e-05 -0.021577058262169123 0 -0.00012667490987278206 -0.02117123658172981 0 -0.00012667490987278206 -0.02117123658172981 0 -0.0003378828820131368 -0.020877310199790947 0 2.1835302932813742e-05 -0.020618585218077547 0 0.0003118345931821921 -0.021492730895413686 0 -0.00012667490987278206 -0.02117123658172981 0 2.1835302932813742e-05 -0.020618585218077547 0 -0.00012667490987278206 -0.02117123658172981 0 -0.00049766765047563118 -0.021295284995514419 0 -0.0003378828820131368 -0.020877310199790947 0 -0.00057090024036187152 -0.02076101640852427 0 -0.00049766765047563118 -0.021295284995514419 0 -0.0003378828820131368 -0.020877310199790947 0 -0.0003378828820131368 -0.020877310199790947 0 -0.00046286487264920637 -0.020606668371751846 0 2.1835302932813742e-05 -0.020618585218077547 0 -0.00057090024036187152 -0.02076101640852427 0 -0.0003378828820131368 -0.020877310199790947 0 -0.00046286487264920637 -0.020606668371751846 0 -0.00037635436628527459 -0.020364228683913594 0 2.6553683646899109e-05 -0.020585200335604896 0 -0.00034056258855526375 -0.020113984271994914 0 2.1835302932813742e-05 -0.020618585218077547 0 -0.00021509224653823013 -0.019975899864257407 0 8.2102031926646989e-05 -0.020093373809322856 0 2.1835302932813742e-05 -0.020618585218077547 0 -0.00021509224653823013 -0.019975899864257407 0 8.2102031926646989e-05 -0.020093373809322856 0 -0.00021509224653823013 -0.019975899864257407 0 -7.4166125664266449e-05 -0.019818989267443909 0 -0.00021509224653823013 -0.019975899864257407 0 -0.00034806971873596409 -0.019692379028639014 0 -0.00039339157565822848 -0.019849033365501426 0 -0.00034056258855526375 -0.020113984271994914 0 -0.00021509224653823013 -0.019975899864257407 0 -0.00039339157565822848 -0.019849033365501426 0 -0.00020269080200507249 -0.019716579319550714 0 -0.00033843510819995745 -0.019431388395941836 0 -0.00034806971873596409 -0.019692379028639014 0 -0.00021509224653823013 -0.019975899864257407 0 -0.00020269080200507249 -0.019716579319550714 0 -0.00034806971873596409 -0.019692379028639014 0 -0.00021509224653823013 -0.019975899864257407 0 -0.00020269080200507249 -0.019716579319550714 0 -7.4166125664266449e-05 -0.019818989267443909 0 -0.00020269080200507249 -0.019716579319550714 0 -7.4166125664266449e-05 -0.019818989267443909 0 -8.7410168663790974e-05 -0.019678576349379629 0 -0.00017084372173941601 -0.019787302001438471 0 -7.4166125664266449e-05 -0.019818989267443909 0 -8.7410168663790974e-05 -0.019678576349379629 0 -8.7410168663790974e-05 -0.019678576349379629 0 0.00024241802584518891 -0.020402563893626456 0 -0.00022068792046023482 -0.020399144852624496 0 -0.00030585709165869033 -0.019916203282201544 0 -8.7410168663790974e-05 -0.019678576349379629 0 -0.00022068792046023482 -0.020399144852624496 0 -8.7410168663790974e-05 -0.019678576349379629 0 -0.00033843510819995745 -0.019431388395941836 0 -0.00019257987118808989 -0.019164558415677664 0 -8.4769049963533257e-05 -0.019660453452286186 0 1.6011877880012472e-05 -0.019800746185168413 0 -0.00020269080200507249 -0.019716579319550714 0 -8.7410168663790974e-05 -0.019678576349379629 0 -0.00033843510819995745 -0.019431388395941836 0 -0.00033843510819995745 -0.019431388395941836 0 -0.00046052528122741976 -0.019124091005575168 0 -0.00019257987118808989 -0.019164558415677664 0 -0.00033843510819995745 -0.019431388395941836 0 -0.00046052528122741976 -0.019124091005575168 0 -0.00049426487979698419 -0.019289391015904815 0 -0.00046052528122741976 -0.019124091005575168 0 -0.00049426487979698419 -0.019289391015904815 0 -0.00059074948181094607 -0.019070270502750553 0 -0.00033843510819995745 -0.019431388395941836 0 -0.00049426487979698419 -0.019289391015904815 0 -0.00047956430044592067 -0.01954389627922826 0 -0.00049426487979698419 -0.019289391015904815 0 -0.00047956430044592067 -0.01954389627922826 0 -0.00058107107262705341 -0.019285702887787554 0 -0.00033843510819995745 -0.019431388395941836 0 -0.00047956430044592067 -0.01954389627922826 0 -0.00034806971873596409 -0.019692379028639014 0 -0.00047956430044592067 -0.01954389627922826 0 -0.00034806971873596409 -0.019692379028639014 0 -0.00039339157565822848 -0.019849033365501426 0 -0.00049214193425149504 -0.01983327668366126 0 -0.00047956430044592067 -0.01954389627922826 0 -0.00060552694712744061 -0.019497464986385406 0 -0.00049214193425149504 -0.01983327668366126 0 -0.00047956430044592067 -0.01954389627922826 0 -0.00039339157565822848 -0.019849033365501426 0 -0.00049214193425149504 -0.01983327668366126 0 -0.00071645506945031275 -0.019715142611083616 0 -0.00060552694712744061 -0.019497464986385406 0 -0.00071645506945031275 -0.019715142611083616 0 -0.00073155605026415142 -0.01939033784821477 0 -0.00079485409981815038 -0.019277392990530214 0 -0.00071645506945031275 -0.019715142611083616 0 -0.00073155605026415142 -0.01939033784821477 0 -0.00060552694712744061 -0.019497464986385406 0 -0.00073155605026415142 -0.01939033784821477 0 -0.00069187945184688104 -0.019261935041008631 0 -0.00060552694712744061 -0.019497464986385406 0 -0.00073155605026415142 -0.01939033784821477 0 -0.00069187945184688104 -0.019261935041008631 0 -0.00075887530541998802 -0.019221194450273659 0 -0.00069187945184688104 -0.019261935041008631 0 -0.00074986156211528379 -0.019091329737322169 0 -0.00075887530541998802 -0.019221194450273659 0 -0.00069187945184688104 -0.019261935041008631 0 -0.00060552694712744061 -0.019497464986385406 0 -0.00058107107262705341 -0.019285702887787554 0 -0.00047956430044592067 -0.01954389627922826 0 -0.00060552694712744061 -0.019497464986385406 0 -0.00058107107262705341 -0.019285702887787554 0 -0.00049426487979698419 -0.019289391015904815 0 -0.00058107107262705341 -0.019285702887787554 0 -0.00059074948181094607 -0.019070270502750553 0 -0.00058107107262705341 -0.019285702887787554 0 -0.00059074948181094607 -0.019070270502750553 0 -0.00071019967899109448 -0.019010678919737772 0 -0.00059074948181094607 -0.019070270502750553 0 -0.00071019967899109448 -0.019010678919737772 0 -0.00068673065743510286 -0.01883112879744454 0 -0.00071019967899109448 -0.019010678919737772 0 -0.00081583237692930423 -0.018774977702948437 0 -0.00068673065743510286 -0.01883112879744454 0 -0.00069187945184688104 -0.019261935041008631 0 -0.00071019967899109448 -0.019010678919737772 0 -0.00074986156211528379 -0.019091329737322169 0 -0.00069187945184688104 -0.019261935041008631 0 -0.00058107107262705341 -0.019285702887787554 0 -0.00071019967899109448 -0.019010678919737772 0 -0.00082300539696833475 -0.01884420344015424 0 -0.00074986156211528379 -0.019091329737322169 0 -0.00072697278364961709 -0.019077619197724785 0 -0.00071019967899109448 -0.019010678919737772 0 -0.00082300539696833475 -0.01884420344015424 0 -0.00074986156211528379 -0.019091329737322169 0 -0.00082300539696833475 -0.01884420344015424 0 -0.00081583237692930423 -0.018774977702948437 0 -0.00092771177426572825 -0.018624362835070022 0 -0.00071019967899109448 -0.019010678919737772 0 -0.00082300539696833475 -0.01884420344015424 0 -0.00081583237692930423 -0.018774977702948437 0 -0.00092771177426572825 -0.018624362835070022 0 -0.0010297863446090431 -0.01845612674656217 0 -0.00099384554490830287 -0.018560944575665705 0 -0.00082300539696833475 -0.01884420344015424 0 -0.00092771177426572825 -0.018624362835070022 0 -0.00099384554490830287 -0.018560944575665705 0 -0.00082300539696833475 -0.01884420344015424 0 -0.00089072733643713337 -0.01879704176242665 0 -0.00072697278364961709 -0.019077619197724785 0 -0.00082300539696833475 -0.01884420344015424 0 -0.00089072733643713337 -0.01879704176242665 0 -0.00099384554490830287 -0.018560944575665705 0 -0.00072697278364961709 -0.019077619197724785 0 -0.00055510580400444166 -0.019139918193685799 0 -0.00088198496190737769 -0.01895143156610099 0 -0.00089072733643713337 -0.01879704176242665 0 -0.00072697278364961709 -0.019077619197724785 0 -0.00088198496190737769 -0.01895143156610099 0 -0.00074986156211528379 -0.019091329737322169 0 -0.00072697278364961709 -0.019077619197724785 0 -0.00075887530541998802 -0.019221194450273659 0 -0.00072697278364961709 -0.019077619197724785 0 -0.00075887530541998802 -0.019221194450273659 0 -0.00079485409981815038 -0.019277392990530214 0 -0.00072697278364961709 -0.019077619197724785 0 -0.00079485409981815038 -0.019277392990530214 0 -0.00055510580400444166 -0.019139918193685799 0 -0.00073155605026415142 -0.01939033784821477 0 -0.00075887530541998802 -0.019221194450273659 0 -0.00079485409981815038 -0.019277392990530214 0 -0.00044085433451847929 -0.018842083018283801 0 -0.00079485409981815038 -0.019277392990530214 0 -0.00055510580400444166 -0.019139918193685799 0 -0.00044085433451847929 -0.018842083018283801 0 -0.00055510580400444166 -0.019139918193685799 0 -8.4684454906110507e-05 -0.018765736515119529 0 -0.00051884136779150507 -0.019130912172774288 0 -0.00044320467498392259 -0.018981494431275968 0 -0.0023742252452174668 -0.019526043173926727 0 -0.0019673175618471601 -0.020270118318491903 0 -0.0017630638047673296 -0.019603810709754109 0 -0.0016786618266553224 -0.020816485708062816 0 -0.0014774764012690457 -0.020950506346782055 0 -0.00089526758409984666 -0.021835658251122395 0 -0.00079702882425837073 -0.021809325456930668 0 -0.00085725698849918749 -0.021758222334169432 0 -0.0023742252452174668 -0.019526043173926727 0 -0.002050269411275266 -0.019042756502834404 0 -0.0026498738934732924 -0.018883426503915779 0 -0.0016786618266553224 -0.020816485708062816 0 -0.0010800225689421813 -0.019517359644713354 0 -0.0023742252452174668 -0.019526043173926727 0 -0.002050269411275266 -0.019042756502834404 0 -0.0017630638047673296 -0.019603810709754109 0 -0.002050269411275266 -0.019042756502834404 0 -0.0021833875940510989 -0.018567841890442378 0 -0.0017814710441386701 -0.018663601512438632 0 -0.0015935915489583702 -0.018550103339092391 0 -0.0014177305491747817 -0.018384992591946897 0 -0.0021833875940510989 -0.018567841890442378 0 -0.0017553543260030865 -0.018309501357552035 0 -0.0017814710441386701 -0.018663601512438632 0 -0.00092771177426572825 -0.018624362835070022 0 -0.00090479035967793819 -0.018607224610360379 0 -0.0010297863446090431 -0.01845612674656217 0 -0.00081583237692930423 -0.018774977702948437 0 -0.00092771177426572825 -0.018624362835070022 0 -0.00090479035967793819 -0.018607224610360379 0 -0.00081583237692930423 -0.018774977702948437 0 -0.00090479035967793819 -0.018607224610360379 0 -0.00068673065743510286 -0.01883112879744454 0 -0.0015935915489583702 -0.018550103339092391 0 -0.0010800225689421813 -0.019517359644713354 0 -0.002050269411275266 -0.019042756502834404 0 -0.0021833875940510989 -0.018567841890442378 0 -0.0026498738934732924 -0.018883426503915779 0 -0.00090479035967793819 -0.018607224610360379 0 -0.00075858888160403254 -0.018568254534522072 0 -0.00068673065743510286 -0.01883112879744454 0 -0.0010800225689421813 -0.019517359644713354 0 -0.00070227379655819083 -0.018575935611962194 0 -0.00067988204977401936 -0.018849897257488528 0 -0.00068673065743510286 -0.01883112879744454 0 -0.00064390536763932714 -0.018860290727200642 0 -0.00067988204977401936 -0.018849897257488528 0 -0.00064390536763932714 -0.018860290727200642 0 -0.00064208928353832345 -0.018809177454066829 0 -0.00068673065743510286 -0.01883112879744454 0 -0.00057700640970556366 -0.01894426904927687 0 -0.00064390536763932714 -0.018860290727200642 0 -0.00059074948181094607 -0.019070270502750553 0 -0.00068673065743510286 -0.01883112879744454 0 -0.00057700640970556366 -0.01894426904927687 0 -0.00064390536763932714 -0.018860290727200642 0 -0.00064208928353832345 -0.018809177454066829 0 -0.00054501760179408241 -0.018862102497168347 0 -0.00057700640970556366 -0.01894426904927687 0 -0.00064390536763932714 -0.018860290727200642 0 -0.00054501760179408241 -0.018862102497168347 0 -0.00066811848627233369 -0.020297492241888059 0 -0.00059671622292895075 -0.021258406029185502 0 -0.00064208928353832345 -0.018809177454066829 0 -0.00053888621444633886 -0.018743921057150066 0 -0.00054392848347437799 -0.018799731464345628 0 -0.00064208928353832345 -0.018809177454066829 0 -0.00054392848347437799 -0.018799731464345628 0 -0.00054501760179408241 -0.018862102497168347 0 -0.0010800225689421813 -0.019517359644713354 0 -0.00066811848627233369 -0.020297492241888059 0 -0.00089526758409984666 -0.021835658251122395 0 -0.00085231181572502726 -0.021866548882005347 0 -0.00079343904575525164 -0.021847981671352757 0 -0.00089526758409984666 -0.021835658251122395 0 -0.00079343904575525164 -0.021847981671352757 0 -0.00079702882425837073 -0.021809325456930668 0 -0.00079702882425837073 -0.021809325456930668 0 -0.00071844228012356163 -0.021864462844092662 0 -0.00073772189854779833 -0.021816174400637104 0 -0.00079343904575525164 -0.021847981671352757 0 -0.00079702882425837073 -0.021809325456930668 0 -0.00075358424050329736 -0.021819975261266052 0 -0.00079890339469053536 -0.021934245223403474 0 -0.00059671622292895075 -0.021258406029185502 0 -0.00046556899198780876 -0.021689885389581172 0 -0.00038945405502552717 -0.02168156604130644 0 -0.00066413679234711605 -0.021842939467237778 0 -0.00071844228012356163 -0.021864462844092662 0 -0.00070371776695232009 -0.021835934280818665 0 -0.00073772189854779833 -0.021816174400637104 0 -0.00071844228012356163 -0.021864462844092662 0 -0.00066413679234711605 -0.021842939467237778 0 -0.00070371776695232009 -0.021835934280818665 0 -0.00059671622292895075 -0.021258406029185502 0 -0.000679817186253304 -0.022002965092605718 0 -0.00046556899198780876 -0.021689885389581172 0 -0.00038945405502552717 -0.02168156604130644 0 -0.00049937396484932132 -0.021627547802023927 0 -0.00014405618309627148 -0.021333901894889189 0 -0.00015650155397723241 -0.02094920449789496 0 -0.00059671622292895075 -0.021258406029185502 0 -0.00015650155397723241 -0.02094920449789496 0 -0.00046556899198780876 -0.021689885389581172 0 -0.00060874358460438532 -0.021692235126956824 0 -0.00066413679234711605 -0.021842939467237778 0 -0.00046556899198780876 -0.021689885389581172 0 -0.00060874358460438532 -0.021692235126956824 0 -0.0004919448403743077 -0.021652097244514883 0 -0.00015650155397723241 -0.02094920449789496 0 -1.583809646665458e-05 -0.021688728788369409 0 -0.00015650155397723241 -0.02094920449789496 0 0.00017663413603126059 -0.019929214423262044 0 0.0010263511924103613 -0.021874674022724905 0 0.00063594641969035904 -0.02117154906656828 0 0.00035509300448014489 -0.021609184064327956 0 -0.00044496517448209031 -0.018838653769478683 0 -0.00047850523274142623 -0.018758790347924825 0 -0.00034753663609179264 -0.018889849542120758 0 -0.00060874358460438532 -0.021692235126956824 0 -0.0004919448403743077 -0.021652097244514883 0 -0.00060761741547306618 -0.021570726140818331 0 -0.00044496517448209031 -0.018838653769478683 0 -0.00049376247673263299 -0.01880391462049982 0 -0.00047850523274142623 -0.018758790347924825 0 -0.00044496517448209031 -0.018838653769478683 0 -0.00049376247673263299 -0.01880391462049982 0 -0.00054501760179408241 -0.018862102497168347 0 -0.00049376247673263299 -0.01880391462049982 0 -0.00047850523274142623 -0.018758790347924825 0 -0.00051346904654292751 -0.018774211689163954 0 -0.00053888621444633886 -0.018743921057150066 0 -0.00051346904654292751 -0.018774211689163954 0 -0.00054392848347437799 -0.018799731464345628 0 -0.00053888621444633886 -0.018743921057150066 0 -0.00047850523274142623 -0.018758790347924825 0 -0.00051346904654292751 -0.018774211689163954 0 -0.00049376247673263299 -0.01880391462049982 0 -0.00051346904654292751 -0.018774211689163954 0 -0.00054392848347437799 -0.018799731464345628 0 -0.00049376247673263299 -0.01880391462049982 0 -0.00054392848347437799 -0.018799731464345628 0 -0.00054501760179408241 -0.018862102497168347 0 -0.00044496517448209031 -0.018838653769478683 0 -0.00054501760179408241 -0.018862102497168347 0 -0.00046025540885505232 -0.018953622142386592 0 -0.00057700640970556366 -0.01894426904927687 0 -0.00054501760179408241 -0.018862102497168347 0 -0.00046025540885505232 -0.018953622142386592 0 -0.00046052528122741976 -0.019124091005575168 0 -0.00059074948181094607 -0.019070270502750553 0 -0.00057700640970556366 -0.01894426904927687 0 -0.00046052528122741976 -0.019124091005575168 0 -0.00057700640970556366 -0.01894426904927687 0 -0.00046025540885505232 -0.018953622142386592 0 -0.00046025540885505232 -0.018953622142386592 0 -0.00034753663609179264 -0.018889849542120758 0 -0.00019257987118808989 -0.019164558415677664 0 -0.00046052528122741976 -0.019124091005575168 0 -0.00046025540885505232 -0.018953622142386592 0 -0.00019257987118808989 -0.019164558415677664 0 -0.00044496517448209031 -0.018838653769478683 0 -0.00046025540885505232 -0.018953622142386592 0 -0.00034753663609179264 -0.018889849542120758 0 0.00063594641969035904 -0.02117154906656828 0 6.7478065123876012e-05 -0.021064827414734522 0 0.00035509300448014489 -0.021609184064327956 0 6.7478065123876012e-05 -0.021064827414734522 0 -0.0005207401353946599 -0.02134554841366619 0 0.00035509300448014489 -0.021609184064327956 0 0.00017663413603126059 -0.019929214423262044 0 1.6011877880012472e-05 -0.019800746185168413 0 0.00063594641969035904 -0.02117154906656828 0 6.7478065123876012e-05 -0.021064827414734522 0 0.00024241802584518891 -0.020402563893626456 0 6.7478065123876012e-05 -0.021064827414734522 0 0.00024241802584518891 -0.020402563893626456 0 -0.00022068792046023482 -0.020399144852624496 0 6.7478065123876012e-05 -0.021064827414734522 0 -0.00022068792046023482 -0.020399144852624496 0 -0.00043582914199934375 -0.020924143497384987 0 -0.00022068792046023482 -0.020399144852624496 0 -0.00043582914199934375 -0.020924143497384987 0 -0.0006515272235216767 -0.020704535639559797 0 -0.00043582914199934375 -0.020924143497384987 0 -0.0005207401353946599 -0.02134554841366619 0 -0.00074652430839098813 -0.021123998583609218 0 6.7478065123876012e-05 -0.021064827414734522 0 -0.00043582914199934375 -0.020924143497384987 0 -0.0005207401353946599 -0.02134554841366619 0 -0.0005207401353946599 -0.02134554841366619 0 -0.00060761741547306618 -0.021570726140818331 0 -0.00070630433130166106 -0.021680601208261652 0 -0.0005207401353946599 -0.02134554841366619 0 -0.00070630433130166106 -0.021680601208261652 0 -0.00082179198644728268 -0.021608005635881028 0 -0.00060874358460438532 -0.021692235126956824 0 -0.00060761741547306618 -0.021570726140818331 0 -0.00070630433130166106 -0.021680601208261652 0 -0.00057272889604068284 -0.021329642690710568 0 -1.583809646665458e-05 -0.021688728788369409 0 -0.00060874358460438532 -0.021692235126956824 0 -0.00073211412914825488 -0.021824004927173943 0 -0.00066413679234711605 -0.021842939467237778 0 -0.00060874358460438532 -0.021692235126956824 0 -0.00070630433130166106 -0.021680601208261652 0 -0.00073211412914825488 -0.021824004927173943 0 -0.00070630433130166106 -0.021680601208261652 0 -0.00088145956317107923 -0.021897735902848478 0 -0.00092767403552297299 -0.021780429062254206 0 -0.00070630433130166106 -0.021680601208261652 0 -0.00082179198644728268 -0.021608005635881028 0 -0.00092767403552297299 -0.021780429062254206 0 -0.00070630433130166106 -0.021680601208261652 0 -0.00088145956317107923 -0.021897735902848478 0 -0.00073211412914825488 -0.021824004927173943 0 -0.00073211412914825488 -0.021824004927173943 0 -0.0007836456750602846 -0.021942708542345431 0 -0.00066413679234711605 -0.021842939467237778 0 -0.00088145956317107923 -0.021897735902848478 0 -0.00073211412914825488 -0.021824004927173943 0 -0.0007836456750602846 -0.021942708542345431 0 -0.0007836456750602846 -0.021942708542345431 0 -0.00085037728220495573 -0.02211343364245515 0 -0.00072234414308253571 -0.021932800173409775 0 -0.00088145956317107923 -0.021897735902848478 0 -0.0009654426537465885 -0.022064917533227625 0 -0.0010090081112061969 -0.021998887044286115 0 -0.00088145956317107923 -0.021897735902848478 0 -0.0007836456750602846 -0.021942708542345431 0 -0.0009654426537465885 -0.022064917533227625 0 -0.0007836456750602846 -0.021942708542345431 0 -0.0009654426537465885 -0.022064917533227625 0 -0.00085037728220495573 -0.02211343364245515 0 -0.0009654426537465885 -0.022064917533227625 0 -0.001019571221185791 -0.02223665045037003 0 -0.00085037728220495573 -0.02211343364245515 0 -0.0009654426537465885 -0.022064917533227625 0 -0.001019571221185791 -0.02223665045037003 0 -0.0010799580185232006 -0.022165929806390736 0 -0.00092111530519700853 -0.022272890929402957 0 -0.001019571221185791 -0.02223665045037003 0 -0.00085037728220495573 -0.02211343364245515 0 -0.00092111530519700853 -0.022272890929402957 0 -0.001019571221185791 -0.02223665045037003 0 -0.00098556052848130637 -0.022451292509421121 0 -0.00098556052848130637 -0.022451292509421121 0 -0.0011994487935457067 -0.022462692882123578 0 -0.001103666911934906 -0.022934680340648241 0 -0.001019571221185791 -0.02223665045037003 0 -0.00098556052848130637 -0.022451292509421121 0 -0.0011994487935457067 -0.022462692882123578 0 -0.00092111530519700853 -0.022272890929402957 0 -0.00098556052848130637 -0.022451292509421121 0 -0.0008591119816906904 -0.022291000443924368 0 -0.0008591119816906904 -0.022291000443924368 0 -0.00094635764169299778 -0.022639710076936399 0 -0.00086832929044478198 -0.022418692919361015 0 -0.00098556052848130637 -0.022451292509421121 0 -0.0008591119816906904 -0.022291000443924368 0 -0.00094635764169299778 -0.022639710076936399 0 -0.00092111530519700853 -0.022272890929402957 0 -0.0008591119816906904 -0.022291000443924368 0 -0.00085037728220495573 -0.02211343364245515 0 -0.0008591119816906904 -0.022291000443924368 0 -0.00085037728220495573 -0.02211343364245515 0 -0.00078715910361380889 -0.022094306751966865 0 -0.00078715910361380889 -0.022094306751966865 0 -0.00075581477066768142 -0.022001713277701593 0 -0.00072234414308253571 -0.021932800173409775 0 -0.00085037728220495573 -0.02211343364245515 0 -0.00078715910361380889 -0.022094306751966865 0 -0.00072234414308253571 -0.021932800173409775 0 -0.00078715910361380889 -0.022094306751966865 0 -0.00079879296267479805 -0.022175834937803587 0 -0.00075581477066768142 -0.022001713277701593 0 -0.0008591119816906904 -0.022291000443924368 0 -0.00078715910361380889 -0.022094306751966865 0 -0.00079879296267479805 -0.022175834937803587 0 -0.0008591119816906904 -0.022291000443924368 0 -0.00079879296267479805 -0.022175834937803587 0 -0.00086832929044478198 -0.022418692919361015 0 -0.00079879296267479805 -0.022175834937803587 0 -0.00077273817491553662 -0.021967177259901924 0 -0.00080654094885062688 -0.02210552061477087 0 -0.00079879296267479805 -0.022175834937803587 0 -0.00077273817491553662 -0.021967177259901924 0 -0.00075581477066768142 -0.022001713277701593 0 -0.00077273817491553662 -0.021967177259901924 0 -0.00075581477066768142 -0.022001713277701593 0 -0.00074090160017351644 -0.021834454347453673 0 -0.00075581477066768142 -0.022001713277701593 0 -0.00072234414308253571 -0.021932800173409775 0 -0.00074090160017351644 -0.021834454347453673 0 -0.00072234414308253571 -0.021932800173409775 0 -0.00072617875317152315 -0.021830950882632049 0 -0.00074090160017351644 -0.021834454347453673 0 -0.0007836456750602846 -0.021942708542345431 0 -0.00072234414308253571 -0.021932800173409775 0 -0.00066413679234711605 -0.021842939467237778 0 -0.00072234414308253571 -0.021932800173409775 0 -0.00066413679234711605 -0.021842939467237778 0 -0.00070371776695232009 -0.021835934280818665 0 -0.00072234414308253571 -0.021932800173409775 0 -0.00070371776695232009 -0.021835934280818665 0 -0.00072617875317152315 -0.021830950882632049 0 -0.00070371776695232009 -0.021835934280818665 0 -0.00072617875317152315 -0.021830950882632049 0 -0.00073772189854779833 -0.021816174400637104 0 -0.00072617875317152315 -0.021830950882632049 0 -0.00076226530253791544 -0.021769718315733388 0 -0.00073772189854779833 -0.021816174400637104 0 -0.00079702882425837073 -0.021809325456930668 0 -0.00076226530253791544 -0.021769718315733388 0 -0.00073772189854779833 -0.021816174400637104 0 -0.00079702882425837073 -0.021809325456930668 0 -0.00076226530253791544 -0.021769718315733388 0 -0.00085725698849918749 -0.021758222334169432 0 -0.00076226530253791544 -0.021769718315733388 0 -0.00081238156747057578 -0.021656067486860751 0 -0.00085725698849918749 -0.021758222334169432 0 -0.00072617875317152315 -0.021830950882632049 0 -0.00076226530253791544 -0.021769718315733388 0 -0.00074090160017351644 -0.021834454347453673 0 -0.00076226530253791544 -0.021769718315733388 0 -0.00081238156747057578 -0.021656067486860751 0 -0.00074090160017351644 -0.021834454347453673 0 -0.00077273817491553662 -0.021967177259901924 0 -0.00074090160017351644 -0.021834454347453673 0 -0.00077588954850748844 -0.021779904909832705 0 -0.00081238156747057578 -0.021656067486860751 0 -0.00074090160017351644 -0.021834454347453673 0 -0.00077588954850748844 -0.021779904909832705 0 -0.00077273817491553662 -0.021967177259901924 0 -0.00077588954850748844 -0.021779904909832705 0 -0.00079016172628853555 -0.021891687054756553 0 -0.00077273817491553662 -0.021967177259901924 0 -0.00079016172628853555 -0.021891687054756553 0 -0.00080654094885062688 -0.02210552061477087 0 -0.00077588954850748844 -0.021779904909832705 0 -0.00081024220901518978 -0.021688095018679566 0 -0.00083765498823070458 -0.021602096001094091 0 -0.00077588954850748844 -0.021779904909832705 0 -0.00079016172628853555 -0.021891687054756553 0 -0.00081024220901518978 -0.021688095018679566 0 -0.00081238156747057578 -0.021656067486860751 0 -0.00077588954850748844 -0.021779904909832705 0 -0.00083765498823070458 -0.021602096001094091 0 -0.00083765498823070458 -0.021602096001094091 0 -0.000936077822180178 -0.021457398672999305 0 -0.0008785819025675652 -0.021486707295557499 0 -0.00081238156747057578 -0.021656067486860751 0 -0.00083765498823070458 -0.021602096001094091 0 -0.000936077822180178 -0.021457398672999305 0 -0.00081024220901518978 -0.021688095018679566 0 -0.00083765498823070458 -0.021602096001094091 0 -0.0008785819025675652 -0.021486707295557499 0 -0.00081024220901518978 -0.021688095018679566 0 -0.0008785819025675652 -0.021486707295557499 0 -0.00081009077796688022 -0.021614427562958487 0 -0.0008785819025675652 -0.021486707295557499 0 -0.00081009077796688022 -0.021614427562958487 0 -0.0008535118635175893 -0.021345419983010629 0 -0.0008785819025675652 -0.021486707295557499 0 -0.0012219773794810264 -0.021173260308260319 0 -0.0008535118635175893 -0.021345419983010629 0 -0.000936077822180178 -0.021457398672999305 0 -0.0008785819025675652 -0.021486707295557499 0 -0.0012219773794810264 -0.021173260308260319 0 -0.0014774764012690457 -0.020950506346782055 0 -0.0012671752182409081 -0.021170746519511834 0 -0.000936077822180178 -0.021457398672999305 0 -0.0010161212496507233 -0.021715129939334568 0 -0.0012219773794810264 -0.021173260308260319 0 -0.00081238156747057578 -0.021656067486860751 0 -0.000936077822180178 -0.021457398672999305 0 -0.0010161212496507233 -0.021715129939334568 0 -0.00089526758409984666 -0.021835658251122395 0 -0.00085725698849918749 -0.021758222334169432 0 -0.0010161212496507233 -0.021715129939334568 0 -0.00081238156747057578 -0.021656067486860751 0 -0.00085725698849918749 -0.021758222334169432 0 -0.0010161212496507233 -0.021715129939334568 0 -0.0004459801470912533 -0.034907649208743924 0 -0.00031977369450328586 -0.034956081399922262 0 -0.00057132821813023085 -0.034905440110110701 0 -0.0004459801470912533 -0.034907649208743924 0 -0.00054308221146349468 -0.034826425506102598 0 -0.00021991214356773873 -0.034940858101332788 0 -0.0004459801470912533 -0.034907649208743924 0 -0.00066045329444303969 -0.034840596273521811 0 -0.00057132821813023085 -0.034905440110110701 0 -0.00074701596521197715 -0.034855805077966512 0 -0.00066045329444303969 -0.034840596273521811 0 -0.00057132821813023085 -0.034905440110110701 0 -0.00074701596521197715 -0.034855805077966512 0 -0.00057132821813023085 -0.034905440110110701 0 -0.00071392850098729729 -0.03489266367526489 0 -0.00074701596521197715 -0.034855805077966512 0 -0.00066045329444303969 -0.034840596273521811 0 -0.00087977682549208319 -0.034774112397280142 0 -0.00066045329444303969 -0.034840596273521811 0 -0.000801373538506697 -0.034729123104987859 0 -0.00054308221146349468 -0.034826425506102598 0 -0.00066045329444303969 -0.034840596273521811 0 -0.000801373538506697 -0.034729123104987859 0 -0.00087977682549208319 -0.034774112397280142 0 -0.0004459801470912533 -0.034907649208743924 0 -0.00066045329444303969 -0.034840596273521811 0 -0.00054308221146349468 -0.034826425506102598 0 -4.2125066601097457e-08 -0.03499978603630096 0 -0.00021991214356773873 -0.034940858101332788 0 -0.00030623191743752993 -0.034853968576615726 0 -0.00054308221146349468 -0.034826425506102598 0 -0.00021991214356773873 -0.034940858101332788 0 -0.00030623191743752993 -0.034853968576615726 0 -4.2125066601097457e-08 -0.03499978603630096 0 -1.5769385454008749e-07 -0.034999980099495405 0 -0.00021991214356773873 -0.034940858101332788 0 -0.0004459801470912533 -0.034907649208743924 0 -0.00021991214356773873 -0.034940858101332788 0 -0.00031977369450328586 -0.034956081399922262 0 -1.5769385454008749e-07 -0.034999980099495405 0 -0.00021991214356773873 -0.034940858101332788 0 -0.00031977369450328586 -0.034956081399922262 0 -1.5769385454008749e-07 -0.034999980099495405 0 -0.00031977369450328586 -0.034956081399922262 0 -0.00018578365358181263 -0.034985213687897171 0 -1.5769385454008749e-07 -0.034999980099495405 0 -1.2157523130176212e-07 -0.034999982481620701 0 -0.00018578365358181263 -0.034985213687897171 0 -0.00031977369450328586 -0.034956081399922262 0 -0.00018578365358181263 -0.034985213687897171 0 -0.00034926248264157181 -0.034966835986635629 0 -0.00029797438564905192 -0.034979352298965295 0 -0.00018578365358181263 -0.034985213687897171 0 -0.00034926248264157181 -0.034966835986635629 0 -0.00034926248264157181 -0.034966835986635629 0 -0.00051328757311803401 -0.034938277225543588 0 -0.00046192363449639617 -0.034954618224818698 0 -0.00029797438564905192 -0.034979352298965295 0 -0.00034926248264157181 -0.034966835986635629 0 -0.00046192363449639617 -0.034954618224818698 0 -0.00031977369450328586 -0.034956081399922262 0 -0.00034926248264157181 -0.034966835986635629 0 -0.00051328757311803401 -0.034938277225543588 0 -0.00031977369450328586 -0.034956081399922262 0 -0.00057132821813023085 -0.034905440110110701 0 -0.00051328757311803401 -0.034938277225543588 0 -0.00051328757311803401 -0.034938277225543588 0 -0.00066208306204221603 -0.034915357936089006 0 -0.00071392850098729729 -0.03489266367526489 0 -0.00057132821813023085 -0.034905440110110701 0 -0.00051328757311803401 -0.034938277225543588 0 -0.00071392850098729729 -0.03489266367526489 0 -0.00051328757311803401 -0.034938277225543588 0 -0.00046192363449639617 -0.034954618224818698 0 -0.00066208306204221603 -0.034915357936089006 0 -0.00058179037409172624 -0.034929842617918018 0 -0.00046192363449639617 -0.034954618224818698 0 -0.00066208306204221603 -0.034915357936089006 0 -0.00058179037409172624 -0.034929842617918018 0 -0.00066208306204221603 -0.034915357936089006 0 -0.00070174029911122143 -0.034904756248971769 0 -0.00066208306204221603 -0.034915357936089006 0 -0.00070174029911122143 -0.034904756248971769 0 -0.00077295283893048566 -0.034891671775333255 0 -0.00067935971790277644 -0.034901838111723586 0 -0.00070174029911122143 -0.034904756248971769 0 -0.00075036037090967563 -0.034888810040096599 0 -0.00070174029911122143 -0.034904756248971769 0 -0.00075036037090967563 -0.034888810040096599 0 -0.00077295283893048566 -0.034891671775333255 0 -0.00075036037090967563 -0.034888810040096599 0 -0.0007860777885541941 -0.034872361763421796 0 -0.00083149856340033936 -0.034872380040438695 0 -0.00072461968737003505 -0.034882488269618983 0 -0.00075036037090967563 -0.034888810040096599 0 -0.0007860777885541941 -0.034872361763421796 0 -0.0007860777885541941 -0.034872361763421796 0 -0.00083149856340033936 -0.034872380040438695 0 -0.00082091054995781594 -0.034864738059395821 0 -0.00083149856340033936 -0.034872380040438695 0 -0.00086505171068511149 -0.034871216502758928 0 -0.00088436331207336117 -0.034864689155009246 0 -0.00083149856340033936 -0.034872380040438695 0 -0.00088436331207336117 -0.034864689155009246 0 -0.00088400498867066105 -0.034860765844305537 0 -0.00083149856340033936 -0.034872380040438695 0 -0.00077295283893048566 -0.034891671775333255 0 -0.00086505171068511149 -0.034871216502758928 0 -0.00075036037090967563 -0.034888810040096599 0 -0.00083149856340033936 -0.034872380040438695 0 -0.00077295283893048566 -0.034891671775333255 0 -0.00077295283893048566 -0.034891671775333255 0 -0.00086505171068511149 -0.034871216502758928 0 -0.00081040155885679318 -0.034881082914745926 0 -0.00088436331207336117 -0.034864689155009246 0 -0.00088400498867066105 -0.034860765844305537 0 -0.00095976575213748924 -0.034848370666813407 0 -0.00086505171068511149 -0.034871216502758928 0 -0.00088436331207336117 -0.034864689155009246 0 -0.00095976575213748924 -0.034848370666813407 0 -0.0009358631099466297 -0.034849425315032719 0 -0.00095976575213748924 -0.034848370666813407 0 -0.001028337880871372 -0.034823393741012981 0 -0.00086505171068511149 -0.034871216502758928 0 -0.0009358631099466297 -0.034849425315032719 0 -0.00095976575213748924 -0.034848370666813407 0 -0.0009358631099466297 -0.034849425315032719 0 -0.00081040155885679318 -0.034881082914745926 0 -0.0009149200638632793 -0.034829831164854087 0 -0.00086505171068511149 -0.034871216502758928 0 -0.0009358631099466297 -0.034849425315032719 0 -0.00081040155885679318 -0.034881082914745926 0 -0.00071392850098729729 -0.03489266367526489 0 -0.00081040155885679318 -0.034881082914745926 0 -0.0009149200638632793 -0.034829831164854087 0 -0.00066208306204221603 -0.034915357936089006 0 -0.00071392850098729729 -0.03489266367526489 0 -0.00081040155885679318 -0.034881082914745926 0 -0.00066208306204221603 -0.034915357936089006 0 -0.00077295283893048566 -0.034891671775333255 0 -0.00081040155885679318 -0.034881082914745926 0 -0.00043582914199934375 -0.020924143497384987 0 -0.0006515272235216767 -0.020704535639559797 0 -0.00074652430839098813 -0.021123998583609218 0 -0.00058224774529711551 -0.02027104813673956 0 -0.00022068792046023482 -0.020399144852624496 0 -0.0006515272235216767 -0.020704535639559797 0 -0.00058224774529711551 -0.02027104813673956 0 -0.0006515272235216767 -0.020704535639559797 0 -0.0010363971410470437 -0.020684923258198092 0 -0.0006515272235216767 -0.020704535639559797 0 -0.0010363971410470437 -0.020684923258198092 0 -0.00088927517649757288 -0.020998989236508177 0 -0.0010440403626697783 -0.025603004451021347 0 -0.001365475117306612 -0.027784691596516004 0 -0.0012193155021175404 -0.02752338298233831 0 -0.00085715118395537264 -0.034853307009695245 0 -0.00085236454914325343 -0.034856037989273947 0 -0.00091136061967748289 -0.034853253027323894 0 -0.00085715118395537264 -0.034853307009695245 0 -0.00083815946436081379 -0.034853780434679849 0 -0.00085236454914325343 -0.034856037989273947 0 -0.00080979287763533879 -0.03485073327878202 0 -0.00085715118395537264 -0.034853307009695245 0 -0.00083815946436081379 -0.034853780434679849 0 -0.00080979287763533879 -0.03485073327878202 0 -0.00083815946436081379 -0.034853780434679849 0 -0.00082922912570090781 -0.034857590365355448 0 -0.00083815946436081379 -0.034853780434679849 0 -0.00082922912570090781 -0.034857590365355448 0 -0.00085236454914325343 -0.034856037989273947 0 -0.00080979287763533879 -0.03485073327878202 0 -0.00082922912570090781 -0.034857590365355448 0 -0.00080229352386433791 -0.034860598650787465 0 -0.0007860777885541941 -0.034872361763421796 0 -0.00080229352386433791 -0.034860598650787465 0 -0.00082091054995781594 -0.034864738059395821 0 -0.00076988165618303156 -0.034865785931215004 0 -0.0007860777885541941 -0.034872361763421796 0 -0.00080229352386433791 -0.034860598650787465 0 -0.00082922912570090781 -0.034857590365355448 0 -0.00080229352386433791 -0.034860598650787465 0 -0.00082091054995781594 -0.034864738059395821 0 -0.00082922912570090781 -0.034857590365355448 0 -0.00082091054995781594 -0.034864738059395821 0 -0.00085174721814240781 -0.034861360868393254 0 -0.00083149856340033936 -0.034872380040438695 0 -0.00082091054995781594 -0.034864738059395821 0 -0.00085174721814240781 -0.034861360868393254 0 -0.00085174721814240781 -0.034861360868393254 0 -0.00085236454914325343 -0.034856037989273947 0 -0.00091136061967748289 -0.034853253027323894 0 -0.00082922912570090781 -0.034857590365355448 0 -0.00085174721814240781 -0.034861360868393254 0 -0.00085236454914325343 -0.034856037989273947 0 -0.00085174721814240781 -0.034861360868393254 0 -0.00088400498867066105 -0.034860765844305537 0 -0.00091136061967748289 -0.034853253027323894 0 -0.00083149856340033936 -0.034872380040438695 0 -0.00085174721814240781 -0.034861360868393254 0 -0.00088400498867066105 -0.034860765844305537 0 -0.0012094905212321344 -0.023503583847847793 0 -0.0012025156157605295 -0.025567549815325882 0 -0.00085715118395537264 -0.034853307009695245 0 -0.00091136061967748289 -0.034853253027323894 0 -0.0010094101674234341 -0.034835294137345575 0 -0.0012368301510195456 -0.032408747037856366 0 -0.0013640984456796345 -0.032110880274110604 0 -0.00085715118395537264 -0.034853307009695245 0 -0.0010094101674234341 -0.034835294137345575 0 -0.0011501632199098042 -0.034803352737845177 0 -0.001365475117306612 -0.027784691596516004 0 -0.0012193155021175404 -0.02752338298233831 0 -0.0013465004702482937 -0.029427716810314555 0 -0.0010363971410470437 -0.020684923258198092 0 -0.00088927517649757288 -0.020998989236508177 0 -0.0010849008947195577 -0.021441223064042381 0 -0.001365475117306612 -0.027784691596516004 0 -0.0016145750423707244 -0.029946700555418062 0 -0.0013465004702482937 -0.029427716810314555 0 -0.00088400498867066105 -0.034860765844305537 0 -0.00091136061967748289 -0.034853253027323894 0 -0.00095976575213748924 -0.034848370666813407 0 -0.00091136061967748289 -0.034853253027323894 0 -0.0010094101674234341 -0.034835294137345575 0 -0.00095976575213748924 -0.034848370666813407 0 -0.0010094101674234341 -0.034835294137345575 0 -0.00095976575213748924 -0.034848370666813407 0 -0.001028337880871372 -0.034823393741012981 0 -0.0006515272235216767 -0.020704535639559797 0 -0.00088927517649757288 -0.020998989236508177 0 -0.00074652430839098813 -0.021123998583609218 0 -0.00074652430839098813 -0.021123998583609218 0 -0.00080196637847937359 -0.021413175514114469 0 -0.0010849008947195577 -0.021441223064042381 0 -0.00088927517649757288 -0.020998989236508177 0 -0.00074652430839098813 -0.021123998583609218 0 -0.0010849008947195577 -0.021441223064042381 0 -0.0005207401353946599 -0.02134554841366619 0 -0.00074652430839098813 -0.021123998583609218 0 -0.00080196637847937359 -0.021413175514114469 0 -0.0005207401353946599 -0.02134554841366619 0 -0.00082179198644728268 -0.021608005635881028 0 -0.00080196637847937359 -0.021413175514114469 0 -0.00082179198644728268 -0.021608005635881028 0 -0.00080196637847937359 -0.021413175514114469 0 -0.00097181806298497352 -0.021560218949479047 0 -0.00080196637847937359 -0.021413175514114469 0 -0.00097181806298497352 -0.021560218949479047 0 -0.0010849008947195577 -0.021441223064042381 0 -0.00082179198644728268 -0.021608005635881028 0 -0.00097181806298497352 -0.021560218949479047 0 -0.00095539054186298804 -0.021696253769772467 0 -0.0016145750423707244 -0.029946700555418062 0 -0.0013465004702482937 -0.029427716810314555 0 -0.0014308235170787877 -0.031308167300699789 0 -0.00097181806298497352 -0.021560218949479047 0 -0.0010849008947195577 -0.021441223064042381 0 -0.0010974117270508197 -0.021820730735809039 0 -0.0012025156157605295 -0.025567549815325882 0 -0.0012732924308758733 -0.02646568193841646 0 -0.0010094101674234341 -0.034835294137345575 0 -0.0011501632199098042 -0.034803352737845177 0 -0.0011211638940680706 -0.034791041512263469 0 -0.0010094101674234341 -0.034835294137345575 0 -0.0011211638940680706 -0.034791041512263469 0 -0.001028337880871372 -0.034823393741012981 0 -0.0011501632199098042 -0.034803352737845177 0 -0.0011211638940680706 -0.034791041512263469 0 -0.0012754296374498106 -0.034693641416045716 0 -0.0011501632199098042 -0.034803352737845177 0 -0.0012754296374498106 -0.034693641416045716 0 -0.0015970231311848895 -0.03452989681223452 0 -0.0016145750423707244 -0.029946700555418062 0 -0.0014308235170787877 -0.031308167300699789 0 -0.0017966182006214156 -0.032048839641418393 0 -0.0013640984456796345 -0.032110880274110604 0 -0.001695018960410994 -0.033324776662167627 0 -0.0012754296374498106 -0.034693641416045716 0 -0.0013785258258051064 -0.034583021683085212 0 -0.0015970231311848895 -0.03452989681223452 0 -0.00097181806298497352 -0.021560218949479047 0 -0.0010974117270508197 -0.021820730735809039 0 -0.00095539054186298804 -0.021696253769772467 0 -0.0010974117270508197 -0.021820730735809039 0 -0.00095539054186298804 -0.021696253769772467 0 -0.00092767403552297299 -0.021780429062254206 0 -0.0010974117270508197 -0.021820730735809039 0 -0.00092767403552297299 -0.021780429062254206 0 -0.0010242681666205731 -0.021917856753989828 0 -0.00082179198644728268 -0.021608005635881028 0 -0.00095539054186298804 -0.021696253769772467 0 -0.00092767403552297299 -0.021780429062254206 0 -0.0009149200638632793 -0.034829831164854087 0 -0.0010614705506150606 -0.034727427897205357 0 -0.00087977682549208319 -0.034774112397280142 0 -0.00074701596521197715 -0.034855805077966512 0 -0.0009149200638632793 -0.034829831164854087 0 -0.00087977682549208319 -0.034774112397280142 0 -0.00074701596521197715 -0.034855805077966512 0 -0.00071392850098729729 -0.03489266367526489 0 -0.0009149200638632793 -0.034829831164854087 0 -0.0009358631099466297 -0.034849425315032719 0 -0.0009149200638632793 -0.034829831164854087 0 -0.0010332198970892834 -0.034810846964924945 0 -0.0009358631099466297 -0.034849425315032719 0 -0.001028337880871372 -0.034823393741012981 0 -0.0010332198970892834 -0.034810846964924945 0 -0.0011211638940680706 -0.034791041512263469 0 -0.001028337880871372 -0.034823393741012981 0 -0.0010332198970892834 -0.034810846964924945 0 -0.0011211638940680706 -0.034791041512263469 0 -0.0010332198970892834 -0.034810846964924945 0 -0.0011158721292040456 -0.034753486909306387 0 -0.0011211638940680706 -0.034791041512263469 0 -0.0012754296374498106 -0.034693641416045716 0 -0.0011158721292040456 -0.034753486909306387 0 -0.0009149200638632793 -0.034829831164854087 0 -0.0011158721292040456 -0.034753486909306387 0 -0.0010614705506150606 -0.034727427897205357 0 -0.0009149200638632793 -0.034829831164854087 0 -0.0010332198970892834 -0.034810846964924945 0 -0.0011158721292040456 -0.034753486909306387 0 -0.0011158721292040456 -0.034753486909306387 0 -0.0010614705506150606 -0.034727427897205357 0 -0.0012247099450569151 -0.034667823184544616 0 -0.0012754296374498106 -0.034693641416045716 0 -0.0011158721292040456 -0.034753486909306387 0 -0.0012247099450569151 -0.034667823184544616 0 -0.0012247099450569151 -0.034667823184544616 0 -0.0013785258258051064 -0.034583021683085212 0 -0.0012855769059349046 -0.034557763546929632 0 -0.0012754296374498106 -0.034693641416045716 0 -0.0012247099450569151 -0.034667823184544616 0 -0.0013785258258051064 -0.034583021683085212 0 -0.0010614705506150606 -0.034727427897205357 0 -0.0012247099450569151 -0.034667823184544616 0 -0.0012855769059349046 -0.034557763546929632 0 -0.0010614705506150606 -0.034727427897205357 0 -0.0011031223472922644 -0.034579407102987979 0 -0.0012855769059349046 -0.034557763546929632 0 -0.0010614705506150606 -0.034727427897205357 0 -0.00087977682549208319 -0.034774112397280142 0 -0.0011031223472922644 -0.034579407102987979 0 -0.000801373538506697 -0.034729123104987859 0 -0.00087977682549208319 -0.034774112397280142 0 -0.0011031223472922644 -0.034579407102987979 0 -0.0011031223472922644 -0.034579407102987979 0 -0.0014389053323613618 -0.034271065215820351 0 -0.0012514611754055531 -0.034291354037248138 0 -0.0011031223472922644 -0.034579407102987979 0 -0.0012514611754055531 -0.034291354037248138 0 -0.00078504058113881088 -0.034609956595147602 0 -0.0012855769059349046 -0.034557763546929632 0 -0.0014617970097724356 -0.03442640419698445 0 -0.0014389053323613618 -0.034271065215820351 0 -0.0011031223472922644 -0.034579407102987979 0 -0.0012855769059349046 -0.034557763546929632 0 -0.0014389053323613618 -0.034271065215820351 0 -0.0013785258258051064 -0.034583021683085212 0 -0.0012855769059349046 -0.034557763546929632 0 -0.0014617970097724356 -0.03442640419698445 0 -0.0014617970097724356 -0.03442640419698445 0 -0.0014389053323613618 -0.034271065215820351 0 -0.0016070745592572087 -0.034182306907654968 0 -0.0014389053323613618 -0.034271065215820351 0 -0.0016916718266741307 -0.033959229649055261 0 -0.0016524971900127331 -0.033956015938652995 0 -0.0014389053323613618 -0.034271065215820351 0 -0.0016916718266741307 -0.033959229649055261 0 -0.0016070745592572087 -0.034182306907654968 0 -0.0014389053323613618 -0.034271065215820351 0 -0.0012514611754055531 -0.034291354037248138 0 -0.0016524971900127331 -0.033956015938652995 0 -0.0010974117270508197 -0.021820730735809039 0 -0.0010242681666205731 -0.021917856753989828 0 -0.0011911411916751137 -0.022068018364900892 0 -0.0010242681666205731 -0.021917856753989828 0 -0.0011911411916751137 -0.022068018364900892 0 -0.0010090081112061969 -0.021998887044286115 0 -0.00088145956317107923 -0.021897735902848478 0 -0.0010242681666205731 -0.021917856753989828 0 -0.0010090081112061969 -0.021998887044286115 0 -0.00088145956317107923 -0.021897735902848478 0 -0.00092767403552297299 -0.021780429062254206 0 -0.0010242681666205731 -0.021917856753989828 0 -0.0014308235170787877 -0.031308167300699789 0 -0.0017966182006214156 -0.032048839641418393 0 -0.0015285786283114166 -0.032999949096166041 0 -0.0012732924308758733 -0.02646568193841646 0 -0.0013290984210439785 -0.027843254504859732 0 -0.0013785258258051064 -0.034583021683085212 0 -0.0014617970097724356 -0.03442640419698445 0 -0.0015970231311848895 -0.03452989681223452 0 -0.0014617970097724356 -0.03442640419698445 0 -0.0015970231311848895 -0.03452989681223452 0 -0.0016070745592572087 -0.034182306907654968 0 -0.0017966182006214156 -0.032048839641418393 0 -0.0015285786283114166 -0.032999949096166041 0 -0.0018901963832784017 -0.033723659414823581 0 -0.001695018960410994 -0.033324776662167627 0 -0.0018609463257846972 -0.033668563539625551 0 -0.0015970231311848895 -0.03452989681223452 0 -0.0016070745592572087 -0.034182306907654968 0 -0.0018901963832784017 -0.033723659414823581 0 -0.0016916718266741307 -0.033959229649055261 0 -0.0016070745592572087 -0.034182306907654968 0 -0.0018901963832784017 -0.033723659414823581 0 -0.0011911411916751137 -0.022068018364900892 0 -0.0010898462365527949 -0.022102545408115057 0 -0.0010090081112061969 -0.021998887044286115 0 -0.0011911411916751137 -0.022068018364900892 0 -0.0010898462365527949 -0.022102545408115057 0 -0.0012088740039833481 -0.02222940625282396 0 -0.0009654426537465885 -0.022064917533227625 0 -0.0010898462365527949 -0.022102545408115057 0 -0.0010799580185232006 -0.022165929806390736 0 -0.0009654426537465885 -0.022064917533227625 0 -0.0010898462365527949 -0.022102545408115057 0 -0.0010090081112061969 -0.021998887044286115 0 -0.0011911411916751137 -0.022068018364900892 0 -0.0012088740039833481 -0.02222940625282396 0 -0.0012936516147590191 -0.022311826756515399 0 -0.001019571221185791 -0.02223665045037003 0 -0.0012088740039833481 -0.02222940625282396 0 -0.0011994487935457067 -0.022462692882123578 0 -0.001019571221185791 -0.02223665045037003 0 -0.0010799580185232006 -0.022165929806390736 0 -0.0012088740039833481 -0.02222940625282396 0 -0.0010898462365527949 -0.022102545408115057 0 -0.0010799580185232006 -0.022165929806390736 0 -0.0012088740039833481 -0.02222940625282396 0 -0.0012088740039833481 -0.02222940625282396 0 -0.0014462365339867364 -0.022342129738722575 0 -0.0011994487935457067 -0.022462692882123578 0 -0.00028369384090392539 -0.022943152011931072 0 -0.0019435674285366129 -0.026651141734229902 0 -0.0015285786283114166 -0.032999949096166041 0 -0.0018156715299011996 -0.033958770245863593 0 -0.0018901963832784017 -0.033723659414823581 0 -0.0013290984210439785 -0.027843254504859732 0 -0.0019435674285366129 -0.026651141734229902 0 -0.0018156715299011996 -0.033958770245863593 0 -0.0018901963832784017 -0.033723659414823581 0 -0.0018960144526909656 -0.033788656870158723 0 -0.0016916718266741307 -0.033959229649055261 0 -0.0018901963832784017 -0.033723659414823581 0 -0.0018960144526909656 -0.033788656870158723 0 -0.0014502920909292012 -0.025259211835192561 0 -0.0010179070816227528 -0.02484064080169739 0 -0.0014407679035077861 -0.024846017281022027 0 -0.0019435674285366129 -0.026651141734229902 0 -0.0014415055924419089 -0.02327222736786462 0 -0.0018156715299011996 -0.033958770245863593 0 -0.0018960144526909656 -0.033788656870158723 0 -0.0021103855959347696 -0.033398744575531367 0 -0.0019435674285366129 -0.026651141734229902 0 -0.0016160128734625597 -0.029608273418677389 0 -0.0014462365339867364 -0.022342129738722575 0 -0.0011994487935457067 -0.022462692882123578 0 -0.0015474755035490577 -0.02283899267844448 0 -0.0011994487935457067 -0.022462692882123578 0 -0.0015474755035490577 -0.02283899267844448 0 -0.001103666911934906 -0.022934680340648241 0 -0.0012514611754055531 -0.034291354037248138 0 -0.001534710127343165 -0.033881882042490943 0 -0.0016524971900127331 -0.033956015938652995 0 -0.001534710127343165 -0.033881882042490943 0 -0.0016524971900127331 -0.033956015938652995 0 -0.0018478414681894282 -0.033671220420321224 0 -0.0016916718266741307 -0.033959229649055261 0 -0.0016524971900127331 -0.033956015938652995 0 -0.0018960144526909656 -0.033788656870158723 0 -0.0016524971900127331 -0.033956015938652995 0 -0.0018960144526909656 -0.033788656870158723 0 -0.0018478414681894282 -0.033671220420321224 0 -0.0018960144526909656 -0.033788656870158723 0 -0.0021103855959347696 -0.033398744575531367 0 -0.0018478414681894282 -0.033671220420321224 0 -0.0021103855959347696 -0.033398744575531367 0 -0.0019175969927724542 -0.033333633366701899 0 -0.0018478414681894282 -0.033671220420321224 0 -0.001534710127343165 -0.033881882042490943 0 -0.0019175969927724542 -0.033333633366701899 0 -0.0018478414681894282 -0.033671220420321224 0 -0.001534710127343165 -0.033881882042490943 0 -0.0019175969927724542 -0.033333633366701899 0 -0.0012323235938859257 -0.033597671637223443 0 -0.0012323235938859257 -0.033597671637223443 0 -0.00033776919028777666 -0.033823316037383179 0 -0.00056427163243362693 -0.032703484648626012 0 -0.0012323235938859257 -0.033597671637223443 0 -0.0004165962728483556 -0.03432468371557041 0 -0.00033776919028777666 -0.033823316037383179 0 -0.0012323235938859257 -0.033597671637223443 0 -0.0004165962728483556 -0.03432468371557041 0 -0.00092688466976583199 -0.034304753726569 0 -0.0004165962728483556 -0.03432468371557041 0 -0.00092688466976583199 -0.034304753726569 0 -0.00039931834327240655 -0.034665055972771489 0 -0.001534710127343165 -0.033881882042490943 0 -0.0012323235938859257 -0.033597671637223443 0 -0.00092688466976583199 -0.034304753726569 0 -0.0012514611754055531 -0.034291354037248138 0 -0.001534710127343165 -0.033881882042490943 0 -0.00092688466976583199 -0.034304753726569 0 -0.0012514611754055531 -0.034291354037248138 0 -0.00092688466976583199 -0.034304753726569 0 -0.00078504058113881088 -0.034609956595147602 0 -0.00092688466976583199 -0.034304753726569 0 -0.00078504058113881088 -0.034609956595147602 0 -0.00039931834327240655 -0.034665055972771489 0 -0.00078504058113881088 -0.034609956595147602 0 -0.00030623191743752993 -0.034853968576615726 0 -0.00039931834327240655 -0.034665055972771489 0 -0.00054308221146349468 -0.034826425506102598 0 -0.00078504058113881088 -0.034609956595147602 0 -0.00030623191743752993 -0.034853968576615726 0 -0.000801373538506697 -0.034729123104987859 0 -0.00054308221146349468 -0.034826425506102598 0 -0.00078504058113881088 -0.034609956595147602 0 -0.000801373538506697 -0.034729123104987859 0 -0.0011031223472922644 -0.034579407102987979 0 -0.00078504058113881088 -0.034609956595147602 0 -4.2125066601097457e-08 -0.03499978603630096 0 -0.0001204179488183847 -0.034877560856778608 0 -3.1043787559263321e-07 -0.034999924001955535 0 -4.2125066601097457e-08 -0.03499978603630096 0 -0.0001204179488183847 -0.034877560856778608 0 -0.00030623191743752993 -0.034853968576615726 0 -0.0001204179488183847 -0.034877560856778608 0 -0.00030623191743752993 -0.034853968576615726 0 -0.00039931834327240655 -0.034665055972771489 0 -0.0001204179488183847 -0.034877560856778608 0 -0.00039931834327240655 -0.034665055972771489 0 -4.2156826591358641e-05 -0.034686416381169059 0 -0.0001204179488183847 -0.034877560856778608 0 -3.1043787559263321e-07 -0.034999924001955535 0 -4.2156826591358641e-05 -0.034686416381169059 0 -3.1043787559263321e-07 -0.034999924001955535 0 -4.2156826591358641e-05 -0.034686416381169059 0 1.0724067385206288e-06 -0.034997868741893624 0 -0.0004165962728483556 -0.03432468371557041 0 -0.00039931834327240655 -0.034665055972771489 0 -4.2156826591358641e-05 -0.034686416381169059 0 -0.0004165962728483556 -0.03432468371557041 0 -4.2156826591358641e-05 -0.034686416381169059 0 0.00010345025965536034 -0.034386600264582019 0 -0.0004165962728483556 -0.03432468371557041 0 0.00010345025965536034 -0.034386600264582019 0 -0.00033776919028777666 -0.033823316037383179 0 0.00010345025965536034 -0.034386600264582019 0 -0.00033776919028777666 -0.033823316037383179 0 0.00019008284155826592 -0.03373031938104102 0 0.00010345025965536034 -0.034386600264582019 0 1.0724067385206288e-06 -0.034997868741893624 0 0.00050489659401925155 -0.034534413534680758 0 -4.2156826591358641e-05 -0.034686416381169059 0 0.00010345025965536034 -0.034386600264582019 0 1.0724067385206288e-06 -0.034997868741893624 0 0.00010345025965536034 -0.034386600264582019 0 0.00050489659401925155 -0.034534413534680758 0 0.00019008284155826592 -0.03373031938104102 0 0.00050489659401925155 -0.034534413534680758 0 0.00046425395057923623 -0.032384401379320318 0 0.0019229010383996525 -0.029824572649519109 0 1.0724067385206288e-06 -0.034997868741893624 0 0.00050489659401925155 -0.034534413534680758 0 1.6972519389768727e-07 -0.034999933455429844 0 0.00050489659401925155 -0.034534413534680758 0 0.00019008284155826592 -0.03373031938104102 0 0.00046425395057923623 -0.032384401379320318 0 -0.00033776919028777666 -0.033823316037383179 0 0.00019008284155826592 -0.03373031938104102 0 -0.00056427163243362693 -0.032703484648626012 0 0.00046425395057923623 -0.032384401379320318 0 -0.00018867517185975041 -0.030597966226321053 0 -0.00056427163243362693 -0.032703484648626012 0 0.00019008284155826592 -0.03373031938104102 0 0.00046425395057923623 -0.032384401379320318 0 -0.00056427163243362693 -0.032703484648626012 0 0.00046425395057923623 -0.032384401379320318 0 -0.00018867517185975041 -0.030597966226321053 0 0.0019229010383996525 -0.029824572649519109 0 -0.00018867517185975041 -0.030597966226321053 0 0.0019229010383996525 -0.029824572649519109 0 -0.00078144625299142716 -0.027705503651767355 0 0.00063703833262871974 -0.034194357923432978 0 0.00086471685172489154 -0.03239953049399924 0 0.00050489659401925155 -0.034534413534680758 0 1.6972519389768727e-07 -0.034999933455429844 0 7.7015585402025934e-05 -0.03505099928550303 0 -0.0012323235938859257 -0.033597671637223443 0 -0.00056427163243362693 -0.032703484648626012 0 -0.0024516781674955015 -0.031920887376089079 0 -0.0019175969927724542 -0.033333633366701899 0 -0.0012323235938859257 -0.033597671637223443 0 -0.0024516781674955015 -0.031920887376089079 0 -0.00018867517185975041 -0.030597966226321053 0 -0.0024516781674955015 -0.031920887376089079 0 -0.00078144625299142716 -0.027705503651767355 0 -0.00018867517185975041 -0.030597966226321053 0 -0.00056427163243362693 -0.032703484648626012 0 -0.0024516781674955015 -0.031920887376089079 0 -0.0015901444590409144 -0.028483873494673267 0 -0.00069998869120556785 -0.027674169452886803 0 -0.0011058552866555318 -0.025420262122570488 0 -0.0011147771334333095 -0.025875795381728746 0 -0.00078144625299142716 -0.027705503651767355 0 -0.00078144625299142716 -0.027705503651767355 0 5.4938540959128832e-05 -0.025533288508671731 0 -0.0007152458963939791 -0.025578873768749073 0 -0.0011147771334333095 -0.025875795381728746 0 -0.00078144625299142716 -0.027705503651767355 0 -0.0007152458963939791 -0.025578873768749073 0 -0.0011147771334333095 -0.025875795381728746 0 -0.0007152458963939791 -0.025578873768749073 0 -0.0010028660728149444 -0.025127502082313662 0 7.7015585402025934e-05 -0.03505099928550303 0 -8.6266055914284857e-05 -0.035000493966189317 0 2.202385002392842e-08 -0.035000064212440722 0 1.6972519389768727e-07 -0.034999933455429844 0 7.7015585402025934e-05 -0.03505099928550303 0 2.202385002392842e-08 -0.035000064212440722 0 0.00086471685172489154 -0.03239953049399924 0 0.00047345044707824426 -0.030637177968149184 0 0.0019229010383996525 -0.029824572649519109 0 -0.00078144625299142716 -0.027705503651767355 0 0.0010294387452198179 -0.026149342727108664 0 -0.00078144625299142716 -0.027705503651767355 0 5.4938540959128832e-05 -0.025533288508671731 0 0.0010294387452198179 -0.026149342727108664 0 2.202385002392842e-08 -0.035000064212440722 0 1.3937365265353802e-05 -0.034961132732235223 0 -5.7710559043243923e-05 -0.034923849209855001 0 -8.6266055914284857e-05 -0.035000493966189317 0 2.202385002392842e-08 -0.035000064212440722 0 -5.7710559043243923e-05 -0.034923849209855001 0 2.202385002392842e-08 -0.035000064212440722 0 1.1317624986631372e-08 -0.034999830582127113 0 1.3937365265353802e-05 -0.034961132732235223 0 1.3937365265353802e-05 -0.034961132732235223 0 -8.8196487869038646e-05 -0.034384729409541043 0 -0.00011800653201694061 -0.034745981654646631 0 4.4385207620797588e-06 -0.034891607065058082 0 -4.1969924000882248e-05 -0.034763705794787596 0 1.1317624986631372e-08 -0.034999830582127113 0 1.3937365265353802e-05 -0.034961132732235223 0 8.3969655693019708e-06 -0.034999066657057008 0 1.3937365265353802e-05 -0.034961132732235223 0 -5.7710559043243923e-05 -0.034923849209855001 0 -0.00011800653201694061 -0.034745981654646631 0 1.1317624986631372e-08 -0.034999830582127113 0 8.3969655693019708e-06 -0.034999066657057008 0 2.529343819863664e-09 -0.035000039431070711 0 -0.00047388790804855284 -0.034089817411037317 0 -0.0003823614459206645 -0.034649495683514928 0 -0.00067518096288491465 -0.033790431289803337 0 -0.00047388790804855284 -0.034089817411037317 0 -8.8196487869038646e-05 -0.034384729409541043 0 -0.0003823614459206645 -0.034649495683514928 0 -8.8196487869038646e-05 -0.034384729409541043 0 -0.0003823614459206645 -0.034649495683514928 0 -0.00011800653201694061 -0.034745981654646631 0 5.4938540959128832e-05 -0.025533288508671731 0 0.0010294387452198179 -0.026149342727108664 0 0.00027855421096710926 -0.0246583245461349 0 -8.6266055914284857e-05 -0.035000493966189317 0 -5.7710559043243923e-05 -0.034923849209855001 0 -0.0003823614459206645 -0.034649495683514928 0 0.00047345044707824426 -0.030637177968149184 0 -4.1397656543712215e-05 -0.029519299677442646 0 -5.7710559043243923e-05 -0.034923849209855001 0 -0.0003823614459206645 -0.034649495683514928 0 -0.00011800653201694061 -0.034745981654646631 0 5.4938540959128832e-05 -0.025533288508671731 0 0.00027855421096710926 -0.0246583245461349 0 -0.00029324058535553938 -0.024880140355881174 0 5.4938540959128832e-05 -0.025533288508671731 0 -0.0007152458963939791 -0.025578873768749073 0 -0.00029324058535553938 -0.024880140355881174 0 -0.0007152458963939791 -0.025578873768749073 0 -0.00074222754978653903 -0.024796335491813783 0 -0.0010028660728149444 -0.025127502082313662 0 -0.0007152458963939791 -0.025578873768749073 0 -0.00029324058535553938 -0.024880140355881174 0 -0.00074222754978653903 -0.024796335491813783 0 -0.00046345944726710177 -0.024449097969813777 0 -0.00027738950329747771 -0.024232170549034503 0 -0.00047370377460670946 -0.02401355669620945 0 -0.00046345944726710177 -0.024449097969813777 0 -0.00074863851697330762 -0.024321053370009737 0 -0.00047370377460670946 -0.02401355669620945 0 -0.00074222754978653903 -0.024796335491813783 0 -0.00046345944726710177 -0.024449097969813777 0 -0.00074863851697330762 -0.024321053370009737 0 -0.00029324058535553938 -0.024880140355881174 0 -0.00074222754978653903 -0.024796335491813783 0 -0.00046345944726710177 -0.024449097969813777 0 0.00027855421096710926 -0.0246583245461349 0 -0.00013901629062565264 -0.024442706204797021 0 -8.4871662606120587e-05 -0.023991295658685734 0 -4.1397656543712215e-05 -0.029519299677442646 0 -0.00054445650531282448 -0.029492981093566174 0 0.00027855421096710926 -0.0246583245461349 0 -0.00029324058535553938 -0.024880140355881174 0 -0.00013901629062565264 -0.024442706204797021 0 -0.00029324058535553938 -0.024880140355881174 0 -0.00046345944726710177 -0.024449097969813777 0 -0.00013901629062565264 -0.024442706204797021 0 -0.00046345944726710177 -0.024449097969813777 0 -0.00027738950329747771 -0.024232170549034503 0 -0.00013901629062565264 -0.024442706204797021 0 -8.4871662606120587e-05 -0.023991295658685734 0 -0.00047370377460670946 -0.02401355669620945 0 -0.00037403959316837314 -0.023574653691164932 0 3.0535021115240658e-05 -0.033659476520631879 0 5.6266930066363897e-05 -0.032417051066345119 0 -0.00027738950329747771 -0.024232170549034503 0 -8.4871662606120587e-05 -0.023991295658685734 0 -0.00047370377460670946 -0.02401355669620945 0 -0.0003823614459206645 -0.034649495683514928 0 -0.00067518096288491465 -0.033790431289803337 0 -0.0007470211117489205 -0.033684980910454028 0 -0.00027738950329747771 -0.024232170549034503 0 -0.00013901629062565264 -0.024442706204797021 0 -8.4871662606120587e-05 -0.023991295658685734 0 -0.00047388790804855284 -0.034089817411037317 0 -0.0006379198633520753 -0.033785882498580812 0 -0.00054224321508488142 -0.033616986202820623 0 -0.00021524871764631609 -0.031967245785872456 0 -0.00012942696444681953 -0.032299956182878647 0 -0.00032640466644439763 -0.032014680843484085 0 -0.00054445650531282448 -0.029492981093566174 0 -3.617541485343341e-05 -0.032431022371164735 0 5.6266930066363897e-05 -0.032417051066345119 0 -0.00012186355113582069 -0.033785212695243337 0 -0.0002582236478426436 -0.031890008014054824 0 -0.00021524871764631609 -0.031967245785872456 0 -0.00032640466644439763 -0.032014680843484085 0 5.6266930066363897e-05 -0.032417051066345119 0 -0.00054445650531282448 -0.029492981093566174 0 -0.00047370377460670946 -0.02401355669620945 0 -0.00071319840757066381 -0.023627158460922885 0 -0.00077770470393520108 -0.023983592534041014 0 -0.00074863851697330762 -0.024321053370009737 0 -0.00047370377460670946 -0.02401355669620945 0 -0.00077770470393520108 -0.023983592534041014 0 -0.00047370377460670946 -0.02401355669620945 0 -0.00037403959316837314 -0.023574653691164932 0 -0.00071319840757066381 -0.023627158460922885 0 6.2980563119288558e-06 -0.029623088565367231 0 -5.5388788614237144e-05 -0.029452671072917068 0 -0.00019401432993276424 -0.029333552358311421 0 -0.00054445650531282448 -0.029492981093566174 0 -0.0005572654838930627 -0.0255916764217533 0 0.00028383284516749179 -0.034298075119410569 0 0.00021557418401710603 -0.034402511674287074 0 0.00019719848165782004 -0.03417791026974213 0 -3.617541485343341e-05 -0.032431022371164735 0 -0.00012186355113582069 -0.033785212695243337 0 -3.617541485343341e-05 -0.032431022371164735 0 0.00028018105433603514 -0.033737193511449062 0 -3.617541485343341e-05 -0.032431022371164735 0 0.00029895130210516986 -0.032122000476132298 0 -5.5388788614237144e-05 -0.029452671072917068 0 -0.00019401432993276424 -0.029333552358311421 0 -0.00022625795415691653 -0.029250177943917304 0 0.00028557280799943916 -0.034292209993288122 0 0.00029960973600789092 -0.034363422477857938 0 0.0003838646770619674 -0.034459942035500783 0 0.00028383284516749179 -0.034298075119410569 0 0.00029960973600789092 -0.034363422477857938 0 0.00021557418401710603 -0.034402511674287074 0 0.00029960973600789092 -0.034363422477857938 0 0.00021557418401710603 -0.034402511674287074 0 0.00029257551975834118 -0.034475604547623787 0 2.6375907145985786e-06 -0.034996501457891134 0 3.601412962321976e-06 -0.03499578111650669 0 2.0862642010934683e-06 -0.034990548944948727 0 2.4585342164331803e-05 -0.034842721127363974 0 -0.00012186355113582069 -0.033785212695243337 0 0.00021557418401710603 -0.034402511674287074 0 8.3381030193016646e-05 -0.034432628573015635 0 0.00019719848165782004 -0.03417791026974213 0 2.6375907145985786e-06 -0.034996501457891134 0 2.529343819863664e-09 -0.035000039431070711 0 6.0897031444603236e-10 -0.03499998451268127 0 2.6375907145985786e-06 -0.034996501457891134 0 2.529343819863664e-09 -0.035000039431070711 0 3.601412962321976e-06 -0.03499578111650669 0 8.3969655693019708e-06 -0.034999066657057008 0 2.529343819863664e-09 -0.035000039431070711 0 3.601412962321976e-06 -0.03499578111650669 0 -0.00047388790804855284 -0.034089817411037317 0 -8.8196487869038646e-05 -0.034384729409541043 0 -0.00054224321508488142 -0.033616986202820623 0 -4.1969924000882248e-05 -0.034763705794787596 0 -0.00012186355113582069 -0.033785212695243337 0 8.3969655693019708e-06 -0.034999066657057008 0 3.601412962321976e-06 -0.03499578111650669 0 2.0862642010934683e-06 -0.034990548944948727 0 -0.0012724081244299269 -0.023576492606355082 0 -0.0011485107488275711 -0.024177838594559149 0 -0.001571997792220749 -0.024172160884766269 0 -0.0014166443074963922 -0.023231385645399446 0 -0.0013735762158057442 -0.023503866094093741 0 -0.0014165533360256893 -0.023169266540806321 0 -0.0012264206753791636 -0.022798292666778901 0 -0.0011957862742166816 -0.022806379752590956 0 -0.0012724081244299269 -0.023576492606355082 0 -0.0014165533360256893 -0.023169266540806321 0 -0.001571997792220749 -0.024172160884766269 0 -0.0012724081244299269 -0.023576492606355082 0 -0.0014165533360256893 -0.023169266540806321 0 -0.0013200903080940578 -0.023239176757411429 0 -0.0014165533360256893 -0.023169266540806321 0 -0.0013200903080940578 -0.023239176757411429 0 -0.0013189764990207979 -0.02308096502133971 0 -0.0012724081244299269 -0.023576492606355082 0 -0.0010054545231323357 -0.023715848842074047 0 -0.0011671154489333372 -0.023341392437769403 0 -0.0012724081244299269 -0.023576492606355082 0 -0.0013200903080940578 -0.023239176757411429 0 -0.0011671154489333372 -0.023341392437769403 0 -0.0010054545231323357 -0.023715848842074047 0 -0.00093556120575700996 -0.023364823901874322 0 -0.0011671154489333372 -0.023341392437769403 0 -0.0010054545231323357 -0.023715848842074047 0 -0.00071319840757066381 -0.023627158460922885 0 -0.00093556120575700996 -0.023364823901874322 0 -0.0010054545231323357 -0.023715848842074047 0 -0.00071319840757066381 -0.023627158460922885 0 -0.00077770470393520108 -0.023983592534041014 0 -0.0010054545231323357 -0.023715848842074047 0 -0.00077770470393520108 -0.023983592534041014 0 -0.00096187472484208342 -0.024168978275015039 0 -0.00074863851697330762 -0.024321053370009737 0 -0.00077770470393520108 -0.023983592534041014 0 -0.00096187472484208342 -0.024168978275015039 0 -0.0010054545231323357 -0.023715848842074047 0 -0.0011485107488275711 -0.024177838594559149 0 -0.00096187472484208342 -0.024168978275015039 0 -0.0012724081244299269 -0.023576492606355082 0 -0.0010054545231323357 -0.023715848842074047 0 -0.0011485107488275711 -0.024177838594559149 0 -0.0011485107488275711 -0.024177838594559149 0 -0.00096187472484208342 -0.024168978275015039 0 -0.00099034319397965772 -0.024568829494747729 0 -0.0011485107488275711 -0.024177838594559149 0 -0.0011866707855296343 -0.024780352466784221 0 -0.0012882821191192724 -0.02449816505912563 0 -0.0011485107488275711 -0.024177838594559149 0 -0.00099034319397965772 -0.024568829494747729 0 -0.0011866707855296343 -0.024780352466784221 0 -0.00074222754978653903 -0.024796335491813783 0 -0.00074863851697330762 -0.024321053370009737 0 -0.00099034319397965772 -0.024568829494747729 0 -0.00074863851697330762 -0.024321053370009737 0 -0.00096187472484208342 -0.024168978275015039 0 -0.00099034319397965772 -0.024568829494747729 0 -0.00074222754978653903 -0.024796335491813783 0 -0.00099034319397965772 -0.024568829494747729 0 -0.0010028660728149444 -0.025127502082313662 0 -0.00099034319397965772 -0.024568829494747729 0 -0.0010028660728149444 -0.025127502082313662 0 -0.0011866707855296343 -0.024780352466784221 0 -0.0011866707855296343 -0.024780352466784221 0 -0.0012882821191192724 -0.02449816505912563 0 -0.0012848953254439111 -0.024817679796361271 0 -0.0012882821191192724 -0.02449816505912563 0 -0.001571997792220749 -0.024172160884766269 0 -0.0012848953254439111 -0.024817679796361271 0 -0.0011485107488275711 -0.024177838594559149 0 -0.0012882821191192724 -0.02449816505912563 0 -0.001571997792220749 -0.024172160884766269 0 -0.0013735762158057442 -0.023503866094093741 0 -0.0011804084691064279 -0.023931895599306207 0 -0.0012264206753791636 -0.022798292666778901 0 -0.0010397043404627737 -0.023086283694243974 0 -0.0011895583773748409 -0.022842567445060118 0 -0.0010397043404627737 -0.023086283694243974 0 -0.0011987392695118593 -0.022954973641913907 0 -0.0011895583773748409 -0.022842567445060118 0 -0.0010397043404627737 -0.023086283694243974 0 -0.001197558868637007 -0.023830140587300999 0 -0.0012050719826233074 -0.023393719162673451 0 -0.0010397043404627737 -0.023086283694243974 0 -0.0012050719826233074 -0.023393719162673451 0 -0.0011987392695118593 -0.022954973641913907 0 -0.0012848953254439111 -0.024817679796361271 0 -0.0010745061135220247 -0.024251798146713653 0 -0.0012277685959944085 -0.024841259322541328 0 -0.0011866707855296343 -0.024780352466784221 0 -0.0012848953254439111 -0.024817679796361271 0 -0.0012277685959944085 -0.024841259322541328 0 -0.0011804084691064279 -0.023931895599306207 0 -0.0010894639057335788 -0.02419257269747108 0 -0.0010745061135220247 -0.024251798146713653 0 -0.001197558868637007 -0.023830140587300999 0 -0.0013505324777352808 -0.02395429412333952 0 -0.0010397043404627737 -0.023086283694243974 0 -0.0010745061135220247 -0.024251798146713653 0 -0.001197558868637007 -0.023830140587300999 0 -0.001197558868637007 -0.023830140587300999 0 -0.0012050719826233074 -0.023393719162673451 0 -0.0011566410559193587 -0.023441884430706023 0 -0.0011147771334333095 -0.025875795381728746 0 -0.0010028660728149444 -0.025127502082313662 0 -0.0011714087279427209 -0.025188956474825077 0 -0.0010028660728149444 -0.025127502082313662 0 -0.0011866707855296343 -0.024780352466784221 0 -0.0011714087279427209 -0.025188956474825077 0 -0.0011866707855296343 -0.024780352466784221 0 -0.0011714087279427209 -0.025188956474825077 0 -0.0012277685959944085 -0.024841259322541328 0 -0.0011714087279427209 -0.025188956474825077 0 -0.0012277685959944085 -0.024841259322541328 0 -0.0011162516802942449 -0.025076795913463651 0 -0.0010745061135220247 -0.024251798146713653 0 -0.0012277685959944085 -0.024841259322541328 0 -0.0011162516802942449 -0.025076795913463651 0 -0.0010745061135220247 -0.024251798146713653 0 -0.0011162516802942449 -0.025076795913463651 0 -0.0010634076989116173 -0.024682202959525938 0 -0.0011058552866555318 -0.025420262122570488 0 -0.0011147771334333095 -0.025875795381728746 0 -0.0011162516802942449 -0.025076795913463651 0 -0.0011147771334333095 -0.025875795381728746 0 -0.0011714087279427209 -0.025188956474825077 0 -0.0011162516802942449 -0.025076795913463651 0 -0.0011058552866555318 -0.025420262122570488 0 -0.0011162516802942449 -0.025076795913463651 0 -0.0010634076989116173 -0.024682202959525938 0 -0.0010179070816227528 -0.02484064080169739 0 -0.0010634076989116173 -0.024682202959525938 0 -0.0011542517870380626 -0.02460299502835793 0 -0.0016160128734625597 -0.029608273418677389 0 -0.0015901444590409144 -0.028483873494673267 0 -0.0021103855959347696 -0.033398744575531367 0 -0.0019175969927724542 -0.033333633366701899 0 -0.0024516781674955015 -0.031920887376089079 0 -0.0010179070816227528 -0.02484064080169739 0 -0.0011058552866555318 -0.025420262122570488 0 -0.0010634076989116173 -0.024682202959525938 0 -0.001197558868637007 -0.023830140587300999 0 -0.0011566410559193587 -0.023441884430706023 0 -0.0013505324777352808 -0.02395429412333952 0 -0.0011566410559193587 -0.023441884430706023 0 -0.0013505324777352808 -0.02395429412333952 0 -0.001103666911934906 -0.022934680340648241 0 -0.0010634076989116173 -0.024682202959525938 0 -0.0013505324777352808 -0.02395429412333952 0 -0.0011542517870380626 -0.02460299502835793 0 -0.0010745061135220247 -0.024251798146713653 0 -0.0010634076989116173 -0.024682202959525938 0 -0.0013505324777352808 -0.02395429412333952 0 -0.0013505324777352808 -0.02395429412333952 0 -0.0014407679035077861 -0.024846017281022027 0 -0.0011542517870380626 -0.02460299502835793 0 -0.0010179070816227528 -0.02484064080169739 0 -0.0014407679035077861 -0.024846017281022027 0 -0.0011542517870380626 -0.02460299502835793 0 -0.001393804456124648 -0.024150888957682172 0 -0.0014415055924419089 -0.02327222736786462 0 -0.0013505324777352808 -0.02395429412333952 0 -0.0015474755035490577 -0.02283899267844448 0 -0.001103666911934906 -0.022934680340648241 0 -0.001103666911934906 -0.022934680340648241 0 -0.00094635764169299778 -0.022639710076936399 0 -0.0010193791917993752 -0.022962044983435091 0 -0.00098556052848130637 -0.022451292509421121 0 -0.001103666911934906 -0.022934680340648241 0 -0.00094635764169299778 -0.022639710076936399 0 -0.0011566410559193587 -0.023441884430706023 0 -0.001103666911934906 -0.022934680340648241 0 -0.0010193791917993752 -0.022962044983435091 0 -0.0011566410559193587 -0.023441884430706023 0 -0.0010193791917993752 -0.022962044983435091 0 -0.0010906341231761603 -0.023036305287003681 0 -0.0010193791917993752 -0.022962044983435091 0 -0.00093974471801021916 -0.02266690652202669 0 -0.0010906341231761603 -0.023036305287003681 0 -0.00093974471801021916 -0.02266690652202669 0 -0.0010906341231761603 -0.023036305287003681 0 -0.00099146454452722697 -0.022733371579846458 0 -0.00093974471801021916 -0.02266690652202669 0 -0.00090279643686192129 -0.022472257007720799 0 -0.00099146454452722697 -0.022733371579846458 0 -0.00094635764169299778 -0.022639710076936399 0 -0.00093974471801021916 -0.02266690652202669 0 -0.00086832929044478198 -0.022418692919361015 0 -0.00094635764169299778 -0.022639710076936399 0 -0.0010193791917993752 -0.022962044983435091 0 -0.00093974471801021916 -0.02266690652202669 0 -0.00079879296267479805 -0.022175834937803587 0 -0.00086832929044478198 -0.022418692919361015 0 -0.00084949251055014554 -0.022338826909061936 0 -0.00093974471801021916 -0.02266690652202669 0 -0.00086832929044478198 -0.022418692919361015 0 -0.00084949251055014554 -0.022338826909061936 0 -0.00079879296267479805 -0.022175834937803587 0 -0.00084949251055014554 -0.022338826909061936 0 -0.00080654094885062688 -0.02210552061477087 0 -0.00084949251055014554 -0.022338826909061936 0 -0.00080654094885062688 -0.02210552061477087 0 -0.00084978590711691027 -0.022242045210522123 0 -0.00080654094885062688 -0.02210552061477087 0 -0.00084978590711691027 -0.022242045210522123 0 -0.00081205250278920367 -0.022022523897469139 0 -0.00084978590711691027 -0.022242045210522123 0 -0.00090279643686192129 -0.022472257007720799 0 -0.00090900502813164908 -0.022385854900245188 0 -0.00084978590711691027 -0.022242045210522123 0 -0.00090900502813164908 -0.022385854900245188 0 -0.00082526523512277102 -0.022118036188727905 0 -0.00093974471801021916 -0.02266690652202669 0 -0.00084949251055014554 -0.022338826909061936 0 -0.00090279643686192129 -0.022472257007720799 0 -0.00090279643686192129 -0.022472257007720799 0 -0.00090900502813164908 -0.022385854900245188 0 -0.00099146454452722697 -0.022733371579846458 0 -0.00084949251055014554 -0.022338826909061936 0 -0.00084978590711691027 -0.022242045210522123 0 -0.00090279643686192129 -0.022472257007720799 0 -0.00090900502813164908 -0.022385854900245188 0 -0.0010335379578139813 -0.022677205086170812 0 -0.00099146454452722697 -0.022733371579846458 0 -0.00090900502813164908 -0.022385854900245188 0 -0.00092707738012740286 -0.022401125187984424 0 -0.00080983530836823401 -0.022113910807575323 0 -0.00092707738012740286 -0.022401125187984424 0 -0.0010335379578139813 -0.022677205086170812 0 -0.0010481468154208036 -0.022622519750571092 0 -0.00090900502813164908 -0.022385854900245188 0 -0.00092707738012740286 -0.022401125187984424 0 -0.0010335379578139813 -0.022677205086170812 0 -0.0011987392695118593 -0.022954973641913907 0 -0.0010335379578139813 -0.022677205086170812 0 -0.0010481468154208036 -0.022622519750571092 0 -0.0012050719826233074 -0.023393719162673451 0 -0.0011566410559193587 -0.023441884430706023 0 -0.0010906341231761603 -0.023036305287003681 0 -0.0012050719826233074 -0.023393719162673451 0 -0.0011987392695118593 -0.022954973641913907 0 -0.0010906341231761603 -0.023036305287003681 0 -0.0011987392695118593 -0.022954973641913907 0 -0.0010906341231761603 -0.023036305287003681 0 -0.0010335379578139813 -0.022677205086170812 0 -0.0010906341231761603 -0.023036305287003681 0 -0.0010335379578139813 -0.022677205086170812 0 -0.00099146454452722697 -0.022733371579846458 0 -0.00067822860740019168 -0.021546104051590978 0 -0.00076352929896846315 -0.021535583288746458 0 -0.00077941978363335834 -0.021812403712232215 0 -0.00076352929896846315 -0.021535583288746458 0 -0.00081009077796688022 -0.021614427562958487 0 -0.0008535118635175893 -0.021345419983010629 0 -0.00076352929896846315 -0.021535583288746458 0 -0.00081009077796688022 -0.021614427562958487 0 -0.00077941978363335834 -0.021812403712232215 0 -0.00077941978363335834 -0.021812403712232215 0 -0.00079846301259423773 -0.021813496072798789 0 -0.00081205250278920367 -0.022022523897469139 0 -0.00081009077796688022 -0.021614427562958487 0 -0.00077941978363335834 -0.021812403712232215 0 -0.00079846301259423773 -0.021813496072798789 0 -0.00081024220901518978 -0.021688095018679566 0 -0.00081009077796688022 -0.021614427562958487 0 -0.00079846301259423773 -0.021813496072798789 0 -0.00079016172628853555 -0.021891687054756553 0 -0.00081024220901518978 -0.021688095018679566 0 -0.00079846301259423773 -0.021813496072798789 0 -0.00079016172628853555 -0.021891687054756553 0 -0.00079846301259423773 -0.021813496072798789 0 -0.00081205250278920367 -0.022022523897469139 0 -0.00079016172628853555 -0.021891687054756553 0 -0.00080654094885062688 -0.02210552061477087 0 -0.00081205250278920367 -0.022022523897469139 0 -0.00077941978363335834 -0.021812403712232215 0 -0.00081205250278920367 -0.022022523897469139 0 -0.00082526523512277102 -0.022118036188727905 0 -0.00084978590711691027 -0.022242045210522123 0 -0.00081205250278920367 -0.022022523897469139 0 -0.00082526523512277102 -0.022118036188727905 0 -0.00090900502813164908 -0.022385854900245188 0 -0.00082526523512277102 -0.022118036188727905 0 -0.00080983530836823401 -0.022113910807575323 0 -0.00092707738012740286 -0.022401125187984424 0 -0.00080983530836823401 -0.022113910807575323 0 -0.00079079643834887941 -0.022188410477644076 0 -0.00080983530836823401 -0.022113910807575323 0 -0.00073239928606482374 -0.021896204778612496 0 -0.000697708262719613 -0.021988761174176075 0 -0.00077941978363335834 -0.021812403712232215 0 -0.00082526523512277102 -0.022118036188727905 0 -0.00080983530836823401 -0.022113910807575323 0 -0.00077941978363335834 -0.021812403712232215 0 -0.00080983530836823401 -0.022113910807575323 0 -0.00073239928606482374 -0.021896204778612496 0 -0.00077941978363335834 -0.021812403712232215 0 -0.00073239928606482374 -0.021896204778612496 0 -0.0006788074325278328 -0.021698778849612681 0 -0.0006788074325278328 -0.021698778849612681 0 -0.00065507931184463771 -0.021844771771270186 0 -0.00055975070436532347 -0.021450678287857995 0 -0.00073239928606482374 -0.021896204778612496 0 -0.0006788074325278328 -0.021698778849612681 0 -0.00065507931184463771 -0.021844771771270186 0 -0.00067822860740019168 -0.021546104051590978 0 -0.00077941978363335834 -0.021812403712232215 0 -0.0006788074325278328 -0.021698778849612681 0 -0.00057804854590811239 -0.021835158028449944 0 -0.00065507931184463771 -0.021844771771270186 0 -0.0006969411152179879 -0.021771210354890196 0 -0.00073239928606482374 -0.021896204778612496 0 -0.00065507931184463771 -0.021844771771270186 0 -0.000697708262719613 -0.021988761174176075 0 -0.00057804854590811239 -0.021835158028449944 0 -0.00065507931184463771 -0.021844771771270186 0 -0.000697708262719613 -0.021988761174176075 0 -0.00057804854590811239 -0.021835158028449944 0 -0.000697708262719613 -0.021988761174176075 0 -0.00066514392638733673 -0.022003225946839611 0 -0.00066514392638733673 -0.022003225946839611 0 -0.00079079643834887941 -0.022188410477644076 0 -0.00072208677977850342 -0.022161843716362623 0 -0.000697708262719613 -0.021988761174176075 0 -0.00066514392638733673 -0.022003225946839611 0 -0.00079079643834887941 -0.022188410477644076 0 -0.00080983530836823401 -0.022113910807575323 0 -0.000697708262719613 -0.021988761174176075 0 -0.00079079643834887941 -0.022188410477644076 0 -0.00079079643834887941 -0.022188410477644076 0 -0.00072208677977850342 -0.022161843716362623 0 -0.00095097668339728686 -0.022450840794279694 0 -0.00072208677977850342 -0.022161843716362623 0 -0.00082861564566022287 -0.022418159282643315 0 -0.00059284521019268362 -0.022172163224828428 0 -0.00072208677977850342 -0.022161843716362623 0 -0.00059037212764314099 -0.021809489637688605 0 -0.00059284521019268362 -0.022172163224828428 0 -0.00066514392638733673 -0.022003225946839611 0 -0.00072208677977850342 -0.022161843716362623 0 -0.00059037212764314099 -0.021809489637688605 0 -0.00057804854590811239 -0.021835158028449944 0 -0.00066514392638733673 -0.022003225946839611 0 -0.00059037212764314099 -0.021809489637688605 0 -0.00059037212764314099 -0.021809489637688605 0 -0.00058539035303287364 -0.021605380347893798 0 -0.00048710239560168899 -0.021150579289824525 0 -0.00057804854590811239 -0.021835158028449944 0 -0.00048710239560168899 -0.021150579289824525 0 -0.0006969411152179879 -0.021771210354890196 0 -0.00057804854590811239 -0.021835158028449944 0 -0.00059037212764314099 -0.021809489637688605 0 -0.00048710239560168899 -0.021150579289824525 0 -0.0011300639533803069 -0.022702215361035973 0 -0.0010751432112816122 -0.022653056156027661 0 -0.0011957862742166816 -0.022806379752590956 0 -0.0012264206753791636 -0.022798292666778901 0 -0.0011895583773748409 -0.022842567445060118 0 -0.0011957862742166816 -0.022806379752590956 0 -0.0011895583773748409 -0.022842567445060118 0 -0.0011300639533803069 -0.022702215361035973 0 -0.0011957862742166816 -0.022806379752590956 0 -0.0011987392695118593 -0.022954973641913907 0 -0.0011895583773748409 -0.022842567445060118 0 -0.0011300639533803069 -0.022702215361035973 0 -0.0011987392695118593 -0.022954973641913907 0 -0.0011300639533803069 -0.022702215361035973 0 -0.0010481468154208036 -0.022622519750571092 0 -0.0011300639533803069 -0.022702215361035973 0 -0.0010481468154208036 -0.022622519750571092 0 -0.00095097668339728686 -0.022450840794279694 0 -0.00092707738012740286 -0.022401125187984424 0 -0.0010481468154208036 -0.022622519750571092 0 -0.00095097668339728686 -0.022450840794279694 0 -0.00092707738012740286 -0.022401125187984424 0 -0.00079079643834887941 -0.022188410477644076 0 -0.00095097668339728686 -0.022450840794279694 0 -0.0011300639533803069 -0.022702215361035973 0 -0.00095097668339728686 -0.022450840794279694 0 -0.0010751432112816122 -0.022653056156027661 0 -0.00095097668339728686 -0.022450840794279694 0 -0.0009193970375000537 -0.022457735978725638 0 -0.0010751432112816122 -0.022653056156027661 0 -0.00072208677977850342 -0.022161843716362623 0 -0.00095097668339728686 -0.022450840794279694 0 -0.0009193970375000537 -0.022457735978725638 0 -0.00072208677977850342 -0.022161843716362623 0 -0.0009193970375000537 -0.022457735978725638 0 -0.00082861564566022287 -0.022418159282643315 0 -0.0009193970375000537 -0.022457735978725638 0 -0.00082861564566022287 -0.022418159282643315 0 -0.0010319539541480786 -0.022668113523620248 0 -0.0009193970375000537 -0.022457735978725638 0 -0.0010319539541480786 -0.022668113523620248 0 -0.0010751432112816122 -0.022653056156027661 0 -0.0010319539541480786 -0.022668113523620248 0 -0.0011909889525639112 -0.022887309007845823 0 -0.0010751432112816122 -0.022653056156027661 0 -0.0011909889525639112 -0.022887309007845823 0 -0.0010751432112816122 -0.022653056156027661 0 -0.0011957862742166816 -0.022806379752590956 0 -0.0014165533360256893 -0.023169266540806321 0 -0.0011909889525639112 -0.022887309007845823 0 -0.0011957862742166816 -0.022806379752590956 0 -0.0014165533360256893 -0.023169266540806321 0 -0.0011909889525639112 -0.022887309007845823 0 -0.0013189764990207979 -0.02308096502133971 0 -0.0013189764990207979 -0.02308096502133971 0 -0.001280510571585199 -0.023038889635236103 0 -0.0012231821389023765 -0.022962549436447693 0 -0.0011909889525639112 -0.022887309007845823 0 -0.0013189764990207979 -0.02308096502133971 0 -0.0012231821389023765 -0.022962549436447693 0 -0.001280510571585199 -0.023038889635236103 0 -0.0012231821389023765 -0.022962549436447693 0 -0.0011534277432446586 -0.023015723271377249 0 -0.0012231821389023765 -0.022962549436447693 0 -0.0011162474641149163 -0.022849773439279332 0 -0.0011534277432446586 -0.023015723271377249 0 -0.0011909889525639112 -0.022887309007845823 0 -0.0012231821389023765 -0.022962549436447693 0 -0.0011162474641149163 -0.022849773439279332 0 -0.0010319539541480786 -0.022668113523620248 0 -0.0011162474641149163 -0.022849773439279332 0 -0.00097001067547977183 -0.022715681211882045 0 -0.0010319539541480786 -0.022668113523620248 0 -0.0011909889525639112 -0.022887309007845823 0 -0.0011162474641149163 -0.022849773439279332 0 -0.00082861564566022287 -0.022418159282643315 0 -0.00097001067547977183 -0.022715681211882045 0 -0.0008256963653156549 -0.022536821994476448 0 -0.00082861564566022287 -0.022418159282643315 0 -0.0010319539541480786 -0.022668113523620248 0 -0.00097001067547977183 -0.022715681211882045 0 -0.00097001067547977183 -0.022715681211882045 0 -0.0008256963653156549 -0.022536821994476448 0 -0.00087392550343388443 -0.022760646917656051 0 -0.00097001067547977183 -0.022715681211882045 0 -0.00095690087207620379 -0.022829712768849146 0 -0.0010497677494380523 -0.02291024914386262 0 -0.00097001067547977183 -0.022715681211882045 0 -0.00087392550343388443 -0.022760646917656051 0 -0.00095690087207620379 -0.022829712768849146 0 -0.00095690087207620379 -0.022829712768849146 0 -0.0010497677494380523 -0.02291024914386262 0 -0.00092311356791466379 -0.022943624968094104 0 -0.00087392550343388443 -0.022760646917656051 0 -0.00092311356791466379 -0.022943624968094104 0 -0.0007326310837988836 -0.022810407244739515 0 -0.00087392550343388443 -0.022760646917656051 0 -0.00095690087207620379 -0.022829712768849146 0 -0.00092311356791466379 -0.022943624968094104 0 -0.0011162474641149163 -0.022849773439279332 0 -0.0010497677494380523 -0.02291024914386262 0 -0.0011534277432446586 -0.023015723271377249 0 -0.0011162474641149163 -0.022849773439279332 0 -0.00097001067547977183 -0.022715681211882045 0 -0.0010497677494380523 -0.02291024914386262 0 0.00022185887840806096 -0.024864094688764563 0 0.00037562629577328715 -0.024611105873332557 0 0.0017877135833954949 -0.026163819354418368 0 0.0018796311097522785 -0.026099775395523429 0 0.0018802993113627721 -0.02628252258607891 0 0.0014688146137144073 -0.026319681537027146 0 0.0015402789668444777 -0.026269319679080638 0 0.0018802993113627721 -0.02628252258607891 0 -0.0010497677494380523 -0.02291024914386262 0 -0.00092311356791466379 -0.022943624968094104 0 -0.0011534277432446586 -0.023015723271377249 0 0.001666274992416868 -0.026188985493439808 0 0.0015402789668444777 -0.026269319679080638 0 0.0018802993113627721 -0.02628252258607891 0 0.001666274992416868 -0.026188985493439808 0 0.0017877135833954949 -0.026163819354418368 0 0.0018802993113627721 -0.02628252258607891 0 0.0015402789668444777 -0.026269319679080638 0 0.0014740162807452008 -0.026191296041773053 0 0.0013211401275505829 -0.026275319622891789 0 0.0014653831305577747 -0.026246903297501588 0 0.0013395215828497775 -0.0261423451863542 0 0.0014688146137144073 -0.026319681537027146 0 0.0015402789668444777 -0.026269319679080638 0 0.001170014918989068 -0.026149727212195353 0 0.001666274992416868 -0.026188985493439808 0 0.0015402789668444777 -0.026269319679080638 0 0.0015566129217881629 -0.02619486684895363 0 0.001666274992416868 -0.026188985493439808 0 0.0015566129217881629 -0.02619486684895363 0 0.0015464936519326692 -0.026118233954563207 0 0.0015566129217881629 -0.02619486684895363 0 0.0014740162807452008 -0.026191296041773053 0 0.0015464936519326692 -0.026118233954563207 0 0.0015402789668444777 -0.026269319679080638 0 0.0015566129217881629 -0.02619486684895363 0 0.0014740162807452008 -0.026191296041773053 0 0.0015464936519326692 -0.026118233954563207 0 0.0014657484571680085 -0.02597913790873424 0 0.0013807607475446139 -0.026120636271106293 0 0.0014740162807452008 -0.026191296041773053 0 0.0015464936519326692 -0.026118233954563207 0 0.0013807607475446139 -0.026120636271106293 0 0.0015464936519326692 -0.026118233954563207 0 0.0016022017906778319 -0.02602889967240583 0 0.0017231886080247183 -0.026087021966047348 0 0.0015464936519326692 -0.026118233954563207 0 0.0016022017906778319 -0.02602889967240583 0 0.0014657484571680085 -0.02597913790873424 0 0.0016022017906778319 -0.02602889967240583 0 0.0014657484571680085 -0.02597913790873424 0 0.0016705763584694937 -0.025930059093797544 0 0.0017877135833954949 -0.026163819354418368 0 0.0017231886080247183 -0.026087021966047348 0 0.0018796311097522785 -0.026099775395523429 0 0.001666274992416868 -0.026188985493439808 0 0.0017877135833954949 -0.026163819354418368 0 0.0017231886080247183 -0.026087021966047348 0 0.001666274992416868 -0.026188985493439808 0 0.0015464936519326692 -0.026118233954563207 0 0.0017231886080247183 -0.026087021966047348 0 0.0016022017906778319 -0.02602889967240583 0 0.0017231886080247183 -0.026087021966047348 0 0.0016705763584694937 -0.025930059093797544 0 0.0017231886080247183 -0.026087021966047348 0 0.0018538768750246122 -0.025928412874197688 0 0.0016705763584694937 -0.025930059093797544 0 0.0017231886080247183 -0.026087021966047348 0 0.0018796311097522785 -0.026099775395523429 0 0.0018538768750246122 -0.025928412874197688 0 0.0019695346420165274 -0.026001407373843589 0 0.0018796311097522785 -0.026099775395523429 0 0.0018538768750246122 -0.025928412874197688 0 0.0019695346420165274 -0.026001407373843589 0 0.0018796311097522785 -0.026099775395523429 0 0.002016003487273205 -0.026144980448623019 0 0.0019695346420165274 -0.026001407373843589 0 0.002016003487273205 -0.026144980448623019 0 0.0020626346461807437 -0.026072873143732796 0 0.0019695346420165274 -0.026001407373843589 0 0.0020626346461807437 -0.026072873143732796 0 0.0021169361207812555 -0.025958244996101942 0 0.0020626346461807437 -0.026072873143732796 0 0.0021451490461974884 -0.026154984756545954 0 0.0021169361207812555 -0.025958244996101942 0 0.0021451490461974884 -0.026154984756545954 0 0.0021169361207812555 -0.025958244996101942 0 0.0022889154236126158 -0.025986965184523196 0 0.002016003487273205 -0.026144980448623019 0 0.0020626346461807437 -0.026072873143732796 0 0.0021451490461974884 -0.026154984756545954 0 0.002016003487273205 -0.026144980448623019 0 0.0021451490461974884 -0.026154984756545954 0 0.0021321406589314197 -0.026159191007828455 0 -0.001280510571585199 -0.023038889635236103 0 -0.0012694999403066321 -0.023059274533573846 0 -0.0011534277432446586 -0.023015723271377249 0 0.0021451490461974884 -0.026154984756545954 0 0.0021321406589314197 -0.026159191007828455 0 0.0020269637480395913 -0.026178206615678268 0 0.002016003487273205 -0.026144980448623019 0 0.0021321406589314197 -0.026159191007828455 0 0.0018802993113627721 -0.02628252258607891 0 0.00040369206620547549 -0.02465672239677974 0 0.00037562629577328715 -0.024611105873332557 0 0.0018796311097522785 -0.026099775395523429 0 0.002016003487273205 -0.026144980448623019 0 0.0018802993113627721 -0.02628252258607891 0 0.00051178366803086514 -0.020826324544437773 0 0.0010953186967705847 -0.020973302294914474 0 -0.00061544213030152674 -0.021766997342525764 0 -0.00043490640038542163 -0.021436738578589905 0 -0.00012903993653647487 -0.021625644737946842 0 -0.00061544213030152674 -0.021766997342525764 0 -0.00043490640038542163 -0.021436738578589905 0 -0.00058539035303287364 -0.021605380347893798 0 -0.00043490640038542163 -0.021436738578589905 0 -0.00058539035303287364 -0.021605380347893798 0 -0.00048710239560168899 -0.021150579289824525 0 -0.00059037212764314099 -0.021809489637688605 0 -0.00058539035303287364 -0.021605380347893798 0 -0.00063371606397588285 -0.021847321378776832 0 -0.00061544213030152674 -0.021766997342525764 0 -0.00058539035303287364 -0.021605380347893798 0 -0.00063371606397588285 -0.021847321378776832 0 -0.00061544213030152674 -0.021766997342525764 0 -0.00063371606397588285 -0.021847321378776832 0 -0.00056793732513851954 -0.021791974175809772 0 0.00051178366803086514 -0.020826324544437773 0 0.00038112336162160097 -0.022661222527167117 0 0.00038112336162160097 -0.022661222527167117 0 -0.00077334669082406045 -0.022019874063217086 0 -0.00063371606397588285 -0.021847321378776832 0 -0.00056793732513851954 -0.021791974175809772 0 -0.00059284521019268362 -0.022172163224828428 0 -0.00059037212764314099 -0.021809489637688605 0 -0.00063371606397588285 -0.021847321378776832 0 -0.00059284521019268362 -0.022172163224828428 0 -0.0008256963653156549 -0.022536821994476448 0 -0.00059284521019268362 -0.022172163224828428 0 -0.00071778246892931772 -0.022644946835286221 0 -0.00082861564566022287 -0.022418159282643315 0 -0.0008256963653156549 -0.022536821994476448 0 -0.00059284521019268362 -0.022172163224828428 0 -0.00037130624140745724 -0.022922614920061209 0 -0.00071778246892931772 -0.022644946835286221 0 -0.0007326310837988836 -0.022810407244739515 0 -0.0008256963653156549 -0.022536821994476448 0 -0.00087392550343388443 -0.022760646917656051 0 -0.00071778246892931772 -0.022644946835286221 0 -0.00087392550343388443 -0.022760646917656051 0 -0.00071778246892931772 -0.022644946835286221 0 -0.0007326310837988836 -0.022810407244739515 0 -0.00092311356791466379 -0.022943624968094104 0 -0.00037130624140745724 -0.022922614920061209 0 -0.0007326310837988836 -0.022810407244739515 0 -0.00037130624140745724 -0.022922614920061209 0 -0.00059284521019268362 -0.022172163224828428 0 -0.00071778246892931772 -0.022644946835286221 0 0.0013395215828497775 -0.0261423451863542 0 0.00062675992456933034 -0.023342051609684257 0 0.0014688146137144073 -0.026319681537027146 0 0.00081342097304567824 -0.026293783272357305 0 0.001170014918989068 -0.026149727212195353 0 0.0013211401275505829 -0.026275319622891789 0 0.0012500251533211044 -0.026174361403648334 0 0.0010854280375555557 -0.026247074050932802 0 0.00022185887840806096 -0.024864094688764563 0 0.00038112336162160097 -0.022661222527167117 0 0.0012500251533211044 -0.026174361403648334 0 0.0012166587405270401 -0.026053309131420864 0 0.0010854280375555557 -0.026247074050932802 0 0.0014740162807452008 -0.026191296041773053 0 0.0013211401275505829 -0.026275319622891789 0 0.0013807607475446139 -0.026120636271106293 0 0.0013211401275505829 -0.026275319622891789 0 0.0012500251533211044 -0.026174361403648334 0 0.0013807607475446139 -0.026120636271106293 0 0.0014657484571680085 -0.02597913790873424 0 0.0013807607475446139 -0.026120636271106293 0 0.0012166587405270401 -0.026053309131420864 0 0.0014657484571680085 -0.02597913790873424 0 0.0012166587405270401 -0.026053309131420864 0 0.0012894973891288031 -0.025832435201398295 0 0.0012500251533211044 -0.026174361403648334 0 0.0013807607475446139 -0.026120636271106293 0 0.0012166587405270401 -0.026053309131420864 0 -0.00032937019833804949 -0.020348301224692399 0 0.00033455834834350285 -0.020947617208234681 0 -9.2965328990115398e-05 -0.02172799584162903 0 0.0012166587405270401 -0.026053309131420864 0 0.0010854280375555557 -0.026247074050932802 0 0.00098118718264371234 -0.025907940862248811 0 0.00062675992456933034 -0.023342051609684257 0 0.00040768977711765731 -0.023806825683722652 0 0.00098855428859176788 -0.020395680800670606 0 0.0010342456986858529 -0.020614136550266626 0 0.0016030792840005617 -0.020624277074082768 0 0.00081342097304567824 -0.026293783272357305 0 0.001170014918989068 -0.026149727212195353 0 0.00076673173544782535 -0.026067872834793979 0 0.00038112336162160097 -0.022661222527167117 0 0.00062675992456933034 -0.023342051609684257 0 0.00062675992456933034 -0.023342051609684257 0 0.0011725359024133159 -0.020288668146273104 0 -0.00032937019833804949 -0.020348301224692399 0 0.00091342105414521217 -0.02044677474230356 0 0.00033455834834350285 -0.020947617208234681 0 0.0016796799682393697 -0.020298196230521977 0 0.00098855428859176788 -0.020395680800670606 0 0.0016030792840005617 -0.020624277074082768 0 0.00091342105414521217 -0.02044677474230356 0 0.00033455834834350285 -0.020947617208234681 0 0.0012492163594828877 -0.021318678522936025 0 0.00033455834834350285 -0.020947617208234681 0 0.0012492163594828877 -0.021318678522936025 0 -9.2965328990115398e-05 -0.02172799584162903 0 0.00091342105414521217 -0.02044677474230356 0 0.0012492163594828877 -0.021318678522936025 0 0.0021386680276508441 -0.020607460536543155 0 0.0012492163594828877 -0.021318678522936025 0 0.0021386680276508441 -0.020607460536543155 0 0.0021179588367921244 -0.021190467191258368 0 0.0016796799682393697 -0.020298196230521977 0 0.0016030792840005617 -0.020624277074082768 0 0.0021386680276508441 -0.020607460536543155 0 0.0011725359024133159 -0.020288668146273104 0 0.0021106864068570022 -0.020646731094676376 0 0.0015675303848678723 -0.023449134578644223 0 0.00099409834813810483 -0.022543771513112799 0 0.0022588421319274356 -0.02210958593784303 0 0.0015675303848678723 -0.023449134578644223 0 0.00099409834813810483 -0.022543771513112799 0 0.000818130057067731 -0.023887218032311905 0 0.0020260737041171151 -0.022231707320634325 0 0.0024296981824363201 -0.021474272792156218 0 0.0012492163594828877 -0.021318678522936025 0 0.00099409834813810483 -0.022543771513112799 0 0.0022588421319274356 -0.02210958593784303 0 0.0012492163594828877 -0.021318678522936025 0 0.00099409834813810483 -0.022543771513112799 0 -9.2965328990115398e-05 -0.02172799584162903 0 0.00099409834813810483 -0.022543771513112799 0 0.00015407792145761011 -0.023310094674155825 0 0.000818130057067731 -0.023887218032311905 0 0.00099409834813810483 -0.022543771513112799 0 0.00015407792145761011 -0.023310094674155825 0 -9.2965328990115398e-05 -0.02172799584162903 0 0.0008163880748623955 -0.025512523279754513 0 0.001124696359328922 -0.02566034356281658 0 0.00098118718264371234 -0.025907940862248811 0 0.0008163880748623955 -0.025512523279754513 0 0.001124696359328922 -0.02566034356281658 0 0.0011490561720205431 -0.025405381979428956 0 0.0005124345241349675 -0.024408124043222144 0 0.00040768977711765731 -0.023806825683722652 0 0.001124696359328922 -0.02566034356281658 0 0.00098118718264371234 -0.025907940862248811 0 0.0012894973891288031 -0.025832435201398295 0 0.0012166587405270401 -0.026053309131420864 0 0.00098118718264371234 -0.025907940862248811 0 0.0012894973891288031 -0.025832435201398295 0 0.0012894973891288031 -0.025832435201398295 0 0.0013834744177106458 -0.025605186529286127 0 0.0015447933593940625 -0.025801501997417275 0 0.001124696359328922 -0.02566034356281658 0 0.0012894973891288031 -0.025832435201398295 0 0.0013834744177106458 -0.025605186529286127 0 0.001124696359328922 -0.02566034356281658 0 0.0013834744177106458 -0.025605186529286127 0 0.0011490561720205431 -0.025405381979428956 0 0.0013834744177106458 -0.025605186529286127 0 0.0011490561720205431 -0.025405381979428956 0 0.0013750935403974789 -0.025356635888822424 0 0.0011490561720205431 -0.025405381979428956 0 0.0013750935403974789 -0.025356635888822424 0 0.0011465818601325724 -0.025153357141850678 0 0.0013750935403974789 -0.025356635888822424 0 0.0014104742270620821 -0.025119750775689072 0 0.0011465818601325724 -0.025153357141850678 0 0.0014104742270620821 -0.025119750775689072 0 0.0011465818601325724 -0.025153357141850678 0 0.0010817495923016009 -0.024915945499735592 0 0.0011465818601325724 -0.025153357141850678 0 0.0008976925755198481 -0.024966463858941808 0 0.00095547442001430111 -0.025166765789657569 0 0.0008976925755198481 -0.024966463858941808 0 0.0007198066573794506 -0.024856895993952056 0 0.00072739337345155755 -0.024832002185676428 0 0.0011465818601325724 -0.025153357141850678 0 0.0008976925755198481 -0.024966463858941808 0 0.0010817495923016009 -0.024915945499735592 0 0.0008976925755198481 -0.024966463858941808 0 0.00095547442001430111 -0.025166765789657569 0 0.0007198066573794506 -0.024856895993952056 0 0.0008163880748623955 -0.025512523279754513 0 0.0011490561720205431 -0.025405381979428956 0 0.00095547442001430111 -0.025166765789657569 0 0.0011490561720205431 -0.025405381979428956 0 0.0011465818601325724 -0.025153357141850678 0 0.00095547442001430111 -0.025166765789657569 0 0.0015675303848678723 -0.023449134578644223 0 0.000818130057067731 -0.023887218032311905 0 0.00076485900529513564 -0.024792382211612014 0 0.00015407792145761011 -0.023310094674155825 0 0.000818130057067731 -0.023887218032311905 0 0.0007198066573794506 -0.024856895993952056 0 0.0005124345241349675 -0.024408124043222144 0 0.00068069335042622527 -0.024823669827516232 0 0.0008163880748623955 -0.025512523279754513 0 0.00095547442001430111 -0.025166765789657569 0 0.0007198066573794506 -0.024856895993952056 0 0.0014017930599403651 -0.023072396636200147 0 0.0010497177577505872 -0.023576676313321762 0 0.0007198066573794506 -0.024856895993952056 0 0.00076485900529513564 -0.024792382211612014 0 0.00072739337345155755 -0.024832002185676428 0 0.000818130057067731 -0.023887218032311905 0 0.0007198066573794506 -0.024856895993952056 0 0.00076485900529513564 -0.024792382211612014 0 0.0021538695116121581 -0.021835392141312412 0 0.0020403419500719449 -0.021351973085867719 0 0.0018927357595971584 -0.022162493687236443 0 0.0020403419500719449 -0.021351973085867719 0 0.0024602771597145995 -0.021537480029707901 0 0.002425778364136186 -0.021255610657013715 0 0.0021538695116121581 -0.021835392141312412 0 0.0020403419500719449 -0.021351973085867719 0 0.0024602771597145995 -0.021537480029707901 0 0.0021538695116121581 -0.021835392141312412 0 0.0024602771597145995 -0.021537480029707901 0 0.0023115279335309481 -0.02197166793759767 0 0.0024602771597145995 -0.021537480029707901 0 0.0028806327097113775 -0.021500776018606556 0 0.0025264753638263434 -0.022056731819970081 0 0.0024602771597145995 -0.021537480029707901 0 0.0026554999847960962 -0.021207029850787578 0 0.0028806327097113775 -0.021500776018606556 0 0.0024602771597145995 -0.021537480029707901 0 0.002425778364136186 -0.021255610657013715 0 0.0026554999847960962 -0.021207029850787578 0 0.0025321139565175435 -0.020989717513149472 0 0.002425778364136186 -0.021255610657013715 0 0.0026554999847960962 -0.021207029850787578 0 0.0025321139565175435 -0.020989717513149472 0 0.0020403419500719449 -0.021351973085867719 0 0.002425778364136186 -0.021255610657013715 0 0.0020260737041171151 -0.022231707320634325 0 0.0014017930599403651 -0.023072396636200147 0 0.0019632983474567049 -0.025752253291158298 0 0.0020692132772580597 -0.025679848686744701 0 0.0021419514981329039 -0.025771769626781876 0 0.0019632983474567049 -0.025752253291158298 0 0.0019977235826634113 -0.025585334364690279 0 0.0018332144038478687 -0.025627254855689709 0 0.0019632983474567049 -0.025752253291158298 0 0.0019977235826634113 -0.025585334364690279 0 0.0020692132772580597 -0.025679848686744701 0 0.0019977235826634113 -0.025585334364690279 0 0.0020692132772580597 -0.025679848686744701 0 0.0021722564913786661 -0.025609947664835132 0 0.0020692132772580597 -0.025679848686744701 0 0.0021722564913786661 -0.025609947664835132 0 0.0021419514981329039 -0.025771769626781876 0 0.0021722564913786661 -0.025609947664835132 0 0.0021419514981329039 -0.025771769626781876 0 0.0023020355964792753 -0.025676132779789182 0 0.0021722564913786661 -0.025609947664835132 0 0.0022600933158428925 -0.025553229518212969 0 0.0023020355964792753 -0.025676132779789182 0 0.0021419514981329039 -0.025771769626781876 0 0.0023020355964792753 -0.025676132779789182 0 0.0023004482468106206 -0.025844694758251192 0 0.0021419514981329039 -0.025771769626781876 0 0.0021169361207812555 -0.025958244996101942 0 0.0020104660120303284 -0.025883081371860166 0 0.0021419514981329039 -0.025771769626781876 0 0.0021169361207812555 -0.025958244996101942 0 0.0023004482468106206 -0.025844694758251192 0 0.0021169361207812555 -0.025958244996101942 0 0.0022889154236126158 -0.025986965184523196 0 0.0023004482468106206 -0.025844694758251192 0 0.0019695346420165274 -0.026001407373843589 0 0.0021169361207812555 -0.025958244996101942 0 0.0020104660120303284 -0.025883081371860166 0 0.0019632983474567049 -0.025752253291158298 0 0.0021419514981329039 -0.025771769626781876 0 0.0020104660120303284 -0.025883081371860166 0 0.0019632983474567049 -0.025752253291158298 0 0.0020104660120303284 -0.025883081371860166 0 0.0018538768750246122 -0.025928412874197688 0 0.0019695346420165274 -0.026001407373843589 0 0.0020104660120303284 -0.025883081371860166 0 0.0018538768750246122 -0.025928412874197688 0 0.0018538768750246122 -0.025928412874197688 0 0.0016705763584694937 -0.025930059093797544 0 0.0017739347984696507 -0.025780500528432785 0 0.0016705763584694937 -0.025930059093797544 0 0.0017739347984696507 -0.025780500528432785 0 0.0015447933593940625 -0.025801501997417275 0 0.0019632983474567049 -0.025752253291158298 0 0.0018538768750246122 -0.025928412874197688 0 0.0017739347984696507 -0.025780500528432785 0 0.0014657484571680085 -0.02597913790873424 0 0.0012894973891288031 -0.025832435201398295 0 0.0015447933593940625 -0.025801501997417275 0 0.0014657484571680085 -0.02597913790873424 0 0.0016705763584694937 -0.025930059093797544 0 0.0015447933593940625 -0.025801501997417275 0 0.0013834744177106458 -0.025605186529286127 0 0.0015447933593940625 -0.025801501997417275 0 0.0016313865574344728 -0.025645670997365016 0 0.0017739347984696507 -0.025780500528432785 0 0.0015447933593940625 -0.025801501997417275 0 0.0016313865574344728 -0.025645670997365016 0 0.0016313865574344728 -0.025645670997365016 0 0.0017058470905629958 -0.025524299418769915 0 0.0015430986869022912 -0.02550166732407021 0 0.0013834744177106458 -0.025605186529286127 0 0.0016313865574344728 -0.025645670997365016 0 0.0015430986869022912 -0.02550166732407021 0 0.0019632983474567049 -0.025752253291158298 0 0.0017739347984696507 -0.025780500528432785 0 0.0018332144038478687 -0.025627254855689709 0 0.0017739347984696507 -0.025780500528432785 0 0.0016313865574344728 -0.025645670997365016 0 0.0018332144038478687 -0.025627254855689709 0 0.0016313865574344728 -0.025645670997365016 0 0.0018332144038478687 -0.025627254855689709 0 0.0017058470905629958 -0.025524299418769915 0 0.0017058470905629958 -0.025524299418769915 0 0.0018802313602649108 -0.025448231836715258 0 0.0016048883659817413 -0.025364047248561696 0 0.0018802313602649108 -0.025448231836715258 0 0.0016048883659817413 -0.025364047248561696 0 0.0016932535033651805 -0.025181539595340897 0 0.0019977235826634113 -0.025585334364690279 0 0.0018332144038478687 -0.025627254855689709 0 0.0018802313602649108 -0.025448231836715258 0 0.0018332144038478687 -0.025627254855689709 0 0.0017058470905629958 -0.025524299418769915 0 0.0018802313602649108 -0.025448231836715258 0 0.0013834744177106458 -0.025605186529286127 0 0.0013750935403974789 -0.025356635888822424 0 0.0015430986869022912 -0.02550166732407021 0 0.0013750935403974789 -0.025356635888822424 0 0.0015430986869022912 -0.02550166732407021 0 0.0016048883659817413 -0.025364047248561696 0 0.0017058470905629958 -0.025524299418769915 0 0.0015430986869022912 -0.02550166732407021 0 0.0016048883659817413 -0.025364047248561696 0 0.0013750935403974789 -0.025356635888822424 0 0.0014104742270620821 -0.025119750775689072 0 0.0016048883659817413 -0.025364047248561696 0 0.0014104742270620821 -0.025119750775689072 0 0.0016048883659817413 -0.025364047248561696 0 0.0016932535033651805 -0.025181539595340897 0 0.0014104742270620821 -0.025119750775689072 0 0.0016932535033651805 -0.025181539595340897 0 0.0015610130139332963 -0.024980008164286208 0 0.0018802313602649108 -0.025448231836715258 0 0.0016932535033651805 -0.025181539595340897 0 0.0019257047599694948 -0.025215749944428864 0 0.0018802313602649108 -0.025448231836715258 0 0.0019257047599694948 -0.025215749944428864 0 0.0020306717830591461 -0.025357870257830834 0 0.0016932535033651805 -0.025181539595340897 0 0.0019257047599694948 -0.025215749944428864 0 0.0017630555938093497 -0.024946210796911249 0 0.0019257047599694948 -0.025215749944428864 0 0.0021369239584215992 -0.025265989598028706 0 0.0020306717830591461 -0.025357870257830834 0 0.0019257047599694948 -0.025215749944428864 0 0.0021369239584215992 -0.025265989598028706 0 0.0020378589120550266 -0.025088227841044825 0 0.0021369239584215992 -0.025265989598028706 0 0.0023239915621392207 -0.025346153155545531 0 0.0022521659550265548 -0.025188785438155368 0 0.0021369239584215992 -0.025265989598028706 0 0.0021734683839104985 -0.025402625614786366 0 0.0023239915621392207 -0.025346153155545531 0 0.0021369239584215992 -0.025265989598028706 0 0.0021734683839104985 -0.025402625614786366 0 0.0020306717830591461 -0.025357870257830834 0 0.0021734683839104985 -0.025402625614786366 0 0.0020306717830591461 -0.025357870257830834 0 0.002032718828786504 -0.025466044219679598 0 0.0018802313602649108 -0.025448231836715258 0 0.0020306717830591461 -0.025357870257830834 0 0.002032718828786504 -0.025466044219679598 0 0.0021734683839104985 -0.025402625614786366 0 0.002032718828786504 -0.025466044219679598 0 0.0021195373842787203 -0.02550951098038777 0 0.0019977235826634113 -0.025585334364690279 0 0.0021722564913786661 -0.025609947664835132 0 0.0021195373842787203 -0.02550951098038777 0 0.0019977235826634113 -0.025585334364690279 0 0.002032718828786504 -0.025466044219679598 0 0.0021195373842787203 -0.02550951098038777 0 0.0019977235826634113 -0.025585334364690279 0 0.0018802313602649108 -0.025448231836715258 0 0.002032718828786504 -0.025466044219679598 0 0.0022600933158428925 -0.025553229518212969 0 0.002320795605313437 -0.025475506863200641 0 0.0023020355964792753 -0.025676132779789182 0 0.0021722564913786661 -0.025609947664835132 0 0.0021195373842787203 -0.02550951098038777 0 0.002247673956582034 -0.025467787495834695 0 0.0021722564913786661 -0.025609947664835132 0 0.0022600933158428925 -0.025553229518212969 0 0.002247673956582034 -0.025467787495834695 0 0.0021734683839104985 -0.025402625614786366 0 0.0021195373842787203 -0.02550951098038777 0 0.002247673956582034 -0.025467787495834695 0 0.0023810736006024923 -0.025872846636817777 0 0.0017516254113587176 -0.026840421047576394 0 0.002247673956582034 -0.025467787495834695 0 0.0023874818633056322 -0.025438083963245178 0 0.0024203922222015327 -0.025488063216947614 0 0.0022600933158428925 -0.025553229518212969 0 0.002247673956582034 -0.025467787495834695 0 0.002320795605313437 -0.025475506863200641 0 0.0023874818633056322 -0.025438083963245178 0 0.0022931981183165794 -0.025410362781550622 0 0.0023239915621392207 -0.025346153155545531 0 0.0023874818633056322 -0.025438083963245178 0 0.0023239915621392207 -0.025346153155545531 0 0.0024610850306191071 -0.025331078996590931 0 0.002247673956582034 -0.025467787495834695 0 0.0023874818633056322 -0.025438083963245178 0 0.0022931981183165794 -0.025410362781550622 0 0.0021734683839104985 -0.025402625614786366 0 0.0022931981183165794 -0.025410362781550622 0 0.0023239915621392207 -0.025346153155545531 0 0.0021734683839104985 -0.025402625614786366 0 0.002247673956582034 -0.025467787495834695 0 0.0022931981183165794 -0.025410362781550622 0 0.0023874818633056322 -0.025438083963245178 0 0.0024358408052738132 -0.025469136760259716 0 0.0024610850306191071 -0.025331078996590931 0 0.002493070063524022 -0.025627262726287198 0 0.0025467395053701482 -0.025454943788700012 0 0.0024610850306191071 -0.025331078996590931 0 0.0013007798486980695 -0.028794706618959005 0 0.0025741858532388052 -0.024167337589093039 0 0.0025670181796060361 -0.025530324308847815 0 0.002493070063524022 -0.025627262726287198 0 0.0026440321098845821 -0.025646212504910615 0 0.0025670181796060361 -0.025530324308847815 0 0.002493070063524022 -0.025627262726287198 0 0.0025467395053701482 -0.025454943788700012 0 0.0025670181796060361 -0.025530324308847815 0 0.0026440321098845821 -0.025646212504910615 0 0.0025483631348383801 -0.025441483779293506 0 0.0013007798486980695 -0.028794706618959005 0 0.0012541493035551374 -0.031916391698136891 0 0.0013007798486980695 -0.028794706618959005 0 0.00097848653640575877 -0.032799382466081231 0 1.5814424879617615e-05 -0.034487791626198958 0 0.00014656110786914463 -0.034750151766681933 0 0.00020550339375703016 -0.034542443298861372 0 0.0017516254113587176 -0.026840421047576394 0 0.0019203891077798701 -0.027708700272644344 0 0.00064672493552393533 -0.028744364814655254 0 0.0011019855925318959 -0.028756492039042032 0 0.0012997912656068154 -0.029693515423661998 0 0.0017516254113587176 -0.026840421047576394 0 0.0013007798486980695 -0.028794706618959005 0 0.0023874818633056322 -0.025438083963245178 0 0.0023941126368722233 -0.025455928589907983 0 0.0024358408052738132 -0.025469136760259716 0 0.0017109491258613381 -0.026476069207989613 0 0.0017516254113587176 -0.026840421047576394 0 0.0023020355964792753 -0.025676132779789182 0 0.0025029511356498163 -0.025749632632542676 0 0.0023004482468106206 -0.025844694758251192 0 0.002320795605313437 -0.025475506863200641 0 0.0023020355964792753 -0.025676132779789182 0 0.0025029511356498163 -0.025749632632542676 0 0.0011019855925318959 -0.028756492039042032 0 0.0012997912656068154 -0.029693515423661998 0 0.0016190397400197335 -0.029683305800654914 0 0.0012997912656068154 -0.029693515423661998 0 0.0016190397400197335 -0.029683305800654914 0 0.0019368963227227539 -0.030610929139858137 0 0.0025029511356498163 -0.025749632632542676 0 0.0024470030718007699 -0.025944719262710206 0 0.0027212847009792296 -0.026076888716497135 0 0.0019203891077798701 -0.027708700272644344 0 0.0019297128612883008 -0.028710125764789703 0 0.0025029511356498163 -0.025749632632542676 0 0.0024470030718007699 -0.025944719262710206 0 0.0023004482468106206 -0.025844694758251192 0 0.0024470030718007699 -0.025944719262710206 0 0.0022889154236126158 -0.025986965184523196 0 0.0023004482468106206 -0.025844694758251192 0 -1.0668486271297795e-05 -0.03520601150214106 0 0.00059978467278620404 -0.032342026839267943 0 0.00017303692240435261 -0.034754630315928597 0 0.00013822786600183355 -0.034793869460469667 0 0.00011920434473308308 -0.034765236253333873 0 0.00017303692240435261 -0.034754630315928597 0 0.00011920434473308308 -0.034765236253333873 0 0.00017776868986304586 -0.034729545143092289 0 0.00097848653640575877 -0.032799382466081231 0 0.00059978467278620404 -0.032342026839267943 0 0.00014656110786914463 -0.034750151766681933 0 0.00017303692240435261 -0.034754630315928597 0 0.00017776868986304586 -0.034729545143092289 0 0.0016190397400197335 -0.029683305800654914 0 0.0019368963227227539 -0.030610929139858137 0 0.00212380709215497 -0.030577468693115138 0 0.00014656110786914463 -0.034750151766681933 0 0.00017303692240435261 -0.034754630315928597 0 0.00020320488433068747 -0.034717775887744724 0 0.00017303692240435261 -0.034754630315928597 0 0.00020320488433068747 -0.034717775887744724 0 0.00013822786600183355 -0.034793869460469667 0 0.00020320488433068747 -0.034717775887744724 0 0.00013822786600183355 -0.034793869460469667 0 0.00014233056211677527 -0.034829860847517047 0 0.00014656110786914463 -0.034750151766681933 0 0.00020320488433068747 -0.034717775887744724 0 0.00020550339375703016 -0.034542443298861372 0 -0.00010243137957225696 -0.034980368485605498 0 0.0012541493035551374 -0.031916391698136891 0 0.00020320488433068747 -0.034717775887744724 0 0.00014233056211677527 -0.034829860847517047 0 0.00022597703220566357 -0.034791713941075553 0 0.00041652055758955469 -0.035457940339671257 0 0.0012541493035551374 -0.031916391698136891 0 0.0012541493035551374 -0.031916391698136891 0 0.0013305430635464637 -0.029899860911132649 0 9.225505316941664e-05 -0.034821156530898317 0 0.00010822182805876769 -0.034783596036304654 0 9.935204557942151e-05 -0.034804042941100809 0 0.00010822182805876769 -0.034783596036304654 0 9.935204557942151e-05 -0.034804042941100809 0 0.00010576346171744766 -0.034777045775093211 0 9.225505316941664e-05 -0.034821156530898317 0 9.935204557942151e-05 -0.034804042941100809 0 9.0750576045659507e-05 -0.034830427079208436 0 9.225505316941664e-05 -0.034821156530898317 0 7.5130207838922078e-05 -0.034868603401507561 0 8.0069860393659878e-05 -0.034872036842968877 0 9.225505316941664e-05 -0.034821156530898317 0 7.5130207838922078e-05 -0.034868603401507561 0 9.0750576045659507e-05 -0.034830427079208436 0 7.5130207838922078e-05 -0.034868603401507561 0 8.0069860393659878e-05 -0.034872036842968877 0 4.3801761437947352e-05 -0.034928493623407775 0 8.0069860393659878e-05 -0.034872036842968877 0 3.8168016586312921e-05 -0.034917910664289883 0 8.2419565460149595e-05 -0.034844179901684869 0 8.0069860393659878e-05 -0.034872036842968877 0 4.3801761437947352e-05 -0.034928493623407775 0 3.8168016586312921e-05 -0.034917910664289883 0 0.00013822786600183355 -0.034793869460469667 0 0.00014233056211677527 -0.034829860847517047 0 8.0069860393659878e-05 -0.034872036842968877 0 -0.00010243137957225696 -0.034980368485605498 0 0.00016668501608884387 -0.034843492064635419 0 4.3801761437947352e-05 -0.034928493623407775 0 1.7358982742857415e-08 -0.034999950949554617 0 5.0420152131598294e-08 -0.034999888072198698 0 4.3801761437947352e-05 -0.034928493623407775 0 3.8168016586312921e-05 -0.034917910664289883 0 1.7358982742857415e-08 -0.034999950949554617 0 3.8168016586312921e-05 -0.034917910664289883 0 1.7358982742857415e-08 -0.034999950949554617 0 -3.8650486807979765e-09 -0.034999779278782006 0 3.8168016586312921e-05 -0.034917910664289883 0 4.4308277142000596e-05 -0.034861075412556224 0 -3.8650486807979765e-09 -0.034999779278782006 0 -2.0340907577595934e-11 -0.035000036475593306 0 4.1838497912421747e-10 -0.03499989660729242 0 1.01665490068769e-05 -0.034982669150511132 0 7.8793391043873527e-05 -0.034873877951601399 0 -4.447129383725278e-08 -0.035000010092115702 0 3.2514912340387707e-05 -0.034987065139593647 0 -2.0340907577595934e-11 -0.035000036475593306 0 1.01665490068769e-05 -0.034982669150511132 0 0.00013822786600183355 -0.034793869460469667 0 8.2419565460149595e-05 -0.034844179901684869 0 0.00011920434473308308 -0.034765236253333873 0 0.00013822786600183355 -0.034793869460469667 0 8.0069860393659878e-05 -0.034872036842968877 0 8.2419565460149595e-05 -0.034844179901684869 0 3.8168016586312921e-05 -0.034917910664289883 0 4.4308277142000596e-05 -0.034861075412556224 0 8.2419565460149595e-05 -0.034844179901684869 0 7.8793391043873527e-05 -0.034873877951601399 0 -1.0668486271297795e-05 -0.03520601150214106 0 3.2514912340387707e-05 -0.034987065139593647 0 0.00012257270453077415 -0.034944342642770541 0 6.7450867402159444e-05 -0.034935157641608205 0 4.4308277142000596e-05 -0.034861075412556224 0 8.2419565460149595e-05 -0.034844179901684869 0 0.00011920434473308308 -0.034765236253333873 0 0.00012257270453077415 -0.034944342642770541 0 6.7450867402159444e-05 -0.034935157641608205 0 9.918077328899929e-05 -0.03487406898121486 0 0.00012257270453077415 -0.034944342642770541 0 9.918077328899929e-05 -0.03487406898121486 0 0.00019556519995081556 -0.034821069293041768 0 6.7450867402159444e-05 -0.034935157641608205 0 9.918077328899929e-05 -0.03487406898121486 0 2.6636911586838997e-05 -0.034935895001454761 0 0.00023023593343994542 -0.035248396733164426 0 9.5500553545104872e-05 -0.034913683315600672 0 0.00025775004331859394 -0.03484495232814426 0 0.00037998759722943629 -0.034904868801839975 0 0.00014543974896523082 -0.034968265761591906 0 0.00025775004331859394 -0.03484495232814426 0 0.00037998759722943629 -0.034904868801839975 0 0.00037027374151500788 -0.034730399435447055 0 0.00023023593343994542 -0.035248396733164426 0 0.00026567121623647939 -0.031387710524730016 0 0.00037998759722943629 -0.034904868801839975 0 0.00037027374151500788 -0.034730399435447055 0 0.00052998581925857034 -0.034725270712192349 0 4.1838497912421747e-10 -0.03499989660729242 0 1.01665490068769e-05 -0.034982669150511132 0 2.6636911586838997e-05 -0.034935895001454761 0 1.011648724545076e-08 -0.034999999026221459 0 9.5500553545104872e-05 -0.034913683315600672 0 3.2514912340387707e-05 -0.034987065139593647 0 6.7450867402159444e-05 -0.034935157641608205 0 2.6636911586838997e-05 -0.034935895001454761 0 3.2514912340387707e-05 -0.034987065139593647 0 1.01665490068769e-05 -0.034982669150511132 0 2.6636911586838997e-05 -0.034935895001454761 0 0.00025775004331859394 -0.03484495232814426 0 7.6832547364139717e-05 -0.034884845623042449 0 0.00024308489468370171 -0.034710302886832252 0 0.00025775004331859394 -0.03484495232814426 0 0.00014543974896523082 -0.034968265761591906 0 7.6832547364139717e-05 -0.034884845623042449 0 -7.6082655633101455e-09 -0.035000346709411018 0 7.6832547364139717e-05 -0.034884845623042449 0 -5.2114348146827607e-08 -0.034999472991407078 0 -7.6082655633101455e-09 -0.035000346709411018 0 0.00014543974896523082 -0.034968265761591906 0 7.6832547364139717e-05 -0.034884845623042449 0 7.6832547364139717e-05 -0.034884845623042449 0 -5.2114348146827607e-08 -0.034999472991407078 0 -8.1115742394673803e-07 -0.034700458205967497 0 2.2870071953426611e-10 -0.035000007081019975 0 8.5578845375909225e-07 -0.034999625762829133 0 6.0897031444603236e-10 -0.03499998451268127 0 -1.6403894240444032e-08 -0.034999961580959638 0 1.6726857780486911e-05 -0.034822822646369454 0 7.6832547364139717e-05 -0.034884845623042449 0 0.0001293844702529978 -0.034635327986739003 0 0.00024308489468370171 -0.034710302886832252 0 7.6832547364139717e-05 -0.034884845623042449 0 -8.1115742394673803e-07 -0.034700458205967497 0 0.0001293844702529978 -0.034635327986739003 0 0.0001293844702529978 -0.034635327986739003 0 0.00024308489468370171 -0.034710302886832252 0 0.00022193930077502697 -0.034548489660865184 0 8.3381030193016646e-05 -0.034432628573015635 0 0.0001293844702529978 -0.034635327986739003 0 0.00022193930077502697 -0.034548489660865184 0 8.3381030193016646e-05 -0.034432628573015635 0 -8.1115742394673803e-07 -0.034700458205967497 0 0.0001293844702529978 -0.034635327986739003 0 0.00021557418401710603 -0.034402511674287074 0 8.3381030193016646e-05 -0.034432628573015635 0 0.00022193930077502697 -0.034548489660865184 0 2.6375907145985786e-06 -0.034996501457891134 0 8.5578845375909225e-07 -0.034999625762829133 0 6.0897031444603236e-10 -0.03499998451268127 0 2.4585342164331803e-05 -0.034842721127363974 0 1.6726857780486911e-05 -0.034822822646369454 0 0.00046115476602269685 -0.034591763345108523 0 0.00037027374151500788 -0.034730399435447055 0 0.00052998581925857034 -0.034725270712192349 0 0.00046115476602269685 -0.034591763345108523 0 0.00037027374151500788 -0.034730399435447055 0 0.00033610372515677347 -0.03458968927120247 0 -0.00016167904686218527 -0.028809527917104307 0 -0.00075494383449865778 -0.025476138257339607 0 -0.00016167904686218527 -0.028809527917104307 0 0.00058471926645346816 -0.032244864610850889 0 0.00025775004331859394 -0.03484495232814426 0 0.00037027374151500788 -0.034730399435447055 0 0.00024308489468370171 -0.034710302886832252 0 0.00037027374151500788 -0.034730399435447055 0 0.00024308489468370171 -0.034710302886832252 0 0.00033610372515677347 -0.03458968927120247 0 0.00033610372515677347 -0.03458968927120247 0 0.00022193930077502697 -0.034548489660865184 0 0.00029257551975834118 -0.034475604547623787 0 0.00024308489468370171 -0.034710302886832252 0 0.00033610372515677347 -0.03458968927120247 0 0.00022193930077502697 -0.034548489660865184 0 0.00021557418401710603 -0.034402511674287074 0 0.00022193930077502697 -0.034548489660865184 0 0.00029257551975834118 -0.034475604547623787 0 0.00029960973600789092 -0.034363422477857938 0 0.00029257551975834118 -0.034475604547623787 0 0.0003838646770619674 -0.034459942035500783 0 0.00033610372515677347 -0.03458968927120247 0 0.00029257551975834118 -0.034475604547623787 0 0.0003838646770619674 -0.034459942035500783 0 -0.00037403959316837314 -0.023574653691164932 0 -0.00071319840757066381 -0.023627158460922885 0 -0.00061345128156483351 -0.023254017381291042 0 -0.00019401432993276424 -0.029333552358311421 0 -0.00040148818283143741 -0.0290521052477851 0 -0.00022625795415691653 -0.029250177943917304 0 -0.0005572654838930627 -0.0255916764217533 0 -0.00016167904686218527 -0.028809527917104307 0 0.00046115476602269685 -0.034591763345108523 0 0.00033610372515677347 -0.03458968927120247 0 0.0003838646770619674 -0.034459942035500783 0 -0.00016167904686218527 -0.028809527917104307 0 0.00029895130210516986 -0.032122000476132298 0 -0.00071319840757066381 -0.023627158460922885 0 -0.00061345128156483351 -0.023254017381291042 0 -0.00093556120575700996 -0.023364823901874322 0 -0.00061345128156483351 -0.023254017381291042 0 -0.0009095215948554617 -0.023177884327945278 0 -0.00093556120575700996 -0.023364823901874322 0 -0.00061345128156483351 -0.023254017381291042 0 -0.0009095215948554617 -0.023177884327945278 0 -0.00078470085024820294 -0.023084178808313396 0 -0.0009095215948554617 -0.023177884327945278 0 -0.00078470085024820294 -0.023084178808313396 0 -0.0010219465498522921 -0.02307491695325907 0 -6.4449289792853918e-05 -0.028631271679848049 0 6.0394404894339443e-05 -0.028942623371242926 0 9.3043095109190011e-05 -0.028938725005205012 0 -0.0010219465498522921 -0.02307491695325907 0 -0.0010854978534606712 -0.023171363510289061 0 -0.0011787797026995186 -0.023085428194689048 0 -0.0009095215948554617 -0.023177884327945278 0 -0.0010219465498522921 -0.02307491695325907 0 -0.0010854978534606712 -0.023171363510289061 0 -0.0010854978534606712 -0.023171363510289061 0 -0.00093556120575700996 -0.023364823901874322 0 -0.0011671154489333372 -0.023341392437769403 0 -0.0009095215948554617 -0.023177884327945278 0 -0.0010854978534606712 -0.023171363510289061 0 -0.00093556120575700996 -0.023364823901874322 0 -0.0010854978534606712 -0.023171363510289061 0 -0.0011671154489333372 -0.023341392437769403 0 -0.0012665595978749379 -0.023137788955460196 0 -0.0013200903080940578 -0.023239176757411429 0 -0.0011671154489333372 -0.023341392437769403 0 -0.0012665595978749379 -0.023137788955460196 0 -0.0013189764990207979 -0.02308096502133971 0 -0.001280510571585199 -0.023038889635236103 0 -0.0012665595978749379 -0.023137788955460196 0 -0.0013200903080940578 -0.023239176757411429 0 -0.0013189764990207979 -0.02308096502133971 0 -0.0012665595978749379 -0.023137788955460196 0 -0.001280510571585199 -0.023038889635236103 0 -0.0012665595978749379 -0.023137788955460196 0 -0.0012504800661081289 -0.023063142034236178 0 -0.001280510571585199 -0.023038889635236103 0 -0.0012694999403066321 -0.023059274533573846 0 -0.0012504800661081289 -0.023063142034236178 0 -0.0010854978534606712 -0.023171363510289061 0 -0.0012665595978749379 -0.023137788955460196 0 -0.0011787797026995186 -0.023085428194689048 0 -0.0012665595978749379 -0.023137788955460196 0 -0.0012504800661081289 -0.023063142034236178 0 -0.0011787797026995186 -0.023085428194689048 0 -0.0010219465498522921 -0.02307491695325907 0 -0.0011787797026995186 -0.023085428194689048 0 -0.0011876195514102759 -0.022997149262337705 0 -0.0012504800661081289 -0.023063142034236178 0 -0.0011787797026995186 -0.023085428194689048 0 -0.0011876195514102759 -0.022997149262337705 0 0.0021321406589314197 -0.026159191007828455 0 0.0018451370772755366 -0.026091298966521591 0 0.0020269637480395913 -0.026178206615678268 0 0.00040369206620547549 -0.02465672239677974 0 0.00037951280929377336 -0.024156530646954708 0 -0.0012694999403066321 -0.023059274533573846 0 -0.0012504800661081289 -0.023063142034236178 0 -0.0011876195514102759 -0.022997149262337705 0 0.0021451490461974884 -0.026154984756545954 0 0.0022889154236126158 -0.025986965184523196 0 0.0024603889479060158 -0.026110879509723579 0 0.0021451490461974884 -0.026154984756545954 0 0.0020269637480395913 -0.026178206615678268 0 0.0019344224096180182 -0.026305690824982873 0 0.0020952485982464347 -0.026200213279538316 0 0.0023049075618556403 -0.026031218696580118 0 0.0018451370772755366 -0.026091298966521591 0 0.0020269637480395913 -0.026178206615678268 0 0.0019344224096180182 -0.026305690824982873 0 0.0024470030718007699 -0.025944719262710206 0 0.0022889154236126158 -0.025986965184523196 0 0.0024603889479060158 -0.026110879509723579 0 0.0024470030718007699 -0.025944719262710206 0 0.0024603889479060158 -0.026110879509723579 0 0.0027212847009792296 -0.026076888716497135 0 0.0018451370772755366 -0.026091298966521591 0 0.0019344224096180182 -0.026305690824982873 0 0.0015989765424953835 -0.026412378011336966 0 0.0023049075618556403 -0.026031218696580118 0 0.0019297128612883008 -0.028710125764789703 0 0.0019297128612883008 -0.028710125764789703 0 0.00017256176133610663 -0.027879230964248214 0 0.00059978467278620404 -0.032342026839267943 0 0.00026567121623647939 -0.031387710524730016 0 0.00078820123754973724 -0.030343266572715799 0 0.0005518996022480867 -0.029746136173308662 0 0.00043368744680492719 -0.02975991774054014 0 0.00096618284346882365 -0.030303894130339015 0 0.00078820123754973724 -0.030343266572715799 0 0.0005518996022480867 -0.029746136173308662 0 0.0018451370772755366 -0.026091298966521591 0 0.0015989765424953835 -0.026412378011336966 0 0.0013880140629254022 -0.026147566888057208 0 0.0019297128612883008 -0.028710125764789703 0 0.00059978467278620404 -0.032342026839267943 0 0.00012257270453077415 -0.034944342642770541 0 0.00023870859631023428 -0.034880681841456276 0 0.00019556519995081556 -0.034821069293041768 0 -0.00078470085024820294 -0.023084178808313396 0 -0.0010219465498522921 -0.02307491695325907 0 -0.0009133933345621888 -0.022956076787904216 0 0.00037998759722943629 -0.034904868801839975 0 0.00052998581925857034 -0.034725270712192349 0 0.00059932317913668554 -0.034835216662946394 0 0.00017256176133610663 -0.027879230964248214 0 0.00026567121623647939 -0.031387710524730016 0 6.0394404894339443e-05 -0.028942623371242926 0 9.3043095109190011e-05 -0.028938725005205012 0 0.00021386529880844794 -0.029238044846998264 0 0.00058471926645346816 -0.032244864610850889 0 0.00026567121623647939 -0.031387710524730016 0 9.3043095109190011e-05 -0.028938725005205012 0 0.00028121080092285804 -0.029229630025648028 0 0.00021386529880844794 -0.029238044846998264 0 -0.00075494383449865778 -0.025476138257339607 0 0.00017256176133610663 -0.027879230964248214 0 0.00037951280929377336 -0.024156530646954708 0 0.00017256176133610663 -0.027879230964248214 0 -0.0010219465498522921 -0.02307491695325907 0 -0.0011876195514102759 -0.022997149262337705 0 -0.0009133933345621888 -0.022956076787904216 0 0.0050842811805756425 -0.019450746276234623 0 0.0051785765274069365 -0.020074967628821803 0 0.0046907623714998892 -0.01988171190257414 0 0.0050842811805756425 -0.019450746276234623 0 0.0052042882822881222 -0.019388275865827642 0 0.0051117839204434098 -0.019440619355769087 0 0.0053060032757382579 -0.020993824841033865 0 0.0052035322012775869 -0.015274105534353889 0 0.0050842811805756425 -0.019450746276234623 0 0.0047496471753624104 -0.019541306219567657 0 0.0048164655438718146 -0.019280212199744275 0 0.0050842811805756425 -0.019450746276234623 0 0.0048164655438718146 -0.019280212199744275 0 0.005152826027273274 -0.019310504365274365 0 0.0050842811805756425 -0.019450746276234623 0 0.0052042882822881222 -0.019388275865827642 0 0.005152826027273274 -0.019310504365274365 0 0.004820741676811454 -0.012547500582806242 0 0.0038456979450347665 -0.016766408131635741 0 0.0031633877444650765 -0.013350187702914601 0 0.0022217722417608747 -0.013442229105150931 0 0.0022191722066526882 -0.013404029769295573 0 0.0031633877444650765 -0.013350187702914601 0 0.0022191722066526882 -0.013404029769295573 0 0.0031603268714813196 -0.01246307090585453 0 0.004820741676811454 -0.012547500582806242 0 0.0052035322012775869 -0.015274105534353889 0 0.005109818503797655 -0.0080979612434958805 0 0.0055454718727337253 -0.0078372176203413864 0 0.0051162528071065265 -0.0076170788963439455 0 0.0052035322012775869 -0.015274105534353889 0 0.0053186082495221111 -0.016200045103904596 0 0.0051785765274069365 -0.020074967628821803 0 0.0046907623714998892 -0.01988171190257414 0 0.0045676175890172451 -0.02050429346992997 0 0.0046907623714998892 -0.01988171190257414 0 0.0042663399062468311 -0.019912233394258658 0 0.0045676175890172451 -0.02050429346992997 0 0.0053186082495221111 -0.016200045103904596 0 0.0037146829653147057 -0.021276300666030746 0 0.0038012418016291024 -0.019950537926386094 0 0.0037371298873287904 -0.01991031795651475 0 0.0038296612732126637 -0.020007201242247721 0 0.0042663399062468311 -0.019912233394258658 0 0.0045676175890172451 -0.02050429346992997 0 0.0038296612732126637 -0.020007201242247721 0 0.0038012418016291024 -0.019950537926386094 0 0.0038296612732126637 -0.020007201242247721 0 0.0038203440636341429 -0.020029724175944789 0 0.0042663399062468311 -0.019912233394258658 0 0.0039581769336399951 -0.019652589184593765 0 0.0038296612732126637 -0.020007201242247721 0 0.0042663399062468311 -0.019912233394258658 0 0.0039581769336399951 -0.019652589184593765 0 0.0043864847803782893 -0.019557525558470776 0 0.0039581769336399951 -0.019652589184593765 0 0.0043864847803782893 -0.019557525558470776 0 0.0042875062725668536 -0.019153883637208678 0 0.0046907623714998892 -0.01988171190257414 0 0.0043864847803782893 -0.019557525558470776 0 0.0047496471753624104 -0.019541306219567657 0 0.0050842811805756425 -0.019450746276234623 0 0.0046907623714998892 -0.01988171190257414 0 0.0047496471753624104 -0.019541306219567657 0 0.0046907623714998892 -0.01988171190257414 0 0.0042663399062468311 -0.019912233394258658 0 0.0043864847803782893 -0.019557525558470776 0 0.0043864847803782893 -0.019557525558470776 0 0.0047496471753624104 -0.019541306219567657 0 0.0048164655438718146 -0.019280212199744275 0 0.0043864847803782893 -0.019557525558470776 0 0.0048164655438718146 -0.019280212199744275 0 0.0042875062725668536 -0.019153883637208678 0 0.0048164655438718146 -0.019280212199744275 0 0.0048159710872154541 -0.018841334029339959 0 0.0042875062725668536 -0.019153883637208678 0 0.0042875062725668536 -0.019153883637208678 0 0.0040490217702928797 -0.018046546611900371 0 0.0037562161072431256 -0.019275296458447458 0 0.0039581769336399951 -0.019652589184593765 0 0.0042875062725668536 -0.019153883637208678 0 0.0037562161072431256 -0.019275296458447458 0 0.0040868798634280772 -0.017293679104415663 0 0.0040936617209804136 -0.017869971428382727 0 0.0037151759341210793 -0.015968956177446991 0 0.0040490217702928797 -0.018046546611900371 0 0.0033265563860269019 -0.017503171407059336 0 0.0048159710872154541 -0.018841334029339959 0 0.0042875062725668536 -0.019153883637208678 0 0.0040490217702928797 -0.018046546611900371 0 0.0037151759341210793 -0.015968956177446991 0 0.0023392709114484146 -0.015968604734118385 0 0.0033265563860269019 -0.017503171407059336 0 0.0037151759341210793 -0.015968956177446991 0 0.0023392709114484146 -0.015968604734118385 0 0.0022217722417608747 -0.013442229105150931 0 0.0023392709114484146 -0.015968604734118385 0 0.0022217722417608747 -0.013442229105150931 0 0.0022191722066526882 -0.013404029769295573 0 0.0048164655438718146 -0.019280212199744275 0 0.0048159710872154541 -0.018841334029339959 0 0.005152826027273274 -0.019310504365274365 0 0.0040868798634280772 -0.017293679104415663 0 0.0038456979450347665 -0.016766408131635741 0 0.0022191722066526882 -0.013404029769295573 0 0.0031603268714813196 -0.01246307090585453 0 0.0034000033416218553 -0.010868996506515379 0 0.0023640367828921273 -0.013244251787542478 0 0.0019367695127005542 -0.013383184894687882 0 0.0023392709114484146 -0.015968604734118385 0 0.0022191722066526882 -0.013404029769295573 0 0.00081349275744375948 -0.015745118714484519 0 0.0023392709114484146 -0.015968604734118385 0 0.00081349275744375948 -0.015745118714484519 0 0.0019252943892691186 -0.018016504690744981 0 0.0034000033416218553 -0.010868996506515379 0 0.0042164712245921767 -0.010902485657893994 0 0.0044909443574989542 -0.010262594041920087 0 0.0019367695127005542 -0.013383184894687882 0 0.0034731487687830178 -0.013807189291906316 0 0.0047316448671768417 -0.010341965476997089 0 0.0042164712245921767 -0.010902485657893994 0 0.0044909443574989542 -0.010262594041920087 0 0.0047316448671768417 -0.010341965476997089 0 0.004344091408021976 -0.010257643350496632 0 0.0044909443574989542 -0.010262594041920087 0 0.0058324760335142873 -0.0092653012337849689 0 0.0034731487687830178 -0.013807189291906316 0 0.0047316448671768417 -0.010341965476997089 0 0.0055506584388526313 -0.0094554607500768328 0 0.004648928822742618 -0.0089644131736477013 0 0.0047316448671768417 -0.010341965476997089 0 0.0042042235227123465 -0.012218938263619724 0 0.0042164712245921767 -0.010902485657893994 0 0.0046733093682414543 -0.010577420820879513 0 0.0049108680735347708 -0.01072639648919003 0 0.0031603268714813196 -0.01246307090585453 0 0.0034000033416218553 -0.010868996506515379 0 0.0042164712245921767 -0.010902485657893994 0 0.0031603268714813196 -0.01246307090585453 0 0.0042042235227123465 -0.012218938263619724 0 0.0042164712245921767 -0.010902485657893994 0 0.0053769440430392517 -0.0094961030748264719 0 0.0064671402464221463 -0.0091837844971173772 0 0.00619140063110858 -0.01026039437912756 0 0.0053769440430392517 -0.0094961030748264719 0 0.0064671402464221463 -0.0091837844971173772 0 0.0047671028494280596 -0.0082734162127077182 0 0.0064671402464221463 -0.0091837844971173772 0 0.00619140063110858 -0.01026039437912756 0 0.0080022915891552887 -0.010066350478802151 0 0.0047316448671768417 -0.010341965476997089 0 0.0041391416595946808 -0.0093167848484051914 0 0.004648928822742618 -0.0089644131736477013 0 0.0047316448671768417 -0.010341965476997089 0 0.004344091408021976 -0.010257643350496632 0 0.0041391416595946808 -0.0093167848484051914 0 0.0041391416595946808 -0.0093167848484051914 0 0.003711465462795206 -0.0085635449231357651 0 0.0033565861385878542 -0.008989690573608284 0 0.0058324760335142873 -0.0092653012337849689 0 0.0040371368330062172 -0.0086928116953544007 0 0.004344091408021976 -0.010257643350496632 0 0.0041391416595946808 -0.0093167848484051914 0 0.0033565861385878542 -0.008989690573608284 0 0.0041391416595946808 -0.0093167848484051914 0 0.003711465462795206 -0.0085635449231357651 0 0.0041586106309314747 -0.0083289408202136105 0 0.0041391416595946808 -0.0093167848484051914 0 0.0041586106309314747 -0.0083289408202136105 0 0.004648928822742618 -0.0089644131736477013 0 0.0041586106309314747 -0.0083289408202136105 0 0.004648928822742618 -0.0089644131736477013 0 0.0046122203631078209 -0.0082362902691981918 0 0.0043074358146468275 -0.0075262340560823269 0 0.0036843032910595236 -0.0075134818628341303 0 0.0044784889065245378 -0.0078099289959866966 0 0.0041586106309314747 -0.0083289408202136105 0 0.0037001946912225791 -0.0080018520270186671 0 0.0044784889065245378 -0.0078099289959866966 0 0.0041586106309314747 -0.0083289408202136105 0 0.0046122203631078209 -0.0082362902691981918 0 0.003711465462795206 -0.0085635449231357651 0 0.0041586106309314747 -0.0083289408202136105 0 0.0037001946912225791 -0.0080018520270186671 0 0.0064288107753046001 -0.0087934535465476332 0 0.0055506584388526313 -0.0094554607500768328 0 0.0051530694849212062 -0.0086266198155624963 0 0.004820741676811454 -0.012547500582806242 0 0.0049108680735347708 -0.01072639648919003 0 0.0031633877444650765 -0.013350187702914601 0 0.0031603268714813196 -0.01246307090585453 0 0.0042042235227123465 -0.012218938263619724 0 0.0055506584388526313 -0.0094554607500768328 0 0.004648928822742618 -0.0089644131736477013 0 0.0051530694849212062 -0.0086266198155624963 0 0.004648928822742618 -0.0089644131736477013 0 0.0051530694849212062 -0.0086266198155624963 0 0.0046122203631078209 -0.0082362902691981918 0 0.0044784889065245378 -0.0078099289959866966 0 0.0048039721846519952 -0.0077966273783671063 0 0.0048465439723173673 -0.0074751506376156693 0 0.0051530694849212062 -0.0086266198155624963 0 0.0046122203631078209 -0.0082362902691981918 0 0.0048039721846519952 -0.0077966273783671063 0 0.0044784889065245378 -0.0078099289959866966 0 0.0046122203631078209 -0.0082362902691981918 0 0.0048039721846519952 -0.0077966273783671063 0 0.0048039721846519952 -0.0077966273783671063 0 0.0048465439723173673 -0.0074751506376156693 0 0.0051162528071065265 -0.0076170788963439455 0 0.005109818503797655 -0.0080979612434958805 0 0.0048039721846519952 -0.0077966273783671063 0 0.0051162528071065265 -0.0076170788963439455 0 0.004820741676811454 -0.012547500582806242 0 0.0048598064301272111 -0.0066149674967327628 0 0.0064288107753046001 -0.0087934535465476332 0 0.0051530694849212062 -0.0086266198155624963 0 0.0048039721846519952 -0.0077966273783671063 0 0.0049744794680039806 -0.00728064557366796 0 0.0048465439723173673 -0.0074751506376156693 0 0.0051162528071065265 -0.0076170788963439455 0 0.0049744794680039806 -0.00728064557366796 0 0.0048465439723173673 -0.0074751506376156693 0 0.0046846356351129713 -0.0070662822313598299 0 0.0043074358146468275 -0.0075262340560823269 0 0.00484071628016596 -0.0074623749773800926 0 0.0040786979568610974 -0.0072700791400805327 0 0.0048465439723173673 -0.0074751506376156693 0 0.0042784523818080664 -0.0069318568060988302 0 0.0048465439723173673 -0.0074751506376156693 0 0.0042784523818080664 -0.0069318568060988302 0 0.0046846356351129713 -0.0070662822313598299 0 0.0042784523818080664 -0.0069318568060988302 0 0.0039984686674611738 -0.0066689806498371968 0 0.0042735935839581162 -0.0065425950688309219 0 0.0042784523818080664 -0.0069318568060988302 0 0.0046418206849751613 -0.0067839218655323837 0 0.0042735935839581162 -0.0065425950688309219 0 0.0042784523818080664 -0.0069318568060988302 0 0.0046418206849751613 -0.0067839218655323837 0 0.0046846356351129713 -0.0070662822313598299 0 0.0046418206849751613 -0.0067839218655323837 0 0.0048600422294502003 -0.006554995061743534 0 0.0049721662602504732 -0.006980290440359564 0 0.0049744794680039806 -0.00728064557366796 0 0.0046846356351129713 -0.0070662822313598299 0 0.0049721662602504732 -0.006980290440359564 0 0.0046418206849751613 -0.0067839218655323837 0 0.0046846356351129713 -0.0070662822313598299 0 0.0049721662602504732 -0.006980290440359564 0 0.003639063349827101 -0.0070570026921358648 0 0.003928383909864816 -0.0069406376610507119 0 0.0036886501345675263 -0.0066830954720834852 0 0.003639063349827101 -0.0070570026921358648 0 0.0036886501345675263 -0.0066830954720834852 0 0.003409132087505234 -0.0067259172095924143 0 0.0040786979568610974 -0.0072700791400805327 0 0.003639063349827101 -0.0070570026921358648 0 0.003928383909864816 -0.0069406376610507119 0 0.0040786979568610974 -0.0072700791400805327 0 0.0042784523818080664 -0.0069318568060988302 0 0.003928383909864816 -0.0069406376610507119 0 0.003928383909864816 -0.0069406376610507119 0 0.0039984686674611738 -0.0066689806498371968 0 0.0036886501345675263 -0.0066830954720834852 0 0.0042784523818080664 -0.0069318568060988302 0 0.003928383909864816 -0.0069406376610507119 0 0.0039984686674611738 -0.0066689806498371968 0 0.0036886501345675263 -0.0066830954720834852 0 0.0034595791599310245 -0.0065598038624680964 0 0.003519491159666403 -0.006354390615529738 0 0.0036886501345675263 -0.0066830954720834852 0 0.0037957028636108467 -0.0062510910453033438 0 0.003519491159666403 -0.006354390615529738 0 0.0039984686674611738 -0.0066689806498371968 0 0.0036886501345675263 -0.0066830954720834852 0 0.0037957028636108467 -0.0062510910453033438 0 0.0039984686674611738 -0.0066689806498371968 0 0.0037957028636108467 -0.0062510910453033438 0 0.0042735935839581162 -0.0065425950688309219 0 0.0035419853915819007 -0.0063356026808848998 0 0.0042735935839581162 -0.0065425950688309219 0 0.0040990370979598944 -0.006142371304762544 0 0.0036974035248915852 -0.0064516446606171212 0 0.0042083008529279547 -0.0064831352281568486 0 0.0035419853915819007 -0.0063356026808848998 0 0.0040990370979598944 -0.006142371304762544 0 0.0037218923764192613 -0.0058814806370289154 0 0.0035419853915819007 -0.0063356026808848998 0 0.0032920413831184357 -0.005860918225065583 0 0.0026560524952163309 -0.0059412497878544579 0 0.0036974035248915852 -0.0064516446606171212 0 0.0031389936698144197 -0.0048601251392846583 0 0.0037957028636108467 -0.0062510910453033438 0 0.003519491159666403 -0.006354390615529738 0 0.0034121909371735946 -0.0060619497296315987 0 0.0035419853915819007 -0.0063356026808848998 0 0.0032920413831184357 -0.005860918225065583 0 0.0037218923764192613 -0.0058814806370289154 0 0.0046418206849751613 -0.0067839218655323837 0 0.0042735935839581162 -0.0065425950688309219 0 0.0048600422294502003 -0.006554995061743534 0 0.0042735935839581162 -0.0065425950688309219 0 0.0045707153918170393 -0.0061660997337450096 0 0.0048600422294502003 -0.006554995061743534 0 0.0040990370979598944 -0.006142371304762544 0 0.0045707153918170393 -0.0061660997337450096 0 0.0041173778380702818 -0.0057529977864081375 0 0.0042735935839581162 -0.0065425950688309219 0 0.0040990370979598944 -0.006142371304762544 0 0.0045707153918170393 -0.0061660997337450096 0 0.0045707153918170393 -0.0061660997337450096 0 0.0049962176065169676 -0.0063413718542088124 0 0.0048600422294502003 -0.006554995061743534 0 0.0048300903370917967 -0.0077867982442216864 0 0.0055397082287490379 -0.0068468535924267396 0 0.0048647453885543339 -0.006015440163885763 0 0.0045707153918170393 -0.0061660997337450096 0 0.0049962176065169676 -0.0063413718542088124 0 0.0048647453885543339 -0.006015440163885763 0 0.0049497774089766839 -0.0070608332703194611 0 0.0048486098636790669 -0.0061030411734632455 0 0.0055918078362971425 -0.0077322132987538653 0 0.0057598761134850726 -0.0085126371541011346 0 0.0062496905677397125 -0.007408526846503477 0 0.0055918078362971425 -0.0077322132987538653 0 0.0062496905677397125 -0.007408526846503477 0 0.0055397082287490379 -0.0068468535924267396 0 0.0048300903370917967 -0.0077867982442216864 0 0.0055918078362971425 -0.0077322132987538653 0 0.0055397082287490379 -0.0068468535924267396 0 0.0048300903370917967 -0.0077867982442216864 0 0.0057598761134850726 -0.0085126371541011346 0 0.0050002152610500077 -0.0095155698553322336 0 0.0048300903370917967 -0.0077867982442216864 0 0.0055918078362971425 -0.0077322132987538653 0 0.0057598761134850726 -0.0085126371541011346 0 0.0049497774089766839 -0.0070608332703194611 0 0.0048040189419196475 -0.0081666421472646727 0 0.0049962176065169676 -0.0063413718542088124 0 0.0048600422294502003 -0.006554995061743534 0 0.0050895837870531665 -0.0067528901651802203 0 0.0048600422294502003 -0.006554995061743534 0 0.0049721662602504732 -0.006980290440359564 0 0.0054356163914984924 -0.0069093266482584178 0 0.0049721662602504732 -0.006980290440359564 0 0.0054356163914984924 -0.0069093266482584178 0 0.0052116261659619443 -0.0072380793519285771 0 0.0048386381048858675 -0.0063892551632836192 0 0.0048040189419196475 -0.0081666421472646727 0 0.0050002152610500077 -0.0095155698553322336 0 0.0066132471147116109 -0.010884067300240668 0 0.0064239739887562292 -0.0095299880618627472 0 0.0057598761134850726 -0.0085126371541011346 0 0.0050002152610500077 -0.0095155698553322336 0 0.0064239739887562292 -0.0095299880618627472 0 0.0048040189419196475 -0.0081666421472646727 0 0.004658758538863798 -0.0092995249426026227 0 0.0043480317343175144 -0.014619931706732958 0 0.0039965295345072748 -0.01235761456565026 0 0.0069659022676975321 -0.012733001103338672 0 0.0052035322012775869 -0.015274105534353889 0 0.004658758538863798 -0.0092995249426026227 0 0.0048040189419196475 -0.0081666421472646727 0 0.0053186082495221111 -0.016200045103904596 0 0.0036505470528880261 -0.010087932783983162 0 0.0039965295345072748 -0.01235761456565026 0 0.0069659022676975321 -0.012733001103338672 0 0.0055069771804256672 -0.0074032450112493809 0 0.0051162528071065265 -0.0076170788963439455 0 0.0052116261659619443 -0.0072380793519285771 0 0.0054356163914984924 -0.0069093266482584178 0 0.0055069771804256672 -0.0074032450112493809 0 0.0052116261659619443 -0.0072380793519285771 0 0.0055454718727337253 -0.0078372176203413864 0 0.0055069771804256672 -0.0074032450112493809 0 0.0051162528071065265 -0.0076170788963439455 0 0.0049744794680039806 -0.00728064557366796 0 0.0051162528071065265 -0.0076170788963439455 0 0.0052116261659619443 -0.0072380793519285771 0 0.0049744794680039806 -0.00728064557366796 0 0.0049721662602504732 -0.006980290440359564 0 0.0052116261659619443 -0.0072380793519285771 0 0.0053186082495221111 -0.016200045103904596 0 0.0053281483575005279 -0.014706013530932023 0 0.0038012418016291024 -0.019950537926386094 0 0.0037371298873287904 -0.01991031795651475 0 0.0038223246394051389 -0.019825246311304334 0 0.0053281483575005279 -0.014706013530932023 0 0.0037886002543491503 -0.021175316696861159 0 0.0038012418016291024 -0.019950537926386094 0 0.0038223246394051389 -0.019825246311304334 0 0.0038203440636341429 -0.020029724175944789 0 0.0064239739887562292 -0.0095299880618627472 0 0.0077529583777084269 -0.010058306268713882 0 0.0070145667474752196 -0.008698599793202701 0 0.0066132471147116109 -0.010884067300240668 0 0.0064239739887562292 -0.0095299880618627472 0 0.0077529583777084269 -0.010058306268713882 0 0.0053281483575005279 -0.014706013530932023 0 0.0065392857962175014 -0.0071949443905086436 0 0.0064849939665763447 -0.0075926757120797538 0 0.0064910243924468022 -0.0075270735035497041 0 0.0064596705406090747 -0.0075509720790897959 0 0.0064596705406090747 -0.0075509720790897959 0 0.0064738291964333942 -0.0074207702743519371 0 0.006544997651206425 -0.0074778561673012646 0 0.0064910243924468022 -0.0075270735035497041 0 0.0064596705406090747 -0.0075509720790897959 0 0.006544997651206425 -0.0074778561673012646 0 0.0065392857962175014 -0.0071949443905086436 0 0.0064336624437040793 -0.0077748496717577019 0 0.0057598761134850726 -0.0085126371541011346 0 0.0064239739887562292 -0.0095299880618627472 0 0.0070145667474752196 -0.008698599793202701 0 0.0057598761134850726 -0.0085126371541011346 0 0.0070145667474752196 -0.008698599793202701 0 0.0062496905677397125 -0.007408526846503477 0 0.0064596705406090747 -0.0075509720790897959 0 0.0064738291964333942 -0.0074207702743519371 0 0.0062496905677397125 -0.007408526846503477 0 0.0064738291964333942 -0.0074207702743519371 0 0.0063883076197765948 -0.0072898973084697819 0 0.0062496905677397125 -0.007408526846503477 0 0.0064738291964333942 -0.0074207702743519371 0 0.0063883076197765948 -0.0072898973084697819 0 0.0065049844629458276 -0.0072841359223851879 0 0.0063883076197765948 -0.0072898973084697819 0 0.0065049844629458276 -0.0072841359223851879 0 0.0062953769725983839 -0.0070018803974393768 0 0.0062496905677397125 -0.007408526846503477 0 0.0062953769725983839 -0.0070018803974393768 0 0.0055397082287490379 -0.0068468535924267396 0 0.0063883076197765948 -0.0072898973084697819 0 0.0062496905677397125 -0.007408526846503477 0 0.0062953769725983839 -0.0070018803974393768 0 0.0064738291964333942 -0.0074207702743519371 0 0.006544997651206425 -0.0074778561673012646 0 0.0065817164992226567 -0.0073984117540575999 0 0.0064738291964333942 -0.0074207702743519371 0 0.0065817164992226567 -0.0073984117540575999 0 0.0065049844629458276 -0.0072841359223851879 0 0.0065817164992226567 -0.0073984117540575999 0 0.0065049844629458276 -0.0072841359223851879 0 0.0065959023484846698 -0.0072969194719832674 0 0.006544997651206425 -0.0074778561673012646 0 0.0065817164992226567 -0.0073984117540575999 0 0.0065839821227448381 -0.0074502261125493447 0 0.0065817164992226567 -0.0073984117540575999 0 0.0065839821227448381 -0.0074502261125493447 0 0.0066979516895930491 -0.0073762320090553493 0 0.0065817164992226567 -0.0073984117540575999 0 0.0066979516895930491 -0.0073762320090553493 0 0.0065959023484846698 -0.0072969194719832674 0 0.0065839821227448381 -0.0074502261125493447 0 0.0064410666509110174 -0.0075438895971178437 0 0.0065183504176835926 -0.0075714349132251311 0 0.006544997651206425 -0.0074778561673012646 0 0.0065839821227448381 -0.0074502261125493447 0 0.0064410666509110174 -0.0075438895971178437 0 0.0064910243924468022 -0.0075270735035497041 0 0.006544997651206425 -0.0074778561673012646 0 0.0064218480945924571 -0.0074754457601759082 0 0.006544997651206425 -0.0074778561673012646 0 0.0064410666509110174 -0.0075438895971178437 0 0.0064218480945924571 -0.0074754457601759082 0 0.0034345680899960369 -0.020832770255604129 0 0.0031939363457972208 -0.02098553480403401 0 0.0031909731444756287 -0.020790746540126092 0 0.0064410666509110174 -0.0075438895971178437 0 0.0064218480945924571 -0.0074754457601759082 0 0.0060891054089078521 -0.0075469331843102576 0 0.0049018906891769654 -0.014074960672091885 0 0.0046618774296918394 -0.014302400803499512 0 0.0064410666509110174 -0.0075438895971178437 0 0.0060891054089078521 -0.0075469331843102576 0 0.0062583460474138616 -0.0076924291468641924 0 0.0060891054089078521 -0.0075469331843102576 0 0.006042603294100295 -0.0078273589656749683 0 0.0062583460474138616 -0.0076924291468641924 0 0.0060891054089078521 -0.0075469331843102576 0 0.006042603294100295 -0.0078273589656749683 0 0.0056836210748368856 -0.007826771160237939 0 0.0031939363457972208 -0.02098553480403401 0 0.0029765635318954793 -0.021017635417671116 0 0.0030345656264587086 -0.021108859968110918 0 0.0046618774296918394 -0.014302400803499512 0 0.0042127880787021718 -0.014316927387863207 0 0.0031939363457972208 -0.02098553480403401 0 0.0030224085876613322 -0.020868091045831635 0 0.0029765635318954793 -0.021017635417671116 0 0.0031939363457972208 -0.02098553480403401 0 0.0031909731444756287 -0.020790746540126092 0 0.0030224085876613322 -0.020868091045831635 0 0.0031909731444756287 -0.020790746540126092 0 0.0030224085876613322 -0.020868091045831635 0 0.002984468524115917 -0.020617856852546079 0 0.0031909731444756287 -0.020790746540126092 0 0.002984468524115917 -0.020617856852546079 0 0.0034035303577202463 -0.020631886606127827 0 0.0030224085876613322 -0.020868091045831635 0 0.002984468524115917 -0.020617856852546079 0 0.0028789589058455128 -0.020835703604382767 0 0.0034035303577202463 -0.020631886606127827 0 0.0035926702942796996 -0.020418121031296779 0 0.0032422905849415432 -0.020401099901181975 0 0.002984468524115917 -0.020617856852546079 0 0.0034035303577202463 -0.020631886606127827 0 0.0032422905849415432 -0.020401099901181975 0 0.0037236313144249347 -0.020634024218853186 0 0.0034035303577202463 -0.020631886606127827 0 0.0035926702942796996 -0.020418121031296779 0 0.0037236313144249347 -0.020634024218853186 0 0.0034345680899960369 -0.020832770255604129 0 0.0034035303577202463 -0.020631886606127827 0 0.0064849939665763447 -0.0075926757120797538 0 0.0064910243924468022 -0.0075270735035497041 0 0.0064218480945924571 -0.0074754457601759082 0 0.0053281483575005279 -0.014706013530932023 0 0.0049018906891769654 -0.014074960672091885 0 0.0034345680899960369 -0.020832770255604129 0 0.0031909731444756287 -0.020790746540126092 0 0.0034035303577202463 -0.020631886606127827 0 0.0025321139565175435 -0.020989717513149472 0 0.0026554999847960962 -0.021207029850787578 0 0.0027827313629874718 -0.021075749955206943 0 0.0026554999847960962 -0.021207029850787578 0 0.0028806327097113775 -0.021500776018606556 0 0.0027827313629874718 -0.021075749955206943 0 0.0028806327097113775 -0.021500776018606556 0 0.0028623208167944509 -0.021195805303696601 0 0.0027827313629874718 -0.021075749955206943 0 0.0028806327097113775 -0.021500776018606556 0 0.0028623208167944509 -0.021195805303696601 0 0.0028707551797969109 -0.021233036302965334 0 0.0028623208167944509 -0.021195805303696601 0 0.0027827313629874718 -0.021075749955206943 0 0.0028548765306376884 -0.021008026446315865 0 0.0028623208167944509 -0.021195805303696601 0 0.0028548765306376884 -0.021008026446315865 0 0.0029148894916604549 -0.021136944974727394 0 0.0028623208167944509 -0.021195805303696601 0 0.0029148894916604549 -0.021136944974727394 0 0.0028707551797969109 -0.021233036302965334 0 0.0029148894916604549 -0.021136944974727394 0 0.0029765635318954793 -0.021017635417671116 0 0.0030345656264587086 -0.021108859968110918 0 0.0030224085876613322 -0.020868091045831635 0 0.0029765635318954793 -0.021017635417671116 0 0.0028789589058455128 -0.020835703604382767 0 0.0028548765306376884 -0.021008026446315865 0 0.0029765635318954793 -0.021017635417671116 0 0.0028789589058455128 -0.020835703604382767 0 0.0028548765306376884 -0.021008026446315865 0 0.0029148894916604549 -0.021136944974727394 0 0.0029765635318954793 -0.021017635417671116 0 0.002984468524115917 -0.020617856852546079 0 0.0028789589058455128 -0.020835703604382767 0 0.0027924958462199807 -0.020662242482066426 0 0.0028789589058455128 -0.020835703604382767 0 0.0027924958462199807 -0.020662242482066426 0 0.0027367076853954332 -0.020825243650850239 0 0.0028548765306376884 -0.021008026446315865 0 0.0028789589058455128 -0.020835703604382767 0 0.0027367076853954332 -0.020825243650850239 0 0.0027827313629874718 -0.021075749955206943 0 0.0027367076853954332 -0.020825243650850239 0 0.0026430494298765907 -0.020842280949894796 0 0.0027827313629874718 -0.021075749955206943 0 0.0028548765306376884 -0.021008026446315865 0 0.0027367076853954332 -0.020825243650850239 0 0.0027367076853954332 -0.020825243650850239 0 0.0026430494298765907 -0.020842280949894796 0 0.002622159924473233 -0.020814356014394724 0 0.0024296981824363201 -0.021474272792156218 0 0.0026282141002770304 -0.020897622834437846 0 0.0012492163594828877 -0.021318678522936025 0 0.0022588421319274356 -0.02210958593784303 0 0.0021179588367921244 -0.021190467191258368 0 0.0025321139565175435 -0.020989717513149472 0 0.0027827313629874718 -0.021075749955206943 0 0.0026430494298765907 -0.020842280949894796 0 0.0016796799682393697 -0.020298196230521977 0 0.0021386680276508441 -0.020607460536543155 0 0.0023312054887059783 -0.02026334935402135 0 0.0021386680276508441 -0.020607460536543155 0 0.0025842482711847864 -0.020491546304323503 0 0.0023312054887059783 -0.02026334935402135 0 0.0022588421319274356 -0.02210958593784303 0 0.0021179588367921244 -0.021190467191258368 0 0.002622159924473233 -0.020814356014394724 0 0.0021386680276508441 -0.020607460536543155 0 0.0021179588367921244 -0.021190467191258368 0 0.002622159924473233 -0.020814356014394724 0 0.0027367076853954332 -0.020825243650850239 0 0.002622159924473233 -0.020814356014394724 0 0.0027118686168981537 -0.020585190062452546 0 0.0021386680276508441 -0.020607460536543155 0 0.002622159924473233 -0.020814356014394724 0 0.0025842482711847864 -0.020491546304323503 0 0.002622159924473233 -0.020814356014394724 0 0.0025842482711847864 -0.020491546304323503 0 0.0027118686168981537 -0.020585190062452546 0 0.0025842482711847864 -0.020491546304323503 0 0.0027118686168981537 -0.020585190062452546 0 0.0027033822761811325 -0.020351109315628862 0 0.0027924958462199807 -0.020662242482066426 0 0.0027367076853954332 -0.020825243650850239 0 0.0027118686168981537 -0.020585190062452546 0 0.002984468524115917 -0.020617856852546079 0 0.0027924958462199807 -0.020662242482066426 0 0.002746937386099622 -0.020416379733057863 0 0.0027924958462199807 -0.020662242482066426 0 0.0027118686168981537 -0.020585190062452546 0 0.002746937386099622 -0.020416379733057863 0 0.0027118686168981537 -0.020585190062452546 0 0.002746937386099622 -0.020416379733057863 0 0.0027033822761811325 -0.020351109315628862 0 0.0018271777012836474 -0.020747342997318289 0 0.0024646757880465767 -0.020372600213145794 0 0.002746937386099622 -0.020416379733057863 0 0.0027033822761811325 -0.020351109315628862 0 0.0025260352292344689 -0.02028519120322398 0 0.0014118420408505633 -0.020143596091741454 0 0.00099881055735220837 -0.021224136375256261 0 0.0025260352292344689 -0.02028519120322398 0 0.0014118420408505633 -0.020143596091741454 0 0.00099881055735220837 -0.021224136375256261 0 9.3726976546487138e-05 -0.020916136856296428 0 0.00099881055735220837 -0.021224136375256261 0 9.3726976546487138e-05 -0.020916136856296428 0 -0.00012903993653647487 -0.021625644737946842 0 0.0018271777012836474 -0.020747342997318289 0 0.0010953186967705847 -0.020973302294914474 0 0.0025842482711847864 -0.020491546304323503 0 0.0027033822761811325 -0.020351109315628862 0 0.0023312054887059783 -0.02026334935402135 0 -0.00043490640038542163 -0.021436738578589905 0 9.3726976546487138e-05 -0.020916136856296428 0 -0.00012903993653647487 -0.021625644737946842 0 -0.00043490640038542163 -0.021436738578589905 0 9.3726976546487138e-05 -0.020916136856296428 0 -0.00048710239560168899 -0.021150579289824525 0 0.0034266016564949145 -0.01995747055243818 0 0.0029292179989076597 -0.020250196720684514 0 0.0031654462722191076 -0.019645685508324105 0 0.0034266016564949145 -0.01995747055243818 0 0.0032422905849415432 -0.020401099901181975 0 0.0029292179989076597 -0.020250196720684514 0 0.0039581769336399951 -0.019652589184593765 0 0.0034266016564949145 -0.01995747055243818 0 0.0037562161072431256 -0.019275296458447458 0 0.0039581769336399951 -0.019652589184593765 0 0.0034266016564949145 -0.01995747055243818 0 0.0038296612732126637 -0.020007201242247721 0 0.0033346419097203357 -0.019596223784694031 0 0.0037886002543491503 -0.021175316696861159 0 0.0034266016564949145 -0.01995747055243818 0 0.0038296612732126637 -0.020007201242247721 0 0.0038203440636341429 -0.020029724175944789 0 0.0034266016564949145 -0.01995747055243818 0 0.0035926702942796996 -0.020418121031296779 0 0.0032422905849415432 -0.020401099901181975 0 0.002984468524115917 -0.020617856852546079 0 0.0032422905849415432 -0.020401099901181975 0 0.0029292179989076597 -0.020250196720684514 0 0.002984468524115917 -0.020617856852546079 0 0.002746937386099622 -0.020416379733057863 0 0.0029292179989076597 -0.020250196720684514 0 0.002746937386099622 -0.020416379733057863 0 0.0029292179989076597 -0.020250196720684514 0 0.0025260352292344689 -0.02028519120322398 0 0.0029292179989076597 -0.020250196720684514 0 0.0025260352292344689 -0.02028519120322398 0 0.0031654462722191076 -0.019645685508324105 0 0.0014118420408505633 -0.020143596091741454 0 0.0025260352292344689 -0.02028519120322398 0 0.0027265195291418442 -0.019399551224119942 0 0.0025260352292344689 -0.02028519120322398 0 0.0031654462722191076 -0.019645685508324105 0 0.0027265195291418442 -0.019399551224119942 0 0.0033062597364850034 -0.019049356730566139 0 0.0031654462722191076 -0.019645685508324105 0 0.0027265195291418442 -0.019399551224119942 0 0.0033062597364850034 -0.019049356730566139 0 0.0031654462722191076 -0.019645685508324105 0 0.003567858907128301 -0.018890804600255356 0 0.0034266016564949145 -0.01995747055243818 0 0.0031654462722191076 -0.019645685508324105 0 0.0037562161072431256 -0.019275296458447458 0 0.0031654462722191076 -0.019645685508324105 0 0.0037562161072431256 -0.019275296458447458 0 0.003567858907128301 -0.018890804600255356 0 0.0040490217702928797 -0.018046546611900371 0 0.003567858907128301 -0.018890804600255356 0 0.0036550059957909799 -0.018518702067889459 0 0.0040490217702928797 -0.018046546611900371 0 0.0037562161072431256 -0.019275296458447458 0 0.003567858907128301 -0.018890804600255356 0 0.0033062597364850034 -0.019049356730566139 0 0.003567858907128301 -0.018890804600255356 0 0.0036550059957909799 -0.018518702067889459 0 0.0036550059957909799 -0.018518702067889459 0 0.0035903000973386235 -0.018337535984645739 0 0.0037499742917193927 -0.018257170800028425 0 0.0032947366513563633 -0.018710472942234133 0 0.0028603938188807949 -0.018460891862149598 0 0.0035903000973386235 -0.018337535984645739 0 0.0011604224038248071 -0.01923670755345688 0 0.0014218175294822253 -0.019158643190690206 0 0.0036550059957909799 -0.018518702067889459 0 0.0032947366513563633 -0.018710472942234133 0 0.0035903000973386235 -0.018337535984645739 0 0.0033062597364850034 -0.019049356730566139 0 0.0036550059957909799 -0.018518702067889459 0 0.0032947366513563633 -0.018710472942234133 0 0.0032947366513563633 -0.018710472942234133 0 0.0027265195291418442 -0.019399551224119942 0 0.0028603938188807949 -0.018460891862149598 0 0.0033062597364850034 -0.019049356730566139 0 0.0032947366513563633 -0.018710472942234133 0 0.0027265195291418442 -0.019399551224119942 0 0.0011604224038248071 -0.01923670755345688 0 0.00077482776939591825 -0.019514947600269082 0 -0.00054209124638407295 -0.019998759544815357 0 -0.0003877867690766318 -0.020163957169517386 0 -0.00023823155172184843 -0.019986184887844895 0 0.0027265195291418442 -0.019399551224119942 0 0.0028603938188807949 -0.018460891862149598 0 0.0017530413705258224 -0.018984484787772007 0 -0.00054209124638407295 -0.019998759544815357 0 -0.0003877867690766318 -0.020163957169517386 0 -0.00059997681633315949 -0.020141090018029006 0 -0.0003877867690766318 -0.020163957169517386 0 -0.00038744094521766327 -0.020444802328631689 0 -0.00059997681633315949 -0.020141090018029006 0 -0.00059997681633315949 -0.020141090018029006 0 -0.00075664080621433395 -0.019917276012756113 0 -0.0006607846990699188 -0.020197383232814618 0 -0.00059997681633315949 -0.020141090018029006 0 -0.00075664080621433395 -0.019917276012756113 0 -0.00072136539297033386 -0.019957771779759752 0 -0.00075664080621433395 -0.019917276012756113 0 -0.00084228277330990436 -0.019632880906830328 0 -0.00056637969393462406 -0.019866850552482728 0 -0.00075664080621433395 -0.019917276012756113 0 -0.00072136539297033386 -0.019957771779759752 0 -0.00056637969393462406 -0.019866850552482728 0 0.0014218175294822253 -0.019158643190690206 0 0.0014937374415181057 -0.019187741260761421 0 -0.00054209124638407295 -0.019998759544815357 0 -0.00059997681633315949 -0.020141090018029006 0 -0.00072136539297033386 -0.019957771779759752 0 0.00033984834600795624 -0.020028641720627453 0 -8.3480011648133718e-05 -0.020289834917623182 0 8.0740233710357968e-05 -0.020124146253465251 0 -0.00046842941604787949 -0.021141926007303878 0 -0.00030708209774588249 -0.02096589430587319 0 -0.00048710239560168899 -0.021150579289824525 0 0.00033984834600795624 -0.020028641720627453 0 8.0740233710357968e-05 -0.020124146253465251 0 9.3726976546487138e-05 -0.020916136856296428 0 -0.00048710239560168899 -0.021150579289824525 0 0.00033984834600795624 -0.020028641720627453 0 0.00037624881668841246 -0.019935910865463011 0 0.00077482776939591825 -0.019514947600269082 0 0.00033984834600795624 -0.020028641720627453 0 -0.00023823155172184843 -0.019986184887844895 0 -8.3480011648133718e-05 -0.020289834917623182 0 0.0014118420408505633 -0.020143596091741454 0 0.00033984834600795624 -0.020028641720627453 0 0.0017530413705258224 -0.018984484787772007 0 0.0014118420408505633 -0.020143596091741454 0 9.3726976546487138e-05 -0.020916136856296428 0 0.00033984834600795624 -0.020028641720627453 0 0.0014118420408505633 -0.020143596091741454 0 0.0027265195291418442 -0.019399551224119942 0 0.0017530413705258224 -0.018984484787772007 0 -0.0003877867690766318 -0.020163957169517386 0 -0.00023823155172184843 -0.019986184887844895 0 -8.3480011648133718e-05 -0.020289834917623182 0 -0.00038744094521766327 -0.020444802328631689 0 -8.3480011648133718e-05 -0.020289834917623182 0 -0.00023153001796854562 -0.020655470062772154 0 -0.0003877867690766318 -0.020163957169517386 0 -0.00038744094521766327 -0.020444802328631689 0 -8.3480011648133718e-05 -0.020289834917623182 0 -8.3480011648133718e-05 -0.020289834917623182 0 0.00010767352373639206 -0.02047320845389616 0 -0.00023153001796854562 -0.020655470062772154 0 -8.3480011648133718e-05 -0.020289834917623182 0 0.00010767352373639206 -0.02047320845389616 0 8.0740233710357968e-05 -0.020124146253465251 0 -0.00065507931184463771 -0.021844771771270186 0 -0.00050420912781304035 -0.021764477798523869 0 -0.0006969411152179879 -0.021771210354890196 0 -0.00021334304386623116 -0.021105859995893601 0 -0.00030708209774588249 -0.02096589430587319 0 -0.00067822860740019168 -0.021546104051590978 0 -0.00055975070436532347 -0.021450678287857995 0 -0.00058265637339761434 -0.021347318678662758 0 -0.00067822860740019168 -0.021546104051590978 0 -0.0006788074325278328 -0.021698778849612681 0 -0.00055975070436532347 -0.021450678287857995 0 -0.00065507931184463771 -0.021844771771270186 0 -0.00050420912781304035 -0.021764477798523869 0 -0.00055975070436532347 -0.021450678287857995 0 -0.00021334304386623116 -0.021105859995893601 0 -0.00023484479512849742 -0.021173840367265762 0 -0.00050420912781304035 -0.021764477798523869 0 -0.00055975070436532347 -0.021450678287857995 0 -0.00024428561321464108 -0.021175652827503229 0 -0.00055975070436532347 -0.021450678287857995 0 -0.00024428561321464108 -0.021175652827503229 0 -0.00058265637339761434 -0.021347318678662758 0 -0.00024428561321464108 -0.021175652827503229 0 -0.00035649781227602178 -0.020853965621980598 0 -0.00038448134337438176 -0.021113098933333387 0 0.00010767352373639206 -0.02047320845389616 0 -0.00024428561321464108 -0.021175652827503229 0 -0.00023153001796854562 -0.020655470062772154 0 -0.00024428561321464108 -0.021175652827503229 0 -0.00023153001796854562 -0.020655470062772154 0 -0.00035649781227602178 -0.020853965621980598 0 -0.00038744094521766327 -0.020444802328631689 0 -0.00023153001796854562 -0.020655470062772154 0 -0.00035649781227602178 -0.020853965621980598 0 -0.00035649781227602178 -0.020853965621980598 0 -0.00038448134337438176 -0.021113098933333387 0 -0.00037232312107217272 -0.020976963154675003 0 -0.00038448134337438176 -0.021113098933333387 0 -0.00037232312107217272 -0.020976963154675003 0 -0.00038185632853281968 -0.02100811139825997 0 -0.00038448134337438176 -0.021113098933333387 0 -0.00059513666550052916 -0.021153026518508252 0 -0.00038185632853281968 -0.02100811139825997 0 -0.00024428561321464108 -0.021175652827503229 0 -0.00038448134337438176 -0.021113098933333387 0 -0.00058265637339761434 -0.021347318678662758 0 -0.00038448134337438176 -0.021113098933333387 0 -0.00058265637339761434 -0.021347318678662758 0 -0.00059513666550052916 -0.021153026518508252 0 -0.00076352929896846315 -0.021535583288746458 0 -0.00058265637339761434 -0.021347318678662758 0 -0.0008535118635175893 -0.021345419983010629 0 -0.00058265637339761434 -0.021347318678662758 0 -0.0008535118635175893 -0.021345419983010629 0 -0.00059513666550052916 -0.021153026518508252 0 -0.00067822860740019168 -0.021546104051590978 0 -0.00076352929896846315 -0.021535583288746458 0 -0.00058265637339761434 -0.021347318678662758 0 -0.00067602705499828343 -0.020427406110907327 0 -0.0006607846990699188 -0.020197383232814618 0 -0.00057796378717804239 -0.020514602791542703 0 -0.00067602705499828343 -0.020427406110907327 0 -0.00081032528828960029 -0.020230155283935496 0 -0.00078656202350561866 -0.020509008557909884 0 -0.00067602705499828343 -0.020427406110907327 0 -0.00081032528828960029 -0.020230155283935496 0 -0.0006607846990699188 -0.020197383232814618 0 -0.00075664080621433395 -0.019917276012756113 0 -0.0006607846990699188 -0.020197383232814618 0 -0.00084228277330990436 -0.019632880906830328 0 -0.00081032528828960029 -0.020230155283935496 0 -0.0006607846990699188 -0.020197383232814618 0 -0.00084228277330990436 -0.019632880906830328 0 -0.00059997681633315949 -0.020141090018029006 0 -0.0006607846990699188 -0.020197383232814618 0 -0.0004988190180072507 -0.020498510598194613 0 -0.00038744094521766327 -0.020444802328631689 0 -0.00059997681633315949 -0.020141090018029006 0 -0.0004988190180072507 -0.020498510598194613 0 -0.00038744094521766327 -0.020444802328631689 0 -0.00035649781227602178 -0.020853965621980598 0 -0.0004988190180072507 -0.020498510598194613 0 -0.00035649781227602178 -0.020853965621980598 0 -0.0004988190180072507 -0.020498510598194613 0 -0.0004187870509131069 -0.020821985388315929 0 -0.0004988190180072507 -0.020498510598194613 0 -0.00057796378717804239 -0.020514602791542703 0 -0.0004187870509131069 -0.020821985388315929 0 -0.0006607846990699188 -0.020197383232814618 0 -0.0004988190180072507 -0.020498510598194613 0 -0.00057796378717804239 -0.020514602791542703 0 -0.0004187870509131069 -0.020821985388315929 0 -0.00034625725889955391 -0.020942727319596725 0 -0.00029613370729926589 -0.020949095997777743 0 -0.00039398268493913473 -0.020797796779055178 0 -0.00045338007518140534 -0.020776117481951378 0 -0.00057796378717804239 -0.020514602791542703 0 -0.0004187870509131069 -0.020821985388315929 0 -0.00061894532294077599 -0.020589882580331165 0 -0.00035649781227602178 -0.020853965621980598 0 -0.00037232312107217272 -0.020976963154675003 0 -0.0004187870509131069 -0.020821985388315929 0 -0.00037232312107217272 -0.020976963154675003 0 -0.0004187870509131069 -0.020821985388315929 0 -0.00034625725889955391 -0.020942727319596725 0 -0.00037232312107217272 -0.020976963154675003 0 -0.00034625725889955391 -0.020942727319596725 0 -0.00038185632853281968 -0.02100811139825997 0 -0.00034625725889955391 -0.020942727319596725 0 -0.00026259457216018577 -0.020904360911096341 0 -0.00029613370729926589 -0.020949095997777743 0 -0.00026259457216018577 -0.020904360911096341 0 -0.0002000396330960368 -0.020915268095838681 0 -0.00029613370729926589 -0.020949095997777743 0 -0.00026259457216018577 -0.020904360911096341 0 -0.0002000396330960368 -0.020915268095838681 0 -0.00018306526386893324 -0.02087108563842964 0 -0.00067602705499828343 -0.020427406110907327 0 -0.00061894532294077599 -0.020589882580331165 0 -0.00078656202350561866 -0.020509008557909884 0 -0.00067602705499828343 -0.020427406110907327 0 -0.00057796378717804239 -0.020514602791542703 0 -0.00061894532294077599 -0.020589882580331165 0 -0.00061894532294077599 -0.020589882580331165 0 -0.00078656202350561866 -0.020509008557909884 0 -0.00082945518624108375 -0.020603703431352982 0 -0.00045338007518140534 -0.020776117481951378 0 -0.00040298375437721666 -0.020776047647712667 0 -0.00081032528828960029 -0.020230155283935496 0 -0.00078656202350561866 -0.020509008557909884 0 -0.00097590284303522221 -0.020436919964997736 0 -0.00080168643330238846 -0.020505527468645566 0 -0.00096626646382006983 -0.02059684142857995 0 -0.00078656202350561866 -0.020509008557909884 0 -0.00082945518624108375 -0.020603703431352982 0 -0.00089572574743213603 -0.020592226364428982 0 -0.00078656202350561866 -0.020509008557909884 0 -0.0010204014309871032 -0.020580116075380784 0 -0.00097590284303522221 -0.020436919964997736 0 -0.0002000396330960368 -0.020915268095838681 0 -0.00029613370729926589 -0.020949095997777743 0 -0.00011250623904365501 -0.020963965296570356 0 -0.0002000396330960368 -0.020915268095838681 0 -0.00011250623904365501 -0.020963965296570356 0 -0.00011661939056178201 -0.020881838519746544 0 -0.0002000396330960368 -0.020915268095838681 0 -0.00011661939056178201 -0.020881838519746544 0 -0.00018306526386893324 -0.02087108563842964 0 -0.00011250623904365501 -0.020963965296570356 0 -0.00011661939056178201 -0.020881838519746544 0 -3.890566898613955e-05 -0.020887169737835849 0 -0.00082945518624108375 -0.020603703431352982 0 -0.00089572574743213603 -0.020592226364428982 0 -0.00099735589478269554 -0.020662218164822187 0 -0.00040298375437721666 -0.020776047647712667 0 -0.00080934124318811698 -0.020718018834377152 0 -0.00011250623904365501 -0.020963965296570356 0 -3.890566898613955e-05 -0.020887169737835849 0 6.7580063263228898e-05 -0.020913483434168375 0 -0.00096626646382006983 -0.02059684142857995 0 -0.00080934124318811698 -0.020718018834377152 0 -0.0010204014309871032 -0.020580116075380784 0 -0.001106436385098694 -0.020558605519371689 0 -0.0011415377323874798 -0.020588535684243122 0 -3.890566898613955e-05 -0.020887169737835849 0 6.7580063263228898e-05 -0.020913483434168375 0 2.5620568369105699e-05 -0.020824736949628067 0 -0.00080934124318811698 -0.020718018834377152 0 -0.0011438096552541504 -0.020665061409705119 0 -0.0001951539296152622 -0.017733795031690643 0 6.3514898353140889e-05 -0.017552496671508117 0 0.00011658636659935265 -0.017297595172771695 0 -0.00068624008344002243 -0.019008825758202681 0 -8.9290076049942975e-05 -0.01979751947572516 0 -0.0011408098671943354 -0.020570926055631041 0 -0.001165177376311187 -0.020558713411015415 0 -0.0011285352042710712 -0.020575185605571776 0 -0.00080934124318811698 -0.020718018834377152 0 -8.9290076049942975e-05 -0.01979751947572516 0 -0.0011498749577993352 -0.020566226249773886 0 -0.0011408098671943354 -0.020570926055631041 0 -0.0011285352042710712 -0.020575185605571776 0 4.656027864894127e-05 -0.017665530755222366 0 -0.0001951539296152622 -0.017733795031690643 0 6.3514898353140889e-05 -0.017552496671508117 0 -0.0011415377323874798 -0.020588535684243122 0 -0.0011408098671943354 -0.020570926055631041 0 -0.001165177376311187 -0.020558713411015415 0 -0.001106436385098694 -0.020558605519371689 0 -0.0011415377323874798 -0.020588535684243122 0 -0.001165177376311187 -0.020558713411015415 0 -0.0001951539296152622 -0.017733795031690643 0 0.00018466411223824736 -0.018106934471788808 0 -0.00058102988031926513 -0.018403984974998889 0 -0.00068624008344002243 -0.019008825758202681 0 -0.00084535372827490921 -0.01937750959395225 0 4.656027864894127e-05 -0.017665530755222366 0 -0.0001951539296152622 -0.017733795031690643 0 0.00013625134865463594 -0.017775807629943956 0 -0.0001951539296152622 -0.017733795031690643 0 0.00013625134865463594 -0.017775807629943956 0 0.00018466411223824736 -0.018106934471788808 0 -0.00097590284303522221 -0.020436919964997736 0 -0.0010823808464201802 -0.020492072633731491 0 -0.0011566771950891294 -0.020291982687582033 0 -0.001165177376311187 -0.020558713411015415 0 -0.0010823808464201802 -0.020492072633731491 0 -0.0011566771950891294 -0.020291982687582033 0 -0.0010204014309871032 -0.020580116075380784 0 -0.00097590284303522221 -0.020436919964997736 0 -0.0010823808464201802 -0.020492072633731491 0 -0.0010204014309871032 -0.020580116075380784 0 -0.001106436385098694 -0.020558605519371689 0 -0.0010823808464201802 -0.020492072633731491 0 -0.001106436385098694 -0.020558605519371689 0 -0.001165177376311187 -0.020558713411015415 0 -0.0010823808464201802 -0.020492072633731491 0 0.0006226544163872818 -0.017164362872838172 0 0.0013981769589411512 -0.01725564767190331 0 0.00054374550996506464 -0.017152640652441386 0 0.00080868938891967806 -0.017571375311896256 0 0.0011104785136323585 -0.0173015423205451 0 0.00054374550996506464 -0.017152640652441386 0 0.00041946000665870562 -0.017158904803854173 0 0.00080868938891967806 -0.017571375311896256 0 0.00073650893941272944 -0.016743427403652082 0 0.00054374550996506464 -0.017152640652441386 0 0.0011395413698118246 -0.016769677675450664 0 0.00073650893941272944 -0.016743427403652082 0 0.00041946000665870562 -0.017158904803854173 0 0.00075984894957610246 -0.016280397197210788 0 0.00073650893941272944 -0.016743427403652082 0 0.0011395413698118246 -0.016769677675450664 0 0.00097140152659048551 -0.016531455844029971 0 0.00052108725652110692 -0.01757827455973026 0 0.00040456260938733689 -0.017462439748305691 0 0.00037210639436466324 -0.017271828950557948 0 0.00073650893941272944 -0.016743427403652082 0 0.00054374550996506464 -0.017152640652441386 0 0.00041946000665870562 -0.017158904803854173 0 0.00052108725652110692 -0.01757827455973026 0 0.00041569562442331784 -0.017567055593618184 0 0.00040456260938733689 -0.017462439748305691 0 0.00052108725652110692 -0.01757827455973026 0 0.00041569562442331784 -0.017567055593618184 0 0.00041822124010476417 -0.017732166601724629 0 0.00027990868767390696 -0.017706366389528789 0 0.0003277495489968777 -0.017595806543089308 0 0.00041822124010476417 -0.017732166601724629 0 0.0003277495489968777 -0.017595806543089308 0 0.00026330263245673036 -0.01749460063526697 0 0.00017587330559047984 -0.01760834659375142 0 0.00027990868767390696 -0.017706366389528789 0 0.0003277495489968777 -0.017595806543089308 0 0.00017587330559047984 -0.01760834659375142 0 0.0003277495489968777 -0.017595806543089308 0 0.00041569562442331784 -0.017567055593618184 0 0.00034833772250393412 -0.01750796693917301 0 0.0003277495489968777 -0.017595806543089308 0 0.00041569562442331784 -0.017567055593618184 0 0.00041822124010476417 -0.017732166601724629 0 0.00041569562442331784 -0.017567055593618184 0 0.00034833772250393412 -0.01750796693917301 0 0.00040456260938733689 -0.017462439748305691 0 0.00034833772250393412 -0.01750796693917301 0 0.00040456260938733689 -0.017462439748305691 0 0.00032933683974380174 -0.017420216666450366 0 0.00032933683974380174 -0.017420216666450366 0 0.00026330263245673036 -0.01749460063526697 0 0.00023934184352468273 -0.01736574298509205 0 0.00034833772250393412 -0.01750796693917301 0 0.00032933683974380174 -0.017420216666450366 0 0.00026330263245673036 -0.01749460063526697 0 0.0003277495489968777 -0.017595806543089308 0 0.00034833772250393412 -0.01750796693917301 0 0.00026330263245673036 -0.01749460063526697 0 0.00016834982580893066 -0.017461082236953442 0 6.3514898353140889e-05 -0.017552496671508117 0 0.00011658636659935265 -0.017297595172771695 0 0.00026330263245673036 -0.01749460063526697 0 0.00016834982580893066 -0.017461082236953442 0 0.00017587330559047984 -0.01760834659375142 0 0.00026330263245673036 -0.01749460063526697 0 0.00016834982580893066 -0.017461082236953442 0 0.00023934184352468273 -0.01736574298509205 0 0.00016834982580893066 -0.017461082236953442 0 6.3514898353140889e-05 -0.017552496671508117 0 0.00017587330559047984 -0.01760834659375142 0 4.656027864894127e-05 -0.017665530755222366 0 6.3514898353140889e-05 -0.017552496671508117 0 0.00017587330559047984 -0.01760834659375142 0 0.00027990868767390696 -0.017706366389528789 0 0.00017587330559047984 -0.01760834659375142 0 0.00013625134865463594 -0.017775807629943956 0 4.656027864894127e-05 -0.017665530755222366 0 0.00017587330559047984 -0.01760834659375142 0 0.00013625134865463594 -0.017775807629943956 0 0.00018466411223824736 -0.018106934471788808 0 0.00032919969564731863 -0.017875998415126593 0 0.0006166196757761153 -0.018049019496725834 0 0.00027990868767390696 -0.017706366389528789 0 0.00013625134865463594 -0.017775807629943956 0 0.00032919969564731863 -0.017875998415126593 0 0.00013625134865463594 -0.017775807629943956 0 0.00018466411223824736 -0.018106934471788808 0 0.00032919969564731863 -0.017875998415126593 0 0.00027990868767390696 -0.017706366389528789 0 0.00032919969564731863 -0.017875998415126593 0 0.00041822124010476417 -0.017732166601724629 0 0.00032919969564731863 -0.017875998415126593 0 0.00041822124010476417 -0.017732166601724629 0 0.0006166196757761153 -0.018049019496725834 0 0.00052108725652110692 -0.01757827455973026 0 0.00041822124010476417 -0.017732166601724629 0 0.0006166196757761153 -0.018049019496725834 0 0.00046338674158418158 -0.017070586240993696 0 0.0006024159936030254 -0.018123826253451356 0 0.00041946000665870562 -0.017158904803854173 0 0.00080868938891967806 -0.017571375311896256 0 0.0006166196757761153 -0.018049019496725834 0 0.00018466411223824736 -0.018106934471788808 0 0.0006166196757761153 -0.018049019496725834 0 0.00062166061363424043 -0.018373749775974241 0 0.0006166196757761153 -0.018049019496725834 0 0.00062166061363424043 -0.018373749775974241 0 0.0011945574765413333 -0.018071069087276206 0 0.00018466411223824736 -0.018106934471788808 0 0.00022460658250838237 -0.018763155829267113 0 0.00062166061363424043 -0.018373749775974241 0 0.00018466411223824736 -0.018106934471788808 0 0.00022460658250838237 -0.018763155829267113 0 -0.00023173722090074212 -0.01882362011258255 0 0.00022460658250838237 -0.018763155829267113 0 0.00062166061363424043 -0.018373749775974241 0 0.00055618885538123556 -0.018792276539084805 0 0.00062166061363424043 -0.018373749775974241 0 0.00055618885538123556 -0.018792276539084805 0 0.00089567408008521087 -0.018320274483258143 0 -0.00084535372827490921 -0.01937750959395225 0 -0.00085426596266803946 -0.019569030810367129 0 -0.00081032528828960029 -0.020230155283935496 0 -0.0011566771950891294 -0.020291982687582033 0 -0.00084228277330990436 -0.019632880906830328 0 -0.00081032528828960029 -0.020230155283935496 0 -0.00097590284303522221 -0.020436919964997736 0 -0.0011566771950891294 -0.020291982687582033 0 0.00018466411223824736 -0.018106934471788808 0 -0.00058102988031926513 -0.018403984974998889 0 -0.00023173722090074212 -0.01882362011258255 0 0.00022460658250838237 -0.018763155829267113 0 -0.00023173722090074212 -0.01882362011258255 0 -0.0002705138337770145 -0.019326927851686673 0 -0.00058102988031926513 -0.018403984974998889 0 -0.00023173722090074212 -0.01882362011258255 0 -0.00084228277330990436 -0.019632880906830328 0 -0.00023173722090074212 -0.01882362011258255 0 -0.00084228277330990436 -0.019632880906830328 0 -0.0002705138337770145 -0.019326927851686673 0 -0.00084228277330990436 -0.019632880906830328 0 -0.00056637969393462406 -0.019866850552482728 0 -0.0002705138337770145 -0.019326927851686673 0 0.0014937374415181057 -0.019187741260761421 0 0.0014289230651496827 -0.019079214707129685 0 0.0035834700787333298 -0.018528634798659453 0 0.0027035203587092052 -0.018680370579275019 0 0.0031548311511280709 -0.01819262352992564 0 -0.00056637969393462406 -0.019866850552482728 0 -0.0002705138337770145 -0.019326927851686673 0 0.00015853800499095554 -0.019524739878598787 0 0.00022460658250838237 -0.018763155829267113 0 -0.0002705138337770145 -0.019326927851686673 0 0.00015853800499095554 -0.019524739878598787 0 0.00022460658250838237 -0.018763155829267113 0 0.00055618885538123556 -0.018792276539084805 0 0.00015853800499095554 -0.019524739878598787 0 0.0027035203587092052 -0.018680370579275019 0 0.0019252943892691186 -0.018016504690744981 0 0.0020145055405485762 -0.018212796017746596 0 0.0014289230651496827 -0.019079214707129685 0 0.0015057582294715859 -0.018619519854594615 0 0.00055618885538123556 -0.018792276539084805 0 0.00096723959409900854 -0.018932088996082334 0 0.00089567408008521087 -0.018320274483258143 0 0.00055618885538123556 -0.018792276539084805 0 0.00015853800499095554 -0.019524739878598787 0 0.00096723959409900854 -0.018932088996082334 0 0.0027035203587092052 -0.018680370579275019 0 0.0020145055405485762 -0.018212796017746596 0 0.00202456511173705 -0.01835548434022434 0 0.0027035203587092052 -0.018680370579275019 0 0.0019252943892691186 -0.018016504690744981 0 0.0031548311511280709 -0.01819262352992564 0 0.0019252943892691186 -0.018016504690744981 0 0.0033265563860269019 -0.017503171407059336 0 0.0031548311511280709 -0.01819262352992564 0 0.0023392709114484146 -0.015968604734118385 0 0.0019252943892691186 -0.018016504690744981 0 0.0033265563860269019 -0.017503171407059336 0 0.0033265563860269019 -0.017503171407059336 0 0.0037499742917193927 -0.018257170800028425 0 0.0031548311511280709 -0.01819262352992564 0 0.0040490217702928797 -0.018046546611900371 0 0.0033265563860269019 -0.017503171407059336 0 0.0037499742917193927 -0.018257170800028425 0 0.0040490217702928797 -0.018046546611900371 0 0.0036550059957909799 -0.018518702067889459 0 0.0037499742917193927 -0.018257170800028425 0 0.0035903000973386235 -0.018337535984645739 0 0.0035834700787333298 -0.018528634798659453 0 0.0037499742917193927 -0.018257170800028425 0 0.0035834700787333298 -0.018528634798659453 0 0.0037499742917193927 -0.018257170800028425 0 0.0031548311511280709 -0.01819262352992564 0 0.0021007815753831031 -0.018120492155737529 0 0.0020920585000964004 -0.018040204177323237 0 0.0023341718860207692 -0.018020037230168279 0 0.0047202271339460465 -0.014536304144826302 0 0.0041907585087775871 -0.014908119622392007 0 0.0069521489183737824 -0.011024078268729962 0 0.00619140063110858 -0.01026039437912756 0 0.005909208065611354 -0.012029773838059817 0 0.0051345267419847657 -0.010423011254006366 0 0.005909208065611354 -0.012029773838059817 0 0.0047278756534962453 -0.011701518085604526 0 0.0051345267419847657 -0.010423011254006366 0 0.00619140063110858 -0.01026039437912756 0 0.005909208065611354 -0.012029773838059817 0 0.0053769440430392517 -0.0094961030748264719 0 0.0051345267419847657 -0.010423011254006366 0 0.00619140063110858 -0.01026039437912756 0 0.0069521489183737824 -0.011024078268729962 0 0.00619140063110858 -0.01026039437912756 0 0.0080022915891552887 -0.010066350478802151 0 0.0047202271339460465 -0.014536304144826302 0 0.0034731487687830178 -0.013807189291906316 0 0.0021007815753831031 -0.018120492155737529 0 0.0020076368052072751 -0.018117359391602507 0 0.0019861714838156751 -0.018094897151560783 0 0.0010523668903127516 -0.018928137515630883 0 0.0034731487687830178 -0.013807189291906316 0 0.00081349275744375948 -0.015745118714484519 0 0.0019252943892691186 -0.018016504690744981 0 -0.00043213929730094526 -0.016981872440473091 0 0.0019252943892691186 -0.018016504690744981 0 0.0020076368052072751 -0.018117359391602507 0 0.0019861714838156751 -0.018094897151560783 0 0.0019252943892691186 -0.018016504690744981 0 0.0019861714838156751 -0.018094897151560783 0 0.0020145055405485762 -0.018212796017746596 0 0.0021007815753831031 -0.018120492155737529 0 0.0019861714838156751 -0.018094897151560783 0 0.0020920585000964004 -0.018040204177323237 0 0.0019861714838156751 -0.018094897151560783 0 0.0019845893821437166 -0.018090389782556726 0 0.0020920585000964004 -0.018040204177323237 0 0.0019845893821437166 -0.018090389782556726 0 0.0021764185154821512 -0.017847712662782757 0 0.0020920585000964004 -0.018040204177323237 0 0.0019845893821437166 -0.018090389782556726 0 0.0020145055405485762 -0.018212796017746596 0 0.00202456511173705 -0.01835548434022434 0 0.0019861714838156751 -0.018094897151560783 0 0.0019845893821437166 -0.018090389782556726 0 0.0020145055405485762 -0.018212796017746596 0 0.0015057582294715859 -0.018619519854594615 0 0.001953245357060459 -0.0180579740802592 0 0.00096723959409900854 -0.018932088996082334 0 0.0019876181554216513 -0.017944993566588491 0 0.0015475119729483893 -0.017840554846901689 0 0.0019845893821437166 -0.018090389782556726 0 0.0019876181554216513 -0.017944993566588491 0 0.0021764185154821512 -0.017847712662782757 0 0.0019845893821437166 -0.018090389782556726 0 0.00202456511173705 -0.01835548434022434 0 0.0019876181554216513 -0.017944993566588491 0 0.0019876181554216513 -0.017944993566588491 0 0.0023910033604623909 -0.017380279939753562 0 0.0022764150160320194 -0.017391442081719343 0 0.0019876181554216513 -0.017944993566588491 0 0.0021764185154821512 -0.017847712662782757 0 0.0023910033604623909 -0.017380279939753562 0 0.0021764185154821512 -0.017847712662782757 0 0.0020920585000964004 -0.018040204177323237 0 0.0023341718860207692 -0.018020037230168279 0 0.0018075973800623811 -0.018123870756652803 0 0.0034003621029951819 -0.016149937736643489 0 0.005909208065611354 -0.012029773838059817 0 0.0049384433528508881 -0.012278149084984352 0 0.0049179057122783077 -0.012953303622540003 0 0.0021764185154821512 -0.017847712662782757 0 0.0023341718860207692 -0.018020037230168279 0 0.0026180683247400602 -0.017764807309343583 0 0.0041907585087775871 -0.014908119622392007 0 0.0034003621029951819 -0.016149937736643489 0 0.0021764185154821512 -0.017847712662782757 0 0.0023910033604623909 -0.017380279939753562 0 0.0026386214688499717 -0.017136319514148176 0 0.0023910033604623909 -0.017380279939753562 0 0.002595826697485413 -0.017047392824949766 0 0.0026386214688499717 -0.017136319514148176 0 0.0023910033604623909 -0.017380279939753562 0 0.0025519740399827092 -0.017075196710178809 0 0.002595826697485413 -0.017047392824949766 0 0.0025519740399827092 -0.017075196710178809 0 0.0024618124072061172 -0.017172867013097875 0 0.0026073266855602142 -0.016931546957448321 0 0.0023910033604623909 -0.017380279939753562 0 0.0025519740399827092 -0.017075196710178809 0 0.0024618124072061172 -0.017172867013097875 0 0.0024618124072061172 -0.017172867013097875 0 0.0024920924335720333 -0.016972247673268014 0 0.0026073266855602142 -0.016931546957448321 0 0.0024618124072061172 -0.017172867013097875 0 0.0022764150160320194 -0.017391442081719343 0 0.0024920924335720333 -0.016972247673268014 0 0.0023910033604623909 -0.017380279939753562 0 0.0024618124072061172 -0.017172867013097875 0 0.0022764150160320194 -0.017391442081719343 0 0.0019876181554216513 -0.017944993566588491 0 0.0022764150160320194 -0.017391442081719343 0 0.0020423565168115583 -0.017372614033524029 0 0.0022764150160320194 -0.017391442081719343 0 0.0024920924335720333 -0.016972247673268014 0 0.0020423565168115583 -0.017372614033524029 0 0.0021220594678978623 -0.016951530066094782 0 0.0024920924335720333 -0.016972247673268014 0 0.0020423565168115583 -0.017372614033524029 0 0.0021220594678978623 -0.016951530066094782 0 0.0024920924335720333 -0.016972247673268014 0 0.0023443844389211509 -0.016785983425625747 0 0.0024920924335720333 -0.016972247673268014 0 0.0025414860846570864 -0.016781351910828121 0 0.0026475147318396346 -0.016861513383012491 0 0.0024920924335720333 -0.016972247673268014 0 0.0025414860846570864 -0.016781351910828121 0 0.0023443844389211509 -0.016785983425625747 0 0.00096723959409900854 -0.018932088996082334 0 0.00089567408008521087 -0.018320274483258143 0 0.0015475119729483893 -0.017840554846901689 0 0.00089567408008521087 -0.018320274483258143 0 0.0015475119729483893 -0.017840554846901689 0 0.001418296412317648 -0.016962612172398764 0 0.0019876181554216513 -0.017944993566588491 0 0.0020423565168115583 -0.017372614033524029 0 0.0015475119729483893 -0.017840554846901689 0 0.0020423565168115583 -0.017372614033524029 0 0.0015475119729483893 -0.017840554846901689 0 0.001418296412317648 -0.016962612172398764 0 0.0021220594678978623 -0.016951530066094782 0 0.0020423565168115583 -0.017372614033524029 0 0.001418296412317648 -0.016962612172398764 0 0.0021220594678978623 -0.016951530066094782 0 0.001418296412317648 -0.016962612172398764 0 0.001896721242905664 -0.01663795729120927 0 0.00062166061363424043 -0.018373749775974241 0 0.00089567408008521087 -0.018320274483258143 0 0.0011945574765413333 -0.018071069087276206 0 0.00097094814202318294 -0.01816418357171341 0 0.0012085589595785024 -0.017729314891264607 0 0.00080868938891967806 -0.017571375311896256 0 0.0011945574765413333 -0.018071069087276206 0 0.0011104785136323585 -0.0173015423205451 0 0.00080868938891967806 -0.017571375311896256 0 0.0006166196757761153 -0.018049019496725834 0 0.0011945574765413333 -0.018071069087276206 0 0.0011945574765413333 -0.018071069087276206 0 0.0016374878081584455 -0.017365064804232031 0 0.0011104785136323585 -0.0173015423205451 0 0.0012085589595785024 -0.017729314891264607 0 0.0021267256573368246 -0.015901520042567615 0 0.001418296412317648 -0.016962612172398764 0 0.001896721242905664 -0.01663795729120927 0 0.0018211912214462823 -0.01629210344505062 0 0.001896721242905664 -0.01663795729120927 0 0.0019892440783667686 -0.016322544530529042 0 0.0020887663414051534 -0.016675429708984123 0 0.001896721242905664 -0.01663795729120927 0 0.0019892440783667686 -0.016322544530529042 0 0.0018211912214462823 -0.01629210344505062 0 0.0027028654361384171 -0.017333244976483142 0 0.002239210673027698 -0.016952647796262266 0 0.0016549475561169512 -0.017235548672622225 0 0.0021267256573368246 -0.015901520042567615 0 0.0013981769589411512 -0.01725564767190331 0 0.0027307287158187506 -0.014786773711409866 0 0.0021267256573368246 -0.015901520042567615 0 0.0025654220492320294 -0.014642797393189064 0 0.0035368065730950024 -0.014773298276071623 0 0.0032099276489072565 -0.015353780826111 0 0.0027307287158187506 -0.014786773711409866 0 0.0033141268709468859 -0.013094812315429558 0 0.0021267256573368246 -0.015901520042567615 0 0.0033141268709468859 -0.013094812315429558 0 0.0033141268709468859 -0.013094812315429558 0 0.0045140226354770021 -0.007736351492380807 0 0.0039729175398231743 -0.011454284504350617 0 0.0043978650619695128 -0.011918127396578704 0 0.0042186984135561493 -0.012234024361616245 0 0.0053791942677978571 -0.0093546299609507059 0 0.0052716764843529712 -0.0092787368885984753 0 0.0053510519311073057 -0.0087144759601470185 0 0.0053061680741937753 -0.00947403127827561 0 0.005369060290172852 -0.0093556074901235391 0 0.0052716764843529712 -0.0092787368885984753 0 0.0045140226354770021 -0.007736351492380807 0 0.0048526113391087165 -0.0080740002205262427 0 0.0033141268709468859 -0.013094812315429558 0 0.0034979160566941006 -0.012682330728370524 0 0.0028159940625978319 -0.01713041109358282 0 0.002239210673027698 -0.016952647796262266 0 0.0021134443695199723 -0.016349799346405326 0 0.0053061680741937753 -0.00947403127827561 0 0.0052716764843529712 -0.0092787368885984753 0 0.0048309963364963166 -0.0089420487263199948 0 0.0027028654361384171 -0.017333244976483142 0 0.0028159940625978319 -0.01713041109358282 0 0.002239210673027698 -0.016952647796262266 0 0.00054374550996506464 -0.017152640652441386 0 0.0016549475561169512 -0.017235548672622225 0 0.0011395413698118246 -0.016769677675450664 0 0.002239210673027698 -0.016952647796262266 0 0.0016700039501704284 -0.016628636818656922 0 0.0021134443695199723 -0.016349799346405326 0 0.002239210673027698 -0.016952647796262266 0 0.0016549475561169512 -0.017235548672622225 0 0.0016700039501704284 -0.016628636818656922 0 0.0016549475561169512 -0.017235548672622225 0 0.0016700039501704284 -0.016628636818656922 0 0.0011395413698118246 -0.016769677675450664 0 0.0016700039501704284 -0.016628636818656922 0 0.0011395413698118246 -0.016769677675450664 0 0.0012472412891293271 -0.01633131225840816 0 0.0011395413698118246 -0.016769677675450664 0 0.0012472412891293271 -0.01633131225840816 0 0.00097140152659048551 -0.016531455844029971 0 0.0019476179051369073 -0.016196892542553996 0 0.0028752757153343361 -0.011581521077458176 0 0.0059179484363662297 -0.0022733374692153635 0 0.0057653799207392853 -0.0023693531074666851 0 0.0063785437879321713 -0.0022698815213859037 0 0.0028752757153343361 -0.011581521077458176 0 0.0041178947878519187 -0.0078674453508290627 0 0.0013038552635800944 -0.014864685130367927 0 0.00075231127198708008 -0.014374336541351644 0 0.0016392934781934159 -0.014574204988329072 0 0.0025414860846570864 -0.016781351910828121 0 0.0023443844389211509 -0.016785983425625747 0 0.0022419888542040372 -0.016466185372633873 0 0.0021220594678978623 -0.016951530066094782 0 0.0023443844389211509 -0.016785983425625747 0 0.0020887663414051534 -0.016675429708984123 0 0.0021220594678978623 -0.016951530066094782 0 0.001896721242905664 -0.01663795729120927 0 0.0020887663414051534 -0.016675429708984123 0 0.0027307287158187506 -0.014786773711409866 0 0.0023653453226653272 -0.017074856321913232 0 0.002063473430783181 -0.016432573760005533 0 0.0023443844389211509 -0.016785983425625747 0 0.0022419888542040372 -0.016466185372633873 0 0.0019892440783667686 -0.016322544530529042 0 0.0023443844389211509 -0.016785983425625747 0 0.0020887663414051534 -0.016675429708984123 0 0.0059179484363662297 -0.0022733374692153635 0 0.0057653799207392853 -0.0023693531074666851 0 0.0057876477036131321 -0.0017027799397576846 0 0.0049625642791583241 -0.0019046055369511272 0 0.0057653799207392853 -0.0023693531074666851 0 0.0057876477036131321 -0.0017027799397576846 0 0.0027307287158187506 -0.014786773711409866 0 0.0028752757153343361 -0.011581521077458176 0 0.0039729175398231743 -0.011454284504350617 0 0.0042186984135561493 -0.012234024361616245 0 0.0029671274385995312 -0.011321671890400726 0 0.0045140226354770021 -0.007736351492380807 0 0.0028752757153343361 -0.011581521077458176 0 0.0059179484363662297 -0.0022733374692153635 0 0.0057876477036131321 -0.0017027799397576846 0 0.0065897786293758831 -0.0014127578748983449 0 0.0059179484363662297 -0.0022733374692153635 0 0.0065897786293758831 -0.0014127578748983449 0 0.0075041954346549058 -0.0019567571861706557 0 0.0059179484363662297 -0.0022733374692153635 0 0.0063785437879321713 -0.0022698815213859037 0 0.006366856247607717 -0.0020841061182865863 0 0.0059846504233219255 -0.0022538419771769547 0 0.0069781397673485453 -0.0019777165102413063 0 0.0065897786293758831 -0.0014127578748983449 0 0.0073673678160362244 -0.001110548745846311 0 0.0075041954346549058 -0.0019567571861706557 0 0.0065897786293758831 -0.0014127578748983449 0 0.0069436633624046298 -0.00029792234706691465 0 0.005736562622551746 -0.000424085166172234 0 0.0065897786293758831 -0.0014127578748983449 0 0.0069436633624046298 -0.00029792234706691465 0 0.0073673678160362244 -0.001110548745846311 0 0.0053791942677978571 -0.0093546299609507059 0 0.0058879376113955117 -0.0084470556136075365 0 0.0053510519311073057 -0.0087144759601470185 0 0.0049625642791583241 -0.0019046055369511272 0 0.0057876477036131321 -0.0017027799397576846 0 0.005736562622551746 -0.000424085166172234 0 0.0045140226354770021 -0.007736351492380807 0 0.0059964042672771009 -0.0040326069391041141 0 0.0057876477036131321 -0.0017027799397576846 0 0.0065897786293758831 -0.0014127578748983449 0 0.005736562622551746 -0.000424085166172234 0 0.0058879376113955117 -0.0084470556136075365 0 0.0055943147990319105 -0.0077611591027201398 0 0.0051392041243193669 -0.0082416541362387765 0 0.0059964042672771009 -0.0040326069391041141 0 0.0065080577898043125 -0.0032684090224754598 0 0.0058879376113955117 -0.0084470556136075365 0 0.0055943147990319105 -0.0077611591027201398 0 0.0063754221853716021 -0.007575975340484117 0 0.0069436633624046298 -0.00029792234706691465 0 0.0066452391514366573 0.0010727917624592223 0 0.0074911612852098268 0.0005203424642312753 0 0.0069436633624046298 -0.00029792234706691465 0 0.005736562622551746 -0.000424085166172234 0 0.0066452391514366573 0.0010727917624592223 0 0.0063754221853716021 -0.007575975340484117 0 0.0063644890047037583 -0.0070397627357819204 0 0.0069068975906305709 -0.0067533588701354005 0 0.0066452391514366573 0.0010727917624592223 0 0.0076340812354469684 0.0015128690494893458 0 0.0074666532643007759 0.0021830484165984939 0 0.0065080577898043125 -0.0032684090224754598 0 0.0070386608939528826 -0.0026907777252369583 0 0.0066452391514366573 0.0010727917624592223 0 0.0074911612852098268 0.0005203424642312753 0 0.0076340812354469684 0.0015128690494893458 0 0.0063754221853716021 -0.007575975340484117 0 0.0058659131001476059 -0.007269669950416423 0 0.0063644890047037583 -0.0070397627357819204 0 0.0055943147990319105 -0.0077611591027201398 0 0.0063754221853716021 -0.007575975340484117 0 0.0058659131001476059 -0.007269669950416423 0 0.0055943147990319105 -0.0077611591027201398 0 0.0058659131001476059 -0.007269669950416423 0 0.005290653645583291 -0.0073258692697002895 0 0.0058659131001476059 -0.007269669950416423 0 0.00554852683155262 -0.0069967638550480996 0 0.005290653645583291 -0.0073258692697002895 0 0.0058659131001476059 -0.007269669950416423 0 0.0060108792726026941 -0.0067610584833359992 0 0.0063644890047037583 -0.0070397627357819204 0 0.0060108792726026941 -0.0067610584833359992 0 0.00554852683155262 -0.0069967638550480996 0 0.0055423270511119598 -0.0065612585250962793 0 0.0058659131001476059 -0.007269669950416423 0 0.0060108792726026941 -0.0067610584833359992 0 0.00554852683155262 -0.0069967638550480996 0 0.0060108792726026941 -0.0067610584833359992 0 0.0055423270511119598 -0.0065612585250962793 0 0.005764578629824226 -0.0062089047243712846 0 0.0060108792726026941 -0.0067610584833359992 0 0.0063773855658277451 -0.0063778662881003494 0 0.005764578629824226 -0.0062089047243712846 0 0.0060108792726026941 -0.0067610584833359992 0 0.0064997650576348216 -0.0066990490088299067 0 0.0063773855658277451 -0.0063778662881003494 0 0.0064997650576348216 -0.0066990490088299067 0 0.0066835559298764327 -0.0065083281723111383 0 0.0063773855658277451 -0.0063778662881003494 0 0.0066835559298764327 -0.0065083281723111383 0 0.0069068975906305709 -0.0067533588701354005 0 0.0069457795286023711 -0.0061895591301837508 0 0.0064997650576348216 -0.0066990490088299067 0 0.0066835559298764327 -0.0065083281723111383 0 0.0069068975906305709 -0.0067533588701354005 0 0.0064997650576348216 -0.0066990490088299067 0 0.0063644890047037583 -0.0070397627357819204 0 0.0069068975906305709 -0.0067533588701354005 0 0.0060108792726026941 -0.0067610584833359992 0 0.0064997650576348216 -0.0066990490088299067 0 0.0063644890047037583 -0.0070397627357819204 0 0.0046032412920125297 -0.0068239639016080657 0 0.0048741061883740677 -0.0065921853961727781 0 0.004890790496788016 -0.0070475575338689884 0 0.0042916469246358823 -0.0069872161298938544 0 0.004308776723047145 -0.0065668232235586675 0 0.004069690338951595 -0.0068240449428027417 0 0.0046032412920125297 -0.0068239639016080657 0 0.0042916469246358823 -0.0069872161298938544 0 0.0045470615988124482 -0.0072793441491063541 0 0.0046032412920125297 -0.0068239639016080657 0 0.0042916469246358823 -0.0069872161298938544 0 0.004308776723047145 -0.0065668232235586675 0 0.0046032412920125297 -0.0068239639016080657 0 0.004308776723047145 -0.0065668232235586675 0 0.0046594255726274403 -0.0062756782447316159 0 0.0046032412920125297 -0.0068239639016080657 0 0.0048741061883740677 -0.0065921853961727781 0 0.0046594255726274403 -0.0062756782447316159 0 0.0048741061883740677 -0.0065921853961727781 0 0.0052122712443657378 -0.006787450694528044 0 0.0051695184429200649 -0.0062257399156054622 0 0.0055423270511119598 -0.0065612585250962793 0 0.0052122712443657378 -0.006787450694528044 0 0.0051695184429200649 -0.0062257399156054622 0 0.00554852683155262 -0.0069967638550480996 0 0.0055423270511119598 -0.0065612585250962793 0 0.0052122712443657378 -0.006787450694528044 0 0.00554852683155262 -0.0069967638550480996 0 0.0052122712443657378 -0.006787450694528044 0 0.005290653645583291 -0.0073258692697002895 0 0.0048741061883740677 -0.0065921853961727781 0 0.0052122712443657378 -0.006787450694528044 0 0.004890790496788016 -0.0070475575338689884 0 0.004890790496788016 -0.0070475575338689884 0 0.005290653645583291 -0.0073258692697002895 0 0.0048765696011558845 -0.0074389791636424981 0 0.0052122712443657378 -0.006787450694528044 0 0.004890790496788016 -0.0070475575338689884 0 0.005290653645583291 -0.0073258692697002895 0 0.0055943147990319105 -0.0077611591027201398 0 0.005290653645583291 -0.0073258692697002895 0 0.0050737866415295693 -0.0077772835575563486 0 0.005290653645583291 -0.0073258692697002895 0 0.0048765696011558845 -0.0074389791636424981 0 0.0050737866415295693 -0.0077772835575563486 0 0.0048765696011558845 -0.0074389791636424981 0 0.004578625529122117 -0.0077703220011038259 0 0.0050737866415295693 -0.0077772835575563486 0 0.0048765696011558845 -0.0074389791636424981 0 0.0045470615988124482 -0.0072793441491063541 0 0.004578625529122117 -0.0077703220011038259 0 0.004890790496788016 -0.0070475575338689884 0 0.0048765696011558845 -0.0074389791636424981 0 0.0045470615988124482 -0.0072793441491063541 0 0.0046032412920125297 -0.0068239639016080657 0 0.004890790496788016 -0.0070475575338689884 0 0.0045470615988124482 -0.0072793441491063541 0 0.0042916469246358823 -0.0069872161298938544 0 0.0042676391808485177 -0.0072721186764153579 0 0.004102391466922397 -0.0071078517601312003 0 0.0042916469246358823 -0.0069872161298938544 0 0.0045470615988124482 -0.0072793441491063541 0 0.0042676391808485177 -0.0072721186764153579 0 0.0045470615988124482 -0.0072793441491063541 0 0.0042676391808485177 -0.0072721186764153579 0 0.0043618195932061841 -0.007493710296753873 0 0.0043618195932061841 -0.007493710296753873 0 0.0043027066111006483 -0.0076913145753381628 0 0.0041155430940631454 -0.007457771599512465 0 0.0045470615988124482 -0.0072793441491063541 0 0.0043618195932061841 -0.007493710296753873 0 0.004578625529122117 -0.0077703220011038259 0 0.0042676391808485177 -0.0072721186764153579 0 0.0043618195932061841 -0.007493710296753873 0 0.0041155430940631454 -0.007457771599512465 0 0.0043618195932061841 -0.007493710296753873 0 0.0043027066111006483 -0.0076913145753381628 0 0.004578625529122117 -0.0077703220011038259 0 0.0026660260532149647 -0.011447877167757444 0 0.0052340783473111985 -0.0081012720871045905 0 0.0043027066111006483 -0.0076913145753381628 0 0.0041824577219983705 -0.0080510137010982204 0 0.0041155430940631454 -0.007457771599512465 0 0.0043027066111006483 -0.0076913145753381628 0 0.0041824577219983705 -0.0080510137010982204 0 0.004578625529122117 -0.0077703220011038259 0 0.0041718712707893161 -0.0080553746884307383 0 0.004578625529122117 -0.0077703220011038259 0 0.0046735034669961048 -0.0081361137776604069 0 0.004578625529122117 -0.0077703220011038259 0 0.0046735034669961048 -0.0081361137776604069 0 0.0050737866415295693 -0.0077772835575563486 0 0.0046735034669961048 -0.0081361137776604069 0 0.0048684752101790527 -0.0084900689964479536 0 0.0043433772409456331 -0.0084152112087532809 0 0.0021034650876171276 -0.013504925132656088 0 0.0017969355160211981 -0.01285158189717058 0 0.0022803434305476711 -0.013385851521432974 0 0.0026660260532149647 -0.011447877167757444 0 0.0021628118108978347 -0.013084722187249877 0 0.0041718712707893161 -0.0080553746884307383 0 0.0046735034669961048 -0.0081361137776604069 0 0.0043433772409456331 -0.0084152112087532809 0 0.0021628118108978347 -0.013084722187249877 0 0.0011615995937220586 -0.013849230902767604 0 0.0055943147990319105 -0.0077611591027201398 0 0.0050737866415295693 -0.0077772835575563486 0 0.0051392041243193669 -0.0082416541362387765 0 0.0046735034669961048 -0.0081361137776604069 0 0.0051392041243193669 -0.0082416541362387765 0 0.0048684752101790527 -0.0084900689964479536 0 0.0046735034669961048 -0.0081361137776604069 0 0.0050737866415295693 -0.0077772835575563486 0 0.0051392041243193669 -0.0082416541362387765 0 0.0058879376113955117 -0.0084470556136075365 0 0.0051392041243193669 -0.0082416541362387765 0 0.0053510519311073057 -0.0087144759601470185 0 0.0051392041243193669 -0.0082416541362387765 0 0.0048684752101790527 -0.0084900689964479536 0 0.0053510519311073057 -0.0087144759601470185 0 0.0048684752101790527 -0.0084900689964479536 0 0.0053510519311073057 -0.0087144759601470185 0 0.0048309963364963166 -0.0089420487263199948 0 0.0052716764843529712 -0.0092787368885984753 0 0.0053510519311073057 -0.0087144759601470185 0 0.0048309963364963166 -0.0089420487263199948 0 0.0011564166557676402 -0.01595415011594508 0 0.0013777062155343029 -0.015515143962786068 0 0.00081017651787697656 -0.015683892863670182 0 0.0015821591302747592 -0.015960086195576349 0 0.0011564166557676402 -0.01595415011594508 0 0.0013777062155343029 -0.015515143962786068 0 0.002354133654158009 -0.015179153067483131 0 0.0021628118108978347 -0.013084722187249877 0 0.0015821591302747592 -0.015960086195576349 0 0.0013847523439832735 -0.015504103544306078 0 0.0021134443695199723 -0.016349799346405326 0 0.0021628118108978347 -0.013084722187249877 0 0.0034979160566941006 -0.012682330728370524 0 0.0048684752101790527 -0.0084900689964479536 0 0.0043433772409456331 -0.0084152112087532809 0 0.0048309963364963166 -0.0089420487263199948 0 0.0016700039501704284 -0.016628636818656922 0 0.0015821591302747592 -0.015960086195576349 0 0.0021134443695199723 -0.016349799346405326 0 0.0016700039501704284 -0.016628636818656922 0 0.0015821591302747592 -0.015960086195576349 0 0.0012472412891293271 -0.01633131225840816 0 0.0015821591302747592 -0.015960086195576349 0 0.0011564166557676402 -0.01595415011594508 0 0.0012472412891293271 -0.01633131225840816 0 0.0012472412891293271 -0.01633131225840816 0 0.00097140152659048551 -0.016531455844029971 0 0.00075984894957610246 -0.016280397197210788 0 0.00052108725652110692 -0.01757827455973026 0 0.00046427996998495418 -0.017069214686225791 0 0.00037210639436466324 -0.017271828950557948 0 0.00041946000665870562 -0.017158904803854173 0 0.00075984894957610246 -0.016280397197210788 0 0.00022413446584166095 -0.015561292466670184 0 0.00046338674158418158 -0.017070586240993696 0 0.00032421157457315498 -0.01763836699058324 0 0.00073650893941272944 -0.016743427403652082 0 0.00097140152659048551 -0.016531455844029971 0 0.00075984894957610246 -0.016280397197210788 0 0.0011564166557676402 -0.01595415011594508 0 0.0012472412891293271 -0.01633131225840816 0 0.00075984894957610246 -0.016280397197210788 0 0.0011564166557676402 -0.01595415011594508 0 0.00075984894957610246 -0.016280397197210788 0 0.00081017651787697656 -0.015683892863670182 0 0.00075984894957610246 -0.016280397197210788 0 0.00081017651787697656 -0.015683892863670182 0 0.00022413446584166095 -0.015561292466670184 0 0.00032421157457315498 -0.01763836699058324 0 -8.9290076049942975e-05 -0.01979751947572516 0 0.00040456260938733689 -0.017462439748305691 0 0.00032933683974380174 -0.017420216666450366 0 0.00037210639436466324 -0.017271828950557948 0 0.00046427996998495418 -0.017069214686225791 0 0.00037210639436466324 -0.017271828950557948 0 0.00011658636659935265 -0.017297595172771695 0 -8.9290076049942975e-05 -0.01979751947572516 0 0.00017863476170739797 -0.020893590386200533 0 0.00019792315400686281 -0.020824621085941863 0 0.00026081036680403831 -0.020653575255648045 0 0.00016583742214520102 -0.020714513447317982 0 0.00027408310784663684 -0.020656009702311486 0 0.00026066601392129733 -0.020634747177094771 0 0.00026081036680403831 -0.020653575255648045 0 0.00032933683974380174 -0.017420216666450366 0 0.00037210639436466324 -0.017271828950557948 0 0.00023934184352468273 -0.01736574298509205 0 0.00037210639436466324 -0.017271828950557948 0 0.00023934184352468273 -0.01736574298509205 0 0.00011658636659935265 -0.017297595172771695 0 0.00016834982580893066 -0.017461082236953442 0 0.00023934184352468273 -0.01736574298509205 0 0.00011658636659935265 -0.017297595172771695 0 0.00026081036680403831 -0.020653575255648045 0 0.00028584210104667251 -0.020566190472676184 0 0.00022766713893775635 -0.020603336671129669 0 0.00027408310784663684 -0.020656009702311486 0 0.00026081036680403831 -0.020653575255648045 0 0.00028584210104667251 -0.020566190472676184 0 0.00026081036680403831 -0.020653575255648045 0 0.00018685050180164433 -0.020648016661428882 0 0.00016583742214520102 -0.020714513447317982 0 0.00026081036680403831 -0.020653575255648045 0 0.00018685050180164433 -0.020648016661428882 0 0.00022766713893775635 -0.020603336671129669 0 0.00018685050180164433 -0.020648016661428882 0 0.00016931969201368921 -0.020597965093392987 0 0.00022766713893775635 -0.020603336671129669 0 0.00089598504175163846 -0.016114698629922031 0 0.00065728790145268257 -0.016270256051443964 0 0.00094593073535666347 -0.016596917300501578 0 0.0011615995937220586 -0.013849230902767604 0 0.00096438998332715252 -0.017379891604984956 0 0.00032421157457315498 -0.01763836699058324 0 0.00096438998332715252 -0.017379891604984956 0 7.3430861929911647e-05 -0.014322411073450159 0 0.00023649433650062008 -0.014213067037650224 0 0.0011453201823142362 -0.015274358645766801 0 0.0013777062155343029 -0.015515143962786068 0 0.00081017651787697656 -0.015683892863670182 0 0.00096549109430224479 -0.015054540897181527 0 0.00081017651787697656 -0.015683892863670182 0 0.00022413446584166095 -0.015561292466670184 0 0.00096549109430224479 -0.015054540897181527 0 0.00032421157457315498 -0.01763836699058324 0 0.0011615995937220586 -0.013849230902767604 0 0.0026660260532149647 -0.011447877167757444 0 0.0011615995937220586 -0.013849230902767604 0 -6.0242839039413424e-05 -0.020817819599064837 0 7.8246314178040455e-06 -0.020741937266429655 0 -0.0001113664806161129 -0.020733847936516635 0 -6.0242839039413424e-05 -0.020817819599064837 0 2.5620568369105699e-05 -0.020824736949628067 0 7.8246314178040455e-06 -0.020741937266429655 0 -3.890566898613955e-05 -0.020887169737835849 0 -6.0242839039413424e-05 -0.020817819599064837 0 2.5620568369105699e-05 -0.020824736949628067 0 2.5620568369105699e-05 -0.020824736949628067 0 9.0689168130678107e-05 -0.020765896481715406 0 7.8246314178040455e-06 -0.020741937266429655 0 9.0689168130678107e-05 -0.020765896481715406 0 0.00010524394886413831 -0.020826859551904955 0 0.00013904764543154602 -0.020782831367097913 0 2.5620568369105699e-05 -0.020824736949628067 0 9.0689168130678107e-05 -0.020765896481715406 0 0.00010524394886413831 -0.020826859551904955 0 6.7580063263228898e-05 -0.020913483434168375 0 2.5620568369105699e-05 -0.020824736949628067 0 0.00010524394886413831 -0.020826859551904955 0 0.00019792315400686281 -0.020824621085941863 0 0.00010524394886413831 -0.020826859551904955 0 0.00013904764543154602 -0.020782831367097913 0 6.7580063263228898e-05 -0.020913483434168375 0 0.00019792315400686281 -0.020824621085941863 0 0.00010524394886413831 -0.020826859551904955 0 9.0689168130678107e-05 -0.020765896481715406 0 0.00013904764543154602 -0.020782831367097913 0 0.00016583742214520102 -0.020714513447317982 0 0.00019792315400686281 -0.020824621085941863 0 0.00013904764543154602 -0.020782831367097913 0 0.00016583742214520102 -0.020714513447317982 0 0.00018685050180164433 -0.020648016661428882 0 0.00016583742214520102 -0.020714513447317982 0 0.00010465316526721433 -0.020672905281953799 0 0.00018685050180164433 -0.020648016661428882 0 0.00010465316526721433 -0.020672905281953799 0 0.00016931969201368921 -0.020597965093392987 0 9.0689168130678107e-05 -0.020765896481715406 0 0.00016583742214520102 -0.020714513447317982 0 0.00010465316526721433 -0.020672905281953799 0 9.0689168130678107e-05 -0.020765896481715406 0 0.00010465316526721433 -0.020672905281953799 0 7.8246314178040455e-06 -0.020741937266429655 0 7.8246314178040455e-06 -0.020741937266429655 0 9.5508858729892056e-06 -0.020641795119493198 0 -0.0001113664806161129 -0.020733847936516635 0 0.00010465316526721433 -0.020672905281953799 0 9.5508858729892056e-06 -0.020641795119493198 0 9.6051769748699696e-05 -0.020590983872537084 0 0.00010465316526721433 -0.020672905281953799 0 7.8246314178040455e-06 -0.020741937266429655 0 9.5508858729892056e-06 -0.020641795119493198 0 9.5508858729892056e-06 -0.020641795119493198 0 5.0179926506070163e-05 -0.020522367152947703 0 -0.00010089739784064707 -0.020588954131641874 0 9.5508858729892056e-06 -0.020641795119493198 0 9.6051769748699696e-05 -0.020590983872537084 0 5.0179926506070163e-05 -0.020522367152947703 0 9.6051769748699696e-05 -0.020590983872537084 0 0.00014348009993140384 -0.020519666310558408 0 5.0179926506070163e-05 -0.020522367152947703 0 0.00010465316526721433 -0.020672905281953799 0 9.6051769748699696e-05 -0.020590983872537084 0 0.00016931969201368921 -0.020597965093392987 0 9.6051769748699696e-05 -0.020590983872537084 0 0.00016931969201368921 -0.020597965093392987 0 0.00014348009993140384 -0.020519666310558408 0 0.00016931969201368921 -0.020597965093392987 0 0.00014348009993140384 -0.020519666310558408 0 0.00020799108476992649 -0.020552746423441251 0 0.00014348009993140384 -0.020519666310558408 0 0.00020799108476992649 -0.020552746423441251 0 0.00020802272034866617 -0.020474747510663922 0 0.00014348009993140384 -0.020519666310558408 0 0.00020802272034866617 -0.020474747510663922 0 0.00012859264686012657 -0.020374042822135032 0 0.00014348009993140384 -0.020519666310558408 0 5.0179926506070163e-05 -0.020522367152947703 0 0.00012859264686012657 -0.020374042822135032 0 0.0010058955217723839 -0.018463914806341072 0 0.0012841155154797396 -0.018761058127883989 0 -3.7167886586241988e-06 -0.020434128410797489 0 5.0179926506070163e-05 -0.020522367152947703 0 -0.00010089739784064707 -0.020588954131641874 0 -3.7167886586241988e-06 -0.020434128410797489 0 5.0179926506070163e-05 -0.020522367152947703 0 0.00012859264686012657 -0.020374042822135032 0 0.0041824577219983705 -0.0080510137010982204 0 0.0041155430940631454 -0.007457771599512465 0 0.0037649551356878554 -0.007001932662183759 0 7.3430861929911647e-05 -0.014322411073450159 0 0.0011453201823142362 -0.015274358645766801 0 0.0008483935532432081 -0.016055538732611476 0 0.0026660260532149647 -0.011447877167757444 0 0.0022257905946484898 -0.011450310630994468 0 0.0011453201823142362 -0.015274358645766801 0 0.0011625223227224759 -0.016259914652373825 0 0.0008483935532432081 -0.016055538732611476 0 0.0042676391808485177 -0.0072721186764153579 0 0.004102391466922397 -0.0071078517601312003 0 0.0041155430940631454 -0.007457771599512465 0 0.004102391466922397 -0.0071078517601312003 0 0.0041155430940631454 -0.007457771599512465 0 0.0037649551356878554 -0.007001932662183759 0 0.00028584210104667251 -0.020566190472676184 0 0.00022766713893775635 -0.020603336671129669 0 0.00020799108476992649 -0.020552746423441251 0 0.00016931969201368921 -0.020597965093392987 0 0.00022766713893775635 -0.020603336671129669 0 0.00020799108476992649 -0.020552746423441251 0 0.00028584210104667251 -0.020566190472676184 0 0.00020799108476992649 -0.020552746423441251 0 0.00020802272034866617 -0.020474747510663922 0 0.0010918659290192749 -0.01555848392942551 0 0.0011625223227224759 -0.016259914652373825 0 0.0017833131514468283 -0.016321038243752001 0 0.00096438998332715252 -0.017379891604984956 0 0.0010058955217723839 -0.018463914806341072 0 0.00096438998332715252 -0.017379891604984956 0 0.0010728527038904772 -0.015599693519324085 0 0.0011625223227224759 -0.016259914652373825 0 0.0008483935532432081 -0.016055538732611476 0 0.0014765547009032544 -0.017386604446661381 0 0.0022257905946484898 -0.011450310630994468 0 0.0025133284673609199 -0.011737246295417794 0 0.0011625223227224759 -0.016259914652373825 0 0.0017833131514468283 -0.016321038243752001 0 0.0014765547009032544 -0.017386604446661381 0 0.0037649551356878554 -0.007001932662183759 0 0.0039582339228193585 -0.0063871432973674454 0 0.0034800098821478401 -0.0060033071567652807 0 0.004102391466922397 -0.0071078517601312003 0 0.0037649551356878554 -0.007001932662183759 0 0.004069690338951595 -0.0068240449428027417 0 0.0037649551356878554 -0.007001932662183759 0 0.004069690338951595 -0.0068240449428027417 0 0.0039582339228193585 -0.0063871432973674454 0 0.0042916469246358823 -0.0069872161298938544 0 0.004102391466922397 -0.0071078517601312003 0 0.004069690338951595 -0.0068240449428027417 0 0.004308776723047145 -0.0065668232235586675 0 0.004069690338951595 -0.0068240449428027417 0 0.0039582339228193585 -0.0063871432973674454 0 0.004308776723047145 -0.0065668232235586675 0 0.0039582339228193585 -0.0063871432973674454 0 0.0042831776258910282 -0.005983145415095632 0 0.0039582339228193585 -0.0063871432973674454 0 0.0039250871545907636 -0.0059865073246222061 0 0.0042831776258910282 -0.005983145415095632 0 0.0039250871545907636 -0.0059865073246222061 0 0.0039845732615557744 -0.0055803965348599528 0 0.0042831776258910282 -0.005983145415095632 0 0.0039250871545907636 -0.0059865073246222061 0 0.0034800098821478401 -0.0060033071567652807 0 0.0039845732615557744 -0.0055803965348599528 0 0.0039582339228193585 -0.0063871432973674454 0 0.0039250871545907636 -0.0059865073246222061 0 0.0034800098821478401 -0.0060033071567652807 0 0.0017833131514468283 -0.016321038243752001 0 0.0014765547009032544 -0.017386604446661381 0 0.0024289516506659581 -0.017146392408529547 0 0.0025133284673609199 -0.011737246295417794 0 0.0027635763433515614 -0.011652960708172427 0 0.0034800098821478401 -0.0060033071567652807 0 0.0037156491969211145 -0.0053147170583573112 0 0.0033413668645987846 -0.005181378886300228 0 0.0034800098821478401 -0.0060033071567652807 0 0.0037156491969211145 -0.0053147170583573112 0 0.0039845732615557744 -0.0055803965348599528 0 0.0014765547009032544 -0.017386604446661381 0 0.002165041960133503 -0.017856393214248915 0 0.0022260882940885168 -0.018387197928270673 0 0.0039845732615557744 -0.0055803965348599528 0 0.0042831776258910282 -0.005983145415095632 0 0.0044227208315704009 -0.0053299929593873929 0 0.0039845732615557744 -0.0055803965348599528 0 0.0040846030578469278 -0.0049439330766636877 0 0.0044227208315704009 -0.0053299929593873929 0 0.0037156491969211145 -0.0053147170583573112 0 0.0039845732615557744 -0.0055803965348599528 0 0.0040846030578469278 -0.0049439330766636877 0 -3.7167886586241988e-06 -0.020434128410797489 0 0.00012859264686012657 -0.020374042822135032 0 3.573184766372546e-05 -0.020250451279136251 0 0.0024289516506659581 -0.017146392408529547 0 0.0024928111498192136 -0.017880342424313581 0 0.0029992874555676676 -0.017867195608307476 0 0.0012841155154797396 -0.018761058127883989 0 0.001424313335307291 -0.01896579120009733 0 0.0014765547009032544 -0.017386604446661381 0 0.0024289516506659581 -0.017146392408529547 0 0.002165041960133503 -0.017856393214248915 0 0.0024289516506659581 -0.017146392408529547 0 0.002165041960133503 -0.017856393214248915 0 0.0024928111498192136 -0.017880342424313581 0 0.002165041960133503 -0.017856393214248915 0 0.002328126928097073 -0.01838046613914044 0 0.0022260882940885168 -0.018387197928270673 0 0.002165041960133503 -0.017856393214248915 0 0.002328126928097073 -0.01838046613914044 0 0.0024928111498192136 -0.017880342424313581 0 0.002328126928097073 -0.01838046613914044 0 0.0024928111498192136 -0.017880342424313581 0 0.0029992874555676676 -0.017867195608307476 0 0.0026286239663195605 -0.018161412356262632 0 0.001424313335307291 -0.01896579120009733 0 0.002328126928097073 -0.01838046613914044 0 0.0020275574593021355 -0.018572594411690669 0 0.0019781182740242864 -0.018961148150689961 0 0.0020275574593021355 -0.018572594411690669 0 0.0017673951182598628 -0.018785871193448791 0 0.0019781182740242864 -0.018961148150689961 0 0.0020275574593021355 -0.018572594411690669 0 0.0017673951182598628 -0.018785871193448791 0 0.0018712590904324058 -0.018464299383656825 0 0.0017262358014707741 -0.018981615149845279 0 0.001424313335307291 -0.01896579120009733 0 0.0018712590904324058 -0.018464299383656825 0 0.0018763205456569516 -0.018080038490407718 0 0.0015943749980609119 -0.018390996410284806 0 0.0018712590904324058 -0.018464299383656825 0 0.0021720745589497736 -0.018284911795048965 0 0.0018763205456569516 -0.018080038490407718 0 0.002328126928097073 -0.01838046613914044 0 0.0020275574593021355 -0.018572594411690669 0 0.0021720745589497736 -0.018284911795048965 0 0.0020275574593021355 -0.018572594411690669 0 0.0018712590904324058 -0.018464299383656825 0 0.0021720745589497736 -0.018284911795048965 0 0.0033413668645987846 -0.005181378886300228 0 0.0033167319046651339 -0.0046240399761749958 0 0.0035075967979395538 -0.0047660390175097989 0 0.0021720745589497736 -0.018284911795048965 0 0.0022260882940885168 -0.018387197928270673 0 0.0023096051304794586 -0.017786534030477606 0 0.0027635763433515614 -0.011652960708172427 0 0.0027214652599270306 -0.011731628073706452 0 0.002328126928097073 -0.01838046613914044 0 0.0021720745589497736 -0.018284911795048965 0 0.0022260882940885168 -0.018387197928270673 0 0.003529379366634148 -0.0045381346418157872 0 0.0033167319046651339 -0.0046240399761749958 0 0.0035075967979395538 -0.0047660390175097989 0 0.0021720745589497736 -0.018284911795048965 0 0.0023096051304794586 -0.017786534030477606 0 0.0018763205456569516 -0.018080038490407718 0 0.0023096051304794586 -0.017786534030477606 0 0.001800042654261073 -0.017601405354105513 0 0.0018763205456569516 -0.018080038490407718 0 0.0040846030578469278 -0.0049439330766636877 0 0.0036838141408535616 -0.004927852137400361 0 0.0038408069594799213 -0.004703372058473424 0 0.0037156491969211145 -0.0053147170583573112 0 0.0040846030578469278 -0.0049439330766636877 0 0.0036838141408535616 -0.004927852137400361 0 0.0037156491969211145 -0.0053147170583573112 0 0.0033413668645987846 -0.005181378886300228 0 0.0036838141408535616 -0.004927852137400361 0 0.0033413668645987846 -0.005181378886300228 0 0.0036838141408535616 -0.004927852137400361 0 0.0035075967979395538 -0.0047660390175097989 0 0.0036838141408535616 -0.004927852137400361 0 0.0037052991476955468 -0.004559939787051495 0 0.0038408069594799213 -0.004703372058473424 0 0.0036838141408535616 -0.004927852137400361 0 0.0035075967979395538 -0.0047660390175097989 0 0.0037052991476955468 -0.004559939787051495 0 0.003529379366634148 -0.0045381346418157872 0 0.0035075967979395538 -0.0047660390175097989 0 0.0037052991476955468 -0.004559939787051495 0 0.003529379366634148 -0.0045381346418157872 0 0.0037052991476955468 -0.004559939787051495 0 0.003639888776438976 -0.0043721271646998162 0 0.0037052991476955468 -0.004559939787051495 0 0.0039618046947112037 -0.0044305359408292706 0 0.0038061701091107653 -0.0043417188363526846 0 0.0037052991476955468 -0.004559939787051495 0 0.0039618046947112037 -0.0044305359408292706 0 0.0038408069594799213 -0.004703372058473424 0 0.0039618046947112037 -0.0044305359408292706 0 0.0038408069594799213 -0.004703372058473424 0 0.0040657886202164128 -0.0045696511899510506 0 0.0040846030578469278 -0.0049439330766636877 0 0.0038408069594799213 -0.004703372058473424 0 0.0040657886202164128 -0.0045696511899510506 0 0.0040657886202164128 -0.0045696511899510506 0 0.0041659789987754537 -0.0044412971783428044 0 0.0042879355685890271 -0.0046279704985047127 0 0.0040846030578469278 -0.0049439330766636877 0 0.0040657886202164128 -0.0045696511899510506 0 0.0042879355685890271 -0.0046279704985047127 0 0.0039618046947112037 -0.0044305359408292706 0 0.0040657886202164128 -0.0045696511899510506 0 0.0041659789987754537 -0.0044412971783428044 0 0.0043829635651563507 -0.0043903824872393565 0 0.0047654327468885276 -0.0042868712992043959 0 0.0041313611840207423 -0.0042127941860237396 0 0.0041659789987754537 -0.0044412971783428044 0 0.0043829635651563507 -0.0043903824872393565 0 0.0041313611840207423 -0.0042127941860237396 0 0.0041659789987754537 -0.0044412971783428044 0 0.0043829635651563507 -0.0043903824872393565 0 0.0042879355685890271 -0.0046279704985047127 0 0.0043829635651563507 -0.0043903824872393565 0 0.0045557445671250973 -0.0047224414920863621 0 0.0047654327468885276 -0.0042868712992043959 0 0.0043829635651563507 -0.0043903824872393565 0 0.0042879355685890271 -0.0046279704985047127 0 0.0045557445671250973 -0.0047224414920863621 0 0.0045557445671250973 -0.0047224414920863621 0 0.0044227208315704009 -0.0053299929593873929 0 0.0049003569716082659 -0.0051227381604351608 0 0.0040846030578469278 -0.0049439330766636877 0 0.0045557445671250973 -0.0047224414920863621 0 0.0044227208315704009 -0.0053299929593873929 0 0.0040846030578469278 -0.0049439330766636877 0 0.0042879355685890271 -0.0046279704985047127 0 0.0045557445671250973 -0.0047224414920863621 0 0.0049918679070208808 -0.0046195605709998446 0 0.0053397574216329175 -0.0049142289745568168 0 0.0049003569716082659 -0.0051227381604351608 0 0.0045557445671250973 -0.0047224414920863621 0 0.0049918679070208808 -0.0046195605709998446 0 0.0049003569716082659 -0.0051227381604351608 0 0.0041013289223594852 -0.0038482805707633545 0 0.0053144952067673461 -0.004225182588472604 0 0.0045557445671250973 -0.0047224414920863621 0 0.0049918679070208808 -0.0046195605709998446 0 0.0047654327468885276 -0.0042868712992043959 0 0.0049918679070208808 -0.0046195605709998446 0 0.0047654327468885276 -0.0042868712992043959 0 0.0054231915784229614 -0.0042039077813386541 0 0.0054231915784229614 -0.0042039077813386541 0 0.0062472761274932438 -0.0034128012215104845 0 0.0053261323051792316 -0.0026621355279140531 0 0.0033866869720278834 -0.0034114157549424724 0 0.0054231915784229614 -0.0042039077813386541 0 0.0053261323051792316 -0.0026621355279140531 0 0.0054231915784229614 -0.0042039077813386541 0 0.0062472761274932438 -0.0034128012215104845 0 0.0065409465307923933 -0.0043792617210657728 0 0.0062472761274932438 -0.0034128012215104845 0 0.0068063277265674503 -0.0023239326518655012 0 0.0071008065072356999 -0.0036042545804778892 0 0.0062472761274932438 -0.0034128012215104845 0 0.0065409465307923933 -0.0043792617210657728 0 0.0071008065072356999 -0.0036042545804778892 0 0.0054231915784229614 -0.0042039077813386541 0 0.0065409465307923933 -0.0043792617210657728 0 0.0060749654239854222 -0.0051015560627928691 0 0.0065409465307923933 -0.0043792617210657728 0 0.0060749654239854222 -0.0051015560627928691 0 0.0071126480266637208 -0.0050231818182411613 0 0.0065409465307923933 -0.0043792617210657728 0 0.0073835668333224634 -0.0042742809499720057 0 0.0071008065072356999 -0.0036042545804778892 0 0.0054231915784229614 -0.0042039077813386541 0 0.0053397574216329175 -0.0049142289745568168 0 0.0060749654239854222 -0.0051015560627928691 0 0.0049918679070208808 -0.0046195605709998446 0 0.0054231915784229614 -0.0042039077813386541 0 0.0053397574216329175 -0.0049142289745568168 0 0.0053397574216329175 -0.0049142289745568168 0 0.0054462926774272707 -0.0055539795122751656 0 0.0060749654239854222 -0.0051015560627928691 0 0.0054462926774272707 -0.0055539795122751656 0 0.0060749654239854222 -0.0051015560627928691 0 0.0062456834732230754 -0.0058540786199979501 0 0.0060749654239854222 -0.0051015560627928691 0 0.006867254259647469 -0.005648677196261576 0 0.0071126480266637208 -0.0050231818182411613 0 0.0060749654239854222 -0.0051015560627928691 0 0.006867254259647469 -0.005648677196261576 0 0.0062456834732230754 -0.0058540786199979501 0 0.006867254259647469 -0.005648677196261576 0 0.0062456834732230754 -0.0058540786199979501 0 0.0069457795286023711 -0.0061895591301837508 0 0.0062456834732230754 -0.0058540786199979501 0 0.0063773855658277451 -0.0063778662881003494 0 0.0069457795286023711 -0.0061895591301837508 0 0.0066835559298764327 -0.0065083281723111383 0 0.0063773855658277451 -0.0063778662881003494 0 0.0069457795286023711 -0.0061895591301837508 0 0.0054462926774272707 -0.0055539795122751656 0 0.0062456834732230754 -0.0058540786199979501 0 0.005764578629824226 -0.0062089047243712846 0 0.0054462926774272707 -0.0055539795122751656 0 0.005764578629824226 -0.0062089047243712846 0 0.0051695184429200649 -0.0062257399156054622 0 0.0062456834732230754 -0.0058540786199979501 0 0.0063773855658277451 -0.0063778662881003494 0 0.005764578629824226 -0.0062089047243712846 0 0.0055423270511119598 -0.0065612585250962793 0 0.005764578629824226 -0.0062089047243712846 0 0.0051695184429200649 -0.0062257399156054622 0 0.0054462926774272707 -0.0055539795122751656 0 0.0051695184429200649 -0.0062257399156054622 0 0.0047663250453630849 -0.0057221970083069038 0 0.0051695184429200649 -0.0062257399156054622 0 0.0046594255726274403 -0.0062756782447316159 0 0.0047663250453630849 -0.0057221970083069038 0 0.0048741061883740677 -0.0065921853961727781 0 0.0051695184429200649 -0.0062257399156054622 0 0.0046594255726274403 -0.0062756782447316159 0 0.004308776723047145 -0.0065668232235586675 0 0.0046594255726274403 -0.0062756782447316159 0 0.0042831776258910282 -0.005983145415095632 0 0.0046594255726274403 -0.0062756782447316159 0 0.0042831776258910282 -0.005983145415095632 0 0.0047663250453630849 -0.0057221970083069038 0 0.0042831776258910282 -0.005983145415095632 0 0.0047663250453630849 -0.0057221970083069038 0 0.0044227208315704009 -0.0053299929593873929 0 0.0047663250453630849 -0.0057221970083069038 0 0.0044227208315704009 -0.0053299929593873929 0 0.0049003569716082659 -0.0051227381604351608 0 0.0054462926774272707 -0.0055539795122751656 0 0.0047663250453630849 -0.0057221970083069038 0 0.0049003569716082659 -0.0051227381604351608 0 0.0053397574216329175 -0.0049142289745568168 0 0.0054462926774272707 -0.0055539795122751656 0 0.0049003569716082659 -0.0051227381604351608 0 -0.0019673175618471601 -0.020270118318491903 0 -0.0013379247779258191 -0.01998467029622918 0 -0.0010511352345098572 -0.020645094077623365 0 -0.0013379247779258191 -0.01998467029622918 0 -0.0010511352345098572 -0.020645094077623365 0 -0.00091184220782288385 -0.019970419560422347 0 -0.0010511352345098572 -0.020645094077623365 0 -0.00072347072030332885 -0.020503309214150073 0 -0.00091184220782288385 -0.019970419560422347 0 -0.0010511352345098572 -0.020645094077623365 0 -0.00083472461996711553 -0.0210281187519895 0 -0.00072347072030332885 -0.020503309214150073 0 -0.0019673175618471601 -0.020270118318491903 0 -0.0010511352345098572 -0.020645094077623365 0 -0.0012219773794810264 -0.021173260308260319 0 -0.0010511352345098572 -0.020645094077623365 0 -0.0012219773794810264 -0.021173260308260319 0 -0.00083472461996711553 -0.0210281187519895 0 -0.0012219773794810264 -0.021173260308260319 0 -0.0008535118635175893 -0.021345419983010629 0 -0.00083472461996711553 -0.0210281187519895 0 -0.0008535118635175893 -0.021345419983010629 0 -0.00059513666550052916 -0.021153026518508252 0 -0.00083472461996711553 -0.0210281187519895 0 -0.00059513666550052916 -0.021153026518508252 0 -0.00083472461996711553 -0.0210281187519895 0 -0.0005452356888144145 -0.020891628918942015 0 -0.00083472461996711553 -0.0210281187519895 0 -0.0005452356888144145 -0.020891628918942015 0 -0.00072347072030332885 -0.020503309214150073 0 -0.00059513666550052916 -0.021153026518508252 0 -0.0005452356888144145 -0.020891628918942015 0 -0.00038185632853281968 -0.02100811139825997 0 -0.0005452356888144145 -0.020891628918942015 0 -0.0003540803275008532 -0.020393989544181475 0 -0.00028372873084691388 -0.020845685326726114 0 -0.0005452356888144145 -0.020891628918942015 0 -0.00038185632853281968 -0.02100811139825997 0 -0.00028372873084691388 -0.020845685326726114 0 -0.0005452356888144145 -0.020891628918942015 0 -0.0003540803275008532 -0.020393989544181475 0 -0.00072347072030332885 -0.020503309214150073 0 -0.00072347072030332885 -0.020503309214150073 0 -0.00091184220782288385 -0.019970419560422347 0 -0.00052653264761163025 -0.019875738280319511 0 -0.0003540803275008532 -0.020393989544181475 0 -5.6069381989524059e-05 -0.019719473869436829 0 -0.00052653264761163025 -0.019875738280319511 0 -0.0003540803275008532 -0.020393989544181475 0 -0.00072347072030332885 -0.020503309214150073 0 -0.00052653264761163025 -0.019875738280319511 0 -0.0003540803275008532 -0.020393989544181475 0 0.00038560660923645055 -0.020465522387326435 0 -5.6069381989524059e-05 -0.019719473869436829 0 0.00038560660923645055 -0.020465522387326435 0 0.0005666499048301403 -0.019503125656995982 0 -5.6069381989524059e-05 -0.019719473869436829 0 -0.0003540803275008532 -0.020393989544181475 0 0.00038560660923645055 -0.020465522387326435 0 -0.00028372873084691388 -0.020845685326726114 0 8.9441611207326585e-05 -0.020516699176732687 0 -0.00027008111484361848 -0.020837626457000446 0 -0.00034625725889955391 -0.020942727319596725 0 -0.00038185632853281968 -0.02100811139825997 0 -0.00027901666197416731 -0.020845939665875116 0 -0.00038185632853281968 -0.02100811139825997 0 -0.00028372873084691388 -0.020845685326726114 0 -0.00027901666197416731 -0.020845939665875116 0 -0.00034625725889955391 -0.020942727319596725 0 -0.00026259457216018577 -0.020904360911096341 0 -0.00027901666197416731 -0.020845939665875116 0 -0.00027592541337157883 -0.020645377700683774 0 -0.00028372873084691388 -0.020845685326726114 0 -0.00027901666197416731 -0.020845939665875116 0 -0.00027592541337157883 -0.020645377700683774 0 -0.00027901666197416731 -0.020845939665875116 0 -0.00020620098645109881 -0.020730020606061796 0 -0.00027901666197416731 -0.020845939665875116 0 -0.00020620098645109881 -0.020730020606061796 0 -0.00020673121609474256 -0.020820545313153558 0 -0.00020620098645109881 -0.020730020606061796 0 -0.00020673121609474256 -0.020820545313153558 0 -0.0001113664806161129 -0.020733847936516635 0 -0.00026259457216018577 -0.020904360911096341 0 -0.00027901666197416731 -0.020845939665875116 0 -0.00020673121609474256 -0.020820545313153558 0 -0.00020673121609474256 -0.020820545313153558 0 -0.00018306526386893324 -0.02087108563842964 0 -0.00013533411227429856 -0.020811851081660671 0 -0.00026259457216018577 -0.020904360911096341 0 -0.00020673121609474256 -0.020820545313153558 0 -0.00018306526386893324 -0.02087108563842964 0 -0.00011661939056178201 -0.020881838519746544 0 -6.0242839039413424e-05 -0.020817819599064837 0 -0.00013533411227429856 -0.020811851081660671 0 -0.00011661939056178201 -0.020881838519746544 0 -3.890566898613955e-05 -0.020887169737835849 0 -6.0242839039413424e-05 -0.020817819599064837 0 -0.00011661939056178201 -0.020881838519746544 0 -0.00018306526386893324 -0.02087108563842964 0 -0.00013533411227429856 -0.020811851081660671 0 -0.00020673121609474256 -0.020820545313153558 0 -0.00013533411227429856 -0.020811851081660671 0 -0.0001113664806161129 -0.020733847936516635 0 -6.0242839039413424e-05 -0.020817819599064837 0 -0.00013533411227429856 -0.020811851081660671 0 -0.0001113664806161129 -0.020733847936516635 0 -0.00020620098645109881 -0.020730020606061796 0 -0.0001113664806161129 -0.020733847936516635 0 -0.00010089739784064707 -0.020588954131641874 0 9.5508858729892056e-06 -0.020641795119493198 0 -0.0001113664806161129 -0.020733847936516635 0 -0.00010089739784064707 -0.020588954131641874 0 -0.00027592541337157883 -0.020645377700683774 0 -0.00020620098645109881 -0.020730020606061796 0 -0.00010089739784064707 -0.020588954131641874 0 0.00038560660923645055 -0.020465522387326435 0 0.001161700826763057 -0.019876482279139955 0 0.0005666499048301403 -0.019503125656995982 0 8.9441611207326585e-05 -0.020516699176732687 0 0.00040781204247037023 -0.020295149830619846 0 -0.00027592541337157883 -0.020645377700683774 0 -0.00010089739784064707 -0.020588954131641874 0 -0.00013907954784372334 -0.020430510671062906 0 -3.7167886586241988e-06 -0.020434128410797489 0 -0.00010089739784064707 -0.020588954131641874 0 -0.00013907954784372334 -0.020430510671062906 0 0.001424313335307291 -0.01896579120009733 0 0.00040781204247037023 -0.020295149830619846 0 -3.7167886586241988e-06 -0.020434128410797489 0 3.573184766372546e-05 -0.020250451279136251 0 -0.00013907954784372334 -0.020430510671062906 0 0.0020249100779171328 -0.019105215416643236 0 0.001161700826763057 -0.019876482279139955 0 0.0012923527470126185 -0.019181897146279867 0 0.001161700826763057 -0.019876482279139955 0 0.0012923527470126185 -0.019181897146279867 0 0.0005666499048301403 -0.019503125656995982 0 0.0012923527470126185 -0.019181897146279867 0 0.0010906866742031029 -0.018637300394567687 0 0.0005666499048301403 -0.019503125656995982 0 0.0010906866742031029 -0.018637300394567687 0 0.00028869593821308892 -0.018861129462679677 0 0.0005666499048301403 -0.019503125656995982 0 0.0017673951182598628 -0.018785871193448791 0 0.0020249100779171328 -0.019105215416643236 0 0.0012923527470126185 -0.019181897146279867 0 0.0017673951182598628 -0.018785871193448791 0 0.0012923527470126185 -0.019181897146279867 0 0.0010906866742031029 -0.018637300394567687 0 0.0017673951182598628 -0.018785871193448791 0 0.0015943749980609119 -0.018390996410284806 0 0.0010906866742031029 -0.018637300394567687 0 0.0015943749980609119 -0.018390996410284806 0 0.001408605062063229 -0.017957724896103595 0 0.0010906866742031029 -0.018637300394567687 0 0.0017673951182598628 -0.018785871193448791 0 0.0018712590904324058 -0.018464299383656825 0 0.0015943749980609119 -0.018390996410284806 0 0.0018763205456569516 -0.018080038490407718 0 0.0015943749980609119 -0.018390996410284806 0 0.001408605062063229 -0.017957724896103595 0 0.001408605062063229 -0.017957724896103595 0 0.0010761246451635306 -0.017642256919040294 0 0.0013847304900286945 -0.01723383037208067 0 0.001800042654261073 -0.017601405354105513 0 0.0018763205456569516 -0.018080038490407718 0 0.001408605062063229 -0.017957724896103595 0 0.001800042654261073 -0.017601405354105513 0 0.001408605062063229 -0.017957724896103595 0 0.0013847304900286945 -0.01723383037208067 0 0.00073318851888843815 -0.018110865163492005 0 0.0010761246451635306 -0.017642256919040294 0 0.00073124172426907341 -0.017339822845193625 0 0.001408605062063229 -0.017957724896103595 0 0.00073318851888843815 -0.018110865163492005 0 0.0010761246451635306 -0.017642256919040294 0 0.001408605062063229 -0.017957724896103595 0 0.00073318851888843815 -0.018110865163492005 0 0.0010906866742031029 -0.018637300394567687 0 0.00073318851888843815 -0.018110865163492005 0 0.0010906866742031029 -0.018637300394567687 0 0.00028869593821308892 -0.018861129462679677 0 0.00073318851888843815 -0.018110865163492005 0 -0.00028809448149325051 -0.018046736722874202 0 0.00028869593821308892 -0.018861129462679677 0 0.00073318851888843815 -0.018110865163492005 0 -0.00028809448149325051 -0.018046736722874202 0 0.00073124172426907341 -0.017339822845193625 0 -0.00028809448149325051 -0.018046736722874202 0 0.00028869593821308892 -0.018861129462679677 0 -0.00057688397386012247 -0.019044277717522332 0 0.00028869593821308892 -0.018861129462679677 0 -5.6069381989524059e-05 -0.019719473869436829 0 -0.00057688397386012247 -0.019044277717522332 0 0.00028869593821308892 -0.018861129462679677 0 0.0005666499048301403 -0.019503125656995982 0 -5.6069381989524059e-05 -0.019719473869436829 0 -5.6069381989524059e-05 -0.019719473869436829 0 -0.00052653264761163025 -0.019875738280319511 0 -0.00057688397386012247 -0.019044277717522332 0 -0.00052653264761163025 -0.019875738280319511 0 -0.00085268877163711097 -0.019426247680608529 0 -0.00057688397386012247 -0.019044277717522332 0 -0.00091184220782288385 -0.019970419560422347 0 -0.00052653264761163025 -0.019875738280319511 0 -0.00085268877163711097 -0.019426247680608529 0 -0.00091184220782288385 -0.019970419560422347 0 -0.00085268877163711097 -0.019426247680608529 0 -0.0012490568257558093 -0.019486575666243303 0 -0.00085268877163711097 -0.019426247680608529 0 -0.0011478159460127143 -0.018924517011649086 0 -0.0012490568257558093 -0.019486575666243303 0 -0.00085268877163711097 -0.019426247680608529 0 -0.00057688397386012247 -0.019044277717522332 0 -0.0011478159460127143 -0.018924517011649086 0 -0.00028809448149325051 -0.018046736722874202 0 -0.00057688397386012247 -0.019044277717522332 0 -0.0011522273974209759 -0.018283433294337688 0 -0.0011522273974209759 -0.018283433294337688 0 -0.0014471497963544136 -0.018421170651698338 0 -0.0014746067247459263 -0.017921749103986473 0 -0.00057688397386012247 -0.019044277717522332 0 -0.0011522273974209759 -0.018283433294337688 0 -0.0011478159460127143 -0.018924517011649086 0 -0.0011522273974209759 -0.018283433294337688 0 -0.0011478159460127143 -0.018924517011649086 0 -0.0014471497963544136 -0.018421170651698338 0 -0.0011478159460127143 -0.018924517011649086 0 -0.0014471497963544136 -0.018421170651698338 0 -0.0015564506710330891 -0.019036019158808638 0 -0.0014471497963544136 -0.018421170651698338 0 -0.0013662116902702045 -0.018146685283359505 0 -0.0014746067247459263 -0.017921749103986473 0 -0.0014471497963544136 -0.018421170651698338 0 -0.0017553543260030865 -0.018309501357552035 0 -0.0017814710441386701 -0.018663601512438632 0 -0.0014471497963544136 -0.018421170651698338 0 -0.0017553543260030865 -0.018309501357552035 0 -0.0013662116902702045 -0.018146685283359505 0 -0.002050269411275266 -0.019042756502834404 0 -0.0017814710441386701 -0.018663601512438632 0 -0.0015564506710330891 -0.019036019158808638 0 -0.0014471497963544136 -0.018421170651698338 0 -0.0017814710441386701 -0.018663601512438632 0 -0.0015564506710330891 -0.019036019158808638 0 -0.0015564506710330891 -0.019036019158808638 0 -0.0012490568257558093 -0.019486575666243303 0 -0.0017630638047673296 -0.019603810709754109 0 -0.002050269411275266 -0.019042756502834404 0 -0.0015564506710330891 -0.019036019158808638 0 -0.0017630638047673296 -0.019603810709754109 0 -0.0011478159460127143 -0.018924517011649086 0 -0.0015564506710330891 -0.019036019158808638 0 -0.0012490568257558093 -0.019486575666243303 0 -0.0013379247779258191 -0.01998467029622918 0 -0.00091184220782288385 -0.019970419560422347 0 -0.0012490568257558093 -0.019486575666243303 0 -0.0019673175618471601 -0.020270118318491903 0 -0.0013379247779258191 -0.01998467029622918 0 -0.0017630638047673296 -0.019603810709754109 0 -0.0013379247779258191 -0.01998467029622918 0 -0.0012490568257558093 -0.019486575666243303 0 -0.0017630638047673296 -0.019603810709754109 0 -0.0010980275667157491 -0.019145061041496471 0 -0.001247148478562761 -0.018952601149607645 0 -0.00088198496190737769 -0.01895143156610099 0 -0.00092386286116534467 -0.019249777408208633 0 -0.0010980275667157491 -0.019145061041496471 0 -0.00088198496190737769 -0.01895143156610099 0 -0.00055510580400444166 -0.019139918193685799 0 -0.00092386286116534467 -0.019249777408208633 0 -0.00088198496190737769 -0.01895143156610099 0 -0.00055510580400444166 -0.019139918193685799 0 0.00013299570670093004 -0.018977886528440718 0 -8.4684454906110507e-05 -0.018765736515119529 0 -0.00092386286116534467 -0.019249777408208633 0 -0.0010980275667157491 -0.019145061041496471 0 -0.0012783126070536313 -0.019396447048040957 0 -0.0010980275667157491 -0.019145061041496471 0 -0.001247148478562761 -0.018952601149607645 0 -0.0012783126070536313 -0.019396447048040957 0 -0.0027716593686443491 -0.016629064079901251 0 -0.0020705504389712595 -0.015533644512826194 0 -0.001247148478562761 -0.018952601149607645 0 -0.0016461946039026244 -0.018693661036811235 0 -0.0012783126070536313 -0.019396447048040957 0 -0.001247148478562761 -0.018952601149607645 0 -0.0013882241436344522 -0.01819623115798252 0 -0.0016461946039026244 -0.018693661036811235 0 -0.001247148478562761 -0.018952601149607645 0 -0.0010725970482946927 -0.018608959235146834 0 -0.0013882241436344522 -0.01819623115798252 0 -0.001247148478562761 -0.018952601149607645 0 -0.0010725970482946927 -0.018608959235146834 0 -0.00088198496190737769 -0.01895143156610099 0 -0.00089072733643713337 -0.01879704176242665 0 -0.0010725970482946927 -0.018608959235146834 0 -0.00088198496190737769 -0.01895143156610099 0 -0.0010725970482946927 -0.018608959235146834 0 -0.00099384554490830287 -0.018560944575665705 0 -0.0013662116902702045 -0.018146685283359505 0 -0.00089072733643713337 -0.01879704176242665 0 -0.0010725970482946927 -0.018608959235146834 0 -0.00099384554490830287 -0.018560944575665705 0 -0.0014177305491747817 -0.018384992591946897 0 -0.0013792168583936148 -0.018214860443175322 0 -0.0010297863446090431 -0.01845612674656217 0 -0.00099384554490830287 -0.018560944575665705 0 -0.0013662116902702045 -0.018146685283359505 0 -0.0013662116902702045 -0.018146685283359505 0 -0.0013882241436344522 -0.01819623115798252 0 -0.0014746067247459263 -0.017921749103986473 0 -0.0010725970482946927 -0.018608959235146834 0 -0.0013662116902702045 -0.018146685283359505 0 -0.0013882241436344522 -0.01819623115798252 0 -0.0013882241436344522 -0.01819623115798252 0 -0.0017671123059578133 -0.017289431401967516 0 -0.0016461946039026244 -0.018693661036811235 0 -0.0013882241436344522 -0.01819623115798252 0 -0.0014746067247459263 -0.017921749103986473 0 -0.0017671123059578133 -0.017289431401967516 0 -0.0018089970919068737 -0.017294296197387427 0 -0.0027716593686443491 -0.016629064079901251 0 -0.0011522273974209759 -0.018283433294337688 0 -0.0014746067247459263 -0.017921749103986473 0 -0.0017671123059578133 -0.017289431401967516 0 -0.00028809448149325051 -0.018046736722874202 0 -0.0011522273974209759 -0.018283433294337688 0 -0.0017671123059578133 -0.017289431401967516 0 -0.0017671123059578133 -0.017289431401967516 0 -0.0021324259512221473 -0.014353798726689399 0 -0.00073833833161301369 -0.014688956125917944 0 -0.0017671123059578133 -0.017289431401967516 0 -0.0021324259512221473 -0.014353798726689399 0 -0.0037234820374111594 -0.014477856992526461 0 -0.0037234820374111594 -0.014477856992526461 0 -0.0033646282196292247 -0.013316736470546294 0 -0.0047911602085712853 -0.012433769598365358 0 -0.0021324259512221473 -0.014353798726689399 0 -0.0037234820374111594 -0.014477856992526461 0 -0.0033646282196292247 -0.013316736470546294 0 -0.0033646282196292247 -0.013316736470546294 0 -0.0022541614351148471 -0.013216117079929248 0 -0.0028871455128555257 -0.012698483024529795 0 -0.0033646282196292247 -0.013316736470546294 0 -0.0028871455128555257 -0.012698483024529795 0 -0.0037679387102579577 -0.012519939715462725 0 -0.0022541614351148471 -0.013216117079929248 0 -0.0022007088738612889 -0.012474217859821954 0 -0.0028871455128555257 -0.012698483024529795 0 -0.0022541614351148471 -0.013216117079929248 0 -0.0016595665608626965 -0.012830268832444144 0 -0.0013284639719503752 -0.013562980316778299 0 -0.0022541614351148471 -0.013216117079929248 0 -0.0016595665608626965 -0.012830268832444144 0 -0.0022007088738612889 -0.012474217859821954 0 -0.0021324259512221473 -0.014353798726689399 0 -0.0022541614351148471 -0.013216117079929248 0 -0.0013284639719503752 -0.013562980316778299 0 -0.0021324259512221473 -0.014353798726689399 0 -0.0033646282196292247 -0.013316736470546294 0 -0.0022541614351148471 -0.013216117079929248 0 -0.0013284639719503752 -0.013562980316778299 0 -0.00091298445551520383 -0.012743372033523449 0 -0.00054340446717083136 -0.013769459774653364 0 -0.0016595665608626965 -0.012830268832444144 0 -0.0013284639719503752 -0.013562980316778299 0 -0.00091298445551520383 -0.012743372033523449 0 -0.00091298445551520383 -0.012743372033523449 0 -0.00030990805827597217 -0.013120202727806856 0 -0.00020671024781957213 -0.012235823071757196 0 -0.00030990805827597217 -0.013120202727806856 0 -0.00054340446717083136 -0.013769459774653364 0 -9.4494033192889281e-05 -0.013644588686030962 0 -0.00091298445551520383 -0.012743372033523449 0 -0.00030990805827597217 -0.013120202727806856 0 -0.00054340446717083136 -0.013769459774653364 0 -0.00054340446717083136 -0.013769459774653364 0 -0.00029450794431086415 -0.014180899175749603 0 -0.00073833833161301369 -0.014688956125917944 0 0.00015692577819579646 -0.014791034220247742 0 -0.00070549856914086891 -0.014639895062928633 0 -0.00054340446717083136 -0.013769459774653364 0 -9.4494033192889281e-05 -0.013644588686030962 0 -0.00029450794431086415 -0.014180899175749603 0 -0.0021324259512221473 -0.014353798726689399 0 -0.0013284639719503752 -0.013562980316778299 0 -0.00073833833161301369 -0.014688956125917944 0 -0.0013284639719503752 -0.013562980316778299 0 -0.00054340446717083136 -0.013769459774653364 0 -0.00073833833161301369 -0.014688956125917944 0 -0.0017671123059578133 -0.017289431401967516 0 -0.00073833833161301369 -0.014688956125917944 0 -0.00028100316232552357 -0.01678717793205468 0 0.0006116733707901105 -0.015422569694478342 0 -0.00073833833161301369 -0.014688956125917944 0 -0.00028100316232552357 -0.01678717793205468 0 -0.00028809448149325051 -0.018046736722874202 0 -0.0017671123059578133 -0.017289431401967516 0 -0.00028100316232552357 -0.01678717793205468 0 -0.00028809448149325051 -0.018046736722874202 0 -0.00028100316232552357 -0.01678717793205468 0 0.00073124172426907341 -0.017339822845193625 0 0.0006116733707901105 -0.015422569694478342 0 -0.00028100316232552357 -0.01678717793205468 0 0.00073124172426907341 -0.017339822845193625 0 0.00015692577819579646 -0.014791034220247742 0 0.0015538492216555196 -0.01239544391522366 0 0.0006116733707901105 -0.015422569694478342 0 0.00073124172426907341 -0.017339822845193625 0 0.0017015075746830788 -0.015792656239108475 0 0.00038107335170286291 -0.018602373782417251 0 0.0015538492216555196 -0.01239544391522366 0 0.00073124172426907341 -0.017339822845193625 0 0.001060213212141406 -0.016609450859531617 0 0.0013847304900286945 -0.01723383037208067 0 0.0010761246451635306 -0.017642256919040294 0 0.00073124172426907341 -0.017339822845193625 0 0.0013847304900286945 -0.01723383037208067 0 0.001800042654261073 -0.017601405354105513 0 0.0013847304900286945 -0.01723383037208067 0 0.0020032049492617228 -0.016890099897064179 0 0.001060213212141406 -0.016609450859531617 0 0.0013847304900286945 -0.01723383037208067 0 0.0020032049492617228 -0.016890099897064179 0 0.0045506423898605724 -0.0046768010904898218 0 0.0041182263300066635 -0.0046667978311506894 0 0.0040100840148585802 -0.0044694219114812554 0 0.0015538492216555196 -0.01239544391522366 0 0.0039429266780814836 -0.0077377410724462992 0 0.0015538492216555196 -0.01239544391522366 0 0.0020280532193150862 -0.0093851693292279562 0 0.0045506423898605724 -0.0046768010904898218 0 0.0041182263300066635 -0.0046667978311506894 0 0.0041483366751612254 -0.0049639753244055205 0 0.0045506423898605724 -0.0046768010904898218 0 0.0043671749956922532 -0.0051662359345912975 0 0.0041483366751612254 -0.0049639753244055205 0 -0.00040074911358349823 -0.013801107715180434 0 0.0020280532193150862 -0.0093851693292279562 0 0.0003521122539071404 -0.014307434783051702 0 0.00039992690766422535 -0.013578172370927925 0 0.00098551856320380164 -0.013072765999054705 0 -9.4494033192889281e-05 -0.013644588686030962 0 -0.00029450794431086415 -0.014180899175749603 0 0.0003521122539071404 -0.014307434783051702 0 -9.4494033192889281e-05 -0.013644588686030962 0 0.0003521122539071404 -0.014307434783051702 0 0.00039992690766422535 -0.013578172370927925 0 -9.4494033192889281e-05 -0.013644588686030962 0 0.00039992690766422535 -0.013578172370927925 0 0.00016923506399180968 -0.012717149371888883 0 0.00039992690766422535 -0.013578172370927925 0 0.00016923506399180968 -0.012717149371888883 0 0.00079136283733667308 -0.012897115564877749 0 -0.00030990805827597217 -0.013120202727806856 0 -9.4494033192889281e-05 -0.013644588686030962 0 0.00016923506399180968 -0.012717149371888883 0 -0.00030990805827597217 -0.013120202727806856 0 0.00016923506399180968 -0.012717149371888883 0 -0.00020671024781957213 -0.012235823071757196 0 0.0020280532193150862 -0.0093851693292279562 0 0.00038243354256089004 -0.010767456518876992 0 0.00016923506399180968 -0.012717149371888883 0 0.00079136283733667308 -0.012897115564877749 0 0.00047853262548304621 -0.011988602919222126 0 0.0043671749956922532 -0.0051662359345912975 0 0.0041483366751612254 -0.0049639753244055205 0 0.0040845411292824776 -0.0051759918346879537 0 0.00079136283733667308 -0.012897115564877749 0 0.00047853262548304621 -0.011988602919222126 0 0.00092094173200148394 -0.01137858518017284 0 0.00041370345590131379 -0.011271608286015722 0 0.0001372440951718392 -0.011715074932905894 0 0.00014825512117850836 -0.010711178306664942 0 0.00041370345590131379 -0.011271608286015722 0 0.00047853262548304621 -0.011988602919222126 0 0.0001372440951718392 -0.011715074932905894 0 0.00041370345590131379 -0.011271608286015722 0 0.00043007987757734682 -0.010484259054814548 0 0.00092094173200148394 -0.01137858518017284 0 0.00041370345590131379 -0.011271608286015722 0 0.00047853262548304621 -0.011988602919222126 0 0.00092094173200148394 -0.01137858518017284 0 0.0001372440951718392 -0.011715074932905894 0 -0.00023450291339474342 -0.011130396816773571 0 -0.00020671024781957213 -0.012235823071757196 0 0.00016923506399180968 -0.012717149371888883 0 0.00047853262548304621 -0.011988602919222126 0 0.0001372440951718392 -0.011715074932905894 0 0.00016923506399180968 -0.012717149371888883 0 0.0001372440951718392 -0.011715074932905894 0 -0.00020671024781957213 -0.012235823071757196 0 -0.00023450291339474342 -0.011130396816773571 0 0.00014825512117850836 -0.010711178306664942 0 1.0241453953736366e-05 -0.010459130184215626 0 0.0001372440951718392 -0.011715074932905894 0 -0.00023450291339474342 -0.011130396816773571 0 0.00014825512117850836 -0.010711178306664942 0 0.00041370345590131379 -0.011271608286015722 0 0.00014825512117850836 -0.010711178306664942 0 0.00043007987757734682 -0.010484259054814548 0 0.00014825512117850836 -0.010711178306664942 0 0.00043007987757734682 -0.010484259054814548 0 0.00021098044318060077 -0.0099021986738331656 0 0.00014825512117850836 -0.010711178306664942 0 0.00021098044318060077 -0.0099021986738331656 0 1.0241453953736366e-05 -0.010459130184215626 0 0.00021098044318060077 -0.0099021986738331656 0 1.0241453953736366e-05 -0.010459130184215626 0 6.8612282384626329e-05 -0.009120787647231416 0 -1.339354246300839e-07 -0.0095109032885267886 0 1.0241453953736366e-05 -0.010459130184215626 0 6.8612282384626329e-05 -0.009120787647231416 0 -1.339354246300839e-07 -0.0095109032885267886 0 1.0241453953736366e-05 -0.010459130184215626 0 1.2218369909905042e-07 -0.011471156114904577 0 -4.7277311741873291e-05 -0.010704835536610705 0 -0.00038074432762484319 -0.011563532286113723 0 -0.00023450291339474342 -0.011130396816773571 0 1.0241453953736366e-05 -0.010459130184215626 0 -0.00063227142857068025 -0.010732640266155096 0 1.0241453953736366e-05 -0.010459130184215626 0 7.3934688608939253e-05 -0.012407249811981444 0 1.2218369909905042e-07 -0.011471156114904577 0 7.3934688608939253e-05 -0.012407249811981444 0 1.2218369909905042e-07 -0.011471156114904577 0 -5.2056251479342719e-05 -0.013111194446804825 0 1.2218369909905042e-07 -0.011471156114904577 0 -8.2635919724242089e-05 -0.013161000849535063 0 -3.323195974495825e-07 -0.013431454928419618 0 1.2218369909905042e-07 -0.011471156114904577 0 -8.2635919724242089e-05 -0.013161000849535063 0 -5.2056251479342719e-05 -0.013111194446804825 0 7.3934688608939253e-05 -0.012407249811981444 0 -5.2056251479342719e-05 -0.013111194446804825 0 -0.00011251952836391941 -0.013991772541239258 0 -8.2635919724242089e-05 -0.013161000849535063 0 -5.2056251479342719e-05 -0.013111194446804825 0 -0.00019967759702520121 -0.013828742018557993 0 -5.2056251479342719e-05 -0.013111194446804825 0 -0.00011251952836391941 -0.013991772541239258 0 -0.00016977824469597443 -0.013806286935299677 0 -0.00038074432762484319 -0.011563532286113723 0 -0.00092471726704076909 -0.012574900563344964 0 -0.00063227142857068025 -0.010732640266155096 0 -0.00097681941734658728 -0.01129299847519471 0 -0.0016603529607307208 -0.011131431754160226 0 -0.0016468232440442359 -0.011237501739662819 0 -0.0013965229731828037 -0.011456391973557809 0 -0.0016603529607307208 -0.011131431754160226 0 -0.0013965229731828037 -0.011456391973557809 0 -0.00097681941734658728 -0.01129299847519471 0 -0.0016603529607307208 -0.011131431754160226 0 -0.0016468232440442359 -0.011237501739662819 0 -0.0013965229731828037 -0.011456391973557809 0 -0.0015987993075666858 -0.011735255588591077 0 -0.0013965229731828037 -0.011456391973557809 0 -0.00097681941734658728 -0.01129299847519471 0 -0.0012237033278208705 -0.011942026367153406 0 -0.00023450291339474342 -0.011130396816773571 0 -0.00097681941734658728 -0.01129299847519471 0 -0.00067713001915188588 -0.011889050801078171 0 -0.00023450291339474342 -0.011130396816773571 0 -0.00063227142857068025 -0.010732640266155096 0 -0.00097681941734658728 -0.01129299847519471 0 -0.00091298445551520383 -0.012743372033523449 0 -0.00067713001915188588 -0.011889050801078171 0 -0.00020671024781957213 -0.012235823071757196 0 -0.00023450291339474342 -0.011130396816773571 0 -0.00067713001915188588 -0.011889050801078171 0 -0.00020671024781957213 -0.012235823071757196 0 -0.00091298445551520383 -0.012743372033523449 0 -0.0013746393440134644 -0.012426369636787818 0 -0.0012237033278208705 -0.011942026367153406 0 -0.00091298445551520383 -0.012743372033523449 0 -0.00067713001915188588 -0.011889050801078171 0 -0.0012237033278208705 -0.011942026367153406 0 -0.0013746393440134644 -0.012426369636787818 0 -0.0012237033278208705 -0.011942026367153406 0 -0.0017194487989348175 -0.01218828811869721 0 -0.0016595665608626965 -0.012830268832444144 0 -0.0013746393440134644 -0.012426369636787818 0 -0.0017194487989348175 -0.01218828811869721 0 -0.0016595665608626965 -0.012830268832444144 0 -0.00091298445551520383 -0.012743372033523449 0 -0.0013746393440134644 -0.012426369636787818 0 -0.0013965229731828037 -0.011456391973557809 0 -0.0015987993075666858 -0.011735255588591077 0 -0.0012237033278208705 -0.011942026367153406 0 -0.0015987993075666858 -0.011735255588591077 0 -0.0012237033278208705 -0.011942026367153406 0 -0.0017194487989348175 -0.01218828811869721 0 -0.00097681941734658728 -0.01129299847519471 0 -0.00067713001915188588 -0.011889050801078171 0 -0.0012237033278208705 -0.011942026367153406 0 -0.0024809881565356507 -0.011776431460901671 0 -0.0021085736332862506 -0.011899974960629492 0 -0.0026913418596604226 -0.012172711491380446 0 -0.0024809881565356507 -0.011776431460901671 0 -0.0026913418596604226 -0.012172711491380446 0 -0.002835871892520595 -0.011965172390432283 0 -0.0015987993075666858 -0.011735255588591077 0 -0.0021085736332862506 -0.011899974960629492 0 -0.0017194487989348175 -0.01218828811869721 0 -0.0021085736332862506 -0.011899974960629492 0 -0.0017194487989348175 -0.01218828811869721 0 -0.0022007088738612889 -0.012474217859821954 0 -0.0016595665608626965 -0.012830268832444144 0 -0.0017194487989348175 -0.01218828811869721 0 -0.0022007088738612889 -0.012474217859821954 0 -0.0021085736332862506 -0.011899974960629492 0 -0.0022007088738612889 -0.012474217859821954 0 -0.0026913418596604226 -0.012172711491380446 0 -0.0022007088738612889 -0.012474217859821954 0 -0.0026913418596604226 -0.012172711491380446 0 -0.0028871455128555257 -0.012698483024529795 0 -0.0028892168464069428 -0.011502032757707443 0 -0.0020705504389712595 -0.015533644512826194 0 -0.0037679387102579577 -0.012519939715462725 0 -0.0031268131389258448 -0.011724178388150852 0 -0.0047911602085712853 -0.012433769598365358 0 -0.0022931916106941562 -0.011773892794477603 0 -0.002624691973508586 -0.011907835636136664 0 -0.002896901729385257 -0.012161956150452357 0 -0.0028871455128555257 -0.012698483024529795 0 -0.0030583080303283822 -0.012198890841808363 0 -0.0037679387102579577 -0.012519939715462725 0 -0.0033646282196292247 -0.013316736470546294 0 -0.0037679387102579577 -0.012519939715462725 0 -0.0047911602085712853 -0.012433769598365358 0 -0.0026913418596604226 -0.012172711491380446 0 -0.0028871455128555257 -0.012698483024529795 0 -0.0030583080303283822 -0.012198890841808363 0 -0.0022931916106941562 -0.011773892794477603 0 -0.0023424379513272489 -0.011661571346911273 0 -0.002624691973508586 -0.011907835636136664 0 -0.0030583080303283822 -0.012198890841808363 0 -0.0037679387102579577 -0.012519939715462725 0 -0.0031268131389258448 -0.011724178388150852 0 -0.0024809881565356507 -0.011776431460901671 0 -0.002835871892520595 -0.011965172390432283 0 -0.0031268131389258448 -0.011724178388150852 0 -0.0026913418596604226 -0.012172711491380446 0 -0.0030583080303283822 -0.012198890841808363 0 -0.002835871892520595 -0.011965172390432283 0 -0.0030583080303283822 -0.012198890841808363 0 -0.002835871892520595 -0.011965172390432283 0 -0.0031268131389258448 -0.011724178388150852 0 -0.00040256291038571763 -0.014756092005544053 0 -0.00036690853382364256 -0.014615092758161322 0 -0.00029313379583897773 -0.014388845513393608 0 -0.0022931916106941562 -0.011773892794477603 0 -0.0023424379513272489 -0.011661571346911273 0 -0.0019859206908399755 -0.011451565928246565 0 -0.00036690853382364256 -0.014615092758161322 0 -0.00037471614189202437 -0.014743019525041123 0 -0.00037182786668931545 -0.01468150208330268 0 -0.00040256291038571763 -0.014756092005544053 0 -0.00036690853382364256 -0.014615092758161322 0 -0.00037471614189202437 -0.014743019525041123 0 -0.00040256291038571763 -0.014756092005544053 0 -0.00037471614189202437 -0.014743019525041123 0 -0.00031509674409786346 -0.014810668966166033 0 -0.00037471614189202437 -0.014743019525041123 0 -0.0003367863142855126 -0.014807048942016517 0 -0.00037182786668931545 -0.01468150208330268 0 -0.00037471614189202437 -0.014743019525041123 0 -0.0003367863142855126 -0.014807048942016517 0 -0.00031509674409786346 -0.014810668966166033 0 -0.0003367863142855126 -0.014807048942016517 0 -0.00036316621763144834 -0.014743113800797611 0 -0.00024082533109380874 -0.015009216329021536 0 -0.0003367863142855126 -0.014807048942016517 0 -0.00037182786668931545 -0.01468150208330268 0 -0.00036316621763144834 -0.014743113800797611 0 -0.00036316621763144834 -0.014743113800797611 0 -0.00034115639571403718 -0.014515014219071226 0 -0.0002944192818020083 -0.014352647825765837 0 -0.00036690853382364256 -0.014615092758161322 0 -0.00034115639571403718 -0.014515014219071226 0 -0.00029313379583897773 -0.014388845513393608 0 -0.00036690853382364256 -0.014615092758161322 0 -0.00037182786668931545 -0.01468150208330268 0 -0.00034115639571403718 -0.014515014219071226 0 -0.00037182786668931545 -0.01468150208330268 0 -0.00036316621763144834 -0.014743113800797611 0 -0.00034115639571403718 -0.014515014219071226 0 -0.00034115639571403718 -0.014515014219071226 0 -0.00029029216117145226 -0.014323082734254103 0 -0.0002944192818020083 -0.014352647825765837 0 -0.00040256291038571763 -0.014756092005544053 0 -0.00029313379583897773 -0.014388845513393608 0 -0.00011251952836391941 -0.013991772541239258 0 -0.0023424379513272489 -0.011661571346911273 0 -0.0019859206908399755 -0.011451565928246565 0 -0.0016603529607307208 -0.011131431754160226 0 -0.0014721034827646165 -0.012946667936944833 0 -0.00092471726704076909 -0.012574900563344964 0 -0.0016468232440442359 -0.011237501739662819 0 -0.0022931916106941562 -0.011773892794477603 0 -0.0019859206908399755 -0.011451565928246565 0 -0.0017031469477117095 -0.011322155183062017 0 -0.0028892168464069428 -0.011502032757707443 0 -0.0016468232440442359 -0.011237501739662819 0 -0.0024809881565356507 -0.011776431460901671 0 -0.0031268131389258448 -0.011724178388150852 0 -0.00029029216117145226 -0.014323082734254103 0 -0.00023404686737538559 -0.014062947173991579 0 -0.0002944192818020083 -0.014352647825765837 0 -0.00029029216117145226 -0.014323082734254103 0 -0.00023404686737538559 -0.014062947173991579 0 -0.00022546170271638737 -0.014144024457097842 0 -0.00029029216117145226 -0.014323082734254103 0 -0.00029313379583897773 -0.014388845513393608 0 -0.00022546170271638737 -0.014144024457097842 0 -0.00034115639571403718 -0.014515014219071226 0 -0.00029029216117145226 -0.014323082734254103 0 -0.00029313379583897773 -0.014388845513393608 0 -0.0016468232440442359 -0.011237501739662819 0 -0.0019859206908399755 -0.011451565928246565 0 -0.0016603529607307208 -0.011131431754160226 0 -0.0016468232440442359 -0.011237501739662819 0 -0.0015987993075666858 -0.011735255588591077 0 -0.0021085736332862506 -0.011899974960629492 0 -0.0016468232440442359 -0.011237501739662819 0 -0.0024809881565356507 -0.011776431460901671 0 -0.0021085736332862506 -0.011899974960629492 0 -0.00011251952836391941 -0.013991772541239258 0 -0.00022546170271638737 -0.014144024457097842 0 -0.00017406012138846183 -0.013983891769801868 0 -0.00029313379583897773 -0.014388845513393608 0 -0.00011251952836391941 -0.013991772541239258 0 -0.00022546170271638737 -0.014144024457097842 0 -0.00023404686737538559 -0.014062947173991579 0 -0.00022546170271638737 -0.014144024457097842 0 -0.00017406012138846183 -0.013983891769801868 0 -0.00023404686737538559 -0.014062947173991579 0 -0.00017406012138846183 -0.013983891769801868 0 -0.00016977824469597443 -0.013806286935299677 0 -0.00011251952836391941 -0.013991772541239258 0 -0.00017406012138846183 -0.013983891769801868 0 -0.00016977824469597443 -0.013806286935299677 0 -5.2056251479342719e-05 -0.013111194446804825 0 -0.00016977824469597443 -0.013806286935299677 0 -0.00019967759702520121 -0.013828742018557993 0 -8.2635919724242089e-05 -0.013161000849535063 0 -0.00019967759702520121 -0.013828742018557993 0 -0.00024193149367611233 -0.014407762737406637 0 -0.00023404686737538559 -0.014062947173991579 0 -0.00016977824469597443 -0.013806286935299677 0 -0.00019967759702520121 -0.013828742018557993 0 -0.00019967759702520121 -0.013828742018557993 0 -0.00024193149367611233 -0.014407762737406637 0 -0.0002944192818020083 -0.014352647825765837 0 -0.00023404686737538559 -0.014062947173991579 0 -0.00019967759702520121 -0.013828742018557993 0 -0.0002944192818020083 -0.014352647825765837 0 -8.2635919724242089e-05 -0.013161000849535063 0 -3.323195974495825e-07 -0.013431454928419618 0 -0.00024193149367611233 -0.014407762737406637 0 -0.00024193149367611233 -0.014407762737406637 0 -0.00025478493317258725 -0.015439606621921254 0 -5.6894556383095962e-07 -0.015391653459864563 0 -3.323195974495825e-07 -0.013431454928419618 0 -0.00024193149367611233 -0.014407762737406637 0 -5.6894556383095962e-07 -0.015391653459864563 0 -0.00036316621763144834 -0.014743113800797611 0 -0.00024193149367611233 -0.014407762737406637 0 -0.00025478493317258725 -0.015439606621921254 0 -0.00036316621763144834 -0.014743113800797611 0 -0.00024193149367611233 -0.014407762737406637 0 -0.0002944192818020083 -0.014352647825765837 0 -0.00036316621763144834 -0.014743113800797611 0 -0.00025478493317258725 -0.015439606621921254 0 -0.00024082533109380874 -0.015009216329021536 0 -0.00025478493317258725 -0.015439606621921254 0 -5.6894556383095962e-07 -0.015391653459864563 0 -7.2394101930209185e-05 -0.016440991703866623 0 7.3884655319212414e-05 -0.017337707343012938 0 -7.2394101930209185e-05 -0.016440991703866623 0 3.1427311391873088e-07 -0.017351530377980269 0 -5.6894556383095962e-07 -0.015391653459864563 0 -7.2394101930209185e-05 -0.016440991703866623 0 3.1427311391873088e-07 -0.017351530377980269 0 5.5869731927269461e-05 -0.017110491018112153 0 0.00025050793333682749 -0.016966868573482407 0 -0.00025478493317258725 -0.015439606621921254 0 -7.2394101930209185e-05 -0.016440991703866623 0 9.2153242599268497e-05 -0.015395734239499118 0 7.3884655319212414e-05 -0.017337707343012938 0 -7.2394101930209185e-05 -0.016440991703866623 0 9.2153242599268497e-05 -0.015395734239499118 0 0.00025050793333682749 -0.016966868573482407 0 -0.00051958112196313889 -0.015933896863084732 0 0.00029712787451489003 -0.01819604065259944 0 0.00044608852046975218 -0.018638906706402187 0 0.00016700472222431632 -0.018485439825349805 0 -8.5724164160371516e-05 -0.018240020875244858 0 0.00029712787451489003 -0.01819604065259944 0 0.00016700472222431632 -0.018485439825349805 0 -0.00025478493317258725 -0.015439606621921254 0 9.2153242599268497e-05 -0.015395734239499118 0 -0.00024082533109380874 -0.015009216329021536 0 9.2153242599268497e-05 -0.015395734239499118 0 -0.00024082533109380874 -0.015009216329021536 0 -0.000145424919573282 -0.014719387824708378 0 -0.00024082533109380874 -0.015009216329021536 0 -0.00031509674409786346 -0.014810668966166033 0 -0.000145424919573282 -0.014719387824708378 0 -0.0003367863142855126 -0.014807048942016517 0 -0.00024082533109380874 -0.015009216329021536 0 -0.00031509674409786346 -0.014810668966166033 0 -0.0014721034827646165 -0.012946667936944833 0 -0.00051958112196313889 -0.015933896863084732 0 -0.00040256291038571763 -0.014756092005544053 0 -0.00031509674409786346 -0.014810668966166033 0 -0.000145424919573282 -0.014719387824708378 0 -0.0023424379513272489 -0.011661571346911273 0 -0.0029755854790142981 -0.012031085476373863 0 -0.002624691973508586 -0.011907835636136664 0 -0.0029755854790142981 -0.012031085476373863 0 -0.002624691973508586 -0.011907835636136664 0 -0.002896901729385257 -0.012161956150452357 0 0.00048777241235331396 -0.01861245270373884 0 0.00056819564153931469 -0.018744200628543504 0 0.00027997949264503905 -0.018709884789844526 0 -0.00051958112196313889 -0.015933896863084732 0 -0.0020705504389712595 -0.015533644512826194 0 0.00013299570670093004 -0.018977886528440718 0 0.00056819564153931469 -0.018744200628543504 0 0.00027997949264503905 -0.018709884789844526 0 -0.00044320467498392259 -0.018981494431275968 0 -0.0020705504389712595 -0.015533644512826194 0 -0.00051958112196313889 -0.015933896863084732 0 -0.00024892907023057494 -0.017098895656392152 0 0.00013299570670093004 -0.018977886528440718 0 0.00027997949264503905 -0.018709884789844526 0 -8.4684454906110507e-05 -0.018765736515119529 0 0.00027997949264503905 -0.018709884789844526 0 -8.4684454906110507e-05 -0.018765736515119529 0 0.00016700472222431632 -0.018485439825349805 0 -0.00014375274618240477 -0.018545768147015397 0 -8.4684454906110507e-05 -0.018765736515119529 0 0.00016700472222431632 -0.018485439825349805 0 0.00044608852046975218 -0.018638906706402187 0 0.00027997949264503905 -0.018709884789844526 0 0.00016700472222431632 -0.018485439825349805 0 0.00091438825998299805 -0.0044598174571101896 0 0.0010251346547559856 -0.0050963074739416633 0 0.00027887266544997225 -0.0050132021865271787 0 0.00091438825998299805 -0.0044598174571101896 0 0.001511524157572135 -0.0047577447665326034 0 0.0010251346547559856 -0.0050963074739416633 0 0.00091438825998299805 -0.0044598174571101896 0 0.001511524157572135 -0.0047577447665326034 0 0.001533514349977804 -0.0041249945670047191 0 0.0019403868680662418 -0.0045233256968004133 0 0.0019173455066135298 -0.0039878890667584656 0 0.001533514349977804 -0.0041249945670047191 0 0.0019403868680662418 -0.0045233256968004133 0 0.001511524157572135 -0.0047577447665326034 0 0.001533514349977804 -0.0041249945670047191 0 0.0019403868680662418 -0.0045233256968004133 0 0.001511524157572135 -0.0047577447665326034 0 0.0020250486119691023 -0.0050953640701799285 0 0.0015044381406540751 -0.0054430083861076546 0 0.0020250486119691023 -0.0050953640701799285 0 0.0020151003398970802 -0.0059153499016586187 0 0.001511524157572135 -0.0047577447665326034 0 0.0015044381406540751 -0.0054430083861076546 0 0.0010251346547559856 -0.0050963074739416633 0 0.001511524157572135 -0.0047577447665326034 0 0.0015044381406540751 -0.0054430083861076546 0 0.0020250486119691023 -0.0050953640701799285 0 0.0015044381406540751 -0.0054430083861076546 0 0.0010251346547559856 -0.0050963074739416633 0 0.0010053162186081535 -0.0056718428354594896 0 0.0010251346547559856 -0.0050963074739416633 0 0.00062818825940780764 -0.0054432756289954703 0 0.0010053162186081535 -0.0056718428354594896 0 0.00062818825940780764 -0.0054432756289954703 0 0.00021717763613776479 -0.0055548770181061864 0 0.00027887266544997225 -0.0050132021865271787 0 0.0010251346547559856 -0.0050963074739416633 0 0.00062818825940780764 -0.0054432756289954703 0 0.00027887266544997225 -0.0050132021865271787 0 0.00021717763613776479 -0.0055548770181061864 0 0.00027887266544997225 -0.0050132021865271787 0 -0.00027286366195547327 -0.0054657851444400224 0 0.00027887266544997225 -0.0050132021865271787 0 -0.00027286366195547327 -0.0054657851444400224 0 -0.00065317083701866554 -0.0048876234617745394 0 0.0024430118514639624 -0.0025908609284228772 0 0.0031969223886467494 -0.0024823901015753364 0 0.0029749359070706687 -0.0032770585943217283 0 0.0010394929683949857 -0.0039090580238147939 0 0.0046564935166070916 -0.0017979618871412442 0 0.0025813956465676777 -0.002271541008599946 0 0.0046564935166070916 -0.0017979618871412442 0 0.0055331493092681773 -3.4124937166980067e-05 0 0.0070095820890048082 -0.00050751809340546412 0 0.0071578906484242579 0.001054614440935685 0 0.00027887266544997225 -0.0050132021865271787 0 0.00014800747816028339 -0.0043351751499007595 0 -0.00065317083701866554 -0.0048876234617745394 0 0.00091438825998299805 -0.0044598174571101896 0 0.00027887266544997225 -0.0050132021865271787 0 0.00014800747816028339 -0.0043351751499007595 0 0.0055331493092681773 -3.4124937166980067e-05 0 0.005716124313132182 -0.0013797187749389017 0 0.0037871517190322169 -0.0013358568466243141 0 0.0025813956465676777 -0.002271541008599946 0 0.0024532480239156879 -0.0024978653999934678 0 0.0055331493092681773 -3.4124937166980067e-05 0 0.005716124313132182 -0.0013797187749389017 0 0.0070095820890048082 -0.00050751809340546412 0 0.005716124313132182 -0.0013797187749389017 0 0.0070095820890048082 -0.00050751809340546412 0 0.0068063277265674503 -0.0023239326518655012 0 0.0062472761274932438 -0.0034128012215104845 0 0.0068063277265674503 -0.0023239326518655012 0 0.0053261323051792316 -0.0026621355279140531 0 0.005716124313132182 -0.0013797187749389017 0 0.0068063277265674503 -0.0023239326518655012 0 0.0053261323051792316 -0.0026621355279140531 0 0.005716124313132182 -0.0013797187749389017 0 0.0053261323051792316 -0.0026621355279140531 0 0.0037871517190322169 -0.0013358568466243141 0 0.0033866869720278834 -0.0034114157549424724 0 0.0053261323051792316 -0.0026621355279140531 0 0.0037871517190322169 -0.0013358568466243141 0 0.00091438825998299805 -0.0044598174571101896 0 0.00095203140439723412 -0.0036930545408536495 0 0.001533514349977804 -0.0041249945670047191 0 0.00091438825998299805 -0.0044598174571101896 0 0.00014800747816028339 -0.0043351751499007595 0 0.00095203140439723412 -0.0036930545408536495 0 0.00095203140439723412 -0.0036930545408536495 0 0.001533514349977804 -0.0041249945670047191 0 0.0018832139686268674 -0.0035752885110436417 0 0.0019173455066135298 -0.0039878890667584656 0 0.001533514349977804 -0.0041249945670047191 0 0.0018832139686268674 -0.0035752885110436417 0 0.0019173455066135298 -0.0039878890667584656 0 0.0018832139686268674 -0.0035752885110436417 0 0.0021721498547052245 -0.0038797483355253884 0 0.0033866869720278834 -0.0034114157549424724 0 0.002158166257700737 -0.0029134036097952678 0 0.001915479646066442 -0.0029420504947308967 0 0.0018832139686268674 -0.0035752885110436417 0 0.002158166257700737 -0.0029134036097952678 0 0.002028410935107802 -0.0031916363844286077 0 0.00095203140439723412 -0.0036930545408536495 0 0.0018832139686268674 -0.0035752885110436417 0 0.002158166257700737 -0.0029134036097952678 0 0.0033866869720278834 -0.0034114157549424724 0 0.0037871517190322169 -0.0013358568466243141 0 0.002158166257700737 -0.0029134036097952678 0 0.0041013289223594852 -0.0038482805707633545 0 0.0030650269130184852 -0.0035945010518851116 0 0.0024532480239156879 -0.0024978653999934678 0 0.0021483879182783564 -0.0028603063042072214 0 0.0041313611840207423 -0.0042127941860237396 0 0.0038061701091107653 -0.0043417188363526846 0 0.0036315776942123876 -0.0042153273964840761 0 0.0039618046947112037 -0.0044305359408292706 0 0.0041659789987754537 -0.0044412971783428044 0 0.0041313611840207423 -0.0042127941860237396 0 0.0030650269130184852 -0.0035945010518851116 0 0.003305216903159598 -0.0039695073342302751 0 0.001915479646066442 -0.0029420504947308967 0 0.0029905106324042458 -0.0037053524537039701 0 0.0021997846021832865 -0.0034715629039321848 0 0.001915479646066442 -0.0029420504947308967 0 0.002028410935107802 -0.0031916363844286077 0 0.0021997846021832865 -0.0034715629039321848 0 0.002158166257700737 -0.0029134036097952678 0 0.001915479646066442 -0.0029420504947308967 0 0.002028410935107802 -0.0031916363844286077 0 0.0039618046947112037 -0.0044305359408292706 0 0.0041313611840207423 -0.0042127941860237396 0 0.0038061701091107653 -0.0043417188363526846 0 0.0037052991476955468 -0.004559939787051495 0 0.0038061701091107653 -0.0043417188363526846 0 0.003639888776438976 -0.0043721271646998162 0 0.003639888776438976 -0.0043721271646998162 0 0.0036315776942123876 -0.0042153273964840761 0 0.0035523878692555288 -0.0042817386333118988 0 0.0038061701091107653 -0.0043417188363526846 0 0.003639888776438976 -0.0043721271646998162 0 0.0036315776942123876 -0.0042153273964840761 0 0.0029905106324042458 -0.0037053524537039701 0 0.0028247303185783171 -0.0045148798216966051 0 0.0032381860543394194 -0.0044765136461028992 0 0.0029905106324042458 -0.0037053524537039701 0 0.0025043976364312335 -0.0042364799759331091 0 0.0028247303185783171 -0.0045148798216966051 0 0.0029905106324042458 -0.0037053524537039701 0 0.0021997846021832865 -0.0034715629039321848 0 0.0024592589661800502 -0.003798317918114448 0 0.0025043976364312335 -0.0042364799759331091 0 0.0021721498547052245 -0.0038797483355253884 0 0.0024592589661800502 -0.003798317918114448 0 0.0025043976364312335 -0.0042364799759331091 0 0.0021721498547052245 -0.0038797483355253884 0 0.0021476071266704265 -0.004240428646891896 0 0.0019173455066135298 -0.0039878890667584656 0 0.0021721498547052245 -0.0038797483355253884 0 0.0021476071266704265 -0.004240428646891896 0 0.0018832139686268674 -0.0035752885110436417 0 0.0021721498547052245 -0.0038797483355253884 0 0.0021997846021832865 -0.0034715629039321848 0 0.0018832139686268674 -0.0035752885110436417 0 0.002028410935107802 -0.0031916363844286077 0 0.0021997846021832865 -0.0034715629039321848 0 0.0021721498547052245 -0.0038797483355253884 0 0.0021997846021832865 -0.0034715629039321848 0 0.0024592589661800502 -0.003798317918114448 0 0.0029905106324042458 -0.0037053524537039701 0 0.0025043976364312335 -0.0042364799759331091 0 0.0024592589661800502 -0.003798317918114448 0 0.0023096051304794586 -0.017786534030477606 0 0.001800042654261073 -0.017601405354105513 0 0.0020032049492617228 -0.016890099897064179 0 0.0027214652599270306 -0.011731628073706452 0 0.0039429266780814836 -0.0077377410724462992 0 0.0033167319046651339 -0.0046240399761749958 0 0.0035523878692555288 -0.0042817386333118988 0 0.003192018398509066 -0.0042222691213180483 0 0.003529379366634148 -0.0045381346418157872 0 0.0033167319046651339 -0.0046240399761749958 0 0.0035523878692555288 -0.0042817386333118988 0 0.003529379366634148 -0.0045381346418157872 0 0.003639888776438976 -0.0043721271646998162 0 0.0035523878692555288 -0.0042817386333118988 0 0.0029905106324042458 -0.0037053524537039701 0 0.003653893774519407 -0.0044285769447017153 0 0.0032381860543394194 -0.0044765136461028992 0 0.0036315776942123876 -0.0042153273964840761 0 0.0035523878692555288 -0.0042817386333118988 0 0.003653893774519407 -0.0044285769447017153 0 0.0035523878692555288 -0.0042817386333118988 0 0.003653893774519407 -0.0044285769447017153 0 0.0039215206991565863 -0.0043047268739623973 0 0.0031618501009122103 -0.0037763874848719763 0 0.0039429266780814836 -0.0077377410724462992 0 0.003305216903159598 -0.0039695073342302751 0 0.0036404935447201161 -0.0043565358088998377 0 0.003653893774519407 -0.0044285769447017153 0 0.0041182263300066635 -0.0046667978311506894 0 0.0039215206991565863 -0.0043047268739623973 0 0.003540121269061486 -0.0040756429678152298 0 0.0039429266780814836 -0.0077377410724462992 0 0.003653893774519407 -0.0044285769447017153 0 0.0041182263300066635 -0.0046667978311506894 0 0.00387769418350821 -0.0048039461167155937 0 0.0041483366751612254 -0.0049639753244055205 0 0.00387769418350821 -0.0048039461167155937 0 0.0038716919091426574 -0.0051109122445019833 0 0.0041182263300066635 -0.0046667978311506894 0 0.0041483366751612254 -0.0049639753244055205 0 0.00387769418350821 -0.0048039461167155937 0 0.00387769418350821 -0.0048039461167155937 0 0.0035248262205858677 -0.0048722128614443212 0 0.0038716919091426574 -0.0051109122445019833 0 0.003653893774519407 -0.0044285769447017153 0 0.00387769418350821 -0.0048039461167155937 0 0.0035248262205858677 -0.0048722128614443212 0 0.003653893774519407 -0.0044285769447017153 0 0.0035248262205858677 -0.0048722128614443212 0 0.0032381860543394194 -0.0044765136461028992 0 0.0035248262205858677 -0.0048722128614443212 0 0.0032381860543394194 -0.0044765136461028992 0 0.0030784734159708602 -0.0048580118254383121 0 0.0035248262205858677 -0.0048722128614443212 0 0.0030784734159708602 -0.0048580118254383121 0 0.0031481169471022337 -0.0052747919757950472 0 0.0035248262205858677 -0.0048722128614443212 0 0.0036150035590824126 -0.0054313758994558132 0 0.0031481169471022337 -0.0052747919757950472 0 0.0036150035590824126 -0.0054313758994558132 0 0.0031481169471022337 -0.0052747919757950472 0 0.0032835235559624406 -0.0058033458905661951 0 0.0035248262205858677 -0.0048722128614443212 0 0.0036150035590824126 -0.0054313758994558132 0 0.0038716919091426574 -0.0051109122445019833 0 0.0043671749956922532 -0.0051662359345912975 0 0.0039337440295920366 -0.0054665731975368408 0 0.0038634507804012233 -0.0058097812750531721 0 0.0043671749956922532 -0.0051662359345912975 0 0.0039337440295920366 -0.0054665731975368408 0 0.0040845411292824776 -0.0051759918346879537 0 0.0020280532193150862 -0.0093851693292279562 0 0.0023415520190742055 -0.0071798884497836597 0 0.0036150035590824126 -0.0054313758994558132 0 0.0038716919091426574 -0.0051109122445019833 0 0.0039337440295920366 -0.0054665731975368408 0 0.0036150035590824126 -0.0054313758994558132 0 0.0039337440295920366 -0.0054665731975368408 0 0.0038634507804012233 -0.0058097812750531721 0 0.0041483366751612254 -0.0049639753244055205 0 0.0038716919091426574 -0.0051109122445019833 0 0.0040845411292824776 -0.0051759918346879537 0 0.0038716919091426574 -0.0051109122445019833 0 0.0039337440295920366 -0.0054665731975368408 0 0.0040845411292824776 -0.0051759918346879537 0 0.0023493996269911797 -0.0047247765976042308 0 0.0028247303185783171 -0.0045148798216966051 0 0.0026004894525074782 -0.0051628756713530521 0 0.0019403868680662418 -0.0045233256968004133 0 0.0023493996269911797 -0.0047247765976042308 0 0.0020250486119691023 -0.0050953640701799285 0 0.0019403868680662418 -0.0045233256968004133 0 0.0019173455066135298 -0.0039878890667584656 0 0.0021476071266704265 -0.004240428646891896 0 0.0019403868680662418 -0.0045233256968004133 0 0.0023493996269911797 -0.0047247765976042308 0 0.0021476071266704265 -0.004240428646891896 0 0.0025043976364312335 -0.0042364799759331091 0 0.0023493996269911797 -0.0047247765976042308 0 0.0021476071266704265 -0.004240428646891896 0 0.0025043976364312335 -0.0042364799759331091 0 0.0023493996269911797 -0.0047247765976042308 0 0.0028247303185783171 -0.0045148798216966051 0 0.0028247303185783171 -0.0045148798216966051 0 0.0030784734159708602 -0.0048580118254383121 0 0.0026004894525074782 -0.0051628756713530521 0 0.0028247303185783171 -0.0045148798216966051 0 0.0032381860543394194 -0.0044765136461028992 0 0.0030784734159708602 -0.0048580118254383121 0 0.0031481169471022337 -0.0052747919757950472 0 0.0026004894525074782 -0.0051628756713530521 0 0.0026454596669641308 -0.0058765876063817815 0 0.0030784734159708602 -0.0048580118254383121 0 0.0031481169471022337 -0.0052747919757950472 0 0.0026004894525074782 -0.0051628756713530521 0 0.0026004894525074782 -0.0051628756713530521 0 0.0020250486119691023 -0.0050953640701799285 0 0.0020151003398970802 -0.0059153499016586187 0 0.0023493996269911797 -0.0047247765976042308 0 0.0026004894525074782 -0.0051628756713530521 0 0.0020250486119691023 -0.0050953640701799285 0 0.0020151003398970802 -0.0059153499016586187 0 0.0026454596669641308 -0.0058765876063817815 0 0.0021663128046923801 -0.0066537548364344629 0 0.0026004894525074782 -0.0051628756713530521 0 0.0020151003398970802 -0.0059153499016586187 0 0.0026454596669641308 -0.0058765876063817815 0 0.0031481169471022337 -0.0052747919757950472 0 0.0026454596669641308 -0.0058765876063817815 0 0.0032835235559624406 -0.0058033458905661951 0 0.0026454596669641308 -0.0058765876063817815 0 0.0030868993787069566 -0.0066777082956136794 0 0.0032835235559624406 -0.0058033458905661951 0 0.0026454596669641308 -0.0058765876063817815 0 0.0030868993787069566 -0.0066777082956136794 0 0.0021663128046923801 -0.0066537548364344629 0 0.0020151003398970802 -0.0059153499016586187 0 0.0021663128046923801 -0.0066537548364344629 0 0.0016645805245476734 -0.0065890339469417318 0 0.0030868993787069566 -0.0066777082956136794 0 0.0021663128046923801 -0.0066537548364344629 0 0.0018843702993902973 -0.007675782950487816 0 0.0021663128046923801 -0.0066537548364344629 0 0.0017613174712852472 -0.0071100609445958847 0 0.0016645805245476734 -0.0065890339469417318 0 0.000595032852339414 -0.0092171076910321625 0 0.00050351945862167516 -0.0093458854031449202 0 0.00046304751218359411 -0.0093355703909269016 0 0.0036150035590824126 -0.0054313758994558132 0 0.0038634507804012233 -0.0058097812750531721 0 0.0032835235559624406 -0.0058033458905661951 0 0.0030868993787069566 -0.0066777082956136794 0 0.0038634507804012233 -0.0058097812750531721 0 0.0032835235559624406 -0.0058033458905661951 0 0.0017801069473951893 -0.0079932059973715722 0 0.0023415520190742055 -0.0071798884497836597 0 0.00060657221395432311 -0.0091928115466019551 0 0.00046304751218359411 -0.0093355703909269016 0 0.00040429890311160778 -0.0093470296211205922 0 0.00038243354256089004 -0.010767456518876992 0 0.00058790442686069055 -0.0093640186840620258 0 0.00043007987757734682 -0.010484259054814548 0 0.00092094173200148394 -0.01137858518017284 0 0.00040429890311160778 -0.0093470296211205922 0 0.00050351945862167516 -0.0093458854031449202 0 0.00046304751218359411 -0.0093355703909269016 0 0.00040429890311160778 -0.0093470296211205922 0 0.00043007987757734682 -0.010484259054814548 0 0.00021098044318060077 -0.0099021986738331656 0 0.00040429890311160778 -0.0093470296211205922 0 0.00021098044318060077 -0.0099021986738331656 0 0.00040429890311160778 -0.0093470296211205922 0 6.8612282384626329e-05 -0.009120787647231416 0 0.00040429890311160778 -0.0093470296211205922 0 0.00026755612913462829 -0.0083845885603529516 0 6.8612282384626329e-05 -0.009120787647231416 0 0.00060657221395432311 -0.0091928115466019551 0 0.00040429890311160778 -0.0093470296211205922 0 0.00026755612913462829 -0.0083845885603529516 0 0.00026755612913462829 -0.0083845885603529516 0 2.4339491449627808e-07 -0.0075511263569865983 0 0.00024056531438560729 -0.0069508647644422909 0 0.00026755612913462829 -0.0083845885603529516 0 2.4339491449627808e-07 -0.0075511263569865983 0 6.8612282384626329e-05 -0.009120787647231416 0 -1.339354246300839e-07 -0.0095109032885267886 0 2.4339491449627808e-07 -0.0075511263569865983 0 6.8612282384626329e-05 -0.009120787647231416 0 0.0021663128046923801 -0.0066537548364344629 0 0.0018843702993902973 -0.007675782950487816 0 0.0017613174712852472 -0.0071100609445958847 0 0.00060657221395432311 -0.0091928115466019551 0 0.0018843702993902973 -0.007675782950487816 0 0.00077211402386784397 -0.0081039864728491701 0 0.0018843702993902973 -0.007675782950487816 0 0.00077211402386784397 -0.0081039864728491701 0 0.00024056531438560729 -0.0069508647644422909 0 0.00060657221395432311 -0.0091928115466019551 0 0.00026755612913462829 -0.0083845885603529516 0 0.00077211402386784397 -0.0081039864728491701 0 0.0017801069473951893 -0.0079932059973715722 0 0.0019073054016467788 -0.0076914075307233445 0 1.1329194572835631e-06 -0.00559066765280375 0 0.00024056531438560729 -0.0069508647644422909 0 -1.3534458693426437e-05 -0.0044271364445910193 0 2.4339491449627808e-07 -0.0075511263569865983 0 1.1329194572835631e-06 -0.00559066765280375 0 0.00024056531438560729 -0.0069508647644422909 0 0.00026755612913462829 -0.0083845885603529516 0 0.00077211402386784397 -0.0081039864728491701 0 0.00024056531438560729 -0.0069508647644422909 0 0.00014320285591024352 -0.0066977023684644142 0 0.00080871367504938214 -0.0061453555992762657 0 1.1329194572835631e-06 -0.00559066765280375 0 -1.3534458693426437e-05 -0.0044271364445910193 0 -4.35336431931042e-07 -0.0036292462279324793 0 0.0018843702993902973 -0.007675782950487816 0 0.00024056531438560729 -0.0069508647644422909 0 0.0018937497047494724 -0.0072942566702844476 0 0.0018843702993902973 -0.007675782950487816 0 0.0018937497047494724 -0.0072942566702844476 0 0.0017178013348384679 -0.0073936050445351943 0 0.00080871367504938214 -0.0061453555992762657 0 0.00048547441821131259 -0.0033033774890111845 0 0.0018937497047494724 -0.0072942566702844476 0 0.0012485766170220066 -0.007552370146470695 0 0.0014839843228829522 -0.0074053091423509042 0 -1.3534458693426437e-05 -0.0044271364445910193 0 -4.35336431931042e-07 -0.0036292462279324793 0 6.8937051271192193e-06 -0.0030682616228786806 0 -1.3534458693426437e-05 -0.0044271364445910193 0 1.4769660875599239e-05 -0.0026611659013186552 0 6.8937051271192193e-06 -0.0030682616228786806 0 0.0018937497047494724 -0.0072942566702844476 0 0.0014839843228829522 -0.0074053091423509042 0 0.0017178013348384679 -0.0073936050445351943 0 -4.35336431931042e-07 -0.0036292462279324793 0 6.8937051271192193e-06 -0.0030682616228786806 0 4.427946250080951e-07 -0.0016689851293953844 0 7.9011669643188976e-06 -0.0025855498384324558 0 6.8937051271192193e-06 -0.0030682616228786806 0 4.427946250080951e-07 -0.0016689851293953844 0 0.00048547441821131259 -0.0033033774890111845 0 5.4439292699969566e-05 -0.0031085345682480897 0 0.0012485766170220066 -0.007552370146470695 0 0.0014839843228829522 -0.0074053091423509042 0 0.0010718163259133145 -0.0072059772220592431 0 0.0014839843228829522 -0.0074053091423509042 0 0.0014640174967097449 -0.007054770514725822 0 0.00079051640123156794 -0.006931425286957239 0 0.0013992879741437088 -0.0072838079374915937 0 0.00096631915814744142 -0.0070240221718330569 0 0.0014839843228829522 -0.0074053091423509042 0 0.0010718163259133145 -0.0072059772220592431 0 0.0011189639491731302 -0.0067086866456686264 0 0.0014839843228829522 -0.0074053091423509042 0 0.0017178013348384679 -0.0073936050445351943 0 0.0014640174967097449 -0.007054770514725822 0 0.0018843702993902973 -0.007675782950487816 0 0.0017178013348384679 -0.0073936050445351943 0 0.0017613174712852472 -0.0071100609445958847 0 0.0017178013348384679 -0.0073936050445351943 0 0.0014640174967097449 -0.007054770514725822 0 0.0017613174712852472 -0.0071100609445958847 0 0.0014640174967097449 -0.007054770514725822 0 0.0017613174712852472 -0.0071100609445958847 0 0.0016645805245476734 -0.0065890339469417318 0 0.0016645805245476734 -0.0065890339469417318 0 0.0012452275895307686 -0.006583176857494267 0 0.0014298467942543418 -0.0060971138453840114 0 0.0014640174967097449 -0.007054770514725822 0 0.0016645805245476734 -0.0065890339469417318 0 0.0012452275895307686 -0.006583176857494267 0 0.00079051640123156794 -0.006931425286957239 0 0.0012452275895307686 -0.006583176857494267 0 0.00085249465392456399 -0.0062170690592541896 0 0.0014640174967097449 -0.007054770514725822 0 0.00079051640123156794 -0.006931425286957239 0 0.0012452275895307686 -0.006583176857494267 0 0.0012452275895307686 -0.006583176857494267 0 0.00085249465392456399 -0.0062170690592541896 0 0.0014298467942543418 -0.0060971138453840114 0 0.00085249465392456399 -0.0062170690592541896 0 0.0010053162186081535 -0.0056718428354594896 0 0.0014298467942543418 -0.0060971138453840114 0 0.00062818825940780764 -0.0054432756289954703 0 0.0010053162186081535 -0.0056718428354594896 0 0.00046161073041685194 -0.0058617341342323531 0 0.00085249465392456399 -0.0062170690592541896 0 0.0010053162186081535 -0.0056718428354594896 0 0.00046161073041685194 -0.0058617341342323531 0 0.0015044381406540751 -0.0054430083861076546 0 0.0010053162186081535 -0.0056718428354594896 0 0.0014298467942543418 -0.0060971138453840114 0 0.0015044381406540751 -0.0054430083861076546 0 0.0020151003398970802 -0.0059153499016586187 0 0.0014298467942543418 -0.0060971138453840114 0 0.0020151003398970802 -0.0059153499016586187 0 0.0016645805245476734 -0.0065890339469417318 0 0.0014298467942543418 -0.0060971138453840114 0 0.0024430118514639624 -0.0025908609284228772 0 0.0019154703965461603 -0.0019090232938855469 0 0.0029376877728093729 -0.0019894339952926171 0 0.0024430118514639624 -0.0025908609284228772 0 0.0029376877728093729 -0.0019894339952926171 0 0.0031969223886467494 -0.0024823901015753364 0 0.0010394929683949857 -0.0039090580238147939 0 0.00096488152667026199 -0.0046811450428621585 0 0.00021717763613776479 -0.0055548770181061864 0 0.00046161073041685194 -0.0058617341342323531 0 0.00012922115533563525 -0.006054705375115388 0 0.00085249465392456399 -0.0062170690592541896 0 0.00046161073041685194 -0.0058617341342323531 0 0.00011355028451373783 -0.0060941350582945112 0 0.00021717763613776479 -0.0055548770181061864 0 -0.00027286366195547327 -0.0054657851444400224 0 0.00012922115533563525 -0.006054705375115388 0 0.00062818825940780764 -0.0054432756289954703 0 0.00021717763613776479 -0.0055548770181061864 0 0.00046161073041685194 -0.0058617341342323531 0 0.0001190953302368237 -0.0057072323685263123 0 0.00096488152667026199 -0.0046811450428621585 0 0.00079051640123156794 -0.006931425286957239 0 0.00085249465392456399 -0.0062170690592541896 0 0.00011355028451373783 -0.0060941350582945112 0 0.00096631915814744142 -0.0070240221718330569 0 0.00096488152667026199 -0.0046811450428621585 0 0.0011189639491731302 -0.0067086866456686264 0 0.00068803756573580799 -0.0060893030320857446 0 0.00057377238449205122 -0.0066318476177376047 0 0.00068803756573580799 -0.0060893030320857446 0 -2.6086334729857233e-05 -0.0065480657586129039 0 0.0001347619714925515 -0.0065549933259189171 0 0.00096488152667026199 -0.0046811450428621585 0 0.0014562606353741004 -0.0037398857128361383 0 0.00068803756573580799 -0.0060893030320857446 0 0.00057377238449205122 -0.0066318476177376047 0 0.0001347619714925515 -0.0065549933259189171 0 0.0019154703965461603 -0.0019090232938855469 0 0.0031528494469109307 -0.001106109368942324 0 0.0029376877728093729 -0.0019894339952926171 0 0.00057377238449205122 -0.0066318476177376047 0 0.00035672690736487483 -0.0067632118784633835 0 0.0001347619714925515 -0.0065549933259189171 0 0.00072655809646770414 -0.0022141856104507919 0 0.00073552247149539867 -0.0022352951098165378 0 0.00072124816887799217 -0.0022055751585682323 0 0.00025631121243772768 -0.0070214497129506776 0 0.0006702169369108491 -0.0069753833164462832 0 0.0007973640339630913 -0.0073995334350590502 0 0.00035672690736487483 -0.0067632118784633835 0 0.00025631121243772768 -0.0070214497129506776 0 0.0001347619714925515 -0.0065549933259189171 0 0.00057377238449205122 -0.0066318476177376047 0 0.00035672690736487483 -0.0067632118784633835 0 0.0006702169369108491 -0.0069753833164462832 0 0.00035672690736487483 -0.0067632118784633835 0 0.00025631121243772768 -0.0070214497129506776 0 0.0006702169369108491 -0.0069753833164462832 0 0.0011189639491731302 -0.0067086866456686264 0 0.00057377238449205122 -0.0066318476177376047 0 0.0006702169369108491 -0.0069753833164462832 0 0.0010718163259133145 -0.0072059772220592431 0 0.0011189639491731302 -0.0067086866456686264 0 0.0006702169369108491 -0.0069753833164462832 0 0.0010718163259133145 -0.0072059772220592431 0 0.0006702169369108491 -0.0069753833164462832 0 0.0007973640339630913 -0.0073995334350590502 0 7.9011669643188976e-06 -0.0025855498384324558 0 4.427946250080951e-07 -0.0016689851293953844 0 1.5477382875428649e-05 -0.00053784663663660815 0 0.00072315823320662036 -0.00062005847866888398 0 0.00033618035286940139 -0.0004824947887820775 0 1.5477382875428649e-05 -0.00053784663663660815 0 0.00048547441821131259 -0.0033033774890111845 0 -0.00015038502788185712 -0.00033177342883480599 0 0.00048547441821131259 -0.0033033774890111845 0 0.00088986283065373476 -0.003405919886190619 0 0.0012485766170220066 -0.007552370146470695 0 0.0010718163259133145 -0.0072059772220592431 0 0.0007973640339630913 -0.0073995334350590502 0 0.00033618035286940139 -0.0004824947887820775 0 0.00015212461877887751 -0.00041132020058580861 0 1.5477382875428649e-05 -0.00053784663663660815 0 0.00088986283065373476 -0.003405919886190619 0 0.00033881927302870725 -0.0019093655851761216 0 4.427946250080951e-07 -0.0016689851293953844 0 1.5477382875428649e-05 -0.00053784663663660815 0 -7.0127363960065525e-07 0.00029187705672278978 0 0.00033881927302870725 -0.0019093655851761216 0 0.00020031906811175738 -0.0010095988431775046 0 0.0004972549456251983 -0.0048171412458074608 0 0.00088986283065373476 -0.003405919886190619 0 0.00072655809646770414 -0.0022141856104507919 0 0.0007416493818966168 -0.0022432579527945293 0 0.00073552247149539867 -0.0022352951098165378 0 0.00015212461877887751 -0.00041132020058580861 0 -8.4851741557264262e-05 -1.0831236675881576e-05 0 -0.00019849586551194567 0.00035892515767407628 0 0.00015212461877887751 -0.00041132020058580861 0 -8.4851741557264262e-05 -1.0831236675881576e-05 0 1.5477382875428649e-05 -0.00053784663663660815 0 -8.4851741557264262e-05 -1.0831236675881576e-05 0 1.5477382875428649e-05 -0.00053784663663660815 0 -7.0127363960065525e-07 0.00029187705672278978 0 -8.4851741557264262e-05 -1.0831236675881576e-05 0 -7.0127363960065525e-07 0.00029187705672278978 0 -0.00011541840710288816 0.00049749225340880066 0 -8.4851741557264262e-05 -1.0831236675881576e-05 0 -0.00011541840710288816 0.00049749225340880066 0 -0.00019849586551194567 0.00035892515767407628 0 -0.00011541840710288816 0.00049749225340880066 0 5.4597886464832589e-06 0.0012235624362146944 0 5.4865250724309238e-05 0.00051166112324308095 0 -0.00011541840710288816 0.00049749225340880066 0 5.4865250724309238e-05 0.00051166112324308095 0 -0.00019849586551194567 0.00035892515767407628 0 -7.0127363960065525e-07 0.00029187705672278978 0 -0.00011541840710288816 0.00049749225340880066 0 5.4597886464832589e-06 0.0012235624362146944 0 -7.0127363960065525e-07 0.00029187705672278978 0 5.4597886464832589e-06 0.0012235624362146944 0 8.4115624387419737e-07 0.0022492918028515826 0 0.00031644983993127379 0.0029528242065326297 0 1.234882872727916e-08 0.0022542391135955361 0 8.795873222671592e-05 0.0027910813777564368 0 0.00077860083444550277 0.0015942027012561886 0 1.6998857021008876e-07 0.0022518245860158616 0 5.4597886464832589e-06 0.0012235624362146944 0 8.2532716880094907e-05 0.0012965080833182926 0 8.4115624387419737e-07 0.0022492918028515826 0 5.4597886464832589e-06 0.0012235624362146944 0 5.4865250724309238e-05 0.00051166112324308095 0 0.00045839450908351958 0.00042859552951496474 0 0.0001396157536487408 0.0011406108679964018 0 0.00077860083444550277 0.0015942027012561886 0 0.00072788602313823868 -0.0021827958867667984 0 0.00072799358779217433 -0.0021805812490694795 0 0.00072124816887799217 -0.0022055751585682323 0 5.4865250724309238e-05 0.00051166112324308095 0 0.00045839450908351958 0.00042859552951496474 0 0.00036660672854044586 0.00031766827347058359 0 5.4865250724309238e-05 0.00051166112324308095 0 0.00036660672854044586 0.00031766827347058359 0 -0.00019849586551194567 0.00035892515767407628 0 0.00031644983993127379 0.0029528242065326297 0 0.0002160217510138196 0.0029974987366724873 0 8.795873222671592e-05 0.0027910813777564368 0 0.00077860083444550277 0.0015942027012561886 0 0.0011666092156993831 0.0021475066366083411 0 0.00077860083444550277 0.0015942027012561886 0 0.0010283486880328303 0.00054232273176129363 0 0.0012584119834496625 0.0013169677932338116 0 0.0013398038929191426 0.0015803499437740884 0 0.0011995537164960954 0.0016134324026160286 0 0.0011414158644177577 2.416306842742707e-05 0 0.0010283486880328303 0.00054232273176129363 0 0.0011417167649143934 0.00083519765201800001 0 0.0011197049304799216 0.00076397921160550029 0 0.0010531095857351095 0.00078013785300805262 0 0.0011414158644177577 2.416306842742707e-05 0 0.0011965898334237533 0.0013190358489300453 0 0.0010283486880328303 0.00054232273176129363 0 0.0011965898334237533 0.0013190358489300453 0 0.001964692351970903 0.00048951996410790603 0 0.0020627637089902524 0.00055391284039363732 0 0.002147405194960011 0.00053530798730204031 0 0.0012584119834496625 0.0013169677932338116 0 0.0011037095689305459 0.0015529431800954928 0 0.0011995537164960954 0.0016134324026160286 0 0.0011714745724369343 0.0012619301857557386 0 0.0015555545175308879 0.0015060873469978555 0 0.0009140748312281787 0.0016548855562055279 0 0.0011666092156993831 0.0021475066366083411 0 0.0011965898334237533 0.0013190358489300453 0 0.0011965898334237533 0.0013190358489300453 0 0.0013229010585060598 0.0019998614155655389 0 0.0011666092156993831 0.0021475066366083411 0 0.0013229010585060598 0.0019998614155655389 0 0.001964692351970903 0.00048951996410790603 0 0.002147405194960011 0.00053530798730204031 0 0.0020797922252463611 0.00023744640347139444 0 0.001964692351970903 0.00048951996410790603 0 0.0020797922252463611 0.00023744640347139444 0 0.0018482494204290934 9.3762931205909218e-05 0 0.0011414158644177577 2.416306842742707e-05 0 0.0023606655397442919 -0.001318716913597692 0 0.0011414158644177577 2.416306842742707e-05 0 0.00092941967965930487 -0.0033053034631009685 0 0.0018465351383687152 -0.0011321929087068129 0 0.0010892969735547039 -0.0016224404777752666 0 0.0016123207144909221 -0.0019022944138626071 0 0.0004972549456251983 -0.0048171412458074608 0 0.00092941967965930487 -0.0033053034631009685 0 0.00025631121243772768 -0.0070214497129506776 0 -0.00026040975286378658 -0.0066864966995204521 0 -2.0253869838532194e-05 -0.0065433719366066803 0 0.00072655809646770414 -0.0022141856104507919 0 0.00072432357732451851 -0.0021983676299094004 0 0.00072124816887799217 -0.0022055751585682323 0 0.0010283486880328303 0.00054232273176129363 0 0.00020031906811175738 -0.0010095988431775046 0 0.00072788602313823868 -0.0021827958867667984 0 0.00072432357732451851 -0.0021983676299094004 0 0.00072124816887799217 -0.0022055751585682323 0 0.00025631121243772768 -0.0070214497129506776 0 -2.0253869838532194e-05 -0.0065433719366066803 0 0.0001347619714925515 -0.0065549933259189171 0 0.00018051284858065748 0.0049806919405230932 0 -1.1975954114875051e-07 0.0043011728784935737 0 0.00069521307206851508 0.0048684119399603652 0 -1.6963427203810611e-07 0.0042971143892537424 0 0.00030903791931477845 0.0040486744707537619 0 0.00018051284858065748 0.0049806919405230932 0 -1.1975954114875051e-07 0.0043011728784935737 0 -9.5917552578105462e-05 0.0048863722126633417 0 4.3967379614516228e-09 0.0042949533316462875 0 -8.8169642187007811e-05 0.0029352557490373624 0 1.234882872727916e-08 0.0022542391135955361 0 0.0002160217510138196 0.0029974987366724873 0 -8.8169642187007811e-05 0.0029352557490373624 0 8.795873222671592e-05 0.0027910813777564368 0 0.0011666092156993831 0.0021475066366083411 0 0.00030903791931477845 0.0040486744707537619 0 -8.8169642187007811e-05 0.0029352557490373624 0 1.234882872727916e-08 0.0022542391135955361 0 8.795873222671592e-05 0.0027910813777564368 0 0.0012086944948825388 0.0052463250872439755 0 0.00069521307206851508 0.0048684119399603652 0 0.00044346042960697761 0.0054392128857248664 0 0.0013229010585060598 0.0019998614155655389 0 0.0011650656894672264 0.0041472473829271567 0 0.0017970556785278544 0.0025376498237649672 0 0.0022447796079534438 0.0024408587976315014 0 0.0020006265327956619 0.0022340750212325581 0 0.0012408015567572555 0.0051955729533734929 0 0.0012086944948825388 0.0052463250872439755 0 0.00069521307206851508 0.0048684119399603652 0 0.0013229010585060598 0.0019998614155655389 0 0.0029563799042830611 0.00084183050868272551 0 0.002147405194960011 0.00053530798730204031 0 0.0020797922252463611 0.00023744640347139444 0 0.0024836786138044903 3.1670279932855e-05 0 0.0011650656894672264 0.0041472473829271567 0 0.002020887165702475 0.0032002641486894457 0 0.00018051284858065748 0.0049806919405230932 0 0.00069521307206851508 0.0048684119399603652 0 0.00044346042960697761 0.0054392128857248664 0 0.00018051284858065748 0.0049806919405230932 0 0.00044346042960697761 0.0054392128857248664 0 -5.1288424847984003e-05 0.0052096959756104738 0 0.0039653531740122547 0.00089121460549363752 0 0.0040355236455506781 0.00078804906098859078 0 0.0041791610496189164 0.00088932258719383989 0 0.0056493066140569483 0.00011799657047342884 0 0.0036686668223338955 0.0015175084620682473 0 0.0022447796079534438 0.0024408587976315014 0 0.0020006265327956619 0.0022340750212325581 0 0.0025290142162946614 0.0022307842271874411 0 0.0029563799042830611 0.00084183050868272551 0 0.0036686668223338955 0.0015175084620682473 0 0.0047686605404238854 0.0012572361795411505 0 0.0045821186949116452 0.0012618264736745652 0 0.0045257818607581518 0.0011209628986499646 0 0.004009024975134127 0.00020880849918352028 0 0.0044768462552309072 -0.00051283759103090221 0 0.0030957640603479003 0.00022226318110044147 0 0.0056493066140569483 0.00011799657047342884 0 0.002915354312574532 -0.00094947912986935109 0 0.0029563799042830611 0.00084183050868272551 0 0.0056493066140569483 0.00011799657047342884 0 0.0029563799042830611 0.00084183050868272551 0 0.002915354312574532 -0.00094947912986935109 0 0.0056493066140569483 0.00011799657047342884 0 0.0069684071398299161 -0.00093260771045137678 0 0.009169371852869793 0.00064152041002313374 0 0.0088739223502187856 0.00052823085949585326 0 0.0091306620840252133 0.00044451217581283715 0 0.0056493066140569483 0.00011799657047342884 0 0.0070972149841639232 0.00099486730817878477 0 0.0047794339531789087 0.0012557787727153244 0 0.0046569024104166912 0.0013193772333212623 0 0.004599619706210035 0.0015056587083702732 0 0.009169371852869793 0.00064152041002313374 0 0.0091306620840252133 0.00044451217581283715 0 0.009305908629291211 0.00041437023958111325 0 0.0047686605404238854 0.0012572361795411505 0 0.0045821186949116452 0.0012618264736745652 0 0.0046569024104166912 0.0013193772333212623 0 0.0056493066140569483 0.00011799657047342884 0 0.0044973178068584852 0.0011200973133145657 0 0.0046569024104166912 0.0013193772333212623 0 0.004599619706210035 0.0015056587083702732 0 0.0045293983437007792 0.0013757301553317823 0 0.0045821186949116452 0.0012618264736745652 0 0.0046569024104166912 0.0013193772333212623 0 0.0045293983437007792 0.0013757301553317823 0 0.0034000503330422868 -0.0015584987352515731 0 0.0031528494469109307 -0.001106109368942324 0 0.0029376877728093729 -0.0019894339952926171 0 0.0014562606353741004 -0.0037398857128361383 0 0.00057144684858029802 -0.0044238134797139443 0 0.00092941967965930487 -0.0033053034631009685 0 0.0014562606353741004 -0.0037398857128361383 0 0.0017095426289526995 -0.0023583051002028801 0 0.0012632077141283792 -0.0026464931087481292 0 0.0020883391335752843 -0.0026552610811626525 0 0.0034000503330422868 -0.0015584987352515731 0 0.0031528494469109307 -0.001106109368942324 0 0.003949777343002679 -0.0011144022924716266 0 0.0014562606353741004 -0.0037398857128361383 0 0.0027566075110818213 -0.0012917553270724949 0 0.0017095426289526995 -0.0023583051002028801 0 0.0021138336372346451 -0.0025718747010632309 0 0.0020883391335752843 -0.0026552610811626525 0 0.00092941967965930487 -0.0033053034631009685 0 0.0023606655397442919 -0.001318716913597692 0 0.0039595445009311409 -0.0010804695064199239 0 0.004148782307687577 -0.0010841131683221336 0 0.00382040765592521 -0.0015539954971868089 0 0.0053581618929792879 -0.0017151691882964777 0 0.004148782307687577 -0.0010841131683221336 0 0.00382040765592521 -0.0015539954971868089 0 0.0023606655397442919 -0.001318716913597692 0 0.002915354312574532 -0.00094947912986935109 0 0.0023606655397442919 -0.001318716913597692 0 0.0027566075110818213 -0.0012917553270724949 0 0.0025533701036635037 -0.0011605208674441122 0 0.0025277402855852066 -0.0012439179359963 0 0.0027149780199861545 -0.0012478547802614397 0 0.0027566075110818213 -0.0012917553270724949 0 0.002915354312574532 -0.00094947912986935109 0 0.0020797922252463611 0.00023744640347139444 0 0.0024836786138044903 3.1670279932855e-05 0 0.0019553508676865461 3.7000212153519272e-05 0 0.0020797922252463611 0.00023744640347139444 0 0.0018482494204290934 9.3762931205909218e-05 0 0.0019553508676865461 3.7000212153519272e-05 0 0.0034000503330422868 -0.0015584987352515731 0 0.003949777343002679 -0.0011144022924716266 0 0.00382040765592521 -0.0015539954971868089 0 0.0027566075110818213 -0.0012917553270724949 0 0.003387313387662886 -0.0012454666253738848 0 0.00382040765592521 -0.0015539954971868089 0 0.0034777629614521958 -0.0020468187689231068 0 0.0041563075650816938 -0.0025086087539483689 0 0.0053581618929792879 -0.0017151691882964777 0 0.00382040765592521 -0.0015539954971868089 0 0.0041563075650816938 -0.0025086087539483689 0 0.0034777629614521958 -0.0020468187689231068 0 0.0031969223886467494 -0.0024823901015753364 0 0.0041563075650816938 -0.0025086087539483689 0 0.0034000503330422868 -0.0015584987352515731 0 0.00382040765592521 -0.0015539954971868089 0 0.0034777629614521958 -0.0020468187689231068 0 0.0034000503330422868 -0.0015584987352515731 0 0.0034777629614521958 -0.0020468187689231068 0 0.0029376877728093729 -0.0019894339952926171 0 0.0034777629614521958 -0.0020468187689231068 0 0.0029376877728093729 -0.0019894339952926171 0 0.0031969223886467494 -0.0024823901015753364 0 0.0046564935166070916 -0.0017979618871412442 0 0.0069684071398299161 -0.00093260771045137678 0 0.0031969223886467494 -0.0024823901015753364 0 0.0029749359070706687 -0.0032770585943217283 0 0.0041563075650816938 -0.0025086087539483689 0 0.0070095820890048082 -0.00050751809340546412 0 0.0071578906484242579 0.001054614440935685 0 0.0085509584790215056 -0.00047534059945594342 0 0.0082506746519955335 0.00036171548174462247 0 0.0088719456235186109 0.00015837730688590215 0 0.0085509584790215056 -0.00047534059945594342 0 0.0046564935166070916 -0.0017979618871412442 0 0.009313736278600512 0.00024238845452841012 0 0.0082506746519955335 0.00036171548174462247 0 0.0088719456235186109 0.00015837730688590215 0 0.0088937157131583969 0.00033223754089054745 0 0.0088719456235186109 0.00015837730688590215 0 0.0090986469149108781 0.0001521241818462232 0 0.0093679769279692553 0.00018664093371360637 0 0.0088719456235186109 0.00015837730688590215 0 0.0088937157131583969 0.00033223754089054745 0 0.0090986469149108781 0.0001521241818462232 0 0.0088739223502187856 0.00052823085949585326 0 0.0088937157131583969 0.00033223754089054745 0 0.0091306620840252133 0.00044451217581283715 0 0.0082506746519955335 0.00036171548174462247 0 0.0088739223502187856 0.00052823085949585326 0 0.0088937157131583969 0.00033223754089054745 0 0.0091306620840252133 0.00044451217581283715 0 0.0092515349578998641 0.00021707476578156304 0 0.0090986469149108781 0.0001521241818462232 0 0.0088937157131583969 0.00033223754089054745 0 0.0091306620840252133 0.00044451217581283715 0 0.0090986469149108781 0.0001521241818462232 0 0.0091306620840252133 0.00044451217581283715 0 0.009305908629291211 0.00041437023958111325 0 0.0092515349578998641 0.00021707476578156304 0 0.009305908629291211 0.00041437023958111325 0 0.0092515349578998641 0.00021707476578156304 0 0.009392719426308014 0.00022519278821320064 0 0.0082407658632920999 -7.3242208532785984e-05 0 0.0085272683348710052 0.00080530316259004575 0 0.0075238926582172471 0.00084217383205217942 0 0.0082407658632920999 -7.3242208532785984e-05 0 0.0088985457978029755 0.00027757080015842209 0 0.0085272683348710052 0.00080530316259004575 0 0.0082407658632920999 -7.3242208532785984e-05 0 0.0090986469149108781 0.0001521241818462232 0 0.0088985457978029755 0.00027757080015842209 0 0.0090371764730438255 4.8478590591017422e-05 0 0.0089268332447610867 0.0001326478919200007 0 0.0090986469149108781 0.0001521241818462232 0 0.0088985457978029755 0.00027757080015842209 0 0.0093679769279692553 0.00018664093371360637 0 0.0093679769279692553 0.00018664093371360637 0 0.0088726563178817691 0.0016428816369254756 0 0.0098777132507797266 0.0025936653331115993 0 0.0088985457978029755 0.00027757080015842209 0 0.0093679769279692553 0.00018664093371360637 0 0.0085272683348710052 0.00080530316259004575 0 0.0093679769279692553 0.00018664093371360637 0 0.0085272683348710052 0.00080530316259004575 0 0.0088726563178817691 0.0016428816369254756 0 0.0085272683348710052 0.00080530316259004575 0 0.0079262770106202779 0.0018318409186571386 0 0.0088726563178817691 0.0016428816369254756 0 0.0085272683348710052 0.00080530316259004575 0 0.0079262770106202779 0.0018318409186571386 0 0.0075238926582172471 0.00084217383205217942 0 0.0079262770106202779 0.0018318409186571386 0 0.0088726563178817691 0.0016428816369254756 0 0.0087923160753503316 0.0027565202375201413 0 0.0079262770106202779 0.0018318409186571386 0 0.0087923160753503316 0.0027565202375201413 0 0.007672996771936301 0.0029904399043233013 0 0.0088726563178817691 0.0016428816369254756 0 0.0098777132507797266 0.0025936653331115993 0 0.0087923160753503316 0.0027565202375201413 0 0.0090793177973716964 -0.0024115123597102895 0 0.0079496046833818657 -0.0018077942004831966 0 0.0085509584790215056 -0.00047534059945594342 0 0.0090793177973716964 -0.0024115123597102895 0 0.0079496046833818657 -0.0018077942004831966 0 0.0077408951876357171 -0.0027461607374949606 0 0.0070095820890048082 -0.00050751809340546412 0 0.0068063277265674503 -0.0023239326518655012 0 0.0079496046833818657 -0.0018077942004831966 0 0.0068063277265674503 -0.0023239326518655012 0 0.0079496046833818657 -0.0018077942004831966 0 0.0077408951876357171 -0.0027461607374949606 0 0.0070095820890048082 -0.00050751809340546412 0 0.0079496046833818657 -0.0018077942004831966 0 0.0085509584790215056 -0.00047534059945594342 0 0.0093679769279692553 0.00018664093371360637 0 0.0090793177973716964 -0.0024115123597102895 0 0.0085509584790215056 -0.00047534059945594342 0 0.0093931248291680234 0.00012714629599320547 0 0.0094255320370390926 0.0001569811550908473 0 0.0088719456235186109 0.00015837730688590215 0 0.0093679769279692553 0.00018664093371360637 0 0.0085509584790215056 -0.00047534059945594342 0 0.0045681409440360256 0.002207547319016059 0 0.005512279734180287 0.0017839112582596977 0 0.0051647175932207686 0.0014171873295507769 0 0.004633876840384606 0.001745284357561666 0 0.005458123034829369 0.0022854917574334681 0 0.005512279734180287 0.0017839112582596977 0 0.0045450464353545749 0.0020057845689087747 0 0.0054235414891686947 0.0017901897339226418 0 0.0045681409440360256 0.002207547319016059 0 0.0040500891488825328 0.0020053559272227646 0 0.0041759593860998256 0.0017596955136840117 0 0.0045681409440360256 0.002207547319016059 0 0.0040500891488825328 0.0020053559272227646 0 0.0040024441870973142 0.0023673335946502055 0 0.0045450464353545749 0.0020057845689087747 0 0.0038662199158767648 0.0019965284679552431 0 0.0040384617927052419 0.0029454070364190793 0 0.0032540634970967806 0.00206625077198009 0 0.002711012812412619 0.002870504346375982 0 0.004633876840384606 0.001745284357561666 0 0.0040384617927052419 0.0029454070364190793 0 0.0032540634970967806 0.00206625077198009 0 0.0040384617927052419 0.0029454070364190793 0 0.005458123034829369 0.0022854917574334681 0 0.0053050391588770514 0.0036162834372472775 0 0.004633876840384606 0.001745284357561666 0 0.0040384617927052419 0.0029454070364190793 0 0.005458123034829369 0.0022854917574334681 0 0.0062879905390533326 0.0029255878571347311 0 0.005458123034829369 0.0022854917574334681 0 0.0053050391588770514 0.0036162834372472775 0 0.0062879905390533326 0.0029255878571347311 0 0.0063422543677210935 0.0019948002442822122 0 0.005458123034829369 0.0022854917574334681 0 0.0062879905390533326 0.0029255878571347311 0 0.0069911306344119517 0.0022209697363779969 0 0.007672996771936301 0.0029904399043233013 0 0.0079262770106202779 0.0018318409186571386 0 0.0069911306344119517 0.0022209697363779969 0 0.007672996771936301 0.0029904399043233013 0 0.0062879905390533326 0.0029255878571347311 0 0.0063422543677210935 0.0019948002442822122 0 0.0069911306344119517 0.0022209697363779969 0 0.0063422543677210935 0.0019948002442822122 0 0.0069911306344119517 0.0022209697363779969 0 0.0069956375944970955 0.0014498717025303151 0 0.0079262770106202779 0.0018318409186571386 0 0.0069911306344119517 0.0022209697363779969 0 0.0069956375944970955 0.0014498717025303151 0 0.0079262770106202779 0.0018318409186571386 0 0.0069956375944970955 0.0014498717025303151 0 0.0075238926582172471 0.00084217383205217942 0 0.0063422543677210935 0.0019948002442822122 0 0.0069956375944970955 0.0014498717025303151 0 0.0062326514734450762 0.0010066305084279882 0 0.0069275573697924493 0.00081385542849951608 0 0.0062326514734450762 0.0010066305084279882 0 0.0069502032226314578 -1.5085839784020146e-05 0 0.0069956375944970955 0.0014498717025303151 0 0.0069275573697924493 0.00081385542849951608 0 0.0062326514734450762 0.0010066305084279882 0 0.0069956375944970955 0.0014498717025303151 0 0.0069275573697924493 0.00081385542849951608 0 0.0075238926582172471 0.00084217383205217942 0 0.005458123034829369 0.0022854917574334681 0 0.005512279734180287 0.0017839112582596977 0 0.0056526892635222021 0.0018584701454704134 0 0.0054952813724429075 0.0021912040829633874 0 0.0059647150696484743 0.0014246820982194003 0 0.0063422543677210935 0.0019948002442822122 0 0.005458123034829369 0.0022854917574334681 0 0.0062326514734450762 0.0010066305084279882 0 0.005512279734180287 0.0017839112582596977 0 0.0056526892635222021 0.0018584701454704134 0 0.0060147716768457092 0.0013327568215084262 0 0.0043828253739821854 0.0016432031628276992 0 0.0065768059403258526 0.0010011136550028936 0 0.005512279734180287 0.0017839112582596977 0 0.0051647175932207686 0.0014171873295507769 0 0.0060147716768457092 0.0013327568215084262 0 0.0041642292686961116 0.0017300711284214349 0 0.0044446716271317865 0.00172598213660676 0 0.004298947367596632 0.0015966731923440405 0 0.0082407658632920999 -7.3242208532785984e-05 0 0.0075238926582172471 0.00084217383205217942 0 0.0069502032226314578 -1.5085839784020146e-05 0 0.0090371764730438255 4.8478590591017422e-05 0 0.0065768059403258526 0.0010011136550028936 0 0.0069275573697924493 0.00081385542849951608 0 0.0075238926582172471 0.00084217383205217942 0 0.0069502032226314578 -1.5085839784020146e-05 0 0.0059647150696484743 0.0014246820982194003 0 0.0065768059403258526 0.0010011136550028936 0 0.0044446716271317865 0.00172598213660676 0 0.0044000435901946303 0.0015018959197199333 0 0.004298947367596632 0.0015966731923440405 0 0.004599619706210035 0.0015056587083702732 0 0.0044446716271317865 0.00172598213660676 0 0.0044000435901946303 0.0015018959197199333 0 0.0070972149841639232 0.00099486730817878477 0 0.0065768059403258526 0.0010011136550028936 0 0.004599619706210035 0.0015056587083702732 0 0.0044000435901946303 0.0015018959197199333 0 0.0045293983437007792 0.0013757301553317823 0 0.0044000435901946303 0.0015018959197199333 0 0.004298947367596632 0.0015966731923440405 0 0.0041961170852214316 0.001436963458707441 0 0.0041642292686961116 0.0017300711284214349 0 0.004298947367596632 0.0015966731923440405 0 0.0041961170852214316 0.001436963458707441 0 0.0040641130474317125 0.001847564898174634 0 0.0042365428077020383 0.00146232819409988 0 0.0041542793858748549 0.0017410081781988372 0 0.0041334679739856578 0.0018181229070681013 0 0.0038899165469950792 0.0019637958336042888 0 0.0041642292686961116 0.0017300711284214349 0 0.0041542793858748549 0.0017410081781988372 0 0.0041961170852214316 0.001436963458707441 0 0.0041334679739856578 0.0018181229070681013 0 0.0042035086698505395 0.0018763557514506501 0 0.0038899165469950792 0.0019637958336042888 0 0.0043828253739821854 0.0016432031628276992 0 0.0043401561961045245 0.0017042877263891893 0 0.0041642292686961116 0.0017300711284214349 0 0.0041542793858748549 0.0017410081781988372 0 0.0041759593860998256 0.0017596955136840117 0 0.0045681409440360256 0.002207547319016059 0 0.0051647175932207686 0.0014171873295507769 0 0.0041759593860998256 0.0017596955136840117 0 0.0041542793858748549 0.0017410081781988372 0 0.0041759593860998256 0.0017596955136840117 0 0.0041334679739856578 0.0018181229070681013 0 0.0041272492103029178 0.0018157003377589215 0 0.0042035086698505395 0.0018763557514506501 0 0.0038835069215763492 0.001844354438141145 0 0.0040500891488825328 0.0020053559272227646 0 0.0040621496734636392 0.0018389452341368146 0 0.0041759593860998256 0.0017596955136840117 0 0.0040621496734636392 0.0018389452341368146 0 0.0041272492103029178 0.0018157003377589215 0 0.0038835069215763492 0.001844354438141145 0 0.0041759593860998256 0.0017596955136840117 0 0.0041272492103029178 0.0018157003377589215 0 0.0041334679739856578 0.0018181229070681013 0 0.0040621496734636392 0.0018389452341368146 0 0.0041759593860998256 0.0017596955136840117 0 0.0041272492103029178 0.0018157003377589215 0 0.0041272492103029178 0.0018157003377589215 0 0.0041334679739856578 0.0018181229070681013 0 0.0042035086698505395 0.0018763557514506501 0 0.0017415411678997801 0.0089016949720809365 0 0.0021736858212429615 0.0080304682212851471 0 0.0013667904343537178 0.0086951131383201999 0 0.0021736858212429615 0.0080304682212851471 0 0.0013667904343537178 0.0086951131383201999 0 0.0012804656858407346 0.0082770487121369436 0 0.0031442751754741697 0.0051139628467496839 0 0.0021514825197045421 0.0061824532874911933 0 0.0042035086698505395 0.0018763557514506501 0 0.0040756272822089134 0.0022506720671630421 0 0.0038899165469950792 0.0019637958336042888 0 0.0021514825197045421 0.0061824532874911933 0 0.0030360095449022523 0.0026532746200828299 0 8.8662220084996342e-05 0.0087394507904113364 0 7.3820811214781229e-05 0.0087338892928543882 0 9.6405605478570882e-05 0.0087261068575930131 0 0.0021514825197045421 0.0061824532874911933 0 0.00043336732840599401 0.0087762049570709738 0 8.8662220084996342e-05 0.0087394507904113364 0 0.00013594809100011412 0.008656961705766443 0 9.6405605478570882e-05 0.0087261068575930131 0 0.0045821186949116452 0.0012618264736745652 0 0.0043974102974439827 0.0013193650575646174 0 0.0044238027851283982 0.0012015260154595463 0 0.0045821186949116452 0.0012618264736745652 0 0.0045293983437007792 0.0013757301553317823 0 0.0043974102974439827 0.0013193650575646174 0 0.0044000435901946303 0.0015018959197199333 0 0.0045293983437007792 0.0013757301553317823 0 0.0043974102974439827 0.0013193650575646174 0 0.0043974102974439827 0.0013193650575646174 0 0.0041961170852214316 0.001436963458707441 0 0.0043137751181174513 0.0011467593900759737 0 0.0044000435901946303 0.0015018959197199333 0 0.0043974102974439827 0.0013193650575646174 0 0.0041961170852214316 0.001436963458707441 0 0.0041961170852214316 0.001436963458707441 0 0.0043099810864028198 0.0011037976953778689 0 0.0043137751181174513 0.0011467593900759737 0 0.0042365428077020383 0.00146232819409988 0 0.0030360095449022523 0.0026532746200828299 0 0.0040756272822089134 0.0022506720671630421 0 0.0038899165469950792 0.0019637958336042888 0 0.0036962729922640825 0.0023481590314961185 0 0.0022447796079534438 0.0024408587976315014 0 0.0026911746457402123 0.0023422262085541867 0 0.0025290142162946614 0.0022307842271874411 0 0.0043974102974439827 0.0013193650575646174 0 0.0043137751181174513 0.0011467593900759737 0 0.0044238027851283982 0.0012015260154595463 0 0.0043137751181174513 0.0011467593900759737 0 0.0043373546687002617 0.0011174746005113091 0 0.0043608606890169106 0.001137962493413071 0 0.004559811366033957 0.0011708998929116303 0 0.0036686668223338955 0.0015175084620682473 0 0.0043137751181174513 0.0011467593900759737 0 0.0044238027851283982 0.0012015260154595463 0 0.0045257818607581518 0.0011209628986499646 0 0.0030360095449022523 0.0026532746200828299 0 0.002020887165702475 0.0032002641486894457 0 0.0043099810864028198 0.0011037976953778689 0 0.0043137751181174513 0.0011467593900759737 0 0.0043373546687002617 0.0011174746005113091 0 0.002020887165702475 0.0032002641486894457 0 0.0036686668223338955 0.0015175084620682473 0 0.0045821186949116452 0.0012618264736745652 0 0.0044238027851283982 0.0012015260154595463 0 0.0045257818607581518 0.0011209628986499646 0 0.00044346042960697761 0.0054392128857248664 0 -0.00018371872242498323 0.0055212243145412931 0 -5.1288424847984003e-05 0.0052096959756104738 0 -5.1288424847984003e-05 0.0052096959756104738 0 -0.00030226438802132384 0.0054244244513175872 0 -9.5917552578105462e-05 0.0048863722126633417 0 0.0012073133448200345 0.0046858152109093216 0 -0.00048065011784644029 0.0052709792262896635 0 -0.00018371872242498323 0.0055212243145412931 0 -5.1288424847984003e-05 0.0052096959756104738 0 -0.00030226438802132384 0.0054244244513175872 0 0.002020887165702475 0.0032002641486894457 0 0.0012073133448200345 0.0046858152109093216 0 0.0018504618150779156 0.0034399224954913461 0 0.0018909443168702187 0.0034323944556649152 0 0.0018608131316106718 0.0034138386050414781 0 -9.7859594482927267e-05 0.0052195258271785184 0 -6.5169458095790331e-05 0.0053113661548701901 0 0.00033539534110953693 0.0052273567052949646 0 0.0012073133448200345 0.0046858152109093216 0 0.00050624899156720567 0.0068224622905311691 0 0.0017855142066156944 0.0053559550206381925 0 0.0017767441814440098 0.0053727260083663202 0 0.0018277617135988859 0.0054250585852775321 0 0.0030360095449022523 0.0026532746200828299 0 0.0012073133448200345 0.0046858152109093216 0 2.3987596474883401e-07 0.0061714912707355974 0 0.00050624899156720567 0.0068224622905311691 0 -6.5169458095790331e-05 0.0053113661548701901 0 1.7776916185514745e-07 0.0061682814934770616 0 0.00033539534110953693 0.0052273567052949646 0 -6.5169458095790331e-05 0.0053113661548701901 0 1.7776916185514745e-07 0.0061682814934770616 0 -9.5917552578105462e-05 0.0048863722126633417 0 -1.1975954114875051e-07 0.0043011728784935737 0 1.7776916185514745e-07 0.0061682814934770616 0 -9.5917552578105462e-05 0.0048863722126633417 0 -9.7859594482927267e-05 0.0052195258271785184 0 -6.5169458095790331e-05 0.0053113661548701901 0 -9.5917552578105462e-05 0.0048863722126633417 0 0.00018051284858065748 0.0049806919405230932 0 -5.1288424847984003e-05 0.0052096959756104738 0 -9.5917552578105462e-05 0.0048863722126633417 0 7.3820811214781229e-05 0.0087338892928543882 0 3.0178744657834843e-06 0.0087255312498086338 0 9.6405605478570882e-05 0.0087261068575930131 0 7.3820811214781229e-05 0.0087338892928543882 0 3.0178744657834843e-06 0.0087255312498086338 0 0.00021136369960053831 0.0086723549181266651 0 0.0021514825197045421 0.0061824532874911933 0 0.00050624899156720567 0.0068224622905311691 0 8.8662220084996342e-05 0.0087394507904113364 0 7.3820811214781229e-05 0.0087338892928543882 0 0.00021136369960053831 0.0086723549181266651 0 0.0018720574582914646 0.0053488522641892125 0 0.0017855142066156944 0.0053559550206381925 0 0.0018277617135988859 0.0054250585852775321 0 0.00050624899156720567 0.0068224622905311691 0 -3.4748207516776271e-07 0.0084726668172282974 0 2.1403401653191277e-06 0.006738463459574527 0 3.3867988013653658e-09 0.0073222005546936565 0 -2.1623226128745398e-09 0.0084707354472461464 0 1.6053733819211418e-09 0.0061736638519741972 0 2.1403401653191277e-06 0.006738463459574527 0 3.3867988013653658e-09 0.0073222005546936565 0 3.0178744657834843e-06 0.0087255312498086338 0 0.00021136369960053831 0.0086723549181266651 0 1.0619920715497919e-07 0.0084760845902513392 0 3.0178744657834843e-06 0.0087255312498086338 0 1.0619920715497919e-07 0.0084760845902513392 0 -1.4768917382112831e-08 0.0090692166476964032 0 3.0178744657834843e-06 0.0087255312498086338 0 -1.4768917382112831e-08 0.0090692166476964032 0 9.2979234757235046e-05 0.0088542720024831004 0 -1.4768917382112831e-08 0.0090692166476964032 0 9.2979234757235046e-05 0.0088542720024831004 0 0.00022198246025955921 0.0088732475213842109 0 -1.5450872272063588e-07 0.0090733596356399829 0 3.7894975928553872e-05 0.0099346247481452848 0 3.0178744657834843e-06 0.0087255312498086338 0 9.2979234757235046e-05 0.0088542720024831004 0 0.00012878682718039637 0.0087765927181705939 0 3.0178744657834843e-06 0.0087255312498086338 0 0.00012878682718039637 0.0087765927181705939 0 9.6405605478570882e-05 0.0087261068575930131 0 0.00012878682718039637 0.0087765927181705939 0 0.0002299412417606179 0.0087472383375717267 0 9.6405605478570882e-05 0.0087261068575930131 0 0.00012878682718039637 0.0087765927181705939 0 0.0002299412417606179 0.0087472383375717267 0 0.00022198246025955921 0.0088732475213842109 0 5.5714443458971002e-07 0.0090739024007475567 0 9.1354240238113074e-05 0.010919527081813546 0 -2.9852482976405123e-08 0.011114466250380506 0 9.2979234757235046e-05 0.0088542720024831004 0 0.00012878682718039637 0.0087765927181705939 0 0.00022198246025955921 0.0088732475213842109 0 -2.9852482976405123e-08 0.011114466250380506 0 -0.00012886744877882404 0.012712808417383849 0 -2.9276234645075612e-05 0.012370258788447275 0 9.1354240238113074e-05 0.010919527081813546 0 -2.9852482976405123e-08 0.011114466250380506 0 -2.9276234645075612e-05 0.012370258788447275 0 3.7894975928553872e-05 0.0099346247481452848 0 5.825772573655542e-05 0.010512408635359188 0 -2.9852482976405123e-08 0.011114466250380506 0 -0.00012886744877882404 0.012712808417383849 0 -6.3198427698704482e-07 0.013154606692366131 0 -0.00012886744877882404 0.012712808417383849 0 -6.3198427698704482e-07 0.013154606692366131 0 -0.00012305437795390924 0.013299793073617665 0 0.00035212314733070745 0.0088269034962330083 0 0.00039665547599208336 0.00883682174715489 0 0.00030121565642478705 0.0088418215246896213 0 -0.00012886744877882404 0.012712808417383849 0 -0.00017918992343273504 0.013016372543989678 0 -2.9276234645075612e-05 0.012370258788447275 0 0.00058060489756044012 0.01206986984557727 0 5.825772573655542e-05 0.010512408635359188 0 -0.00012886744877882404 0.012712808417383849 0 -0.00017918992343273504 0.013016372543989678 0 -0.00012305437795390924 0.013299793073617665 0 0.00082107048000734444 0.010040726453956008 0 0.00070153368227581826 0.010427355523353849 0 0.0013852531721590866 0.012850320910660214 0 0.0012348991584282287 0.012836575392285915 0 0.0010496973960945205 0.013115536978378427 0 0.00035212314733070745 0.0088269034962330083 0 0.00036949329402692995 0.0088245601729023439 0 0.00039665547599208336 0.00883682174715489 0 0.00070153368227581826 0.010427355523353849 0 0.00058060489756044012 0.01206986984557727 0 0.0002299412417606179 0.0087472383375717267 0 0.00022198246025955921 0.0088732475213842109 0 0.00030121565642478705 0.0088418215246896213 0 0.00021689683995012706 0.0085750080374075756 0 0.00070153368227581826 0.010427355523353849 0 0.0002299412417606179 0.0087472383375717267 0 0.00035212314733070745 0.0088269034962330083 0 0.00030121565642478705 0.0088418215246896213 0 0.0002299412417606179 0.0087472383375717267 0 0.00035212314733070745 0.0088269034962330083 0 0.00037129970530424986 0.0088193673425835568 0 0.00037955625745598689 0.008802921032565485 0 0.00051950064306601526 0.008830672551532779 0 0.00046332195381289481 0.0087625625171186931 0 0.00037955625745598689 0.008802921032565485 0 0.00046332195381289481 0.0087625625171186931 0 0.00042338222901281027 0.0087184487418488273 0 0.00046332195381289481 0.0087625625171186931 0 0.00044796910534749694 0.0086942182671382057 0 0.00047123294454990246 0.0087248266483173579 0 0.00046332195381289481 0.0087625625171186931 0 0.00044796910534749694 0.0086942182671382057 0 0.00042338222901281027 0.0087184487418488273 0 0.00044796910534749694 0.0086942182671382057 0 0.00047123294454990246 0.0087248266483173579 0 0.00044786593449992599 0.0087104691870502071 0 0.00044796910534749694 0.0086942182671382057 0 0.00042338222901281027 0.0087184487418488273 0 0.00046850329064002799 0.0086224823644155714 0 0.00070153368227581826 0.010427355523353849 0 0.001459275789425844 0.012823873731853124 0 0.00051950064306601526 0.008830672551532779 0 0.00054048865538776835 0.0087690443033657476 0 0.00050491781202412287 0.0087770981157459325 0 0.00051950064306601526 0.008830672551532779 0 0.00054048865538776835 0.0087690443033657476 0 0.00060187785583707093 0.0087973657573891546 0 0.00054048865538776835 0.0087690443033657476 0 0.00050491781202412287 0.0087770981157459325 0 0.00049850897399309488 0.0087465062230274605 0 0.00051950064306601526 0.008830672551532779 0 0.00046332195381289481 0.0087625625171186931 0 0.00050491781202412287 0.0087770981157459325 0 0.00046332195381289481 0.0087625625171186931 0 0.00050491781202412287 0.0087770981157459325 0 0.00048437376443588869 0.0087529641831257526 0 0.00050491781202412287 0.0087770981157459325 0 0.00048437376443588869 0.0087529641831257526 0 0.00049850897399309488 0.0087465062230274605 0 0.00046332195381289481 0.0087625625171186931 0 0.00048437376443588869 0.0087529641831257526 0 0.00047123294454990246 0.0087248266483173579 0 0.00047123294454990246 0.0087248266483173579 0 0.00048578696954702485 0.0087164774721074784 0 0.00044786593449992599 0.0087104691870502071 0 0.00047123294454990246 0.0087248266483173579 0 0.00048578696954702485 0.0087164774721074784 0 0.00049101707247789983 0.0087284614400225686 0 0.00048578696954702485 0.0087164774721074784 0 0.00049101707247789983 0.0087284614400225686 0 0.00051549491005639853 0.0087244090582691367 0 0.00047123294454990246 0.0087248266483173579 0 0.00049101707247789983 0.0087284614400225686 0 0.00049850897399309488 0.0087465062230274605 0 0.00048437376443588869 0.0087529641831257526 0 0.00047123294454990246 0.0087248266483173579 0 0.00049850897399309488 0.0087465062230274605 0 0.00054048865538776835 0.0087690443033657476 0 0.00052562383533483843 0.0087125946882266065 0 0.00060187785583707093 0.0087973657573891546 0 0.00054048865538776835 0.0087690443033657476 0 0.00049850897399309488 0.0087465062230274605 0 0.00051549491005639853 0.0087244090582691367 0 0.00054048865538776835 0.0087690443033657476 0 0.00052562383533483843 0.0087125946882266065 0 0.00051549491005639853 0.0087244090582691367 0 0.00048578696954702485 0.0087164774721074784 0 0.00051577903083728169 0.00870020060153728 0 0.00051549491005639853 0.0087244090582691367 0 0.00049101707247789983 0.0087284614400225686 0 0.00049850897399309488 0.0087465062230274605 0 0.00051549491005639853 0.0087244090582691367 0 0.00096345172023782103 0.01024877028218125 0 0.0010068267260073126 0.010068807697088457 0 0.0012704746809616655 0.010164131086968098 0 0.0013219481684263448 0.010074860395351498 0 0.0012106836403135697 0.010006641552712778 0 0.00096345172023782103 0.01024877028218125 0 0.0015072973823110284 0.01237228986325193 0 0.00096345172023782103 0.01024877028218125 0 0.00067454872721496508 0.0092587396256942414 0 0.0012704746809616655 0.010164131086968098 0 0.0012106836403135697 0.010006641552712778 0 0.0010650032040145007 0.0099365453644756699 0 0.00051577903083728169 0.00870020060153728 0 0.00044786593449992599 0.0087104691870502071 0 0.00038172100307605841 0.0087473053467470707 0 0.00048578696954702485 0.0087164774721074784 0 0.00051577903083728169 0.00870020060153728 0 0.00044786593449992599 0.0087104691870502071 0 0.0012106836403135697 0.010006641552712778 0 0.0010650032040145007 0.0099365453644756699 0 0.0011855142210660653 0.0098584200539607938 0 0.0013219481684263448 0.010074860395351498 0 0.0012106836403135697 0.010006641552712778 0 0.0011855142210660653 0.0098584200539607938 0 0.0015072973823110284 0.01237228986325193 0 0.0011003655716642882 0.011438269522245718 0 0.0018272145698248667 0.013311119662155533 0 0.0021354749908347632 0.012762676844732352 0 0.0013494707134943003 0.012516107388869439 0 0.00044796910534749694 0.0086942182671382057 0 0.00046850329064002799 0.0086224823644155714 0 0.00042509926060393114 0.0086831910375278661 0 0.00044796910534749694 0.0086942182671382057 0 0.00044786593449992599 0.0087104691870502071 0 0.00042509926060393114 0.0086831910375278661 0 0.00044786593449992599 0.0087104691870502071 0 0.00042509926060393114 0.0086831910375278661 0 0.00038172100307605841 0.0087473053467470707 0 0.00046850329064002799 0.0086224823644155714 0 0.00042509926060393114 0.0086831910375278661 0 0.00054443346277525907 0.0088070725887660663 0 0.00042509926060393114 0.0086831910375278661 0 0.00038172100307605841 0.0087473053467470707 0 0.00054443346277525907 0.0088070725887660663 0 0.00046850329064002799 0.0086224823644155714 0 0.00054443346277525907 0.0088070725887660663 0 0.00094507680846881489 0.0087660753976512157 0 0.00046850329064002799 0.0086224823644155714 0 0.00094507680846881489 0.0087660753976512157 0 0.0012804656858407346 0.0082770487121369436 0 0.00061192994518020026 0.0085147210050187053 0 0.00043336732840599401 0.0087762049570709738 0 0.00094507680846881489 0.0087660753976512157 0 0.0013667904343537178 0.0086951131383201999 0 0.0012804656858407346 0.0082770487121369436 0 0.00013594809100011412 0.008656961705766443 0 9.6405605478570882e-05 0.0087261068575930131 0 0.00029324150648344104 0.0087095164366225823 0 0.00021689683995012706 0.0085750080374075756 0 0.00015092394983303242 0.0087812476702115692 0 0.00046850329064002799 0.0086224823644155714 0 0.00013594809100011412 0.008656961705766443 0 0.00029324150648344104 0.0087095164366225823 0 0.00037955625745598689 0.008802921032565485 0 9.6405605478570882e-05 0.0087261068575930131 0 0.00029324150648344104 0.0087095164366225823 0 0.00037955625745598689 0.008802921032565485 0 0.00042338222901281027 0.0087184487418488273 0 0.00029324150648344104 0.0087095164366225823 0 0.00042338222901281027 0.0087184487418488273 0 0.00046850329064002799 0.0086224823644155714 0 0.00029324150648344104 0.0087095164366225823 0 0.0014093344679958245 0.018690729909988286 0 6.8700334443173259e-05 0.018420718349445104 0 0.00037976823281448031 0.019238135906137318 0 0.00069488087086329395 0.0179421314769137 0 -6.4843845388422693e-05 0.018165802884717374 0 0.0014093344679958245 0.018690729909988286 0 0.0011374090413555896 0.019337007122789115 0 0.00037976823281448031 0.019238135906137318 0 -2.0917248204109671e-07 0.017237341357036556 0 -0.00019410901291376861 0.016483050736839602 0 6.8700334443173259e-05 0.018420718349445104 0 -2.0917248204109671e-07 0.017237341357036556 0 -7.310006106362394e-05 0.0161211477460779 0 -0.00019410901291376861 0.016483050736839602 0 -2.0917248204109671e-07 0.017237341357036556 0 -7.310006106362394e-05 0.0161211477460779 0 9.0023612196838686e-07 0.015195770208445921 0 -7.310006106362394e-05 0.0161211477460779 0 9.0023612196838686e-07 0.015195770208445921 0 0.0001475902914104836 0.015035321291270668 0 -7.310006106362394e-05 0.0161211477460779 0 0.00012309510257575425 0.015989731295462203 0 -0.00019410901291376861 0.016483050736839602 0 -7.310006106362394e-05 0.0161211477460779 0 0.00012309510257575425 0.015989731295462203 0 0.0001475902914104836 0.015035321291270668 0 0.0014093344679958245 0.018690729909988286 0 0.0024196081094365789 0.018838516505863909 0 0.0025493577041927778 0.018808263917352748 0 0.00069488087086329395 0.0179421314769137 0 0.001343918225335626 0.015668336643712675 0 0.0014093344679958245 0.018690729909988286 0 0.0024196081094365789 0.018838516505863909 0 0.0019652785281494166 0.019563715158713586 0 0.00012309510257575425 0.015989731295462203 0 -0.00019410901291376861 0.016483050736839602 0 0.00098343140043125857 0.016552742304125796 0 -6.4883710387185053e-05 0.014554238436364598 0 0.001343918225335626 0.015668336643712675 0 0.0001475902914104836 0.015035321291270668 0 3.3093374390732998e-05 0.014071074793468299 0 0.00017090896064875875 0.013120240399211159 0 0.00012309510257575425 0.015989731295462203 0 0.0001475902914104836 0.015035321291270668 0 0.00098343140043125857 0.016552742304125796 0 9.0023612196838686e-07 0.015195770208445921 0 0.0001475902914104836 0.015035321291270668 0 3.3093374390732998e-05 0.014071074793468299 0 9.0023612196838686e-07 0.015195770208445921 0 3.3093374390732998e-05 0.014071074793468299 0 -6.3198427698704482e-07 0.013154606692366131 0 3.3093374390732998e-05 0.014071074793468299 0 -6.3198427698704482e-07 0.013154606692366131 0 -0.00012305437795390924 0.013299793073617665 0 0.0010200575982183937 0.014384580751733784 0 0.0016924844781164394 0.014488351701013874 0 0.0014991625791353836 0.014162757290051845 0 0.00058060489756044012 0.01206986984557727 0 0.001343918225335626 0.015668336643712675 0 -0.00017918992343273504 0.013016372543989678 0 -0.00012305437795390924 0.013299793073617665 0 0.00017090896064875875 0.013120240399211159 0 3.3093374390732998e-05 0.014071074793468299 0 -0.00012305437795390924 0.013299793073617665 0 0.00017090896064875875 0.013120240399211159 0 0.001343918225335626 0.015668336643712675 0 0.0021292573020553966 0.015944448001376947 0 0.0032001019525267826 0.01863160730045435 0 0.0021292573020553966 0.015944448001376947 0 0.0024196081094365789 0.018838516505863909 0 0.0025493577041927778 0.018808263917352748 0 0.0027103564275125268 0.019044124271619122 0 0.00058060489756044012 0.01206986984557727 0 0.0021292573020553966 0.015944448001376947 0 0.0012348991584282287 0.012836575392285915 0 0.0010496973960945205 0.013115536978378427 0 0.00092801239886225527 0.01300687721452955 0 0.001459275789425844 0.012823873731853124 0 0.0016170851546057764 0.014044579628087367 0 0.0016170851546057764 0.014044579628087367 0 0.0021292573020553966 0.015944448001376947 0 0.001459275789425844 0.012823873731853124 0 0.0021292573020553966 0.015944448001376947 0 0.0010956288645351422 0.013705736565453226 0 0.0015526482912913402 0.013375164670523337 0 0.0025664670701468512 0.01506948827006222 0 0.00075134878845515673 0.012040048542268991 0 0.0010588414007271123 0.011487664133761552 0 0.001889486280387546 0.01287710210951945 0 0.00075134878845515673 0.012040048542268991 0 0.0017552747171418364 0.01297365608844207 0 0.001889486280387546 0.01287710210951945 0 0.00096345172023782103 0.01024877028218125 0 0.001459275789425844 0.012823873731853124 0 0.0015072973823110284 0.01237228986325193 0 0.0016170851546057764 0.014044579628087367 0 0.0022391852212383673 0.014669158917376503 0 0.0022724152232758855 0.014730673662731677 0 0.0022653217238018711 0.014633953996545943 0 0.0022724152232758855 0.014730673662731677 0 0.0023737636732042212 0.014686025765604417 0 0.0022653217238018711 0.014633953996545943 0 0.0015072973823110284 0.01237228986325193 0 0.0027480265228958102 0.014788298239384887 0 0.0028980876690151785 0.016965440322428468 0 0.0027480265228958102 0.014788298239384887 0 0.0024196081094365789 0.018838516505863909 0 0.0027684060600307349 0.01915002265815342 0 0.0019652785281494166 0.019563715158713586 0 0.0016170851546057764 0.014044579628087367 0 0.0028980876690151785 0.016965440322428468 0 0.0027243374436153813 0.01658558546065593 0 0.002056159440600116 0.01710168743263343 0 0.0021027697688937872 0.016701575551724381 0 0.0027243374436153813 0.01658558546065593 0 0.0026338163606062295 0.016436816216931938 0 0.0021027697688937872 0.016701575551724381 0 0.0021292573020553966 0.015944448001376947 0 0.0020165474417523119 0.018237414654781774 0 0.0020165474417523119 0.018237414654781774 0 0.0015426967989336251 0.018727122240428135 0 0.0014093344679958245 0.018690729909988286 0 0.0019652785281494166 0.019563715158713586 0 0.0011374090413555896 0.019337007122789115 0 0.0019652785281494166 0.019563715158713586 0 0.0011397690985227801 0.0199909808431976 0 0.0011374090413555896 0.019337007122789115 0 0.0028980876690151785 0.016965440322428468 0 0.002418291564273397 0.018570194752731858 0 0.0030809057488393934 0.018784553620995681 0 0.0022560157740072377 0.018545039189580982 0 0.0020856020143224965 0.019019839862295912 0 0.002056159440600116 0.01710168743263343 0 0.0021027697688937872 0.016701575551724381 0 0.0015726970763982489 0.016969273231833514 0 0.0030809057488393934 0.018784553620995681 0 0.0020856020143224965 0.019019839862295912 0 0.0020318982634121422 0.019558136995063698 0 0.0028980876690151785 0.016965440322428468 0 0.0015426967989336251 0.018727122240428135 0 0.0010472696838249899 0.019973366447301893 0 0.00073676936818965126 0.019881313887477645 0 0.00031804783567720963 0.020287708709631702 0 0.0015426967989336251 0.018727122240428135 0 0.00070002182684495069 0.019651806873336165 0 0.0015426967989336251 0.018727122240428135 0 0.0010314984665553274 0.019306699487595762 0 0.0022560157740072377 0.018545039189580982 0 0.0020856020143224965 0.019019839862295912 0 0.0012667417841653013 0.019014293944872206 0 0.0020856020143224965 0.019019839862295912 0 0.0017608437363715904 0.019260658804464162 0 0.0012667417841653013 0.019014293944872206 0 0.00073676936818965126 0.019881313887477645 0 0.00061947157203164549 0.019570441718185963 0 0.00027456386585947919 0.019796283814838705 0 0.00061947157203164549 0.019570441718185963 0 0.0011374090413555896 0.019337007122789115 0 0.00037976823281448031 0.019238135906137318 0 0.0011397690985227801 0.0199909808431976 0 0.00073676936818965126 0.019881313887477645 0 0.0011374090413555896 0.019337007122789115 0 0.00073676936818965126 0.019881313887477645 0 0.00061947157203164549 0.019570441718185963 0 0.0011374090413555896 0.019337007122789115 0 0.0028272892978431796 0.018802533060118289 0 0.0022336058362140048 0.017954645393796896 0 0.0038473700872312519 0.018048727111199269 0 0.0022336058362140048 0.017954645393796896 0 0.0027315841848608823 0.017362467764413882 0 0.0015112101306377745 0.018268342246664713 0 0.0021825778793791036 0.017885368231401522 0 0.0038980275556994275 0.018241612147386246 0 0.0028272892978431796 0.018802533060118289 0 0.0022336058362140048 0.017954645393796896 0 0.0021408234719915297 0.018731614789247893 0 0.0022336058362140048 0.017954645393796896 0 0.0027315841848608823 0.017362467764413882 0 0.0032920910555556226 0.017877036254844839 0 0.0018512189580841326 0.01950690118125685 0 0.0020318982634121422 0.019558136995063698 0 0.0011290456705769249 0.020178111111615989 0 0.0018512189580841326 0.01950690118125685 0 0.0017608437363715904 0.019260658804464162 0 0.0020318982634121422 0.019558136995063698 0 0.0018512189580841326 0.01950690118125685 0 0.0017608437363715904 0.019260658804464162 0 0.001501081412190584 0.019336711757601807 0 0.0020856020143224965 0.019019839862295912 0 0.0017608437363715904 0.019260658804464162 0 0.0020318982634121422 0.019558136995063698 0 0.0027315841848608823 0.017362467764413882 0 0.0032920910555556226 0.017877036254844839 0 0.0037579772197706284 0.017393921473618186 0 0.0035800913271842407 0.016758281595537564 0 0.0027315841848608823 0.017362467764413882 0 0.0037579772197706284 0.017393921473618186 0 0.0038473700872312519 0.018048727111199269 0 0.0053828559103809848 0.018154626009356075 0 0.0045400987424361198 0.019743302436793893 0 0.0032920910555556226 0.017877036254844839 0 0.0041376862864596631 0.017892203106819212 0 0.0037579772197706284 0.017393921473618186 0 0.0038980275556994275 0.018241612147386246 0 0.0032643048311005981 0.014871690401381546 0 0.0041376862864596631 0.017892203106819212 0 0.0037579772197706284 0.017393921473618186 0 0.0045829681364099491 0.017059195185466558 0 0.0035800913271842407 0.016758281595537564 0 0.0037579772197706284 0.017393921473618186 0 0.0045829681364099491 0.017059195185466558 0 0.0032643048311005981 0.014871690401381546 0 0.0027480265228958102 0.014788298239384887 0 0.0027837646966786598 0.0121707808003976 0 0.0019744017665880909 0.013619161631261574 0 0.0016637484539091354 0.012842154988687782 0 0.0032643048311005981 0.014871690401381546 0 0.00071587402869279231 0.010837734327916048 0 0.0027837646966786598 0.0121707808003976 0 0.0016637484539091354 0.012842154988687782 0 0.0014585057489219712 0.012027694615422567 0 0.00061710397211959221 0.010007860800284419 0 0.00065144674034186135 0.010079435748077009 0 0.00070490425713856306 0.0099801927454736712 0 0.00065144674034186135 0.010079435748077009 0 0.00062471610556549297 0.010187072435578259 0 0.00070915079751526311 0.010153891320470671 0 0.00062471610556549297 0.010187072435578259 0 0.00070915079751526311 0.010153891320470671 0 0.00067242522461862918 0.010226205397157687 0 0.00062471610556549297 0.010187072435578259 0 0.0006099045734927576 0.010267018851376642 0 0.00067242522461862918 0.010226205397157687 0 0.00062471610556549297 0.010187072435578259 0 0.00051871262647585866 0.010133133523978302 0 0.00052514864624951931 0.010276637172641011 0 0.00062471610556549297 0.010187072435578259 0 0.00052514864624951931 0.010276637172641011 0 0.0006099045734927576 0.010267018851376642 0 0.00065144674034186135 0.010079435748077009 0 0.00062471610556549297 0.010187072435578259 0 0.00051871262647585866 0.010133133523978302 0 0.0032643048311005981 0.014871690401381546 0 0.0025374346091201747 0.014728244401002618 0 0.00061710397211959221 0.010007860800284419 0 0.00065144674034186135 0.010079435748077009 0 0.00051871262647585866 0.010133133523978302 0 0.0038473700872312519 0.018048727111199269 0 0.0045400987424361198 0.019743302436793893 0 0.0033734677421858755 0.019698486978505261 0 0.0028272892978431796 0.018802533060118289 0 0.0038473700872312519 0.018048727111199269 0 0.0033734677421858755 0.019698486978505261 0 0.0025374346091201747 0.014728244401002618 0 0.0020529029386853873 0.016285615986903808 0 0.0045400987424361198 0.019743302436793893 0 0.0033734677421858755 0.019698486978505261 0 0.0036957846808018443 0.021359726479095245 0 0.00051871262647585866 0.010133133523978302 0 0.0003570832847057297 0.010357958711147575 0 0.00052514864624951931 0.010276637172641011 0 0.0033734677421858755 0.019698486978505261 0 0.0026106230032679461 0.02060346567494202 0 0.0036957846808018443 0.021359726479095245 0 0.0026106230032679461 0.02060346567494202 0 0.0024458673650683172 0.019528757201137843 0 0.0018334677413394157 0.020109574494845406 0 0.0033734677421858755 0.019698486978505261 0 0.0026106230032679461 0.02060346567494202 0 0.0024458673650683172 0.019528757201137843 0 0.0028272892978431796 0.018802533060118289 0 0.0033734677421858755 0.019698486978505261 0 0.0024458673650683172 0.019528757201137843 0 0.0028272892978431796 0.018802533060118289 0 0.0024458673650683172 0.019528757201137843 0 0.0021408234719915297 0.018731614789247893 0 0.0010994160199318602 0.0096800392690646487 0 0.00086288075853774044 0.0095029772165658895 0 0.0010045376636070808 0.0097578491342171138 0 0.0011363467969350916 0.0096904604216354918 0 0.00099179617112559598 0.0097700957061691625 0 0.0010045376636070808 0.0097578491342171138 0 0.0010775451610471689 0.0097923054659874616 0 0.0009830332166439503 0.0098936536461981823 0 0.0010045376636070808 0.0097578491342171138 0 0.0010775451610471689 0.0097923054659874616 0 0.0011363467969350916 0.0096904604216354918 0 0.0012878377067026361 0.0097440246140013901 0 0.0011363467969350916 0.0096904604216354918 0 0.0011835784640570975 0.009163600921383146 0 0.0010775451610471689 0.0097923054659874616 0 0.0012878377067026361 0.0097440246140013901 0 0.0011363467969350916 0.0096904604216354918 0 0.0040500891488825328 0.0020053559272227646 0 0.0040621496734636392 0.0018389452341368146 0 0.0038835069215763492 0.001844354438141145 0 0.0031442751754741697 0.0051139628467496839 0 0.0025621599850938555 0.0060126552889712259 0 0.0017415411678997801 0.0089016949720809365 0 0.0012878377067026361 0.0097440246140013901 0 0.0011835784640570975 0.009163600921383146 0 0.0017415411678997801 0.0089016949720809365 0 0.0013667904343537178 0.0086951131383201999 0 0.0011835784640570975 0.009163600921383146 0 0.00094507680846881489 0.0087660753976512157 0 0.0013667904343537178 0.0086951131383201999 0 0.0011835784640570975 0.009163600921383146 0 0.0011363467969350916 0.0096904604216354918 0 0.0011835784640570975 0.009163600921383146 0 0.00064343242679925684 0.0091860234736609783 0 0.00094507680846881489 0.0087660753976512157 0 0.0011835784640570975 0.009163600921383146 0 0.00064343242679925684 0.0091860234736609783 0 0.00054443346277525907 0.0088070725887660663 0 0.00094507680846881489 0.0087660753976512157 0 0.00064343242679925684 0.0091860234736609783 0 0.0011003655716642882 0.011438269522245718 0 0.00068258525447331784 0.010559929206712478 0 0.0010797000995216928 0.0098321393029524567 0 0.0011254880276758807 0.0098494104491442646 0 0.0010414249416716927 0.0097446146535391156 0 0.00038172100307605841 0.0087473053467470707 0 0.00054443346277525907 0.0088070725887660663 0 0.00064343242679925684 0.0091860234736609783 0 0.00099179617112559598 0.0097700957061691625 0 0.0010797000995216928 0.0098321393029524567 0 0.0010414249416716927 0.0097446146535391156 0 0.00067454872721496508 0.0092587396256942414 0 0.00086288075853774044 0.0095029772165658895 0 0.0010650032040145007 0.0099365453644756699 0 0.00099179617112559598 0.0097700957061691625 0 0.0010797000995216928 0.0098321393029524567 0 0.0010650032040145007 0.0099365453644756699 0 0.0010797000995216928 0.0098321393029524567 0 0.0011855142210660653 0.0098584200539607938 0 0.0016637484539091354 0.012842154988687782 0 0.00097318749456716286 0.013304868689075201 0 0.0014585057489219712 0.012027694615422567 0 0.0027480265228958102 0.014788298239384887 0 0.0011003655716642882 0.011438269522245718 0 0.0019744017665880909 0.013619161631261574 0 0.0016637484539091354 0.012842154988687782 0 0.00097318749456716286 0.013304868689075201 0 0.00088276962529789109 0.010574169665437861 0 0.0011003655716642882 0.011438269522245718 0 0.00097318749456716286 0.013304868689075201 0 0.0014585057489219712 0.012027694615422567 0 0.00013206296624893569 0.011890832871032715 0 0.00071587402869279231 0.010837734327916048 0 0.00068258525447331784 0.010559929206712478 0 0.00070490425713856306 0.0099801927454736712 0 0.00080670182800738602 0.0099340936620390622 0 0.00076240138191166224 0.0099903670050265191 0 0.0010045376636070808 0.0097578491342171138 0 0.00099179617112559598 0.0097700957061691625 0 0.0010414249416716927 0.0097446146535391156 0 0.00080670182800738602 0.0099340936620390622 0 0.00085025111509812764 0.0099260877334816575 0 0.00076240138191166224 0.0099903670050265191 0 0.0010045376636070808 0.0097578491342171138 0 0.00074017597405810623 0.0097468247924999748 0 0.00085025111509812764 0.0099260877334816575 0 0.0010043507809490916 0.0099204876444067246 0 0.00068258525447331784 0.010559929206712478 0 0.00068258525447331784 0.010559929206712478 0 0.00064809644902478038 0.0099508233748067231 0 0.00085025111509812764 0.0099260877334816575 0 0.0007810964972397612 0.010025193071510174 0 0.00076240138191166224 0.0099903670050265191 0 0.0007810964972397612 0.010025193071510174 0 0.00072599519111727457 0.010104687410826711 0 0.00081160534626931776 0.010070817137429354 0 0.00085025111509812764 0.0099260877334816575 0 0.0007810964972397612 0.010025193071510174 0 0.00090153690825811052 0.010018229121768082 0 0.0007810964972397612 0.010025193071510174 0 0.00090153690825811052 0.010018229121768082 0 0.00081160534626931776 0.010070817137429354 0 0.00065144674034186135 0.010079435748077009 0 0.00070490425713856306 0.0099801927454736712 0 0.0007189094401040463 0.01005645990111848 0 0.00065144674034186135 0.010079435748077009 0 0.0007189094401040463 0.01005645990111848 0 0.00070915079751526311 0.010153891320470671 0 0.00070490425713856306 0.0099801927454736712 0 0.00076240138191166224 0.0099903670050265191 0 0.0007189094401040463 0.01005645990111848 0 0.0007810964972397612 0.010025193071510174 0 0.00076240138191166224 0.0099903670050265191 0 0.0007189094401040463 0.01005645990111848 0 0.0007810964972397612 0.010025193071510174 0 0.0007189094401040463 0.01005645990111848 0 0.00072599519111727457 0.010104687410826711 0 0.0007189094401040463 0.01005645990111848 0 0.00072599519111727457 0.010104687410826711 0 0.00070915079751526311 0.010153891320470671 0 0.00072599519111727457 0.010104687410826711 0 0.00067106031812402757 0.010148815296858578 0 0.00070915079751526311 0.010153891320470671 0 0.00070915079751526311 0.010153891320470671 0 0.00077099481658692958 0.010169331357286537 0 0.00067242522461862918 0.010226205397157687 0 0.00067106031812402757 0.010148815296858578 0 0.00070915079751526311 0.010153891320470671 0 0.00077099481658692958 0.010169331357286537 0 0.00067106031812402757 0.010148815296858578 0 0.00031796208856040725 0.0099208858664951473 0 0.00034872915617047769 0.010004871726193664 0 0.00080155703775752762 0.01011890249520014 0 0.00086887918832557662 0.010091163066478979 0 0.00086635336126506522 0.010162495666151506 0 0.00090153690825811052 0.010018229121768082 0 0.00086887918832557662 0.010091163066478979 0 0.00081160534626931776 0.010070817137429354 0 0.00080155703775752762 0.01011890249520014 0 0.00086887918832557662 0.010091163066478979 0 0.00081160534626931776 0.010070817137429354 0 0.00072599519111727457 0.010104687410826711 0 0.00080155703775752762 0.01011890249520014 0 0.00081160534626931776 0.010070817137429354 0 0.00072599519111727457 0.010104687410826711 0 0.00080155703775752762 0.01011890249520014 0 0.00076001570448776517 0.010128088267702886 0 0.00067106031812402757 0.010148815296858578 0 0.00076001570448776517 0.010128088267702886 0 0.00085603747762470078 0.010153528195645052 0 0.00050322993581938217 0.010079082527013469 0 0.00081316618606035933 0.0088159898957685199 0 0.00072599519111727457 0.010104687410826711 0 0.00067106031812402757 0.010148815296858578 0 0.00076001570448776517 0.010128088267702886 0 0.00080155703775752762 0.01011890249520014 0 0.00076001570448776517 0.010128088267702886 0 0.00085603747762470078 0.010153528195645052 0 0.0010592641878815914 0.0092958203082994188 0 0.00081316618606035933 0.0088159898957685199 0 0.00031796208856040725 0.0099208858664951473 0 0.00034872915617047769 0.010004871726193664 0 8.1961024778240776e-05 0.0098433187032978924 0 0.00096575265939563982 0.0069430128257262471 0 0.0015388683443391716 0.0072674008175571698 0 0.0018277242016033958 0.0066873152425239871 0 0.0015859048666572028 0.0030922487601766483 0 0.0018961726020326056 0.002464170957065406 0 0.002711012812412619 0.002870504346375982 0 0.00081316618606035933 0.0088159898957685199 0 0.0014151492303846641 0.0060808581672068037 0 0.0014151492303846641 0.0060808581672068037 0 0.001981379693996357 0.0055708930759221197 0 0.00090153690825811052 0.010018229121768082 0 0.00086887918832557662 0.010091163066478979 0 0.0010599894013748684 0.010114854836624977 0 0.00081316618606035933 0.0088159898957685199 0 0.001981379693996357 0.0055708930759221197 0 0.00086887918832557662 0.010091163066478979 0 0.00086635336126506522 0.010162495666151506 0 0.0010599894013748684 0.010114854836624977 0 0.0012878377067026361 0.0097440246140013901 0 0.0010599894013748684 0.010114854836624977 0 0.00108207993329004 0.0099130435524248071 0 0.00090153690825811052 0.010018229121768082 0 0.0010060411153231595 0.0099835525597405019 0 0.0009830332166439503 0.0098936536461981823 0 0.00090153690825811052 0.010018229121768082 0 0.0010599894013748684 0.010114854836624977 0 0.0010060411153231595 0.0099835525597405019 0 0.0010599894013748684 0.010114854836624977 0 0.0010060411153231595 0.0099835525597405019 0 0.00108207993329004 0.0099130435524248071 0 0.0010060411153231595 0.0099835525597405019 0 0.00108207993329004 0.0099130435524248071 0 0.0009830332166439503 0.0098936536461981823 0 0.0010775451610471689 0.0097923054659874616 0 0.00108207993329004 0.0099130435524248071 0 0.0009830332166439503 0.0098936536461981823 0 0.0010045376636070808 0.0097578491342171138 0 0.00085025111509812764 0.0099260877334816575 0 0.0009830332166439503 0.0098936536461981823 0 0.00085025111509812764 0.0099260877334816575 0 0.00090153690825811052 0.010018229121768082 0 0.0009830332166439503 0.0098936536461981823 0 0.0025621599850938555 0.0060126552889712259 0 0.001981379693996357 0.0055708930759221197 0 0.0038835069215763492 0.001844354438141145 0 0.0034078827522558519 0.0025553341152547812 0 0.0038464837188909237 0.0021868550476276255 0 0.0034078827522558519 0.0025553341152547812 0 0.0040024441870973142 0.0023673335946502055 0 0.0038464837188909237 0.0021868550476276255 0 0.0040500891488825328 0.0020053559272227646 0 0.0038835069215763492 0.001844354438141145 0 0.0038464837188909237 0.0021868550476276255 0 0.0010775451610471689 0.0097923054659874616 0 0.0012878377067026361 0.0097440246140013901 0 0.00108207993329004 0.0099130435524248071 0 0.0040500891488825328 0.0020053559272227646 0 0.0040024441870973142 0.0023673335946502055 0 0.0038464837188909237 0.0021868550476276255 0 0.0018961726020326056 0.002464170957065406 0 0.0032540634970967806 0.00206625077198009 0 0.002711012812412619 0.002870504346375982 0 0.001981379693996357 0.0055708930759221197 0 0.0038662199158767648 0.0019965284679552431 0 0.0040384617927052419 0.0029454070364190793 0 0.002711012812412619 0.002870504346375982 0 0.0027821741186293699 0.0037761998860427145 0 0.0015859048666572028 0.0030922487601766483 0 0.002711012812412619 0.002870504346375982 0 0.0027821741186293699 0.0037761998860427145 0 0.003055605775979854 0.0046751285531504601 0 0.0024577436973558468 0.0055430034504656009 0 0.0021732955122952509 0.0048684558036086881 0 0.003055605775979854 0.0046751285531504601 0 0.0033374428308084996 0.0055910800421734548 0 0.0024577436973558468 0.0055430034504656009 0 0.0033374428308084996 0.0055910800421734548 0 0.0024577436973558468 0.0055430034504656009 0 0.0029821505262047298 0.006373936753115113 0 0.0024577436973558468 0.0055430034504656009 0 0.0013843113254011954 0.0052345968125465693 0 0.0017829008933816688 0.0062317857455185645 0 0.0024577436973558468 0.0055430034504656009 0 0.0021732955122952509 0.0048684558036086881 0 0.0013843113254011954 0.0052345968125465693 0 0.0024577436973558468 0.0055430034504656009 0 0.0023460888890971259 0.0063602213273757776 0 0.0017829008933816688 0.0062317857455185645 0 0.0014151492303846641 0.0060808581672068037 0 0.00075008966596899936 0.007419340487140328 0 0.0019594913548554782 0.0040763454798479655 0 0.0021732955122952509 0.0048684558036086881 0 0.0013843113254011954 0.0052345968125465693 0 0.00031796208856040725 0.0099208858664951473 0 8.1961024778240776e-05 0.0098433187032978924 0 0.00027653935564778793 0.0092740714627732434 0 0.0019594913548554782 0.0040763454798479655 0 0.003055605775979854 0.0046751285531504601 0 0.0021732955122952509 0.0048684558036086881 0 0.0014151492303846641 0.0060808581672068037 0 0.0028231750856652711 0.0040133912913567146 0 0.00033042261393568596 0.0099458653081964544 0 0.00079182732321417932 0.0098729924804683619 0 0.00067106031812402757 0.010148815296858578 0 0.00031796208856040725 0.0099208858664951473 0 0.00077099481658692958 0.010169331357286537 0 0.00031796208856040725 0.0099208858664951473 0 0.00054815983976595599 0.0095748737508755781 0 0.0008749668582757966 0.0095789264293916036 0 0.00031796208856040725 0.0099208858664951473 0 0.00054815983976595599 0.0095748737508755781 0 0.00027653935564778793 0.0092740714627732434 0 0.00054815983976595599 0.0095748737508755781 0 0.00064399588784092065 0.0093135430015381226 0 0.00027653935564778793 0.0092740714627732434 0 0.00074487562086372186 0.0094645964337251708 0 0.00094754490761593828 0.0093289576939622615 0 0.00064399588784092065 0.0093135430015381226 0 0.00054815983976595599 0.0095748737508755781 0 0.0008749668582757966 0.0095789264293916036 0 0.00074487562086372186 0.0094645964337251708 0 0.00054815983976595599 0.0095748737508755781 0 0.00074487562086372186 0.0094645964337251708 0 0.00064399588784092065 0.0093135430015381226 0 0.0008749668582757966 0.0095789264293916036 0 0.00074487562086372186 0.0094645964337251708 0 0.00094754490761593828 0.0093289576939622615 0 0.00079097179080873882 0.0091000695517988311 0 0.00056350825190107823 0.0088500017536447487 0 0.0010274466671221412 0.0089705187687247889 0 0.00094754490761593828 0.0093289576939622615 0 0.00079097179080873882 0.0091000695517988311 0 0.00096631670001228007 0.0091696670247458853 0 0.00094754490761593828 0.0093289576939622615 0 0.00064399588784092065 0.0093135430015381226 0 0.00079097179080873882 0.0091000695517988311 0 0.00064399588784092065 0.0093135430015381226 0 0.00079097179080873882 0.0091000695517988311 0 0.00057372558069804377 0.0091327217516924911 0 0.00079097179080873882 0.0091000695517988311 0 0.00057372558069804377 0.0091327217516924911 0 0.00056350825190107823 0.0088500017536447487 0 0.00079097179080873882 0.0091000695517988311 0 0.00096631670001228007 0.0091696670247458853 0 0.0010274466671221412 0.0089705187687247889 0 0.00075008966596899936 0.007419340487140328 0 0.00069519197087976737 0.0075223948653284686 0 0.00027653935564778793 0.0092740714627732434 0 0.00056350825190107823 0.0088500017536447487 0 0.0004577027467856382 0.008604710313760448 0 0.0013843113254011954 0.0052345968125465693 0 0.00082923466712961651 0.0065169336460565094 0 0.0017829008933816688 0.0062317857455185645 0 0.00064399588784092065 0.0093135430015381226 0 0.00027653935564778793 0.0092740714627732434 0 0.00057372558069804377 0.0091327217516924911 0 0.00027653935564778793 0.0092740714627732434 0 0.00057372558069804377 0.0091327217516924911 0 0.00056350825190107823 0.0088500017536447487 0 0.00082923466712961651 0.0065169336460565094 0 0.0010463673723038565 0.0072062901030316298 0 0.00063988256788279107 0.0079658155550786942 0 0.00082923466712961651 0.0065169336460565094 0 0.0013994106546069446 0.0067375762661137225 0 0.0017829008933816688 0.0062317857455185645 0 0.00082923466712961651 0.0065169336460565094 0 0.0010463673723038565 0.0072062901030316298 0 0.0013994106546069446 0.0067375762661137225 0 0.0010463673723038565 0.0072062901030316298 0 0.0013994106546069446 0.0067375762661137225 0 0.0013898825189778889 0.0071698608583461243 0 0.0013994106546069446 0.0067375762661137225 0 0.0013898825189778889 0.0071698608583461243 0 0.0017259106849042546 0.006874936205332775 0 0.00058200938128331371 0.0088457293943516122 0 0.00081143602413511688 0.0086241072972028428 0 0.00056350825190107823 0.0088500017536447487 0 0.00069348793431487483 0.008336237948987699 0 0.00084515316721439345 0.0083602626464549593 0 0.00069519197087976737 0.0075223948653284686 0 0.00062133796466943452 0.0078943756916388559 0 0.0004577027467856382 0.008604710313760448 0 0.00069348793431487483 0.008336237948987699 0 0.00063988256788279107 0.0079658155550786942 0 0.00056350825190107823 0.0088500017536447487 0 0.0004577027467856382 0.008604710313760448 0 0.00069348793431487483 0.008336237948987699 0 0.00069348793431487483 0.008336237948987699 0 0.00063988256788279107 0.0079658155550786942 0 0.00084267528096428209 0.0082312196347484653 0 0.00063988256788279107 0.0079658155550786942 0 0.00087328266174735566 0.0080504036141094189 0 0.001081864696228309 0.0076121047859919674 0 0.00063988256788279107 0.0079658155550786942 0 0.00087328266174735566 0.0080504036141094189 0 0.00070743792235972126 0.0080623068632288894 0 0.00063988256788279107 0.0079658155550786942 0 0.00073823077061220153 0.0081271675178066945 0 0.00070743792235972126 0.0080623068632288894 0 0.0014109196689606072 0.0075460133705406848 0 0.0013898825189778889 0.0071698608583461243 0 0.001081864696228309 0.0076121047859919674 0 0.0014109196689606072 0.0075460133705406848 0 0.0013898825189778889 0.0071698608583461243 0 0.0016789702539737592 0.0072578887561510607 0 0.0010463673723038565 0.0072062901030316298 0 0.0013898825189778889 0.0071698608583461243 0 0.001081864696228309 0.0076121047859919674 0 0.0010463673723038565 0.0072062901030316298 0 0.00063988256788279107 0.0079658155550786942 0 0.001081864696228309 0.0076121047859919674 0 0.00087328266174735566 0.0080504036141094189 0 0.001081864696228309 0.0076121047859919674 0 0.0012135534446427144 0.0078753405556074626 0 0.0012135534446427144 0.0078753405556074626 0 0.0015212362814998289 0.0077493115236139916 0 0.001735386906494928 0.0078527559819627276 0 0.0012135534446427144 0.0078753405556074626 0 0.001735386906494928 0.0078527559819627276 0 0.001160753241120751 0.0081957670208954291 0 0.0014109196689606072 0.0075460133705406848 0 0.001081864696228309 0.0076121047859919674 0 0.0012135534446427144 0.0078753405556074626 0 0.0014109196689606072 0.0075460133705406848 0 0.0012135534446427144 0.0078753405556074626 0 0.0015212362814998289 0.0077493115236139916 0 0.0014109196689606072 0.0075460133705406848 0 0.0015212362814998289 0.0077493115236139916 0 0.0016956127177716772 0.007549209929661382 0 0.001735386906494928 0.0078527559819627276 0 0.0025659193426195328 0.0078636761236333206 0 0.001160753241120751 0.0081957670208954291 0 0.001735386906494928 0.0078527559819627276 0 0.0018631384658059941 0.0076615557207784226 0 0.0021289599830339625 0.0077005013700186644 0 0.0015212362814998289 0.0077493115236139916 0 0.0018631384658059941 0.0076615557207784226 0 0.0016956127177716772 0.007549209929661382 0 0.0015212362814998289 0.0077493115236139916 0 0.001735386906494928 0.0078527559819627276 0 0.0018631384658059941 0.0076615557207784226 0 0.0014109196689606072 0.0075460133705406848 0 0.0016956127177716772 0.007549209929661382 0 0.0016789702539737592 0.0072578887561510607 0 0.0016956127177716772 0.007549209929661382 0 0.0018976657619087028 0.0074039603561267117 0 0.0016789702539737592 0.0072578887561510607 0 0.0018631384658059941 0.0076615557207784226 0 0.0016956127177716772 0.007549209929661382 0 0.0018976657619087028 0.0074039603561267117 0 0.0018976657619087028 0.0074039603561267117 0 0.002034915896174366 0.0071337860817175993 0 0.0021443883168365714 0.0074925895121452368 0 0.0018631384658059941 0.0076615557207784226 0 0.0018976657619087028 0.0074039603561267117 0 0.0021443883168365714 0.0074925895121452368 0 0.0018976657619087028 0.0074039603561267117 0 0.002034915896174366 0.0071337860817175993 0 0.0016789702539737592 0.0072578887561510607 0 0.002034915896174366 0.0071337860817175993 0 0.0021443883168365714 0.0074925895121452368 0 0.0024336525073529389 0.0069612849494202923 0 0.0021443883168365714 0.0074925895121452368 0 0.002548497640265936 0.007443523954664139 0 0.0024336525073529389 0.0069612849494202923 0 0.0023444300184325114 0.0076369487455745892 0 0.0021289599830339625 0.0077005013700186644 0 0.0025659193426195328 0.0078636761236333206 0 0.0023444300184325114 0.0076369487455745892 0 0.0025659193426195328 0.0078636761236333206 0 0.002548497640265936 0.007443523954664139 0 0.001735386906494928 0.0078527559819627276 0 0.0021289599830339625 0.0077005013700186644 0 0.0025659193426195328 0.0078636761236333206 0 0.0021443883168365714 0.0074925895121452368 0 0.0023444300184325114 0.0076369487455745892 0 0.002548497640265936 0.007443523954664139 0 0.0018631384658059941 0.0076615557207784226 0 0.0021443883168365714 0.0074925895121452368 0 0.0021289599830339625 0.0077005013700186644 0 0.0021443883168365714 0.0074925895121452368 0 0.0023444300184325114 0.0076369487455745892 0 0.0021289599830339625 0.0077005013700186644 0 0.0025659193426195328 0.0078636761236333206 0 0.0030838236179114745 0.007496579187542398 0 0.002548497640265936 0.007443523954664139 0 0.0030838236179114745 0.007496579187542398 0 0.0027871595355748011 0.0080544064077842439 0 0.0043398522480925439 0.0075583555001429827 0 0.0025659193426195328 0.0078636761236333206 0 0.0030838236179114745 0.007496579187542398 0 0.0027871595355748011 0.0080544064077842439 0 0.0030838236179114745 0.007496579187542398 0 0.003423520272916303 0.0069619930745843947 0 0.0028803756914227061 0.0071182539351828892 0 0.0030838236179114745 0.007496579187542398 0 0.0028803756914227061 0.0071182539351828892 0 0.002548497640265936 0.007443523954664139 0 0.0028803756914227061 0.0071182539351828892 0 0.002548497640265936 0.007443523954664139 0 0.0024336525073529389 0.0069612849494202923 0 0.0029821505262047298 0.006373936753115113 0 0.0023460888890971259 0.0063602213273757776 0 0.0024336525073529389 0.0069612849494202923 0 0.0028803756914227061 0.0071182539351828892 0 0.0029821505262047298 0.006373936753115113 0 0.0024336525073529389 0.0069612849494202923 0 0.0033374428308084996 0.0055910800421734548 0 0.0029821505262047298 0.006373936753115113 0 0.0040448069231370743 0.0062145266377353148 0 0.003423520272916303 0.0069619930745843947 0 0.0028803756914227061 0.0071182539351828892 0 0.0029821505262047298 0.006373936753115113 0 0.0024577436973558468 0.0055430034504656009 0 0.0029821505262047298 0.006373936753115113 0 0.0023460888890971259 0.0063602213273757776 0 0.0023460888890971259 0.0063602213273757776 0 0.0017829008933816688 0.0062317857455185645 0 0.0020702778487897318 0.0066946927108209537 0 0.0013994106546069446 0.0067375762661137225 0 0.0017829008933816688 0.0062317857455185645 0 0.0017259106849042546 0.006874936205332775 0 0.0017829008933816688 0.0062317857455185645 0 0.0017259106849042546 0.006874936205332775 0 0.0020702778487897318 0.0066946927108209537 0 0.002034915896174366 0.0071337860817175993 0 0.0016789702539737592 0.0072578887561510607 0 0.0017259106849042546 0.006874936205332775 0 0.0013898825189778889 0.0071698608583461243 0 0.0016789702539737592 0.0072578887561510607 0 0.0017259106849042546 0.006874936205332775 0 0.002034915896174366 0.0071337860817175993 0 0.0017259106849042546 0.006874936205332775 0 0.0020702778487897318 0.0066946927108209537 0 0.002034915896174366 0.0071337860817175993 0 0.0024336525073529389 0.0069612849494202923 0 0.0020702778487897318 0.0066946927108209537 0 0.0023460888890971259 0.0063602213273757776 0 0.0024336525073529389 0.0069612849494202923 0 0.0020702778487897318 0.0066946927108209537 0 0.00059809408547988714 0.014599303016247256 0 0.0020529029386853873 0.016285615986903808 0 0.0028325956747344895 0.022983248457571527 0 0.0022553213447421691 0.022693172828659219 0 0.0024596859163054153 0.02187089795624331 0 0.00059809408547988714 0.014599303016247256 0 0.0015281538312225324 0.017224387937134055 0 0.0028325956747344895 0.022983248457571527 0 0.0022553213447421691 0.022693172828659219 0 0.0021697622271988539 0.023242157708387206 0 0.00059809408547988714 0.014599303016247256 0 0.00092195601798183448 0.010121283380241042 0 0.0026106230032679461 0.02060346567494202 0 0.0024596859163054153 0.02187089795624331 0 0.0036957846808018443 0.021359726479095245 0 0.0028325956747344895 0.022983248457571527 0 0.0024596859163054153 0.02187089795624331 0 0.0036957846808018443 0.021359726479095245 0 0.0026106230032679461 0.02060346567494202 0 0.0024596859163054153 0.02187089795624331 0 0.001702437684488326 0.021032775451663752 0 0.0003570832847057297 0.010357958711147575 0 0.00037156279685367043 0.010577378325480896 0 0.00052514864624951931 0.010276637172641011 0 0.00018886396105347597 0.010676608688865602 0 0.0003570832847057297 0.010357958711147575 0 0.00037156279685367043 0.010577378325480896 0 0.00078418920492975049 0.0094618839049121044 0 0.0010098430254675791 0.0093465852639569424 0 0.0009527052680687705 0.0095829807823177588 0 0.0010098430254675791 0.0093465852639569424 0 0.0011400506952987254 0.0094282122098640498 0 0.0009527052680687705 0.0095829807823177588 0 0.00092195601798183448 0.010121283380241042 0 0.00087999146759485617 0.0098465066903298606 0 0.0010098430254675791 0.0093465852639569424 0 0.0012639896490807573 0.0093013398624037236 0 0.0011400506952987254 0.0094282122098640498 0 0.0012619260769216236 0.0092779044226743591 0 0.0012639896490807573 0.0093013398624037236 0 0.0011400506952987254 0.0094282122098640498 0 0.00037156279685367043 0.010577378325480896 0 0.00052514864624951931 0.010276637172641011 0 0.00061178956933200792 0.010395828438872271 0 0.00052514864624951931 0.010276637172641011 0 0.0006099045734927576 0.010267018851376642 0 0.00061178956933200792 0.010395828438872271 0 0.00079182732321417932 0.0098729924804683619 0 0.00087999146759485617 0.0098465066903298606 0 0.00077099481658692958 0.010169331357286537 0 0.00061178956933200792 0.010395828438872271 0 0.00067242522461862918 0.010226205397157687 0 0.0008749668582757966 0.0095789264293916036 0 0.00094754490761593828 0.0093289576939622615 0 0.0012639896490807573 0.0093013398624037236 0 0.0006099045734927576 0.010267018851376642 0 0.00061178956933200792 0.010395828438872271 0 0.00067242522461862918 0.010226205397157687 0 0.00094754490761593828 0.0093289576939622615 0 0.0012639896490807573 0.0093013398624037236 0 0.0011301902541416785 0.0092656526237082735 0 0.00096631670001228007 0.0091696670247458853 0 0.0011301902541416785 0.0092656526237082735 0 0.0010274466671221412 0.0089705187687247889 0 0.0012619260769216236 0.0092779044226743591 0 0.0011301902541416785 0.0092656526237082735 0 0.0010274466671221412 0.0089705187687247889 0 0.00094754490761593828 0.0093289576939622615 0 0.00096631670001228007 0.0091696670247458853 0 0.0011301902541416785 0.0092656526237082735 0 0.0012619260769216236 0.0092779044226743591 0 0.0012639896490807573 0.0093013398624037236 0 0.0011301902541416785 0.0092656526237082735 0 0.00081143602413511688 0.0086241072972028428 0 0.0018082338435265498 0.0096054297108876373 0 0.00069348793431487483 0.008336237948987699 0 0.00084515316721439345 0.0083602626464549593 0 0.00084267528096428209 0.0082312196347484653 0 0.00084515316721439345 0.0083602626464549593 0 0.00084267528096428209 0.0082312196347484653 0 0.00072569641767876285 0.008219870648075037 0 0.0012619260769216236 0.0092779044226743591 0 0.0010274466671221412 0.0089705187687247889 0 0.0014272210934514016 0.0088479419635436232 0 0.00063988256788279107 0.0079658155550786942 0 0.00084267528096428209 0.0082312196347484653 0 0.00073823077061220153 0.0081271675178066945 0 0.00084267528096428209 0.0082312196347484653 0 0.00054647700220043218 0.0084568458123126106 0 0.00072569641767876285 0.008219870648075037 0 0.0018472391384814356 0.010453344847287953 0 0.0018082338435265498 0.0096054297108876373 0 0.001256978495856725 0.0092140546608602894 0 0.0018082338435265498 0.0096054297108876373 0 0.0012619260769216236 0.0092779044226743591 0 0.0012540122502620744 0.0096681747050092193 0 0.0011400506952987254 0.0094282122098640498 0 0.0012540122502620744 0.0096681747050092193 0 0.0009527052680687705 0.0095829807823177588 0 0.00088254265302622353 0.0099027156564162853 0 0.0012540122502620744 0.0096681747050092193 0 0.0011400506952987254 0.0094282122098640498 0 0.0009527052680687705 0.0095829807823177588 0 0.0024529894089191985 0.014208067526876677 0 0.0034029546315487956 0.011453505913789215 0 -0.00092360425998585551 0.013237020354649007 0 0.0018082338435265498 0.0096054297108876373 0 0.00045650976645007741 0.015328234124402505 0 0.00092890184982239994 0.020390388407666736 0 0.00091379412691679402 0.020412881917301458 0 0.00089716450650441956 0.020396778052343741 0 0.00091379412691679402 0.020412881917301458 0 0.00091810469091349839 0.020424683383600057 0 0.00087621358499800743 0.020433971775039517 0 0.00045650976645007741 0.015328234124402505 0 6.982223273244703e-07 0.018134433822096008 0 0.00092190399198704086 0.020397663935174785 0 0.00091379412691679402 0.020412881917301458 0 0.00091810469091349839 0.020424683383600057 0 0.00078418920492975049 0.0094618839049121044 0 0.0009527052680687705 0.0095829807823177588 0 0.00064431809500618007 0.0095400513339268279 0 0.0009527052680687705 0.0095829807823177588 0 0.00088254265302622353 0.0099027156564162853 0 0.00064431809500618007 0.0095400513339268279 0 0.00045650976645007741 0.015328234124402505 0 0.0015281538312225324 0.017224387937134055 0 0.00092890184982239994 0.020390388407666736 0 0.00089832935037237999 0.020350576413336423 0 0.00089716450650441956 0.020396778052343741 0 0.00070901010433814765 0.031057883307566498 0 0.0010238513678469373 0.030671281005439581 0 0.001398030775223768 0.030734172684811049 0 -0.00041600198617927267 0.032167974762164875 0 -0.00076047894963908848 0.024881755947755251 0 -0.0014937742661814816 0.031816101338781544 0 -0.0015996504080251913 0.031704720042667549 0 -0.0015585919289515461 0.03171920247218054 0 0.00070901010433814765 0.031057883307566498 0 0.00065388223832787105 0.030651461370932501 0 0.0010238513678469373 0.030671281005439581 0 0.00065388223832787105 0.030651461370932501 0 0.00089716929137829027 0.030318246821701131 0 0.0010238513678469373 0.030671281005439581 0 0.0024529894089191985 0.014208067526876677 0 -0.00092360425998585551 0.013237020354649007 0 0.0014962974970507367 0.016973283451544512 0 0.00089716929137829027 0.030318246821701131 0 0.0010238513678469373 0.030671281005439581 0 0.0014410876767661767 0.030599065110679103 0 0.00045650976645007741 0.015328234124402505 0 0.0010371276373637027 0.01947841347163249 0 0.00092190399198704086 0.020397663935174785 0 0.00091810469091349839 0.020424683383600057 0 0.0009298853908803746 0.020423869733111815 0 0.0012443383615260803 0.026086501195806411 0 0.0010371276373637027 0.01947841347163249 0 -0.00076047894963908848 0.024881755947755251 0 -1.6945139252856856e-05 0.019476276784385398 0 -0.0014608710366815188 0.022170203206827683 0 -0.0017337896532514257 0.022952883339969293 0 -0.00057424666095334885 0.022615810487551884 0 0.0010238513678469373 0.030671281005439581 0 0.0014410876767661767 0.030599065110679103 0 0.001398030775223768 0.030734172684811049 0 0.0010371276373637027 0.01947841347163249 0 -0.00076047894963908848 0.024881755947755251 0 0.0010371276373637027 0.01947841347163249 0 -1.6945139252856856e-05 0.019476276784385398 0 0.0011257022412599234 0.021213840183990557 0 0.0011220062834527748 0.021220044731240846 0 0.0011222991789932707 0.021214215658394854 0 -0.0014937742661814816 0.031816101338781544 0 -0.0016401739360043677 0.031671321097503875 0 -0.0015996504080251913 0.031704720042667549 0 -0.0014608710366815188 0.022170203206827683 0 -0.00057424666095334885 0.022615810487551884 0 -0.00095654226309657448 0.022032410885727556 0 -0.00076047894963908848 0.024881755947755251 0 -0.0019510388431083811 0.026388891441581779 0 -0.0015996504080251913 0.031704720042667549 0 -0.0016262043820217437 0.031700489802951384 0 -0.0015965002749116853 0.031662392129919774 0 -0.002325005754001169 0.028267140705008555 0 -0.0019510388431083811 0.026388891441581779 0 -0.0016401739360043677 0.031671321097503875 0 -0.0015996504080251913 0.031704720042667549 0 -0.0016236766209237463 0.031677979330448157 0 -0.0019510388431083811 0.026388891441581779 0 -0.0013287206084088726 0.018566362758315628 0 -0.0025264777671297452 0.022254047166756951 0 -0.0002893524166576442 0.022196860700492597 0 -0.00060829720390988002 0.021708280796035692 0 -0.0033745574456657086 0.010212183697668952 0 -0.0028689920636746124 0.0099840239531633172 0 -0.00323382350368661 0.0099538025068573472 0 -0.0025660207562378319 0.017437882518543467 0 -0.0022448528536317138 0.016844436069083493 0 -0.0028424934601307445 0.017012288235101883 0 -0.0023351830763633842 0.017188845546509606 0 -0.0013287206084088726 0.018566362758315628 0 -0.0023351830763633842 0.017188845546509606 0 -0.0014254873182293364 0.015304889411726294 0 -0.0033745574456657086 0.010212183697668952 0 -0.0028689920636746124 0.0099840239531633172 0 -0.0023594155103224259 0.010407639719279316 0 -0.0028689920636746124 0.0099840239531633172 0 -0.0024365163428854831 0.0099338149184878283 0 -0.0023594155103224259 0.010407639719279316 0 -0.0030348199199621514 0.0098937688190569497 0 -0.0028689920636746124 0.0099840239531633172 0 -0.00323382350368661 0.0099538025068573472 0 -0.0016567330574991813 0.013377532071839828 0 -0.0020953789820104406 0.012961556695755046 0 -0.0016567330574991813 0.013377532071839828 0 -0.0010766509515587148 0.013990822999884899 0 -0.0030449657872875751 0.0098847668134513563 0 -0.0028689920636746124 0.0099840239531633172 0 -0.0024365163428854831 0.0099338149184878283 0 0.00047592639093871271 0.010704172742347992 0 -0.0010766509515587148 0.013990822999884899 0 -0.001410541418022461 0.0095073037999381643 0 -0.0013617635262028831 0.009183638562572323 0 -0.0015022217316173732 0.0094547810867454292 0 0.00038370541615743412 0.0089077898342519203 0 0.0006965382444874326 0.0088912003323717414 0 0.00051093354896302227 0.0089730495945128334 0 -0.00033808779481711045 0.013808378127531161 0 -0.00050583842816423984 0.014122024418220157 0 -0.00081186763718119493 0.013944859094064468 0 -0.0010766509515587148 0.013990822999884899 0 -0.00013830133497096803 0.016510593534989435 0 0.00047592639093871271 0.010704172742347992 0 -0.00013830133497096803 0.016510593534989435 0 -0.001619476048373503 0.016725983906019898 0 -0.0009473133795116893 0.016755379238131876 0 -0.0014412271438854064 0.016396932122342642 0 -0.001619476048373503 0.016725983906019898 0 -0.0009473133795116893 0.016755379238131876 0 -0.00069758599985786927 0.017281184629515271 0 -0.0010429965249198192 0.014123250191552918 0 -0.00075407509808156077 0.014296306091382638 0 -0.00059497160928779613 0.014002579840462551 0 -0.0010766509515587148 0.013990822999884899 0 -0.0014254873182293364 0.015304889411726294 0 -0.0014254873182293364 0.015304889411726294 0 -0.0013287206084088726 0.018566362758315628 0 -0.0009473133795116893 0.016755379238131876 0 -0.0014412271438854064 0.016396932122342642 0 -0.00079130522267555558 0.01622200564496985 0 -0.0016567330574991813 0.013377532071839828 0 -0.0014254873182293364 0.015304889411726294 0 -0.0013287206084088726 0.018566362758315628 0 -1.6945139252856856e-05 0.019476276784385398 0 -0.0009473133795116893 0.016755379238131876 0 -0.00079130522267555558 0.01622200564496985 0 -0.00018691312349133229 0.017150868711820901 0 -1.6945139252856856e-05 0.019476276784385398 0 -0.00013830133497096803 0.016510593534989435 0 0.0010371276373637027 0.01947841347163249 0 -0.00013830133497096803 0.016510593534989435 0 0.0013367558195143991 0.018400872117930133 0 0.00064687589846319153 0.017342962362736136 0 -0.00010399442503500094 0.01753674975852056 0 -0.0009473133795116893 0.016755379238131876 0 -0.00018691312349133229 0.017150868711820901 0 -0.00069758599985786927 0.017281184629515271 0 0.00084267528096428209 0.0082312196347484653 0 0.00054647700220043218 0.0084568458123126106 0 0.0006965382444874326 0.0088912003323717414 0 0.00054647700220043218 0.0084568458123126106 0 0.00038370541615743412 0.0089077898342519203 0 0.0006965382444874326 0.0088912003323717414 0 0.0018472391384814356 0.010453344847287953 0 0.0010371276373637027 0.01947841347163249 0 0.00086639128594686514 0.008044489802910287 0 0.00073823077061220153 0.0081271675178066945 0 0.00067058557156924822 0.0081215695664328107 0 0.00047592639093871271 0.010704172742347992 0 0.0002239806795632912 0.0082515681757394533 0 -0.0013617635262028831 0.009183638562572323 0 -7.9793379671370488e-05 0.0087591610859504686 0 -4.3114468223002526e-05 0.0090344901365390449 0 0.0010994655434205321 0.007386546354870069 0 0.00047592639093871271 0.010704172742347992 0 0.00084267528096428209 0.0082312196347484653 0 0.00086639128594686514 0.008044489802910287 0 0.00073823077061220153 0.0081271675178066945 0 -0.0016567330574991813 0.013377532071839828 0 -0.00054123282839880441 0.008720757848621084 0 -0.0030449657872875751 0.0098847668134513563 0 -0.0019019456869981202 0.0097106580807808686 0 -0.0009985568279156044 0.0092441753976976147 0 -0.001410541418022461 0.0095073037999381643 0 -0.0013617635262028831 0.009183638562572323 0 -4.3114468223002526e-05 0.0090344901365390449 0 -0.0019019456869981202 0.0097106580807808686 0 -0.0009985568279156044 0.0092441753976976147 0 -0.0011843777705998054 0.0098803743938543926 0 -0.0030449657872875751 0.0098847668134513563 0 -0.0019019456869981202 0.0097106580807808686 0 -0.0024365163428854831 0.0099338149184878283 0 -0.0019019456869981202 0.0097106580807808686 0 -0.0023594155103224259 0.010407639719279316 0 -0.0013392188379949574 0.010656450883348229 0 -0.0019019456869981202 0.0097106580807808686 0 -0.0024365163428854831 0.0099338149184878283 0 -0.0023594155103224259 0.010407639719279316 0 -0.0019019456869981202 0.0097106580807808686 0 -0.0013392188379949574 0.010656450883348229 0 -0.0011843777705998054 0.0098803743938543926 0 -0.0023594155103224259 0.010407639719279316 0 -0.0013392188379949574 0.010656450883348229 0 -0.0022705104978886972 0.011986245649756202 0 -0.0013392188379949574 0.010656450883348229 0 -0.0022705104978886972 0.011986245649756202 0 -0.00059430162000123404 0.011651143649684009 0 -0.0023178145959734907 0.020477246609991024 0 -0.0026183377810149377 0.02076146929862957 0 -0.0020053411491284139 0.020939984489800459 0 -0.0024984106464664151 0.015708173236016452 0 -0.0016942643142352535 0.017998854798575454 0 -0.0026067409173322676 0.02051547741386249 0 -0.0026561967639770847 0.020921538448376058 0 -0.0032307188491592889 0.020689950546477265 0 -0.0023178145959734907 0.020477246609991024 0 -0.0026067409173322676 0.02051547741386249 0 -0.0026183377810149377 0.02076146929862957 0 -0.0022295886999077232 0.02019274041458053 0 -0.0023316464710403649 0.024617577032695577 0 -0.0027194943915371081 0.019749658568383212 0 -0.0023178145959734907 0.020477246609991024 0 -0.0026067409173322676 0.02051547741386249 0 -0.0023351830763633842 0.017188845546509606 0 -0.0024984106464664151 0.015708173236016452 0 -0.0027194943915371081 0.019749658568383212 0 -0.0026067409173322676 0.02051547741386249 0 -0.0032307188491592889 0.020689950546477265 0 -0.0033745574456657086 0.010212183697668952 0 -0.0023594155103224259 0.010407639719279316 0 -0.0022705104978886972 0.011986245649756202 0 -0.0025264777671297452 0.022254047166756951 0 -0.0002893524166576442 0.022196860700492597 0 -0.0033046379916605779 0.027840840756095955 0 -0.0019510388431083811 0.026388891441581779 0 -0.002317594492477675 0.029791040133522937 0 -0.0023351830763633842 0.017188845546509606 0 -0.0028844892430094473 0.027275733766304999 0 -0.0025264777671297452 0.022254047166756951 0 -0.0033046379916605779 0.027840840756095955 0 -0.0043146694607489157 0.027439102249418149 0 -0.0016262043820217437 0.031700489802951384 0 -0.0016138687737149661 0.031599594111899415 0 -0.0015965002749116853 0.031662392129919774 0 -0.0019728189695367784 0.030789169023747533 0 -0.0018528577367721765 0.030841974343203699 0 -0.0018822675936172322 0.030760401522845961 0 -0.0023316464710403649 0.024617577032695577 0 -0.0028844892430094473 0.027275733766304999 0 -0.0017993310093571125 0.030796170832356633 0 -0.0018528577367721765 0.030841974343203699 0 -0.0018822675936172322 0.030760401522845961 0 -0.0027007360426987022 0.030839840638631408 0 -0.0028844892430094473 0.027275733766304999 0 -0.0017993310093571125 0.030796170832356633 0 -0.0018515957566225671 0.030790610455749667 0 -0.0018526520615116994 0.03079696477199164 0 -0.0028844892430094473 0.027275733766304999 0 -0.002317594492477675 0.029791040133522937 0 -0.002317594492477675 0.029791040133522937 0 -0.0012896966121415507 0.031212483612480624 0 -0.0018735975649843129 0.031528587547469504 0 -0.0015729659184785232 0.031305868168118832 0 -0.0015777290431469252 0.031611958379858772 0 -0.0018735975649843129 0.031528587547469504 0 -0.0015729659184785232 0.031305868168118832 0 -0.0016839861196644753 0.030801875552482857 0 -0.0015729659184785232 0.031305868168118832 0 -0.0014672041059635771 0.031475335590355417 0 -0.0015777290431469252 0.031611958379858772 0 -0.0015777290431469252 0.031611958379858772 0 -0.0015333942367216813 0.031695287215889996 0 -0.0013225080308415431 0.031642118068057015 0 -0.0014937742661814816 0.031816101338781544 0 -0.0015333942367216813 0.031695287215889996 0 -0.0013225080308415431 0.031642118068057015 0 -0.0015777290431469252 0.031611958379858772 0 -0.0015965002749116853 0.031662392129919774 0 -0.0015333942367216813 0.031695287215889996 0 -0.0016138687737149661 0.031599594111899415 0 -0.0015777290431469252 0.031611958379858772 0 -0.0015965002749116853 0.031662392129919774 0 -0.0015965002749116853 0.031662392129919774 0 -0.0015585919289515461 0.03171920247218054 0 -0.0015333942367216813 0.031695287215889996 0 -0.0015996504080251913 0.031704720042667549 0 -0.0015965002749116853 0.031662392129919774 0 -0.0015585919289515461 0.03171920247218054 0 -0.0014937742661814816 0.031816101338781544 0 -0.0015585919289515461 0.03171920247218054 0 -0.0015333942367216813 0.031695287215889996 0 0.0017047546577168345 0.0095216991078571882 0 0.0010335926424377888 0.0098036121458267358 0 0.001470932034967666 0.010852695701345734 0 0.0023217685041390631 0.010428297110678338 0 0.0017047546577168345 0.0095216991078571882 0 0.001470932034967666 0.010852695701345734 0 0.0017969737112785984 0.009516171164933503 0 0.0036082311808151163 0.0095626655725167941 0 0.0023217685041390631 0.010428297110678338 0 0.0030319974284798248 0.011195884656448827 0 0.0037973948849844594 0.0096839223369096887 0 0.0023217685041390631 0.010428297110678338 0 0.0017047546577168345 0.0095216991078571882 0 0.0037973948849844594 0.0096839223369096887 0 0.0017047546577168345 0.0095216991078571882 0 0.0025585057226396599 0.0089712487336163389 0 0.0034873961418023514 0.0094352531286058181 0 0.0025585057226396599 0.0089712487336163389 0 0.0031119239312396452 0.0087689132660981745 0 0.0034873961418023514 0.0094352531286058181 0 0.0031119239312396452 0.0087689132660981745 0 0.0027147798792168032 0.0081930106790389194 0 0.0036861496426372825 0.0084746921503570886 0 0.0025585057226396599 0.0089712487336163389 0 0.0031119239312396452 0.0087689132660981745 0 0.0027147798792168032 0.0081930106790389194 0 0.0024690897362031178 0.0078942479579793903 0 0.0012444447527366772 0.0082536652458130924 0 0.0027147798792168032 0.0081930106790389194 0 0.0018007746537957315 0.0089308956765923007 0 0.0010198524482013507 0.0087091240888584453 0 0.0025659193426195328 0.0078636761236333206 0 0.0027871595355748011 0.0080544064077842439 0 0.0013386139881012751 0.008553574413340103 0 0.0027770384266158697 0.0081036968459584757 0 0.0011573527865554863 0.0086823407200160713 0 0.0025659193426195328 0.0078636761236333206 0 0.0012130518445373443 0.0083212345723183215 0 0.0013386139881012751 0.008553574413340103 0 0.0017047546577168345 0.0095216991078571882 0 0.0025585057226396599 0.0089712487336163389 0 0.0018007746537957315 0.0089308956765923007 0 0.0025585057226396599 0.0089712487336163389 0 0.0027147798792168032 0.0081930106790389194 0 0.0018007746537957315 0.0089308956765923007 0 0.0017047546577168345 0.0095216991078571882 0 0.0018007746537957315 0.0089308956765923007 0 0.0011087479294666753 0.0092409295434143571 0 0.0012130518445373443 0.0083212345723183215 0 0.0013386139881012751 0.008553574413340103 0 -4.3114468223002526e-05 0.0090344901365390449 0 0.00029992241760129159 0.0092487206056498673 0 0.0010198524482013507 0.0087091240888584453 0 -0.0009985568279156044 0.0092441753976976147 0 0.00087328266174735566 0.0080504036141094189 0 0.0012135534446427144 0.0078753405556074626 0 0.001160753241120751 0.0081957670208954291 0 0.00029992241760129159 0.0092487206056498673 0 0.0010198524482013507 0.0087091240888584453 0 0.0011087479294666753 0.0092409295434143571 0 0.0018007746537957315 0.0089308956765923007 0 0.0010198524482013507 0.0087091240888584453 0 0.0011087479294666753 0.0092409295434143571 0 0.0012444447527366772 0.0082536652458130924 0 0.0002239806795632912 0.0082515681757394533 0 0.00087328266174735566 0.0080504036141094189 0 0.001160753241120751 0.0081957670208954291 0 0.00067058557156924822 0.0081215695664328107 0 0.0012130518445373443 0.0083212345723183215 0 -7.9793379671370488e-05 0.0087591610859504686 0 -4.3114468223002526e-05 0.0090344901365390449 0 0.0011573527865554863 0.0086823407200160713 0 -0.00054123282839880441 0.008720757848621084 0 0.00087328266174735566 0.0080504036141094189 0 0.00070743792235972126 0.0080623068632288894 0 0.00067058557156924822 0.0081215695664328107 0 0.00073823077061220153 0.0081271675178066945 0 0.00070743792235972126 0.0080623068632288894 0 0.00067058557156924822 0.0081215695664328107 0 0.00029992241760129159 0.0092487206056498673 0 -0.0009985568279156044 0.0092441753976976147 0 -0.00025026079088062681 0.0095015026459832827 0 -0.0013392188379949574 0.010656450883348229 0 -0.00058282016594892914 0.010122986084756321 0 4.0676405729525607e-05 0.010855576509914023 0 -0.0009985568279156044 0.0092441753976976147 0 -0.00075237687495710961 0.0096875931209113014 0 -0.00025026079088062681 0.0095015026459832827 0 -0.0009985568279156044 0.0092441753976976147 0 -0.0011843777705998054 0.0098803743938543926 0 -0.00075237687495710961 0.0096875931209113014 0 -0.0011843777705998054 0.0098803743938543926 0 -0.00075237687495710961 0.0096875931209113014 0 -0.00058282016594892914 0.010122986084756321 0 -0.00025026079088062681 0.0095015026459832827 0 -0.00058282016594892914 0.010122986084756321 0 0.00033301590181651332 0.010088758037927954 0 -0.00075237687495710961 0.0096875931209113014 0 -0.00025026079088062681 0.0095015026459832827 0 -0.00058282016594892914 0.010122986084756321 0 -0.00058282016594892914 0.010122986084756321 0 0.00033301590181651332 0.010088758037927954 0 4.0676405729525607e-05 0.010855576509914023 0 -0.0013392188379949574 0.010656450883348229 0 -0.0011843777705998054 0.0098803743938543926 0 -0.00058282016594892914 0.010122986084756321 0 0.0017047546577168345 0.0095216991078571882 0 0.0011087479294666753 0.0092409295434143571 0 0.0010335926424377888 0.0098036121458267358 0 0.0011087479294666753 0.0092409295434143571 0 0.0010335926424377888 0.0098036121458267358 0 0.0005937422305779624 0.0095282304919414324 0 -0.00025026079088062681 0.0095015026459832827 0 0.0005937422305779624 0.0095282304919414324 0 0.00033301590181651332 0.010088758037927954 0 0.00029992241760129159 0.0092487206056498673 0 0.0011087479294666753 0.0092409295434143571 0 0.0005937422305779624 0.0095282304919414324 0 0.0010335926424377888 0.0098036121458267358 0 0.0005937422305779624 0.0095282304919414324 0 0.00033301590181651332 0.010088758037927954 0 0.00029992241760129159 0.0092487206056498673 0 -0.00025026079088062681 0.0095015026459832827 0 0.0005937422305779624 0.0095282304919414324 0 0.0010335926424377888 0.0098036121458267358 0 0.00033301590181651332 0.010088758037927954 0 0.001470932034967666 0.010852695701345734 0 0.00090043887583339977 0.011808888331088448 0 -0.00059430162000123404 0.011651143649684009 0 4.0676405729525607e-05 0.010855576509914023 0 0.00090043887583339977 0.011808888331088448 0 4.0676405729525607e-05 0.010855576509914023 0 0.001470932034967666 0.010852695701345734 0 0.00033301590181651332 0.010088758037927954 0 4.0676405729525607e-05 0.010855576509914023 0 0.001470932034967666 0.010852695701345734 0 -0.0013392188379949574 0.010656450883348229 0 -0.00059430162000123404 0.011651143649684009 0 4.0676405729525607e-05 0.010855576509914023 0 -0.0022705104978886972 0.011986245649756202 0 -0.00022730210141603592 0.012847937369128041 0 -0.0011411668419237808 0.013983353287952601 0 -0.0022705104978886972 0.011986245649756202 0 -0.00059430162000123404 0.011651143649684009 0 -0.00022730210141603592 0.012847937369128041 0 0.00090043887583339977 0.011808888331088448 0 -0.00059430162000123404 0.011651143649684009 0 -0.00022730210141603592 0.012847937369128041 0 0.00090043887583339977 0.011808888331088448 0 -0.00022730210141603592 0.012847937369128041 0 0.0012593661970710917 0.012821321803653899 0 0.00090043887583339977 0.011808888331088448 0 0.0012593661970710917 0.012821321803653899 0 0.0024109724350108316 0.012455687855120204 0 0.0024109724350108316 0.012455687855120204 0 0.001470932034967666 0.010852695701345734 0 0.0030319974284798248 0.011195884656448827 0 0.00090043887583339977 0.011808888331088448 0 0.0024109724350108316 0.012455687855120204 0 0.001470932034967666 0.010852695701345734 0 0.0023217685041390631 0.010428297110678338 0 0.001470932034967666 0.010852695701345734 0 0.0030319974284798248 0.011195884656448827 0 0.0024109724350108316 0.012455687855120204 0 0.0035352358670524002 0.012047043203581112 0 0.0040194204967618739 0.013079016805549955 0 0.0024109724350108316 0.012455687855120204 0 0.0030319974284798248 0.011195884656448827 0 0.0035352358670524002 0.012047043203581112 0 0.0055814117835803669 0.012629243044572804 0 0.0045663072957906475 0.011369261266440849 0 0.0040194204967618739 0.013079016805549955 0 0.0035352358670524002 0.012047043203581112 0 0.0045663072957906475 0.011369261266440849 0 0.0040194204967618739 0.013079016805549955 0 0.0055814117835803669 0.012629243044572804 0 0.0045663072957906475 0.011369261266440849 0 0.0065058824849289296 0.011194247102593136 0 0.0045663072957906475 0.011369261266440849 0 0.0057526312300252899 0.0097277604104370891 0 0.0065058824849289296 0.011194247102593136 0 0.0030319974284798248 0.011195884656448827 0 0.0045663072957906475 0.011369261266440849 0 0.0037973948849844594 0.0096839223369096887 0 0.0030319974284798248 0.011195884656448827 0 0.0035352358670524002 0.012047043203581112 0 0.0045663072957906475 0.011369261266440849 0 0.0045663072957906475 0.011369261266440849 0 0.0037973948849844594 0.0096839223369096887 0 0.0057526312300252899 0.0097277604104370891 0 0.0036082311808151163 0.0095626655725167941 0 0.0056067316097979979 0.0096330248777134805 0 0.0034873961418023514 0.0094352531286058181 0 0.0053814802789812748 0.0095400730974587837 0 0.0036861496426372825 0.0084746921503570886 0 0.0053814802789812748 0.0095400730974587837 0 0.0064173181493871285 0.0081689411824800093 0 0.0043398522480925439 0.0075583555001429827 0 0.0053814802789812748 0.0095400730974587837 0 0.0036861496426372825 0.0084746921503570886 0 0.0043398522480925439 0.0075583555001429827 0 0.0027147798792168032 0.0081930106790389194 0 0.0036861496426372825 0.0084746921503570886 0 0.0043398522480925439 0.0075583555001429827 0 0.0031119239312396452 0.0087689132660981745 0 0.0034873961418023514 0.0094352531286058181 0 0.0036861496426372825 0.0084746921503570886 0 0.0064173181493871285 0.0081689411824800093 0 0.0076009072538020424 0.0096964712722964145 0 0.00855633102370419 0.0081007161776218521 0 0.0056067316097979979 0.0096330248777134805 0 0.0074976651548074253 0.0096976272881709215 0 0.0053814802789812748 0.0095400730974587837 0 0.0064173181493871285 0.0081689411824800093 0 0.0076009072538020424 0.0096964712722964145 0 0.0057526312300252899 0.0097277604104370891 0 0.0076009072538020424 0.0096964712722964145 0 0.0065058824849289296 0.011194247102593136 0 0.0076009072538020424 0.0096964712722964145 0 0.0077227473397613756 0.010979152044358346 0 0.0065058824849289296 0.011194247102593136 0 0.0076009072538020424 0.0096964712722964145 0 0.0077227473397613756 0.010979152044358346 0 0.0088974015150427282 0.010659414015294572 0 0.0077227473397613756 0.010979152044358346 0 0.0065058824849289296 0.011194247102593136 0 0.0073414494117507506 0.011721214412164701 0 0.0077227473397613756 0.010979152044358346 0 0.0073414494117507506 0.011721214412164701 0 0.0083011596298606938 0.011618530839664885 0 0.0065058824849289296 0.011194247102593136 0 0.0068280609260636862 0.012496525166318993 0 0.0073414494117507506 0.011721214412164701 0 0.0055814117835803669 0.012629243044572804 0 0.0065058824849289296 0.011194247102593136 0 0.0068280609260636862 0.012496525166318993 0 0.0073414494117507506 0.011721214412164701 0 0.0078309565315414914 0.012414397142446866 0 0.0083011596298606938 0.011618530839664885 0 0.0068280609260636862 0.012496525166318993 0 0.0073414494117507506 0.011721214412164701 0 0.0078309565315414914 0.012414397142446866 0 0.0078309565315414914 0.012414397142446866 0 0.0087499762821864006 0.012426234108570171 0 0.0083011596298606938 0.011618530839664885 0 0.0087499762821864006 0.012426234108570171 0 0.0083011596298606938 0.011618530839664885 0 0.0091635271524096642 0.011650526554505046 0 0.0096771714160748309 0.011092147301422243 0 0.0088544471424822409 0.0057763443837995764 0 0.0087499762821864006 0.012426234108570171 0 0.0091635271524096642 0.011650526554505046 0 0.0095795427996461045 0.012561567246232756 0 0.01017913671963655 0.0057461369003297151 0 0.0088544471424822409 0.0057763443837995764 0 0.0091635271524096642 0.011650526554505046 0 0.010291075994743545 0.010900698632860362 0 0.0095795427996461045 0.012561567246232756 0 0.0097248771306613496 0.00035729425918027308 0 0.009471761208294769 -0.00072809678097072257 0 0.010377610159479647 -0.0011893527899789192 0 0.009471761208294769 -0.00072809678097072257 0 0.0089697193478533045 -0.001566109438182917 0 0.010377610159479647 -0.0011893527899789192 0 0.0091635271524096642 0.011650526554505046 0 0.010291075994743545 0.010900698632860362 0 0.0088974015150427282 0.010659414015294572 0 0.010291075994743545 0.010900698632860362 0 0.0088974015150427282 0.010659414015294572 0 0.0096219969121262624 0.010173758363289107 0 0.0077227473397613756 0.010979152044358346 0 0.0083011596298606938 0.011618530839664885 0 0.0088974015150427282 0.010659414015294572 0 0.0083011596298606938 0.011618530839664885 0 0.0091635271524096642 0.011650526554505046 0 0.0088974015150427282 0.010659414015294572 0 0.0069436633624046298 -0.00029792234706691465 0 0.0078240520984797345 -0.00044794951797052612 0 0.0073673678160362244 -0.001110548745846311 0 0.0078240520984797345 -0.00044794951797052612 0 0.0073673678160362244 -0.001110548745846311 0 0.0080992440520903514 -0.0011294621239491918 0 0.0078240520984797345 -0.00044794951797052612 0 0.0080992440520903514 -0.0011294621239491918 0 0.0088072510009381631 -0.0005200595681466285 0 0.0097248771306613496 0.00035729425918027308 0 0.0088072510009381631 -0.0005200595681466285 0 0.009471761208294769 -0.00072809678097072257 0 0.0080992440520903514 -0.0011294621239491918 0 0.0088072510009381631 -0.0005200595681466285 0 0.0089697193478533045 -0.001566109438182917 0 0.0088072510009381631 -0.0005200595681466285 0 0.009471761208294769 -0.00072809678097072257 0 0.0089697193478533045 -0.001566109438182917 0 0.0097248771306613496 0.00035729425918027308 0 0.0088072510009381631 -0.0005200595681466285 0 0.0085666589027927603 0.00076393693057022699 0 0.0078240520984797345 -0.00044794951797052612 0 0.0085666589027927603 0.00076393693057022699 0 0.0074911612852098268 0.0005203424642312753 0 0.0078240520984797345 -0.00044794951797052612 0 0.0088072510009381631 -0.0005200595681466285 0 0.0085666589027927603 0.00076393693057022699 0 0.0069436633624046298 -0.00029792234706691465 0 0.0078240520984797345 -0.00044794951797052612 0 0.0074911612852098268 0.0005203424642312753 0 0.0085666589027927603 0.00076393693057022699 0 0.0074911612852098268 0.0005203424642312753 0 0.0076340812354469684 0.0015128690494893458 0 0.0085666589027927603 0.00076393693057022699 0 0.0076340812354469684 0.0015128690494893458 0 0.0084758752590962955 0.0017406407783502732 0 0.0076340812354469684 0.0015128690494893458 0 0.0084758752590962955 0.0017406407783502732 0 0.0085014222647016371 0.0023388167637828617 0 0.01017913671963655 0.0057461369003297151 0 0.0095084312371205154 0.0045476889482729127 0 0.0097248771306613496 0.00035729425918027308 0 0.0085666589027927603 0.00076393693057022699 0 0.0090562761059949266 0.0019880520054690646 0 0.0085666589027927603 0.00076393693057022699 0 0.0084758752590962955 0.0017406407783502732 0 0.0091264978832720483 0.001971057369113073 0 0.0083094838654725212 6.8430275884202765e-05 0 0.0095084312371205154 0.0045476889482729127 0 0.0084758752590962955 0.0017406407783502732 0 0.0091264978832720483 0.001971057369113073 0 0.008782962695619392 0.0021277609511336244 0 0.0091180308124669887 0.0020393558160023508 0 0.0090398683337127722 0.0021916789269295269 0 0.0094155773333217015 0.0032946440349764803 0 0.0089050031465294447 0.0027167057611487281 0 0.0090398683337127722 0.0021916789269295269 0 0.0094155773333217015 0.0032946440349764803 0 0.0095084312371205154 0.0045476889482729127 0 0.00998780824306943 0.0055973559636622117 0 0.0095084312371205154 0.0045476889482729127 0 0.0096314662055883744 0.0039880582133402379 0 0.0089050031465294447 0.0027167057611487281 0 0.0086177983358902803 0.0029592107887516377 0 0.0089517382851780104 0.0032205205298777599 0 0.0089050031465294447 0.0027167057611487281 0 0.0085014222647016371 0.0023388167637828617 0 0.0086177983358902803 0.0029592107887516377 0 0.0084758752590962955 0.0017406407783502732 0 0.008782962695619392 0.0021277609511336244 0 0.0085014222647016371 0.0023388167637828617 0 0.0089050031465294447 0.0027167057611487281 0 0.0088051305357679452 0.0023621264136611054 0 0.0090398683337127722 0.0021916789269295269 0 0.0089050031465294447 0.0027167057611487281 0 0.0088051305357679452 0.0023621264136611054 0 0.0085014222647016371 0.0023388167637828617 0 0.0091264978832720483 0.001971057369113073 0 0.0090398683337127722 0.0021916789269295269 0 0.008782962695619392 0.0021277609511336244 0 0.0088051305357679452 0.0023621264136611054 0 0.0090398683337127722 0.0021916789269295269 0 0.008782962695619392 0.0021277609511336244 0 0.0088051305357679452 0.0023621264136611054 0 0.008782962695619392 0.0021277609511336244 0 0.0085014222647016371 0.0023388167637828617 0 0.007640779556423844 0.0014633806483282496 0 0.0080501769570116271 0.0029060199176912135 0 0.0076340812354469684 0.0015128690494893458 0 0.0085014222647016371 0.0023388167637828617 0 0.0081343421021443409 0.0027662644541459041 0 0.0076340812354469684 0.0015128690494893458 0 0.0077454956654541647 0.0022908673960662707 0 0.0074666532643007759 0.0021830484165984939 0 0.0085014222647016371 0.0023388167637828617 0 0.0081343421021443409 0.0027662644541459041 0 0.0086177983358902803 0.0029592107887516377 0 0.0076009072538020424 0.0096964712722964145 0 0.0088974015150427282 0.010659414015294572 0 0.0091636935260521954 0.0095214880304828279 0 0.0088974015150427282 0.010659414015294572 0 0.0091636935260521954 0.0095214880304828279 0 0.0096219969121262624 0.010173758363289107 0 0.0091636935260521954 0.0095214880304828279 0 0.0096219969121262624 0.010173758363289107 0 0.010135644604416127 0.0095993558950141777 0 0.010291075994743545 0.010900698632860362 0 0.0096219969121262624 0.010173758363289107 0 0.010135644604416127 0.0095993558950141777 0 0.010291075994743545 0.010900698632860362 0 0.011053091949385422 0.0091306573860094366 0 0.010135644604416127 0.0095993558950141777 0 0.011053091949385422 0.0091306573860094366 0 0.010135644604416127 0.0095993558950141777 0 0.0099352292018758444 0.0087109857047471834 0 0.0091636935260521954 0.0095214880304828279 0 0.010135644604416127 0.0095993558950141777 0 0.0099352292018758444 0.0087109857047471834 0 0.011053091949385422 0.0091306573860094366 0 0.0099352292018758444 0.0087109857047471834 0 0.01038469914258624 0.0074970952793034585 0 0.0099352292018758444 0.0087109857047471834 0 0.00855633102370419 0.0081007161776218521 0 0.01038469914258624 0.0074970952793034585 0 0.0091636935260521954 0.0095214880304828279 0 0.0099352292018758444 0.0087109857047471834 0 0.00855633102370419 0.0081007161776218521 0 0.0076009072538020424 0.0096964712722964145 0 0.0091636935260521954 0.0095214880304828279 0 0.00855633102370419 0.0081007161776218521 0 0.00855633102370419 0.0081007161776218521 0 0.0086229627707211671 0.006725496649341336 0 0.0072316624880341537 0.0069566265426161036 0 0.00855633102370419 0.0081007161776218521 0 0.0086229627707211671 0.006725496649341336 0 0.01038469914258624 0.0074970952793034585 0 0.00998780824306943 0.0055973559636622117 0 0.0094062057169261269 0.0047144208868625821 0 0.0094155773333217015 0.0032946440349764803 0 0.0092731977619531641 0.0038520338192176728 0 0.0091663771285116335 0.003609447124247231 0 0.0086229627707211671 0.006725496649341336 0 0.01038469914258624 0.0074970952793034585 0 0.0096599592127558052 0.0057591682890533701 0 0.0092731977619531641 0.0038520338192176728 0 0.0092386740735637147 0.0038025311118831929 0 0.0092681205266047489 0.0037904298991918968 0 0.0086229627707211671 0.006725496649341336 0 0.0096599592127558052 0.0057591682890533701 0 0.007778124504075579 0.0054788284845506538 0 0.0081343421021443409 0.0027662644541459041 0 0.0086177983358902803 0.0029592107887516377 0 0.0086620859908833406 0.003551547910212457 0 0.0077454956654541647 0.0022908673960662707 0 0.0074666532643007759 0.0021830484165984939 0 0.0079297832736460738 0.002789771243999861 0 0.0080501769570116271 0.0029060199176912135 0 0.0081424095527266645 0.00061954471665254566 0 0.0070386608939528826 -0.0026907777252369583 0 0.0081424095527266645 0.00061954471665254566 0 0.0069068975906305709 -0.0067533588701354005 0 0.0069457795286023711 -0.0061895591301837508 0 0.0076056542228225337 -0.0058807581972558833 0 0.006867254259647469 -0.005648677196261576 0 0.0069457795286023711 -0.0061895591301837508 0 0.0076056542228225337 -0.0058807581972558833 0 0.0086620859908833406 0.003551547910212457 0 0.0089517382851780104 0.0032205205298777599 0 0.0091663771285116335 0.003609447124247231 0 0.0086177983358902803 0.0029592107887516377 0 0.0086620859908833406 0.003551547910212457 0 0.0089517382851780104 0.0032205205298777599 0 0.0089050031465294447 0.0027167057611487281 0 0.0094155773333217015 0.0032946440349764803 0 0.0089517382851780104 0.0032205205298777599 0 0.0094155773333217015 0.0032946440349764803 0 0.0089517382851780104 0.0032205205298777599 0 0.0091663771285116335 0.003609447124247231 0 0.0090173727083249899 0.0038188155382956708 0 0.0092386740735637147 0.0038025311118831929 0 0.0094683479845646939 0.0037561653118900079 0 0.0092731977619531641 0.0038520338192176728 0 0.0091663771285116335 0.003609447124247231 0 0.0092386740735637147 0.0038025311118831929 0 0.0081424095527266645 0.00061954471665254566 0 0.0096190983181723335 0.0046354750710360824 0 0.0086620859908833406 0.003551547910212457 0 0.0091663771285116335 0.003609447124247231 0 0.0092386740735637147 0.0038025311118831929 0 0.0076056542228225337 -0.0058807581972558833 0 0.0071126480266637208 -0.0050231818182411613 0 0.008273608760585454 -0.0044739453002764565 0 0.006867254259647469 -0.005648677196261576 0 0.0076056542228225337 -0.0058807581972558833 0 0.0071126480266637208 -0.0050231818182411613 0 0.0081424095527266645 0.00061954471665254566 0 0.0088669767582977913 -0.00073572828871067435 0 0.0071126480266637208 -0.0050231818182411613 0 0.0073835668333224634 -0.0042742809499720057 0 0.008273608760585454 -0.0044739453002764565 0 0.0065409465307923933 -0.0043792617210657728 0 0.0071126480266637208 -0.0050231818182411613 0 0.0073835668333224634 -0.0042742809499720057 0 0.0073835668333224634 -0.0042742809499720057 0 0.008273608760585454 -0.0044739453002764565 0 0.0078808794368786309 -0.0035471485332423725 0 0.0092386740735637147 0.0038025311118831929 0 0.0094683479845646939 0.0037561653118900079 0 0.0092681205266047489 0.0037904298991918968 0 0.0094683479845646939 0.0037561653118900079 0 0.0092681205266047489 0.0037904298991918968 0 0.0092842467824957118 0.0034288012891495914 0 0.0098777132507797266 0.0025936653331115993 0 0.0094683479845646939 0.0037561653118900079 0 0.0092842467824957118 0.0034288012891495914 0 0.0094255320370390926 0.0001569811550908473 0 0.0088669767582977913 -0.00073572828871067435 0 0.0090793177973716964 -0.0024115123597102895 0 0.008273608760585454 -0.0044739453002764565 0 0.0078808794368786309 -0.0035471485332423725 0 0.0090793177973716964 -0.0024115123597102895 0 0.0078808794368786309 -0.0035471485332423725 0 0.0077408951876357171 -0.0027461607374949606 0 0.0068063277265674503 -0.0023239326518655012 0 0.0077408951876357171 -0.0027461607374949606 0 0.0071008065072356999 -0.0036042545804778892 0 0.0078808794368786309 -0.0035471485332423725 0 0.0077408951876357171 -0.0027461607374949606 0 0.0071008065072356999 -0.0036042545804778892 0 0.0073835668333224634 -0.0042742809499720057 0 0.0078808794368786309 -0.0035471485332423725 0 0.0071008065072356999 -0.0036042545804778892 0 0.0096599592127558052 0.0057591682890533701 0 0.0087178612513052253 0.0037964988383873076 0 0.007778124504075579 0.0054788284845506538 0 0.0092731977619531641 0.0038520338192176728 0 0.0087178612513052253 0.0037964988383873076 0 0.0092681205266047489 0.0037904298991918968 0 0.0094062057169261269 0.0047144208868625821 0 0.0088220151788516669 0.0038583539766698458 0 0.0087178612513052253 0.0037964988383873076 0 0.0092681205266047489 0.0037904298991918968 0 0.0092842467824957118 0.0034288012891495914 0 0.0098777132507797266 0.0025936653331115993 0 0.0087923160753503316 0.0027565202375201413 0 0.0092842467824957118 0.0034288012891495914 0 0.0087178612513052253 0.0037964988383873076 0 0.0087923160753503316 0.0027565202375201413 0 0.0092842467824957118 0.0034288012891495914 0 0.0087178612513052253 0.0037964988383873076 0 0.0087923160753503316 0.0027565202375201413 0 0.007672996771936301 0.0029904399043233013 0 0.0087178612513052253 0.0037964988383873076 0 0.007672996771936301 0.0029904399043233013 0 0.0067368345270870473 0.0041510791867610192 0 0.0062879905390533326 0.0029255878571347311 0 0.007672996771936301 0.0029904399043233013 0 0.0067368345270870473 0.0041510791867610192 0 0.0067368345270870473 0.0041510791867610192 0 0.007778124504075579 0.0054788284845506538 0 0.0065210292618248736 0.0057667294207435242 0 0.0087178612513052253 0.0037964988383873076 0 0.0067368345270870473 0.0041510791867610192 0 0.007778124504075579 0.0054788284845506538 0 0.0067368345270870473 0.0041510791867610192 0 0.0053050391588770514 0.0036162834372472775 0 0.0053053365754054879 0.0054768193412723402 0 0.0067368345270870473 0.0041510791867610192 0 0.0053053365754054879 0.0054768193412723402 0 0.0065210292618248736 0.0057667294207435242 0 0.0062879905390533326 0.0029255878571347311 0 0.0067368345270870473 0.0041510791867610192 0 0.0053050391588770514 0.0036162834372472775 0 0.0040384617927052419 0.0029454070364190793 0 0.0053050391588770514 0.0036162834372472775 0 0.003953058038814349 0.0045177452870667619 0 0.0028231750856652711 0.0040133912913567146 0 0.004121629067374232 0.0048867986734831802 0 0.0040384617927052419 0.0029454070364190793 0 0.0027821741186293699 0.0037761998860427145 0 0.003953058038814349 0.0045177452870667619 0 0.003055605775979854 0.0046751285531504601 0 0.0033374428308084996 0.0055910800421734548 0 0.0041382517384425232 0.0051681423213381017 0 0.0033374428308084996 0.0055910800421734548 0 0.0041382517384425232 0.0051681423213381017 0 0.0040448069231370743 0.0062145266377353148 0 0.004121629067374232 0.0048867986734831802 0 0.0052025135918186624 0.0054419868319821171 0 0.0053050391588770514 0.0036162834372472775 0 0.003953058038814349 0.0045177452870667619 0 0.0053053365754054879 0.0054768193412723402 0 0.0041382517384425232 0.0051681423213381017 0 0.0053053365754054879 0.0054768193412723402 0 0.0040448069231370743 0.0062145266377353148 0 0.0053053365754054879 0.0054768193412723402 0 0.0040448069231370743 0.0062145266377353148 0 0.0055945879533677283 0.0067441190726226568 0 0.003423520272916303 0.0069619930745843947 0 0.0029821505262047298 0.006373936753115113 0 0.0040448069231370743 0.0062145266377353148 0 0.0027770384266158697 0.0081036968459584757 0 0.0042542692011997719 0.0076085338956778945 0 0.003423520272916303 0.0069619930745843947 0 0.0040448069231370743 0.0062145266377353148 0 0.0043398522480925439 0.0075583555001429827 0 0.0030838236179114745 0.007496579187542398 0 0.003423520272916303 0.0069619930745843947 0 0.0043398522480925439 0.0075583555001429827 0 0.0040448069231370743 0.0062145266377353148 0 0.0043398522480925439 0.0075583555001429827 0 0.0055945879533677283 0.0067441190726226568 0 0.0064173181493871285 0.0081689411824800093 0 0.0043398522480925439 0.0075583555001429827 0 0.0055945879533677283 0.0067441190726226568 0 0.0064173181493871285 0.0081689411824800093 0 0.0055945879533677283 0.0067441190726226568 0 0.0072316624880341537 0.0069566265426161036 0 0.0064173181493871285 0.0081689411824800093 0 0.00855633102370419 0.0081007161776218521 0 0.0072316624880341537 0.0069566265426161036 0 0.0086229627707211671 0.006725496649341336 0 0.0072316624880341537 0.0069566265426161036 0 0.007778124504075579 0.0054788284845506538 0 0.0072316624880341537 0.0069566265426161036 0 0.007778124504075579 0.0054788284845506538 0 0.0065210292618248736 0.0057667294207435242 0 0.0055945879533677283 0.0067441190726226568 0 0.0072316624880341537 0.0069566265426161036 0 0.0065210292618248736 0.0057667294207435242 0 0.0053053365754054879 0.0054768193412723402 0 0.0055945879533677283 0.0067441190726226568 0 0.0065210292618248736 0.0057667294207435242 0 -5.6504052498949718e-08 0.034999898110775578 0 -3.1530119536886538e-05 0.034916232865071783 0 4.0400619890577504e-06 0.034828745235572472 0 -5.6504052498949718e-08 0.034999898110775578 0 -0.00040245448993314191 0.034783735961644906 0 -0.00018402894930996558 0.034953954695981011 0 -0.0017968659243531122 0.032547577118646025 0 -0.0011800113904642418 0.032163776462890495 0 -0.00080873457713160615 0.033222248880143378 0 -0.0016069718792736888 0.031679546646244887 0 -0.001390247691917223 0.031489967236757205 0 -0.0011800113904642418 0.032163776462890495 0 -0.0017968659243531122 0.032547577118646025 0 -0.0016069718792736888 0.031679546646244887 0 -0.0011800113904642418 0.032163776462890495 0 -0.0017968659243531122 0.032547577118646025 0 -0.0016069718792736888 0.031679546646244887 0 -0.0016593758402153134 0.031622887393469364 0 -0.0010704257008006671 0.033669164028182076 0 -0.00088742349695541728 0.033318549337070569 0 -0.0016069718792736888 0.031679546646244887 0 -0.0016593758402153134 0.031622887393469364 0 -0.0014886506671314738 0.031785848774874649 0 -0.0016069718792736888 0.031679546646244887 0 -0.0014886506671314738 0.031785848774874649 0 -0.0016667119454211719 0.03158702333438089 0 -0.0016069718792736888 0.031679546646244887 0 -0.0016667119454211719 0.03158702333438089 0 -0.001390247691917223 0.031489967236757205 0 -0.0016667119454211719 0.03158702333438089 0 -0.0016310427249596688 0.031152577560779219 0 -0.001390247691917223 0.031489967236757205 0 -0.0016667119454211719 0.03158702333438089 0 -0.0016112375068225476 0.031839254210292427 0 -0.0017228368055917393 0.031286295268563663 0 -0.0016667119454211719 0.03158702333438089 0 -0.0017228368055917393 0.031286295268563663 0 -0.0016310427249596688 0.031152577560779219 0 -0.0014886506671314738 0.031785848774874649 0 -0.0016667119454211719 0.03158702333438089 0 -0.0016112375068225476 0.031839254210292427 0 -0.0014886506671314738 0.031785848774874649 0 -0.0016112375068225476 0.031839254210292427 0 -0.0010869378342839972 0.032665361163679331 0 -0.0014886506671314738 0.031785848774874649 0 -0.00052892801850147099 0.032169545903617293 0 -0.0010869378342839972 0.032665361163679331 0 -5.6504052498949718e-08 0.034999898110775578 0 -0.00018402894930996558 0.034953954695981011 0 -3.1530119536886538e-05 0.034916232865071783 0 -0.0016593758402153134 0.031622887393469364 0 -0.0014886506671314738 0.031785848774874649 0 -0.00052892801850147099 0.032169545903617293 0 -0.00088742349695541728 0.033318549337070569 0 -0.00033712076600609856 0.033603864269177157 0 -5.6504052498949718e-08 0.034999898110775578 0 4.0400619890577504e-06 0.034828745235572472 0 -6.490471211298909e-07 0.034995738296159949 0 -0.00033712076600609856 0.033603864269177157 0 1.3385483887614959e-05 0.034677845890381566 0 -0.00052892801850147099 0.032169545903617293 0 -0.0010869378342839972 0.032665361163679331 0 4.0400619890577504e-06 0.034828745235572472 0 -0.0010869378342839972 0.032665361163679331 0 4.0400619890577504e-06 0.034828745235572472 0 -0.00058755094824087866 0.03416326221253372 0 4.0400619890577504e-06 0.034828745235572472 0 -0.00058755094824087866 0.03416326221253372 0 -0.00037099687196298257 0.034287569396604413 0 4.0400619890577504e-06 0.034828745235572472 0 -6.490471211298909e-07 0.034995738296159949 0 -0.00037099687196298257 0.034287569396604413 0 -6.490471211298909e-07 0.034995738296159949 0 -0.00037099687196298257 0.034287569396604413 0 7.8940616480289057e-08 0.03236076526770848 0 1.5923888108499116e-06 0.032350918621064477 0 0.00010534789680492698 0.030312226502691723 0 -1.0081890965831985e-06 0.030555837196939221 0 0.00010534789680492698 0.030312226502691723 0 -0.00010744060903428054 0.030000563358163077 0 -1.0081890965831985e-06 0.030555837196939221 0 -0.00037099687196298257 0.034287569396604413 0 7.8940616480289057e-08 0.03236076526770848 0 -0.00010536430173265346 0.03393987209203761 0 -2.0694900119657349e-07 0.032353664432006893 0 3.0709894852769724e-05 0.0321841132371481 0 -0.00037099687196298257 0.034287569396604413 0 -0.00010536430173265346 0.03393987209203761 0 -0.00054035464366455053 0.034067249942173458 0 0.00010534789680492698 0.030312226502691723 0 -4.5591870149731489e-05 0.029853817917732044 0 -0.00010744060903428054 0.030000563358163077 0 3.0709894852769724e-05 0.0321841132371481 0 -0.0011000319974380111 0.031391038934587841 0 -0.00010536430173265346 0.03393987209203761 0 -0.00077130748432705702 0.03396000317580336 0 -0.00054035464366455053 0.034067249942173458 0 -0.00077130748432705702 0.03396000317580336 0 -0.00054035464366455053 0.034067249942173458 0 -0.00095211680249451596 0.033664018181535305 0 -0.00058755094824087866 0.03416326221253372 0 -0.00054035464366455053 0.034067249942173458 0 -0.00095211680249451596 0.033664018181535305 0 -0.00058755094824087866 0.03416326221253372 0 -0.00037099687196298257 0.034287569396604413 0 -0.00054035464366455053 0.034067249942173458 0 -0.0010869378342839972 0.032665361163679331 0 -0.00058755094824087866 0.03416326221253372 0 -0.00095211680249451596 0.033664018181535305 0 -0.0016112375068225476 0.031839254210292427 0 -0.0010869378342839972 0.032665361163679331 0 -0.0016965769654188462 0.031514565701939626 0 -0.00096710478185411052 0.032496076446373881 0 -0.0013147864664431594 0.032609085058014173 0 -0.0017855374910569662 0.031022563358370812 0 -0.0016965769654188462 0.031514565701939626 0 -0.0017228368055917393 0.031286295268563663 0 -0.0017855374910569662 0.031022563358370812 0 -0.0017228368055917393 0.031286295268563663 0 -0.0018829202373811037 0.030755935974469274 0 -0.0011000319974380111 0.031391038934587841 0 -0.0019280909194851787 0.030404515456798054 0 -0.0011000319974380111 0.031391038934587841 0 -0.0013147864664431594 0.032609085058014173 0 -0.0016112375068225476 0.031839254210292427 0 -0.0016965769654188462 0.031514565701939626 0 -0.0017228368055917393 0.031286295268563663 0 -0.0017228368055917393 0.031286295268563663 0 -0.0018829202373811037 0.030755935974469274 0 -0.0016310427249596688 0.031152577560779219 0 -0.0018829202373811037 0.030755935974469274 0 -0.0014166612106519033 0.030516714324254873 0 -0.0016310427249596688 0.031152577560779219 0 -0.0018829202373811037 0.030755935974469274 0 -0.0014166612106519033 0.030516714324254873 0 -0.0016321547919307046 0.029701460387186105 0 -0.0024414167706034709 0.029768288564283291 0 -0.0018829202373811037 0.030755935974469274 0 -0.0016321547919307046 0.029701460387186105 0 -0.0014166612106519033 0.030516714324254873 0 -0.00096242035726744714 0.029589549114983755 0 -0.00091054972698914485 0.030541467792483536 0 -0.0014166612106519033 0.030516714324254873 0 -0.00096242035726744714 0.029589549114983755 0 -0.0016321547919307046 0.029701460387186105 0 -0.00096242035726744714 0.029589549114983755 0 -0.0016321547919307046 0.029701460387186105 0 -0.0015611010597203247 0.028659940860840998 0 -0.00096242035726744714 0.029589549114983755 0 -0.0015611010597203247 0.028659940860840998 0 -0.00070231505855785107 0.028370724415614706 0 -0.0011000319974380111 0.031391038934587841 0 -0.00078339557150746103 0.029038570151381383 0 -0.0024414167706034709 0.029768288564283291 0 -0.0016321547919307046 0.029701460387186105 0 -0.0015611010597203247 0.028659940860840998 0 -4.5591870149731489e-05 0.029853817917732044 0 -0.00015239725405030862 0.029889476733744199 0 -0.00010744060903428054 0.030000563358163077 0 -0.00015239725405030862 0.029889476733744199 0 -0.00010744060903428054 0.030000563358163077 0 -0.00015485576621625946 0.029613262939966578 0 -0.00078339557150746103 0.029038570151381383 0 -0.00049743481980903581 0.02832583635099592 0 -0.0015611010597203247 0.028659940860840998 0 -0.00090260262966713361 0.027544958210154336 0 -0.00070231505855785107 0.028370724415614706 0 -0.00015239725405030862 0.029889476733744199 0 -0.00015485576621625946 0.029613262939966578 0 5.396587131497603e-05 0.029078015888585287 0 -6.6710698036414433e-08 0.028756477332810348 0 -0.00015485576621625946 0.029613262939966578 0 5.396587131497603e-05 0.029078015888585287 0 -6.6710698036414433e-08 0.028756477332810348 0 -0.00015485576621625946 0.029613262939966578 0 -1.0081890965831985e-06 0.030555837196939221 0 -0.00010744060903428054 0.030000563358163077 0 -0.00015485576621625946 0.029613262939966578 0 -1.0081890965831985e-06 0.030555837196939221 0 -0.00017563557336478726 0.027078828496239465 0 -2.2116690774468486e-05 0.027051002583825735 0 -0.0003810027259074558 0.027417533706934019 0 -0.00017563557336478726 0.027078828496239465 0 -2.2116690774468486e-05 0.027051002583825735 0 -0.00010827049872319267 0.026594601735531839 0 -2.2116690774468486e-05 0.027051002583825735 0 1.2105570809960417e-08 0.026957888146979542 0 -0.00010827049872319267 0.026594601735531839 0 -2.2116690774468486e-05 0.027051002583825735 0 -0.00090260262966713361 0.027544958210154336 0 -0.0003810027259074558 0.027417533706934019 0 -6.6710698036414433e-08 0.028756477332810348 0 -2.2116690774468486e-05 0.027051002583825735 0 1.2105570809960417e-08 0.026957888146979542 0 -6.3688389047133611e-05 0.027300839541054504 0 -0.00049743481980903581 0.02832583635099592 0 -6.6710698036414433e-08 0.028756477332810348 0 -2.2116690774468486e-05 0.027051002583825735 0 5.396587131497603e-05 0.029078015888585287 0 -0.00090260262966713361 0.027544958210154336 0 -0.0003810027259074558 0.027417533706934019 0 -0.00070231505855785107 0.028370724415614706 0 -0.0003810027259074558 0.027417533706934019 0 -0.0002300519131562952 0.027684950946591163 0 -0.00070231505855785107 0.028370724415614706 0 -0.00017563557336478726 0.027078828496239465 0 -0.0003810027259074558 0.027417533706934019 0 -0.0002300519131562952 0.027684950946591163 0 -0.00017563557336478726 0.027078828496239465 0 -0.0002300519131562952 0.027684950946591163 0 -0.00010827049872319267 0.026594601735531839 0 -0.0002300519131562952 0.027684950946591163 0 -0.0002797404456648961 0.028690196870407136 0 -0.00070231505855785107 0.028370724415614706 0 -0.0002300519131562952 0.027684950946591163 0 -0.0002797404456648961 0.028690196870407136 0 9.7523074774991952e-05 0.027521009670049994 0 -0.00096242035726744714 0.029589549114983755 0 -0.0002797404456648961 0.028690196870407136 0 -0.00070231505855785107 0.028370724415614706 0 -0.00096242035726744714 0.029589549114983755 0 -0.00019183218933086545 0.029937682256765769 0 -0.00091054972698914485 0.030541467792483536 0 -0.00096242035726744714 0.029589549114983755 0 -0.0002797404456648961 0.028690196870407136 0 -0.00019183218933086545 0.029937682256765769 0 -0.0002797404456648961 0.028690196870407136 0 -0.00019183218933086545 0.029937682256765769 0 0.00034774176348689961 0.028641192477565577 0 -0.00019183218933086545 0.029937682256765769 0 -3.9980785784927198e-05 0.030908310038278531 0 -0.00055891503000872044 0.030926149025183404 0 -0.00019183218933086545 0.029937682256765769 0 -3.9980785784927198e-05 0.030908310038278531 0 0.00048106868994750209 0.030530905012659731 0 -3.9980785784927198e-05 0.030908310038278531 0 -9.5288334205232824e-05 0.031639040779056132 0 0.00044635801835933852 0.031391436854834046 0 -3.9980785784927198e-05 0.030908310038278531 0 -0.00055891503000872044 0.030926149025183404 0 -9.5288334205232824e-05 0.031639040779056132 0 -0.00055891503000872044 0.030926149025183404 0 -0.00072739409634680317 0.031836593489088218 0 -9.5288334205232824e-05 0.031639040779056132 0 -0.00019183218933086545 0.029937682256765769 0 -0.00055891503000872044 0.030926149025183404 0 -0.00091054972698914485 0.030541467792483536 0 -0.0014166612106519033 0.030516714324254873 0 -0.00091054972698914485 0.030541467792483536 0 -0.0013051551898451827 0.030997588727077044 0 -0.00091054972698914485 0.030541467792483536 0 -0.0013051551898451827 0.030997588727077044 0 -0.00098115440265714193 0.031228917682436193 0 -0.00055891503000872044 0.030926149025183404 0 -0.00091054972698914485 0.030541467792483536 0 -0.00098115440265714193 0.031228917682436193 0 -0.0016310427249596688 0.031152577560779219 0 -0.0013051551898451827 0.030997588727077044 0 -0.001390247691917223 0.031489967236757205 0 -0.0014166612106519033 0.030516714324254873 0 -0.0016310427249596688 0.031152577560779219 0 -0.0013051551898451827 0.030997588727077044 0 -0.0013051551898451827 0.030997588727077044 0 -0.001390247691917223 0.031489967236757205 0 -0.00098115440265714193 0.031228917682436193 0 -0.00055891503000872044 0.030926149025183404 0 -0.00098115440265714193 0.031228917682436193 0 -0.00072739409634680317 0.031836593489088218 0 -0.001390247691917223 0.031489967236757205 0 -0.00098115440265714193 0.031228917682436193 0 -0.00072739409634680317 0.031836593489088218 0 -0.001390247691917223 0.031489967236757205 0 -0.00072739409634680317 0.031836593489088218 0 -0.0011800113904642418 0.032163776462890495 0 -0.0011800113904642418 0.032163776462890495 0 -0.00061938038024599148 0.03269919953425051 0 -0.00080873457713160615 0.033222248880143378 0 -0.00072739409634680317 0.031836593489088218 0 -0.0011800113904642418 0.032163776462890495 0 -0.00061938038024599148 0.03269919953425051 0 -0.00072739409634680317 0.031836593489088218 0 -0.00061938038024599148 0.03269919953425051 0 -5.9246347563200078e-05 0.032651009526959124 0 -5.9246347563200078e-05 0.032651009526959124 0 -9.5288334205232824e-05 0.031639040779056132 0 0.00054195890698257232 0.032121777386328175 0 -3.7239834013621606e-05 0.032598340546520589 0 0.00051374679921492052 0.032214618375997449 0 -5.9246347563200078e-05 0.032651009526959124 0 0.00049432972845502487 0.032273897268864912 0 0.00048087262968686111 0.032906845992083308 0 -9.5288334205232824e-05 0.031639040779056132 0 0.00044635801835933852 0.031391436854834046 0 0.00054195890698257232 0.032121777386328175 0 -0.00072739409634680317 0.031836593489088218 0 -5.9246347563200078e-05 0.032651009526959124 0 -9.5288334205232824e-05 0.031639040779056132 0 0.0013503999370137023 0.031653608055054197 0 0.00044635801835933852 0.031391436854834046 0 0.0013240960629178832 0.030664516188447781 0 0.0013503999370137023 0.031653608055054197 0 0.00044635801835933852 0.031391436854834046 0 0.00054195890698257232 0.032121777386328175 0 0.0012618866467187094 0.031706683744234992 0 0.00051374679921492052 0.032214618375997449 0 0.0011616074092098514 0.03183376919428299 0 0.00049432972845502487 0.032273897268864912 0 0.00078269810742158765 0.032525964117366746 0 0.00049432972845502487 0.032273897268864912 0 0.00078269810742158765 0.032525964117366746 0 0.00048087262968686111 0.032906845992083308 0 0.0011616074092098514 0.03183376919428299 0 0.0011709579146241306 0.03256532820536702 0 0.0015689014166698255 0.032398153324243492 0 0.0011616074092098514 0.03183376919428299 0 0.00078269810742158765 0.032525964117366746 0 0.0011709579146241306 0.03256532820536702 0 0.0011709579146241306 0.03256532820536702 0 0.0015689014166698255 0.032398153324243492 0 0.0013637538738098883 0.032785896214410061 0 0.0011616074092098514 0.03183376919428299 0 0.0015689014166698255 0.032398153324243492 0 0.0018457981923750367 0.032014316232057305 0 0.0015689014166698255 0.032398153324243492 0 0.001863225475572489 0.032361954387265919 0 0.0018310702973203131 0.032786426427985148 0 0.0015689014166698255 0.032398153324243492 0 0.001863225475572489 0.032361954387265919 0 0.0018457981923750367 0.032014316232057305 0 0.0021503657207047003 0.032241180928797408 0 0.0025680291250819495 0.032259358123990375 0 0.0018310702973203131 0.032786426427985148 0 0.0014990569878264748 0.029698315486364337 0 0.0018416576191601702 0.03254169222345827 0 0.0026280633386678311 0.03116494717090312 0 0.002369847442457496 0.031662509647132929 0 0.0016939006234712799 0.031902990445174619 0 0.0014990569878264748 0.029698315486364337 0 0.00069231992583584034 0.027749723868607763 0 0.001863225475572489 0.032361954387265919 0 0.0021503657207047003 0.032241180928797408 0 0.0018310702973203131 0.032786426427985148 0 0.001863225475572489 0.032361954387265919 0 0.0021503657207047003 0.032241180928797408 0 0.0018457981923750367 0.032014316232057305 0 0.0021503657207047003 0.032241180928797408 0 0.0023647799140513598 0.031741609076540694 0 0.0025680291250819495 0.032259358123990375 0 0.0023647799140513598 0.031741609076540694 0 0.0018457981923750367 0.032014316232057305 0 0.0019192348313414645 0.031377836161093887 0 0.0021503657207047003 0.032241180928797408 0 0.0023647799140513598 0.031741609076540694 0 0.0018457981923750367 0.032014316232057305 0 0.0011616074092098514 0.03183376919428299 0 0.0018457981923750367 0.032014316232057305 0 0.0019192348313414645 0.031377836161093887 0 0.0012618866467187094 0.031706683744234992 0 0.00228664734537947 0.031655288859103195 0 0.0013503999370137023 0.031653608055054197 0 0.0023915546943267638 0.031155764514198315 0 0.0013240960629178832 0.030664516188447781 0 0.0023915546943267638 0.031155764514198315 0 0.002437123732990982 0.030137227268428879 0 0.0013240960629178832 0.030664516188447781 0 0.00228664734537947 0.031655288859103195 0 0.0013909412776816836 0.026413392704484062 0 0.0023647799140513598 0.031741609076540694 0 0.0019192348313414645 0.031377836161093887 0 0.0027252669372352907 0.030929089900635916 0 0.0023915546943267638 0.031155764514198315 0 0.002437123732990982 0.030137227268428879 0 0.0035798472280808057 0.03058813397083766 0 0.002437123732990982 0.030137227268428879 0 0.0031153413564881777 0.028950138931651239 0 0.0035798472280808057 0.03058813397083766 0 0.002437123732990982 0.030137227268428879 0 0.0013240960629178832 0.030664516188447781 0 0.001550060348340666 0.029368631576929066 0 0.002437123732990982 0.030137227268428879 0 0.001550060348340666 0.029368631576929066 0 0.0031153413564881777 0.028950138931651239 0 0.0013240960629178832 0.030664516188447781 0 0.00066790759533440517 0.029696562279599791 0 0.001550060348340666 0.029368631576929066 0 0.0013240960629178832 0.030664516188447781 0 0.00048106868994750209 0.030530905012659731 0 0.00066790759533440517 0.029696562279599791 0 -3.9980785784927198e-05 0.030908310038278531 0 0.00044635801835933852 0.031391436854834046 0 0.00048106868994750209 0.030530905012659731 0 0.00044635801835933852 0.031391436854834046 0 0.0013240960629178832 0.030664516188447781 0 0.00048106868994750209 0.030530905012659731 0 -0.00019183218933086545 0.029937682256765769 0 0.00048106868994750209 0.030530905012659731 0 0.00066790759533440517 0.029696562279599791 0 -0.00019183218933086545 0.029937682256765769 0 0.00066790759533440517 0.029696562279599791 0 0.00034774176348689961 0.028641192477565577 0 0.00034774176348689961 0.028641192477565577 0 0.0015611971007684499 0.028182934669136107 0 0.001550060348340666 0.029368631576929066 0 0.00066790759533440517 0.029696562279599791 0 0.00034774176348689961 0.028641192477565577 0 0.001550060348340666 0.029368631576929066 0 0.00034774176348689961 0.028641192477565577 0 0.00049659691381999068 0.026883186972695004 0 0.0015611971007684499 0.028182934669136107 0 0.00034774176348689961 0.028641192477565577 0 9.7523074774991952e-05 0.027521009670049994 0 0.00049659691381999068 0.026883186972695004 0 -0.0002797404456648961 0.028690196870407136 0 0.00034774176348689961 0.028641192477565577 0 9.7523074774991952e-05 0.027521009670049994 0 -0.0002300519131562952 0.027684950946591163 0 9.7523074774991952e-05 0.027521009670049994 0 -0.00010827049872319267 0.026594601735531839 0 9.7523074774991952e-05 0.027521009670049994 0 0.00049659691381999068 0.026883186972695004 0 -0.00010827049872319267 0.026594601735531839 0 0.00049659691381999068 0.026883186972695004 0 -1.3583092681596548e-06 0.025157991592805653 0 5.1082405609186024e-06 0.023364155996765543 0 1.2105570809960417e-08 0.026957888146979542 0 -1.3583092681596548e-06 0.025157991592805653 0 -0.00010827049872319267 0.026594601735531839 0 0.00049659691381999068 0.026883186972695004 0 -1.3583092681596548e-06 0.025157991592805653 0 -0.00010827049872319267 0.026594601735531839 0 2.4138071180632762e-06 0.023355195607254957 0 0.00025369286625642182 0.020764059062343052 0 -1.3094337152993306e-06 0.021319240379889266 0 4.6557861470111624e-07 0.023359461238709578 0 0.001251610442543846 0.02386178198991629 0 0.00049659691381999068 0.026883186972695004 0 5.1082405609186024e-06 0.023364155996765543 0 0.0024022998273918535 0.026797951553793206 0 0.001251610442543846 0.02386178198991629 0 0.0016110692691783327 0.024257978913798127 0 0.0024022998273918535 0.026797951553793206 0 0.0015611971007684499 0.028182934669136107 0 0.0031153413564881777 0.028950138931651239 0 0.00049659691381999068 0.026883186972695004 0 0.0024022998273918535 0.026797951553793206 0 0.0015611971007684499 0.028182934669136107 0 0.0015611971007684499 0.028182934669136107 0 0.001550060348340666 0.029368631576929066 0 0.0031153413564881777 0.028950138931651239 0 4.1982104305392949e-05 0.020046039436137714 0 -0.00017666382179286087 0.020009956146097758 0 -0.00013213559057039445 0.019982378157823971 0 4.1982104305392949e-05 0.020046039436137714 0 -0.00017666382179286087 0.020009956146097758 0 -0.00019121674411457833 0.020101620988284948 0 -0.00017666382179286087 0.020009956146097758 0 -0.00019121674411457833 0.020101620988284948 0 -0.00020447778696739869 0.019922096192118488 0 -0.00019121674411457833 0.020101620988284948 0 -0.00020447778696739869 0.019922096192118488 0 -0.00026184229994745216 0.019851240794877024 0 0.00025369286625642182 0.020764059062343052 0 4.1982104305392949e-05 0.020046039436137714 0 -0.00019121674411457833 0.020101620988284948 0 0.00025369286625642182 0.020764059062343052 0 -5.4877833549301627e-05 0.020506675483868406 0 -1.3094337152993306e-06 0.021319240379889266 0 0.00025369286625642182 0.020764059062343052 0 -0.00019121674411457833 0.020101620988284948 0 -5.4877833549301627e-05 0.020506675483868406 0 -0.00019121674411457833 0.020101620988284948 0 -5.4877833549301627e-05 0.020506675483868406 0 -0.00026184229994745216 0.019851240794877024 0 -0.00026184229994745216 0.019851240794877024 0 -1.3094337152993306e-06 0.021319240379889266 0 -1.3518721303100157e-07 0.019277371165463075 0 -5.4877833549301627e-05 0.020506675483868406 0 -0.00026184229994745216 0.019851240794877024 0 -1.3094337152993306e-06 0.021319240379889266 0 -2.0917248204109671e-07 0.017237341357036556 0 -1.3518721303100157e-07 0.019277371165463075 0 6.8700334443173259e-05 0.018420718349445104 0 -1.3518721303100157e-07 0.019277371165463075 0 -0.00013217964832260511 0.019244465920712463 0 6.8700334443173259e-05 0.018420718349445104 0 -0.00026184229994745216 0.019851240794877024 0 -1.3518721303100157e-07 0.019277371165463075 0 -0.00013217964832260511 0.019244465920712463 0 -0.00026184229994745216 0.019851240794877024 0 -0.00013217964832260511 0.019244465920712463 0 -0.00011119670992526617 0.019672675554215511 0 -0.00013217964832260511 0.019244465920712463 0 6.8700334443173259e-05 0.018420718349445104 0 0.00037976823281448031 0.019238135906137318 0 -0.00013217964832260511 0.019244465920712463 0 0.00037976823281448031 0.019238135906137318 0 -0.00011119670992526617 0.019672675554215511 0 0.00027456386585947919 0.019796283814838705 0 -0.00011119670992526617 0.019672675554215511 0 -0.00020784667929757053 0.020096116343020529 0 0.00061947157203164549 0.019570441718185963 0 0.00037976823281448031 0.019238135906137318 0 0.00027456386585947919 0.019796283814838705 0 0.00037976823281448031 0.019238135906137318 0 0.00027456386585947919 0.019796283814838705 0 -0.00011119670992526617 0.019672675554215511 0 -0.00020447778696739869 0.019922096192118488 0 -0.00026184229994745216 0.019851240794877024 0 -0.00011119670992526617 0.019672675554215511 0 -0.00011758052133089174 0.019750012422615173 0 -0.00012047561503223344 0.019972154732124131 0 -0.00020447778696739869 0.019922096192118488 0 -0.00011119670992526617 0.019672675554215511 0 -0.0001322390090254823 0.019978757230826823 0 -0.00017666382179286087 0.020009956146097758 0 -0.00020447778696739869 0.019922096192118488 0 -0.0001322390090254823 0.019978757230826823 0 -0.00020784667929757053 0.020096116343020529 0 0.00031804783567720963 0.020287708709631702 0 -0.00030296054622306495 0.020573231562250334 0 -0.00017666382179286087 0.020009956146097758 0 -0.0001322390090254823 0.019978757230826823 0 -0.00015220323631185459 0.020007681731472264 0 -0.00012047561503223344 0.019972154732124131 0 0.00069255918828787437 0.020879781659939371 0 0.00027456386585947919 0.019796283814838705 0 -0.00020784667929757053 0.020096116343020529 0 0.00031804783567720963 0.020287708709631702 0 0.00073676936818965126 0.019881313887477645 0 0.00027456386585947919 0.019796283814838705 0 0.00031804783567720963 0.020287708709631702 0 0.0018512189580841326 0.01950690118125685 0 0.0011839848784009916 0.019589436378415741 0 0.001501081412190584 0.019336711757601807 0 0.0011839848784009916 0.019589436378415741 0 0.00089300990427714595 0.02023447100194144 0 0.0002140494232609255 0.019513999460710502 0 0.0012667417841653013 0.019014293944872206 0 0.0011839848784009916 0.019589436378415741 0 0.0002140494232609255 0.019513999460710502 0 0.00070002182684495069 0.019651806873336165 0 0.00069255918828787437 0.020879781659939371 0 0.0018512189580841326 0.01950690118125685 0 0.0011839848784009916 0.019589436378415741 0 0.00089300990427714595 0.02023447100194144 0 0.0017608437363715904 0.019260658804464162 0 0.0012667417841653013 0.019014293944872206 0 0.001501081412190584 0.019336711757601807 0 0.002418291564273397 0.018570194752731858 0 0.0013126990370348978 0.01916165498340423 0 0.0012667417841653013 0.019014293944872206 0 0.0011839848784009916 0.019589436378415741 0 0.001501081412190584 0.019336711757601807 0 0.0017678097376548193 0.019589528786832112 0 0.00099995265294351298 0.019994148924628946 0 0.0015112101306377745 0.018268342246664713 0 0.0021408234719915297 0.018731614789247893 0 0.0012921525302364014 0.019482758066579193 0 0.0018512189580841326 0.01950690118125685 0 0.001069856101397476 0.02003365293860988 0 0.0011290456705769249 0.020178111111615989 0 0.0022336058362140048 0.017954645393796896 0 0.0015112101306377745 0.018268342246664713 0 0.0021408234719915297 0.018731614789247893 0 0.001069856101397476 0.02003365293860988 0 0.0011290456705769249 0.020178111111615989 0 0.00027940373690486721 0.020587897716922668 0 0.00099995265294351298 0.019994148924628946 0 0.00050605545028955721 0.022019720832883064 0 0.00069255918828787437 0.020879781659939371 0 0.00050605545028955721 0.022019720832883064 0 0.0013126990370348978 0.01916165498340423 0 0.00020530296703860613 0.020473673571156308 0 0.00089300990427714595 0.02023447100194144 0 0.0002140494232609255 0.019513999460710502 0 -9.0566077154044424e-05 0.020947377931286554 0 0.0011290456705769249 0.020178111111615989 0 0.00022564914137664557 0.020833107168753095 0 0.00027940373690486721 0.020587897716922668 0 0.00069255918828787437 0.020879781659939371 0 0.00053667661021691924 0.021471792657275206 0 -0.00017666382179286087 0.020009956146097758 0 -0.00015220323631185459 0.020007681731472264 0 -0.00013213559057039445 0.019982378157823971 0 4.1982104305392949e-05 0.020046039436137714 0 -0.00013213559057039445 0.019982378157823971 0 -4.101407128411721e-05 0.019990226723318138 0 0.0016110692691783327 0.024257978913798127 0 0.0013909412776816836 0.026413392704484062 0 0.0013909412776816836 0.026413392704484062 0 0.0013588373584027325 0.028102268767508657 0 -0.00015388453814647993 0.023669207749518584 0 0.00022861627366536918 0.024877050779894889 0 0.00032263489732337487 0.0247078407031345 0 0.00053667661021691924 0.021471792657275206 0 0.0013909412776816836 0.026413392704484062 0 0.00099764985729651847 0.023097042874451496 0 -0.00015388453814647993 0.023669207749518584 0 0.00070876529581746838 0.023968134471396729 0 -0.00015388453814647993 0.023669207749518584 0 0.00070876529581746838 0.023968134471396729 0 0.00032263489732337487 0.0247078407031345 0 0.0021538566083363297 0.022530368229926594 0 0.00099764985729651847 0.023097042874451496 0 0.0017418411073049907 0.024500658528379807 0 0.00099764985729651847 0.023097042874451496 0 0.00070876529581746838 0.023968134471396729 0 0.0017418411073049907 0.024500658528379807 0 0.00070876529581746838 0.023968134471396729 0 0.00032263489732337487 0.0247078407031345 0 0.0017418411073049907 0.024500658528379807 0 0.00063757720596955138 0.025181183782055701 0 0.00050605545028955721 0.022019720832883064 0 0.00080101851764835118 0.022301000419457442 0 -0.00066245984469982247 0.022913238017416779 0 -0.00054554502186752952 0.023279456193261851 0 0.00032263489732337487 0.0247078407031345 0 0.00041387905535705133 0.025458401755907266 0 0.0017418411073049907 0.024500658528379807 0 0.00080101851764835118 0.022301000419457442 0 -0.00066245984469982247 0.022913238017416779 0 0.00090954080857711317 0.021802764615669167 0 0.00020530296703860613 0.020473673571156308 0 0.00050605545028955721 0.022019720832883064 0 0.00020530296703860613 0.020473673571156308 0 -0.00060987717587732213 0.022099341326578963 0 0.00020530296703860613 0.020473673571156308 0 -0.00012507789172629678 0.020040978672921136 0 0.0013588373584027325 0.028102268767508657 0 0.0014990569878264748 0.029698315486364337 0 0.0023647799140513598 0.031741609076540694 0 0.0029382678773569194 0.031594297261253866 0 0.0025680291250819495 0.032259358123990375 0 0.0023647799140513598 0.031741609076540694 0 0.0027252669372352907 0.030929089900635916 0 0.0029382678773569194 0.031594297261253866 0 0.0016044105053861248 0.027131929330575642 0 0.0018090699295168129 0.02777253313828151 0 0.00085183494385022171 0.028454535167403157 0 0.0013588373584027325 0.028102268767508657 0 0.0014844853788210947 0.02753980635632711 0 0.0013588373584027325 0.028102268767508657 0 0.00063757720596955138 0.025181183782055701 0 0.00022752302329201332 0.024875362159015889 0 0.00032263489732337487 0.0247078407031345 0 0.00041387905535705133 0.025458401755907266 0 0.00013258643184747154 0.026111849814151034 0 0.0014586120773959796 0.025682773638015674 0 -0.00040230043364038648 0.027061604807970485 0 -0.0010972735659512986 0.020597421649078688 0 -0.0013396707655979724 0.021552164194638398 0 -0.0023253973818845547 0.02145167968366455 0 -0.00060987717587732213 0.022099341326578963 0 0.00069231992583584034 0.027749723868607763 0 0.00063757720596955138 0.025181183782055701 0 0.0014990569878264748 0.029698315486364337 0 0.0013224345910003506 0.025256799510304951 0 0.00013258643184747154 0.026111849814151034 0 0.0014586120773959796 0.025682773638015674 0 0.00063757720596955138 0.025181183782055701 0 -0.00060987717587732213 0.022099341326578963 0 -2.4531762261134719e-05 0.019395779263784316 0 -0.0011838592516865199 0.020213796494879373 0 -0.00026041335120016647 0.020471451383568724 0 -0.0011838592516865199 0.020213796494879373 0 -0.00026041335120016647 0.020471451383568724 0 -0.0001884180359536245 0.021237020100618745 0 -0.00026041335120016647 0.020471451383568724 0 0.00060064117279339468 0.021188500502185816 0 -0.0001884180359536245 0.021237020100618745 0 -0.00026041335120016647 0.020471451383568724 0 0.0007233738039281321 0.020252064217727361 0 0.00060064117279339468 0.021188500502185816 0 0.0007233738039281321 0.020252064217727361 0 0.001702437684488326 0.021032775451663752 0 0.00060064117279339468 0.021188500502185816 0 -3.4128078567450644e-05 0.01938163217070497 0 -0.00026041335120016647 0.020471451383568724 0 0.0007233738039281321 0.020252064217727361 0 0.0007233738039281321 0.020252064217727361 0 0.001702437684488326 0.021032775451663752 0 0.0018334677413394157 0.020109574494845406 0 0.0026106230032679461 0.02060346567494202 0 0.001702437684488326 0.021032775451663752 0 0.0018334677413394157 0.020109574494845406 0 0.0007233738039281321 0.020252064217727361 0 0.0018334677413394157 0.020109574494845406 0 0.0012921525302364014 0.019482758066579193 0 0.0024458673650683172 0.019528757201137843 0 0.0018334677413394157 0.020109574494845406 0 0.0012921525302364014 0.019482758066579193 0 0.0024458673650683172 0.019528757201137843 0 0.0021408234719915297 0.018731614789247893 0 0.0012921525302364014 0.019482758066579193 0 -3.4128078567450644e-05 0.01938163217070497 0 0.0007233738039281321 0.020252064217727361 0 0.0012921525302364014 0.019482758066579193 0 0.0015112101306377745 0.018268342246664713 0 -3.4128078567450644e-05 0.01938163217070497 0 0.0012921525302364014 0.019482758066579193 0 0.0011595105632185758 0.022840903519121263 0 0.0012725370983048313 0.021897875971662633 0 0.00040107502409102516 0.022100293070330904 0 7.6965308094102076e-05 0.023103587535028319 0 0.0011595105632185758 0.022840903519121263 0 0.00040107502409102516 0.022100293070330904 0 7.6965308094102076e-05 0.023103587535028319 0 0.0011595105632185758 0.022840903519121263 0 0.0011331444499793322 0.023724719320691146 0 0.0011595105632185758 0.022840903519121263 0 0.0019830456850841826 0.022973695403870908 0 0.0011331444499793322 0.023724719320691146 0 0.0022553213447421691 0.022693172828659219 0 0.0021697622271988539 0.023242157708387206 0 0.0019830456850841826 0.022973695403870908 0 0.0015281538312225324 0.017224387937134055 0 0.0027513436399799894 0.020217923082404294 0 0.0022553213447421691 0.022693172828659219 0 0.0019830456850841826 0.022973695403870908 0 0.0018370205411048415 0.022382408345666599 0 0.0022553213447421691 0.022693172828659219 0 0.0024596859163054153 0.02187089795624331 0 0.0018370205411048415 0.022382408345666599 0 0.0011595105632185758 0.022840903519121263 0 0.0018370205411048415 0.022382408345666599 0 0.0012725370983048313 0.021897875971662633 0 0.0011595105632185758 0.022840903519121263 0 0.0019830456850841826 0.022973695403870908 0 0.0018370205411048415 0.022382408345666599 0 0.0018370205411048415 0.022382408345666599 0 0.0012725370983048313 0.021897875971662633 0 0.0018182294555637694 0.021797121583117959 0 0.001702437684488326 0.021032775451663752 0 0.0012725370983048313 0.021897875971662633 0 0.00060064117279339468 0.021188500502185816 0 0.0024596859163054153 0.02187089795624331 0 0.0018370205411048415 0.022382408345666599 0 0.0018182294555637694 0.021797121583117959 0 0.0024596859163054153 0.02187089795624331 0 0.001702437684488326 0.021032775451663752 0 0.0018182294555637694 0.021797121583117959 0 0.001702437684488326 0.021032775451663752 0 0.0012725370983048313 0.021897875971662633 0 0.0018182294555637694 0.021797121583117959 0 0.0012725370983048313 0.021897875971662633 0 0.00040107502409102516 0.022100293070330904 0 0.00060064117279339468 0.021188500502185816 0 0.00040107502409102516 0.022100293070330904 0 0.00060064117279339468 0.021188500502185816 0 -0.0001884180359536245 0.021237020100618745 0 -0.0010972735659512986 0.020597421649078688 0 -0.00054231260519759276 0.022178104131857144 0 -0.0013396707655979724 0.021552164194638398 0 -0.00060987717587732213 0.022099341326578963 0 -0.000802657470385146 0.021372173387290801 0 -0.0011838592516865199 0.020213796494879373 0 -0.0001884180359536245 0.021237020100618745 0 -0.00054231260519759276 0.022178104131857144 0 0.00040107502409102516 0.022100293070330904 0 -0.0001884180359536245 0.021237020100618745 0 -0.00054231260519759276 0.022178104131857144 0 -0.00054231260519759276 0.022178104131857144 0 -0.0013396707655979724 0.021552164194638398 0 -0.0016326826095604454 0.0222966759595963 0 -0.0013396707655979724 0.021552164194638398 0 -0.0016326826095604454 0.0222966759595963 0 -0.0023253973818845547 0.02145167968366455 0 -0.00054231260519759276 0.022178104131857144 0 -0.0016326826095604454 0.0222966759595963 0 -0.0011190097459870794 0.022934225106099194 0 -0.0016326826095604454 0.0222966759595963 0 -0.001924897654146831 0.022949730023747252 0 -0.0023227417676861539 0.022607300686290348 0 -0.0016326826095604454 0.0222966759595963 0 -0.001924897654146831 0.022949730023747252 0 -0.0011190097459870794 0.022934225106099194 0 -0.0011190097459870794 0.022934225106099194 0 -0.00075095476178461268 0.023700966685187511 0 -0.0017723452453512925 0.023699787494412587 0 -0.001924897654146831 0.022949730023747252 0 -0.0017723452453512925 0.023699787494412587 0 -0.0024452210434774569 0.023327271635113112 0 -0.001924897654146831 0.022949730023747252 0 -0.0011190097459870794 0.022934225106099194 0 -0.0017723452453512925 0.023699787494412587 0 7.6965308094102076e-05 0.023103587535028319 0 -0.0011190097459870794 0.022934225106099194 0 -0.00075095476178461268 0.023700966685187511 0 7.6965308094102076e-05 0.023103587535028319 0 -0.00054231260519759276 0.022178104131857144 0 -0.0011190097459870794 0.022934225106099194 0 7.6965308094102076e-05 0.023103587535028319 0 0.00040107502409102516 0.022100293070330904 0 -0.00054231260519759276 0.022178104131857144 0 -0.0014759953096122724 0.027822367360399988 0 0.00012091234188825798 0.024311066692149073 0 -0.00063337525843784766 0.023772132640340279 0 0.00012091234188825798 0.024311066692149073 0 -0.00075095476178461268 0.023700966685187511 0 -0.001610244068017082 0.024992049941241185 0 0.00019510634329443117 0.024268934525419856 0 7.6965308094102076e-05 0.023103587535028319 0 -0.00075095476178461268 0.023700966685187511 0 0.00010631220600270335 0.024148917869615517 0 -0.00075095476178461268 0.023700966685187511 0 -0.0017723452453512925 0.023699787494412587 0 -0.001610244068017082 0.024992049941241185 0 -0.0017723452453512925 0.023699787494412587 0 -0.001610244068017082 0.024992049941241185 0 -0.0028242423924339823 0.024323562584585474 0 -0.0012396111504099742 0.029876083486922451 0 -0.00082554452667548946 0.030198291916049395 0 -0.0014315524852442322 0.030457843878628651 0 -0.0012396111504099742 0.029876083486922451 0 -0.00082554452667548946 0.030198291916049395 0 -0.00036712308181285745 0.029523728088956324 0 -0.00082554452667548946 0.030198291916049395 0 -0.00036712308181285745 0.029523728088956324 0 -0.00029215966549394403 0.030306273273200773 0 -0.00036712308181285745 0.029523728088956324 0 0.00029765574440252722 0.029945864257405416 0 -0.00029215966549394403 0.030306273273200773 0 0.00012091234188825798 0.024311066692149073 0 0.00053935998072205749 0.025169804705130021 0 0.0008089915479889691 0.020437761002559732 0 0.00085765705425128516 0.020390082488624284 0 0.00087621358499800743 0.020433971775039517 0 0.00012091234188825798 0.024311066692149073 0 0.00088572435758334331 0.022007976398513377 0 7.6965308094102076e-05 0.023103587535028319 0 0.00010631220600270335 0.024148917869615517 0 0.0011331444499793322 0.023724719320691146 0 0.00085765705425128516 0.020390082488624284 0 0.00089716450650441956 0.020396778052343741 0 0.00087621358499800743 0.020433971775039517 0 0.00089832935037237999 0.020350576413336423 0 0.00085765705425128516 0.020390082488624284 0 0.00089716450650441956 0.020396778052343741 0 0.0021842732199860932 0.023273847141777975 0 0.0019830456850841826 0.022973695403870908 0 0.0011331444499793322 0.023724719320691146 0 0.0015281538312225324 0.017224387937134055 0 0.00088572435758334331 0.022007976398513377 0 0.00091379412691679402 0.020412881917301458 0 0.00089716450650441956 0.020396778052343741 0 0.00087621358499800743 0.020433971775039517 0 0.0012443383615260803 0.026086501195806411 0 0.00053935998072205749 0.025169804705130021 0 0.00065388223832787105 0.030651461370932501 0 0.00029765574440252722 0.029945864257405416 0 0.00018085065421209742 0.030693651835570272 0 0.00065388223832787105 0.030651461370932501 0 0.00089716929137829027 0.030318246821701131 0 0.00029765574440252722 0.029945864257405416 0 0.00029765574440252722 0.029945864257405416 0 0.00018085065421209742 0.030693651835570272 0 -0.00029215966549394403 0.030306273273200773 0 0.00018085065421209742 0.030693651835570272 0 -0.00029215966549394403 0.030306273273200773 0 -0.00029714780875772186 0.030816131052416072 0 -0.00029714780875772186 0.030816131052416072 0 -6.3268738123347293e-05 0.031404423425290394 0 -0.00066158993198305006 0.031185543024005571 0 0.00018085065421209742 0.030693651835570272 0 -0.00029714780875772186 0.030816131052416072 0 -6.3268738123347293e-05 0.031404423425290394 0 -0.00041600198617927267 0.032167974762164875 0 -0.00055115823391509785 0.031533440221581728 0 0.00070901010433814765 0.031057883307566498 0 0.00018085065421209742 0.030693651835570272 0 -6.3268738123347293e-05 0.031404423425290394 0 0.00070901010433814765 0.031057883307566498 0 0.00065388223832787105 0.030651461370932501 0 0.00018085065421209742 0.030693651835570272 0 -0.0014937742661814816 0.031816101338781544 0 -0.0013225080308415431 0.031642118068057015 0 -0.0010585335755534029 0.031839503983175123 0 -0.0013225080308415431 0.031642118068057015 0 -0.0010585335755534029 0.031839503983175123 0 -0.0010267268881515035 0.031727556174921956 0 -0.0010585335755534029 0.031839503983175123 0 -0.0010267268881515035 0.031727556174921956 0 -0.00090416479315865675 0.031922760877224669 0 -0.0013225080308415431 0.031642118068057015 0 -0.0010267268881515035 0.031727556174921956 0 -0.0010213871658353497 0.031350917223623438 0 -0.0010267268881515035 0.031727556174921956 0 -0.00090416479315865675 0.031922760877224669 0 -0.0010213871658353497 0.031350917223623438 0 -0.0013719514502660713 0.031364403102786931 0 -0.001398183719664851 0.031125660372382669 0 -0.0010213871658353497 0.031350917223623438 0 -0.0013225080308415431 0.031642118068057015 0 -0.0013719514502660713 0.031364403102786931 0 -0.0010213871658353497 0.031350917223623438 0 -0.0015729659184785232 0.031305868168118832 0 -0.0013719514502660713 0.031364403102786931 0 -0.001398183719664851 0.031125660372382669 0 -0.0015729659184785232 0.031305868168118832 0 -0.0014672041059635771 0.031475335590355417 0 -0.0013719514502660713 0.031364403102786931 0 -0.0014672041059635771 0.031475335590355417 0 -0.0013225080308415431 0.031642118068057015 0 -0.0013719514502660713 0.031364403102786931 0 -0.0014672041059635771 0.031475335590355417 0 -0.0015777290431469252 0.031611958379858772 0 -0.0013225080308415431 0.031642118068057015 0 -0.0013109104562831386 0.032549130517279055 0 -0.001151385241584217 0.032042709535787077 0 -0.001592280518019777 0.031908402737752049 0 -0.0013109104562831386 0.032549130517279055 0 -0.0010315899336018172 0.032364302151804691 0 -0.0010345843581400288 0.032698994947847282 0 -0.0013109104562831386 0.032549130517279055 0 -0.0010315899336018172 0.032364302151804691 0 -0.001151385241584217 0.032042709535787077 0 -0.00094817401755233782 0.031902403999890777 0 -0.00092523275993760786 0.031997926480548243 0 -0.0010315899336018172 0.032364302151804691 0 -0.00090416479315865675 0.031922760877224669 0 -0.00078703148728169069 0.032680493686894553 0 -0.0010315899336018172 0.032364302151804691 0 -0.00090416479315865675 0.031922760877224669 0 -0.001151385241584217 0.032042709535787077 0 -0.00055115823391509785 0.031533440221581728 0 -0.00095747245545536788 0.031811738710421554 0 -6.3268738123347293e-05 0.031404423425290394 0 -0.00095658751646465062 0.031807842173292938 0 -0.00066158993198305006 0.031185543024005571 0 -0.0010585335755534029 0.031839503983175123 0 -0.00090416479315865675 0.031922760877224669 0 -0.00095658751646465062 0.031807842173292938 0 -0.00090416479315865675 0.031922760877224669 0 -0.00095658751646465062 0.031807842173292938 0 -0.001151385241584217 0.032042709535787077 0 -0.00095658751646465062 0.031807842173292938 0 -0.0012929597436623867 0.031638413098922964 0 -0.0011657448906392542 0.031233157112388405 0 -0.00095658751646465062 0.031807842173292938 0 -0.001151385241584217 0.032042709535787077 0 -0.0012929597436623867 0.031638413098922964 0 -0.001151385241584217 0.032042709535787077 0 -0.0012929597436623867 0.031638413098922964 0 -0.001592280518019777 0.031908402737752049 0 -0.0012929597436623867 0.031638413098922964 0 -0.0011657448906392542 0.031233157112388405 0 -0.0016817227103364885 0.0311893658256647 0 -0.0011657448906392542 0.031233157112388405 0 -0.00087043867885702123 0.030724398571271204 0 -0.0013819480489971744 0.0308850833923777 0 -0.0011657448906392542 0.031233157112388405 0 -0.0013819480489971744 0.0308850833923777 0 -0.0016817227103364885 0.0311893658256647 0 -0.00029714780875772186 0.030816131052416072 0 -0.00066158993198305006 0.031185543024005571 0 -0.00087043867885702123 0.030724398571271204 0 -0.00095658751646465062 0.031807842173292938 0 -0.0011657448906392542 0.031233157112388405 0 -0.00066158993198305006 0.031185543024005571 0 -0.0011657448906392542 0.031233157112388405 0 -0.00066158993198305006 0.031185543024005571 0 -0.00087043867885702123 0.030724398571271204 0 -0.00082554452667548946 0.030198291916049395 0 -0.00029215966549394403 0.030306273273200773 0 -0.00087043867885702123 0.030724398571271204 0 -0.00029215966549394403 0.030306273273200773 0 -0.00029714780875772186 0.030816131052416072 0 -0.00087043867885702123 0.030724398571271204 0 -0.00082554452667548946 0.030198291916049395 0 -0.00087043867885702123 0.030724398571271204 0 -0.0014315524852442322 0.030457843878628651 0 -0.00087043867885702123 0.030724398571271204 0 -0.0013819480489971744 0.0308850833923777 0 -0.0014315524852442322 0.030457843878628651 0 -0.0014315524852442322 0.030457843878628651 0 -0.0018606588686451984 0.030733597294575584 0 -0.0021147592099357102 0.030243290801536836 0 -0.0013819480489971744 0.0308850833923777 0 -0.0014315524852442322 0.030457843878628651 0 -0.0018606588686451984 0.030733597294575584 0 -0.0023149887664355097 0.030901831552771125 0 -0.0029912402079492698 0.030599882959759676 0 -0.0021147592099357102 0.030243290801536836 0 -0.0018606588686451984 0.030733597294575584 0 -0.0023149887664355097 0.030901831552771125 0 -0.0021147592099357102 0.030243290801536836 0 -0.0014046379415357123 0.032142239296645385 0 -0.0031585739413118748 0.027562885776128407 0 -0.0023149887664355097 0.030901831552771125 0 -0.0020451432732228325 0.031600278710610885 0 -0.002616493015698957 0.031457094072701725 0 -0.0023149887664355097 0.030901831552771125 0 -0.0016817227103364885 0.0311893658256647 0 -0.0020451432732228325 0.031600278710610885 0 -0.0018606588686451984 0.030733597294575584 0 -0.0023149887664355097 0.030901831552771125 0 -0.0016817227103364885 0.0311893658256647 0 -0.0013819480489971744 0.0308850833923777 0 -0.0018606588686451984 0.030733597294575584 0 -0.0016817227103364885 0.0311893658256647 0 -0.0016817227103364885 0.0311893658256647 0 -0.001592280518019777 0.031908402737752049 0 -0.0020451432732228325 0.031600278710610885 0 -0.0012929597436623867 0.031638413098922964 0 -0.0016817227103364885 0.0311893658256647 0 -0.001592280518019777 0.031908402737752049 0 -0.001592280518019777 0.031908402737752049 0 -0.0020451432732228325 0.031600278710610885 0 -0.0021649382333601627 0.03232144149217249 0 -0.0020451432732228325 0.031600278710610885 0 -0.0021649382333601627 0.03232144149217249 0 -0.002616493015698957 0.031457094072701725 0 -0.0017239836982041418 0.033105365438553115 0 -0.0019418911355375389 0.032888139682376 0 -0.0013109104562831386 0.032549130517279055 0 -0.001592280518019777 0.031908402737752049 0 -0.0021649382333601627 0.03232144149217249 0 -0.00089675045074440705 0.034020808133349893 0 -0.00088419433527612017 0.034144978229229558 0 -0.00065986366961014143 0.03412818058610477 0 -0.0013250512955960971 0.033933329969121982 0 -0.0010695367229091042 0.034041785863610882 0 -0.0010204936796099295 0.033807003299655407 0 -0.00089675045074440705 0.034020808133349893 0 -0.0010695367229091042 0.034041785863610882 0 -0.0010204936796099295 0.033807003299655407 0 -0.00089675045074440705 0.034020808133349893 0 -0.0010695367229091042 0.034041785863610882 0 -0.00097663972529036646 0.034137400495923433 0 -0.0010695367229091042 0.034041785863610882 0 -0.00097663972529036646 0.034137400495923433 0 -0.0011336204796803179 0.034232692931774424 0 -0.0013250512955960971 0.033933329969121982 0 -0.0010695367229091042 0.034041785863610882 0 -0.0011336204796803179 0.034232692931774424 0 -0.00097663972529036646 0.034137400495923433 0 -0.00097438591635015009 0.034216023963430112 0 -0.0011336204796803179 0.034232692931774424 0 -0.0009290522853322719 0.034197905127634758 0 -0.00097663972529036646 0.034137400495923433 0 -0.00088419433527612017 0.034144978229229558 0 -0.0009290522853322719 0.034197905127634758 0 -0.00097663972529036646 0.034137400495923433 0 -0.00097438591635015009 0.034216023963430112 0 -0.00089675045074440705 0.034020808133349893 0 -0.00097663972529036646 0.034137400495923433 0 -0.00088419433527612017 0.034144978229229558 0 -0.00068275307336840589 0.034158959881673903 0 -0.00049636524547853281 0.034313799453237016 0 -0.0009290522853322719 0.034197905127634758 0 -0.00088419433527612017 0.034144978229229558 0 -0.00086031113611099628 0.034182084740293738 0 -0.00049636524547853281 0.034313799453237016 0 -0.00049563074909385774 0.034367623553740373 0 0.00010458109055909686 0.034316629478841273 0 0.00019959561384636328 0.034148868980726381 0 8.0731858447548774e-05 0.034113781603129695 0 -0.0009290522853322719 0.034197905127634758 0 -0.00086031113611099628 0.034182084740293738 0 -0.00095319338259615242 0.034299974519501779 0 -0.0009290522853322719 0.034197905127634758 0 -0.00097438591635015009 0.034216023963430112 0 -0.00095319338259615242 0.034299974519501779 0 0.00019959561384636328 0.034148868980726381 0 8.0731858447548774e-05 0.034113781603129695 0 0.00015494799868435359 0.034044718695111047 0 -0.00097438591635015009 0.034216023963430112 0 -0.00095319338259615242 0.034299974519501779 0 -0.0011336204796803179 0.034232692931774424 0 -0.0019418911355375389 0.032888139682376 0 -0.0014046379415357123 0.032142239296645385 0 -0.00095319338259615242 0.034299974519501779 0 -0.0011336204796803179 0.034232692931774424 0 -0.0010247903290939793 0.034396129215243446 0 -0.0023149887664355097 0.030901831552771125 0 -0.002616493015698957 0.031457094072701725 0 -0.0029912402079492698 0.030599882959759676 0 8.0731858447548774e-05 0.034113781603129695 0 0.00015494799868435359 0.034044718695111047 0 -3.1504893193359016e-06 0.03394509703737475 0 -0.00049563074909385774 0.034367623553740373 0 -0.0014046379415357123 0.032142239296645385 0 0.00019959561384636328 0.034148868980726381 0 0.0002720041045121536 0.033985852915351493 0 0.00015494799868435359 0.034044718695111047 0 -0.0014046379415357123 0.032142239296645385 0 0.00028720998892703669 0.03358752622169494 0 0.00036483693215224179 0.034001204309280587 0 0.00020226989456273035 0.033955198175699176 0 0.00018979834430954824 0.033836888809619145 0 0.00036483693215224179 0.034001204309280587 0 0.00015494799868435359 0.034044718695111047 0 0.00020226989456273035 0.033955198175699176 0 0.00015494799868435359 0.034044718695111047 0 0.00011159124418552455 0.033926930366203423 0 -3.1504893193359016e-06 0.03394509703737475 0 0.00020226989456273035 0.033955198175699176 0 0.00011159124418552455 0.033926930366203423 0 0.00018979834430954824 0.033836888809619145 0 0.00015494799868435359 0.034044718695111047 0 0.00020226989456273035 0.033955198175699176 0 0.00011159124418552455 0.033926930366203423 0 0.00018979834430954824 0.033836888809619145 0 0.00021875476087953645 0.033539061173560779 0 5.5153173284086643e-05 0.033753724366074378 0 0.00011159124418552455 0.033926930366203423 0 0.00018979834430954824 0.033836888809619145 0 5.5153173284086643e-05 0.033753724366074378 0 0.00036483693215224179 0.034001204309280587 0 0.00018979834430954824 0.033836888809619145 0 0.00021875476087953645 0.033539061173560779 0 0.00053374152106463915 0.03425816154022366 0 0.00021875476087953645 0.033539061173560779 0 0.0005529457317241189 0.033779124309993455 0 -0.0014046379415357123 0.032142239296645385 0 0.00088659676487190021 0.034484437853896606 0 0.0002078650745727713 0.033374644336750081 0 0.00015129937801975585 0.033227717929503624 0 0.00081301316718707822 0.032909799744267589 0 0.00021875476087953645 0.033539061173560779 0 0.0002078650745727713 0.033374644336750081 0 5.5153173284086643e-05 0.033753724366074378 0 0.0002078650745727713 0.033374644336750081 0 0.00015129937801975585 0.033227717929503624 0 -7.7714318231926293e-05 0.033750776375320826 0 0.00021875476087953645 0.033539061173560779 0 0.00040425471457575615 0.033449900815587595 0 0.0005529457317241189 0.033779124309993455 0 0.00021875476087953645 0.033539061173560779 0 0.00040425471457575615 0.033449900815587595 0 0.0002078650745727713 0.033374644336750081 0 0.00040425471457575615 0.033449900815587595 0 0.0002078650745727713 0.033374644336750081 0 0.00062117389670941639 0.033302636090926846 0 0.0002078650745727713 0.033374644336750081 0 0.00062117389670941639 0.033302636090926846 0 0.00071871828952300206 0.032749621737202597 0 0.00062117389670941639 0.033302636090926846 0 0.0010039996998776064 0.033590424220096067 0 0.00071871828952300206 0.032749621737202597 0 0.00040425471457575615 0.033449900815587595 0 0.00062117389670941639 0.033302636090926846 0 0.0005529457317241189 0.033779124309993455 0 0.00062117389670941639 0.033302636090926846 0 0.0005529457317241189 0.033779124309993455 0 0.0010039996998776064 0.033590424220096067 0 0.00053374152106463915 0.03425816154022366 0 0.0005529457317241189 0.033779124309993455 0 0.0010039996998776064 0.033590424220096067 0 -0.0014046379415357123 0.032142239296645385 0 -0.0016756386590618716 0.028900804514447192 0 -0.0051830004028722001 0.026527109253736983 0 -0.0033718884434796922 0.025752713672710946 0 -0.0042508858651042992 0.02475213019707485 0 -0.0033718884434796922 0.025752713672710946 0 -0.0028242423924339823 0.024323562584585474 0 -0.0042508858651042992 0.02475213019707485 0 -0.0014759953096122724 0.027822367360399988 0 -0.0031585739413118748 0.027562885776128407 0 -0.0012396111504099742 0.029876083486922451 0 -0.0014315524852442322 0.030457843878628651 0 -0.0021147592099357102 0.030243290801536836 0 -0.001610244068017082 0.024992049941241185 0 -0.0033718884434796922 0.025752713672710946 0 -0.0028242423924339823 0.024323562584585474 0 -0.0017723452453512925 0.023699787494412587 0 -0.0028242423924339823 0.024323562584585474 0 -0.0024452210434774569 0.023327271635113112 0 0.0010039996998776064 0.033590424220096067 0 0.001596974898666582 0.032610770868946586 0 0.00071871828952300206 0.032749621737202597 0 -0.0028242423924339823 0.024323562584585474 0 -0.0042508858651042992 0.02475213019707485 0 -0.0032944184639729268 0.023037776237358792 0 -0.0016756386590618716 0.028900804514447192 0 -0.00089793180616990875 0.027653818937000869 0 0.0014860030706860582 0.032481919213420203 0 0.00079336921264955924 0.032800541623193895 0 0.001596974898666582 0.032610770868946586 0 0.001419049825033055 0.032081524699826655 0 0.00071871828952300206 0.032749621737202597 0 -0.0028242423924339823 0.024323562584585474 0 -0.0032944184639729268 0.023037776237358792 0 -0.0024452210434774569 0.023327271635113112 0 -0.0032944184639729268 0.023037776237358792 0 -0.0024452210434774569 0.023327271635113112 0 -0.0023227417676861539 0.022607300686290348 0 -0.001924897654146831 0.022949730023747252 0 -0.0024452210434774569 0.023327271635113112 0 -0.0023227417676861539 0.022607300686290348 0 0.001596974898666582 0.032610770868946586 0 0.00226063198151647 0.031397882521077163 0 0.001419049825033055 0.032081524699826655 0 -0.00089793180616990875 0.027653818937000869 0 0.00069231992583584034 0.027749723868607763 0 -0.0016326826095604454 0.0222966759595963 0 -0.0023227417676861539 0.022607300686290348 0 -0.0023253973818845547 0.02145167968366455 0 -0.0032944184639729268 0.023037776237358792 0 -0.0023227417676861539 0.022607300686290348 0 -0.0023253973818845547 0.02145167968366455 0 0.00069231992583584034 0.027749723868607763 0 0.0014860030706860582 0.032481919213420203 0 0.002369847442457496 0.031662509647132929 0 0.0015629395275645682 0.032313605642226587 0 0.0016939006234712799 0.031902990445174619 0 0.0018310702973203131 0.032786426427985148 0 0.0013637538738098883 0.032785896214410061 0 0.0011373847116260959 0.033248727191518189 0 0.0018416576191601702 0.03254169222345827 0 0.00098691339655586764 0.032904222530142281 0 0.0015629395275645682 0.032313605642226587 0 0.0016939006234712799 0.031902990445174619 0 0.00082460082585379593 0.032618722471519743 0 0.0015689014166698255 0.032398153324243492 0 0.0018310702973203131 0.032786426427985148 0 0.0013637538738098883 0.032785896214410061 0 0.0011709579146241306 0.03256532820536702 0 0.0013637538738098883 0.032785896214410061 0 0.001118930814565226 0.032914103322258415 0 0.0013637538738098883 0.032785896214410061 0 0.001118930814565226 0.032914103322258415 0 0.0011373847116260959 0.033248727191518189 0 0.001118930814565226 0.032914103322258415 0 0.00090566002031328217 0.033071970143153197 0 0.0011373847116260959 0.033248727191518189 0 0.001118930814565226 0.032914103322258415 0 0.00090566002031328217 0.033071970143153197 0 0.00087006616018065494 0.032855371337230474 0 0.00078269810742158765 0.032525964117366746 0 0.0011709579146241306 0.03256532820536702 0 0.00087006616018065494 0.032855371337230474 0 0.0011709579146241306 0.03256532820536702 0 0.001118930814565226 0.032914103322258415 0 0.00087006616018065494 0.032855371337230474 0 0.00078269810742158765 0.032525964117366746 0 0.00087006616018065494 0.032855371337230474 0 0.00048087262968686111 0.032906845992083308 0 0.00048087262968686111 0.032906845992083308 0 0.00066336574586019095 0.033079540606101986 0 0.00036129528062711549 0.033277442965665163 0 0.00087006616018065494 0.032855371337230474 0 0.00048087262968686111 0.032906845992083308 0 0.00066336574586019095 0.033079540606101986 0 0.00090566002031328217 0.033071970143153197 0 0.00087006616018065494 0.032855371337230474 0 0.00066336574586019095 0.033079540606101986 0 0.00090566002031328217 0.033071970143153197 0 0.00066336574586019095 0.033079540606101986 0 0.00071331695308624976 0.033278154686142092 0 0.00047953503067038491 0.033617527340767749 0 0.00071331695308624976 0.033278154686142092 0 0.0011373847116260959 0.033248727191518189 0 0.00066336574586019095 0.033079540606101986 0 0.00071331695308624976 0.033278154686142092 0 0.00036129528062711549 0.033277442965665163 0 0.00047953503067038491 0.033617527340767749 0 0.00071331695308624976 0.033278154686142092 0 0.00036129528062711549 0.033277442965665163 0 0.00033398371673340759 0.033416238059639697 0 0.00098691339655586764 0.032904222530142281 0 0.00015129937801975585 0.033227717929503624 0 0.00081301316718707822 0.032909799744267589 0 0.00082460082585379593 0.032618722471519743 0 0.0015629395275645682 0.032313605642226587 0 0.00081301316718707822 0.032909799744267589 0 0.00082460082585379593 0.032618722471519743 0 0.00024166582988041646 0.03331470106944194 0 0.00079336921264955924 0.032800541623193895 0 0.00090566002031328217 0.033071970143153197 0 0.00071331695308624976 0.033278154686142092 0 0.0011373847116260959 0.033248727191518189 0 8.9794199938029973e-05 0.03356501906333402 0 -2.7944170733334797e-05 0.033395252692123137 0 -0.00023292755086187655 0.033698895653040864 0 -2.7944170733334797e-05 0.033395252692123137 0 -0.00040520661598418691 0.033389657542269913 0 -0.00023292755086187655 0.033698895653040864 0 0.00036129528062711549 0.033277442965665163 0 -2.7944170733334797e-05 0.033395252692123137 0 0.0001809811724244977 0.033061698858069526 0 0.00036129528062711549 0.033277442965665163 0 8.9794199938029973e-05 0.03356501906333402 0 -2.7944170733334797e-05 0.033395252692123137 0 0.00047953503067038491 0.033617527340767749 0 0.00036129528062711549 0.033277442965665163 0 8.9794199938029973e-05 0.03356501906333402 0 -5.9246347563200078e-05 0.032651009526959124 0 -2.7944170733334797e-05 0.033395252692123137 0 0.0001809811724244977 0.033061698858069526 0 -5.9246347563200078e-05 0.032651009526959124 0 0.00048087262968686111 0.032906845992083308 0 0.0001809811724244977 0.033061698858069526 0 0.00048087262968686111 0.032906845992083308 0 0.00036129528062711549 0.033277442965665163 0 0.0001809811724244977 0.033061698858069526 0 -5.9246347563200078e-05 0.032651009526959124 0 -2.7944170733334797e-05 0.033395252692123137 0 -0.00040520661598418691 0.033389657542269913 0 -0.00061938038024599148 0.03269919953425051 0 -5.9246347563200078e-05 0.032651009526959124 0 -0.00040520661598418691 0.033389657542269913 0 -0.00061938038024599148 0.03269919953425051 0 -0.00040520661598418691 0.033389657542269913 0 -0.00080873457713160615 0.033222248880143378 0 -0.00040520661598418691 0.033389657542269913 0 -0.00080873457713160615 0.033222248880143378 0 -0.00060503556294113422 0.034040983789567006 0 -0.00080873457713160615 0.033222248880143378 0 -0.00060503556294113422 0.034040983789567006 0 -0.00085869581763376216 0.0341666807265599 0 -0.00040520661598418691 0.033389657542269913 0 -0.00045771630410306 0.033776445994874928 0 -0.00023292755086187655 0.033698895653040864 0 -0.00040520661598418691 0.033389657542269913 0 -0.00060503556294113422 0.034040983789567006 0 -0.00045771630410306 0.033776445994874928 0 -0.00045771630410306 0.033776445994874928 0 -0.00040425069255183715 0.033795383540983555 0 -0.00023292755086187655 0.033698895653040864 0 -0.00060503556294113422 0.034040983789567006 0 -0.00045771630410306 0.033776445994874928 0 -0.00040425069255183715 0.033795383540983555 0 -0.00032181745687580668 0.034549246291568393 0 -0.00052752634542091415 0.034396471118472695 0 -0.00049349371298245423 0.034552827693561217 0 -0.00058895181450795728 0.034020255588301081 0 -0.00038868209935876265 0.034165983537921753 0 -0.00060503556294113422 0.034040983789567006 0 -0.00032181745687580668 0.034549246291568393 0 -0.00052752634542091415 0.034396471118472695 0 -0.00060503556294113422 0.034040983789567006 0 -0.00052752634542091415 0.034396471118472695 0 -0.00062508729058213569 0.0343939666490614 0 -0.00032181745687580668 0.034549246291568393 0 -0.00034889024213552531 0.034683447490185065 0 -0.00049349371298245423 0.034552827693561217 0 -0.00032181745687580668 0.034549246291568393 0 -0.0003649060493502857 0.034667515011170276 0 -0.00034889024213552531 0.034683447490185065 0 -0.00038868209935876265 0.034165983537921753 0 -0.00030657321566534467 0.034285054618769698 0 -0.00022357142333595011 0.033923209545540893 0 -0.00023292755086187655 0.033698895653040864 0 -7.7714318231926293e-05 0.033750776375320826 0 8.9794199938029973e-05 0.03356501906333402 0 -0.00023292755086187655 0.033698895653040864 0 -7.7714318231926293e-05 0.033750776375320826 0 -0.00040425069255183715 0.033795383540983555 0 -0.00022357142333595011 0.033923209545540893 0 -0.00023292755086187655 0.033698895653040864 0 0.0002078650745727713 0.033374644336750081 0 -7.7714318231926293e-05 0.033750776375320826 0 5.5153173284086643e-05 0.033753724366074378 0 0.00047953503067038491 0.033617527340767749 0 8.9794199938029973e-05 0.03356501906333402 0 -7.7714318231926293e-05 0.033750776375320826 0 0.00033398371673340759 0.033416238059639697 0 -3.2220653257698945e-05 0.033706556816539848 0 -7.7714318231926293e-05 0.033750776375320826 0 5.5153173284086643e-05 0.033753724366074378 0 -3.1504893193359016e-06 0.03394509703737475 0 -0.00022357142333595011 0.033923209545540893 0 -7.7714318231926293e-05 0.033750776375320826 0 -3.1504893193359016e-06 0.03394509703737475 0 0.00011159124418552455 0.033926930366203423 0 5.5153173284086643e-05 0.033753724366074378 0 -3.1504893193359016e-06 0.03394509703737475 0 -0.00022357142333595011 0.033923209545540893 0 -3.1504893193359016e-06 0.03394509703737475 0 -6.2152523888856664e-05 0.03410723830086939 0 8.0731858447548774e-05 0.034113781603129695 0 -3.1504893193359016e-06 0.03394509703737475 0 -6.2152523888856664e-05 0.03410723830086939 0 -0.00030657321566534467 0.034285054618769698 0 -0.00026830803419948621 0.034412255453186207 0 -0.0003649060493502857 0.034667515011170276 0 -0.0004049132606568485 0.034648898121983754 0 -0.00052505637245820554 0.034676245997393204 0 -0.0004049132606568485 0.034648898121983754 0 -0.00057241439658526131 0.034584713424263148 0 -0.00048395150602165051 0.034510446979593296 0 -0.0004049132606568485 0.034648898121983754 0 -0.00057241439658526131 0.034584713424263148 0 -0.00052505637245820554 0.034676245997393204 0 -0.00075761546975618285 0.034540952383246233 0 -0.00057241439658526131 0.034584713424263148 0 -0.00052505637245820554 0.034676245997393204 0 -0.00049636524547853281 0.034313799453237016 0 -0.00026830803419948621 0.034412255453186207 0 0.00010458109055909686 0.034316629478841273 0 8.0731858447548774e-05 0.034113781603129695 0 -6.2152523888856664e-05 0.03410723830086939 0 -0.00075761546975618285 0.034540952383246233 0 -0.00057241439658526131 0.034584713424263148 0 -0.00048395150602165051 0.034510446979593296 0 -0.00088419433527612017 0.034144978229229558 0 -0.00086944677237510925 0.03416454109688391 0 -0.00065986366961014143 0.03412818058610477 0 -0.00075761546975618285 0.034540952383246233 0 -0.00048395150602165051 0.034510446979593296 0 -0.00065986366961014143 0.03412818058610477 0 -0.00048395150602165051 0.034510446979593296 0 -0.00065986366961014143 0.03412818058610477 0 -0.00034791152618434009 0.034410486633758577 0 -0.00049636524547853281 0.034313799453237016 0 -0.00076470797810989158 0.03415801421578063 0 -0.00022895230878960154 0.034539939226629353 0 -0.00034791152618434009 0.034410486633758577 0 -0.00029558417112774896 0.034627330918589522 0 -0.00048395150602165051 0.034510446979593296 0 -0.00034791152618434009 0.034410486633758577 0 -0.00029558417112774896 0.034627330918589522 0 -0.0004049132606568485 0.034648898121983754 0 -0.00048395150602165051 0.034510446979593296 0 -0.00029558417112774896 0.034627330918589522 0 -0.00029558417112774896 0.034627330918589522 0 -0.00034889024213552531 0.034683447490185065 0 -0.00022527520434081227 0.034728809565360411 0 -0.0004049132606568485 0.034648898121983754 0 -0.00029558417112774896 0.034627330918589522 0 -0.00034889024213552531 0.034683447490185065 0 -0.0003649060493502857 0.034667515011170276 0 -0.0004049132606568485 0.034648898121983754 0 -0.00034889024213552531 0.034683447490185065 0 -0.00034889024213552531 0.034683447490185065 0 -0.00029007095073231315 0.034712512295188833 0 -0.00022527520434081227 0.034728809565360411 0 -0.00022895230878960154 0.034539939226629353 0 -0.00029558417112774896 0.034627330918589522 0 -0.00022527520434081227 0.034728809565360411 0 -0.00022895230878960154 0.034539939226629353 0 -0.00022527520434081227 0.034728809565360411 0 -0.00017676754238937878 0.034691076206199524 0 -0.00022527520434081227 0.034728809565360411 0 -0.00017676754238937878 0.034691076206199524 0 -4.4367386556545055e-07 0.034998955297175775 0 -0.00017676754238937878 0.034691076206199524 0 -4.4367386556545055e-07 0.034998955297175775 0 -9.3640204648450941e-05 0.034825821012677852 0 -4.4367386556545055e-07 0.034998955297175775 0 -3.6064840435856412e-05 0.03489890894160546 0 -9.3640204648450941e-05 0.034825821012677852 0 -0.00029007095073231315 0.034712512295188833 0 -4.4367386556545055e-07 0.034998955297175775 0 -0.00033511071083653596 0.034639479890453219 0 -0.00029007095073231315 0.034712512295188833 0 -0.00022527520434081227 0.034728809565360411 0 -4.4367386556545055e-07 0.034998955297175775 0 -5.6504052498949718e-08 0.034999898110775578 0 -4.4367386556545055e-07 0.034998955297175775 0 -0.00033511071083653596 0.034639479890453219 0 -0.00029007095073231315 0.034712512295188833 0 -0.00049349371298245423 0.034552827693561217 0 -0.00033511071083653596 0.034639479890453219 0 -0.00034889024213552531 0.034683447490185065 0 -0.00029007095073231315 0.034712512295188833 0 -0.00049349371298245423 0.034552827693561217 0 -0.00049349371298245423 0.034552827693561217 0 -0.00062508729058213569 0.0343939666490614 0 -0.00033511071083653596 0.034639479890453219 0 -0.00052752634542091415 0.034396471118472695 0 -0.00049349371298245423 0.034552827693561217 0 -0.00062508729058213569 0.0343939666490614 0 -0.00040245448993314191 0.034783735961644906 0 -0.00033511071083653596 0.034639479890453219 0 -0.00085869581763376216 0.0341666807265599 0 -0.00062508729058213569 0.0343939666490614 0 -0.00033511071083653596 0.034639479890453219 0 -0.00085869581763376216 0.0341666807265599 0 -0.00060503556294113422 0.034040983789567006 0 -0.00062508729058213569 0.0343939666490614 0 -0.00085869581763376216 0.0341666807265599 0 -0.0017968659243531122 0.032547577118646025 0 -0.00080873457713160615 0.033222248880143378 0 -0.00085869581763376216 0.0341666807265599 0 -0.0010704257008006671 0.033669164028182076 0 -0.00088128465385784512 0.034128358741321599 0 -5.6504052498949718e-08 0.034999898110775578 0 -0.00040245448993314191 0.034783735961644906 0 -0.00033511071083653596 0.034639479890453219 0 -0.00010434379720856433 0.034769177741804907 0 -3.5066749819775734e-05 0.034933670395431889 0 -2.5607964983200189e-05 0.034825273125779467 0 -2.260799443455077e-08 0.034999691809286748 0 -3.5066749819775734e-05 0.034933670395431889 0 -2.5607964983200189e-05 0.034825273125779467 0 -0.00010434379720856433 0.034769177741804907 0 -0.00016651346981016858 0.03475016063396473 0 -0.00018944528188495369 0.03462977553681168 0 -0.00016651346981016858 0.03475016063396473 0 -0.00014326560071319143 0.034821619630155835 0 -0.00019077691864976837 0.034720195038464401 0 -0.00010434379720856433 0.034769177741804907 0 -0.00014326560071319143 0.034821619630155835 0 -3.5066749819775734e-05 0.034933670395431889 0 -0.00010434379720856433 0.034769177741804907 0 -0.00016651346981016858 0.03475016063396473 0 -0.00014326560071319143 0.034821619630155835 0 -0.00014260098324689384 0.034818358206460523 0 -0.00012829994831086306 0.034811374331503317 0 -0.00014326560071319143 0.034821619630155835 0 -0.00017648003340807258 0.034636429970602553 0 -0.00021103824672970777 0.034651577857637728 0 -0.00014326560071319143 0.034821619630155835 0 -0.00017648003340807258 0.034636429970602553 0 -0.00019077691864976837 0.034720195038464401 0 -0.00017648003340807258 0.034636429970602553 0 -0.00021103824672970777 0.034651577857637728 0 -0.00018847787788447021 0.034628744026364941 0 -2.260799443455077e-08 0.034999691809286748 0 -3.5066749819775734e-05 0.034933670395431889 0 -3.4005775408476448e-11 0.034999923867532118 0 -5.2922395582380958e-05 0.034971849060139934 0 -3.5066749819775734e-05 0.034933670395431889 0 -3.4005775408476448e-11 0.034999923867532118 0 -0.00014326560071319143 0.034821619630155835 0 -5.2922395582380958e-05 0.034971849060139934 0 -3.5066749819775734e-05 0.034933670395431889 0 -4.4367386556545055e-07 0.034998955297175775 0 -3.4005775408476448e-11 0.034999923867532118 0 -3.6064840435856412e-05 0.03489890894160546 0 -0.00012829994831086306 0.034811374331503317 0 -7.9145014462235515e-05 0.034821764505354888 0 -5.2922395582380958e-05 0.034971849060139934 0 -1.750040621351236e-05 0.034989346257925935 0 -3.4005775408476448e-11 0.034999923867532118 0 -0.00021103824672970777 0.034651577857637728 0 -0.00013606284203934897 0.034643159142266552 0 -0.00018847787788447021 0.034628744026364941 0 -0.00013606284203934897 0.034643159142266552 0 -3.6064840435856412e-05 0.03489890894160546 0 -0.00019194382255038715 0.034680481863025241 0 -7.9145014462235515e-05 0.034821764505354888 0 -3.9363422920907065e-05 0.034891825009554504 0 -1.750040621351236e-05 0.034989346257925935 0 -3.4005775408476448e-11 0.034999923867532118 0 -3.6064840435856412e-05 0.03489890894160546 0 -3.6064840435856412e-05 0.03489890894160546 0 -9.3640204648450941e-05 0.034825821012677852 0 -0.00019194382255038715 0.034680481863025241 0 -0.00017676754238937878 0.034691076206199524 0 -0.00021678427358256787 0.034546465668919599 0 -0.00019194382255038715 0.034680481863025241 0 -0.00022895230878960154 0.034539939226629353 0 -0.00017676754238937878 0.034691076206199524 0 -0.00021678427358256787 0.034546465668919599 0 -0.00017676754238937878 0.034691076206199524 0 -9.3640204648450941e-05 0.034825821012677852 0 -0.00019194382255038715 0.034680481863025241 0 -0.00021678427358256787 0.034546465668919599 0 -0.00019194382255038715 0.034680481863025241 0 -0.00023632646121157241 0.034561942833751913 0 -0.00019194382255038715 0.034680481863025241 0 -0.00021181945387575442 0.034621615914038922 0 -0.00023632646121157241 0.034561942833751913 0 -0.00013606284203934897 0.034643159142266552 0 -0.00019194382255038715 0.034680481863025241 0 -0.00018847787788447021 0.034628744026364941 0 -0.00019194382255038715 0.034680481863025241 0 -0.00021181945387575442 0.034621615914038922 0 -0.00018847787788447021 0.034628744026364941 0 -0.00017648003340807258 0.034636429970602553 0 -0.00021181945387575442 0.034621615914038922 0 -0.00018847787788447021 0.034628744026364941 0 -0.00017648003340807258 0.034636429970602553 0 -0.00021181945387575442 0.034621615914038922 0 -0.00018988256111463571 0.034632692695803734 0 -0.00041920636496478657 0.033938375512545707 0 -0.00025061550632592898 0.034105770534270219 0 -0.00049147163521974654 0.033245382864410061 0 -0.00029661802012342171 0.033602918561528319 0 -0.00054564511574388137 0.033426513387330464 0 -0.00018988256111463571 0.034632692695803734 0 -0.00033622144961390892 0.034650595431637871 0 -0.00017288112821416381 0.034601666471022273 0 -0.00018988256111463571 0.034632692695803734 0 -0.00017288112821416381 0.034601666471022273 0 -0.00023632646121157241 0.034561942833751913 0 -0.00021181945387575442 0.034621615914038922 0 -0.00018988256111463571 0.034632692695803734 0 -0.00023632646121157241 0.034561942833751913 0 -0.00017288112821416381 0.034601666471022273 0 -0.00023632646121157241 0.034561942833751913 0 -0.00021369518848474183 0.034284015429707583 0 -0.00021678427358256787 0.034546465668919599 0 -0.00023632646121157241 0.034561942833751913 0 -0.00021369518848474183 0.034284015429707583 0 -0.00025061550632592898 0.034105770534270219 0 -0.00021058914466968594 0.034265174657922233 0 -0.00029661802012342171 0.033602918561528319 0 -0.00021369518848474183 0.034284015429707583 0 -0.00059580396973768328 0.033846167785329145 0 -0.00034791152618434009 0.034410486633758577 0 -0.00021369518848474183 0.034284015429707583 0 -0.00059580396973768328 0.033846167785329145 0 -0.00022895230878960154 0.034539939226629353 0 -0.00034791152618434009 0.034410486633758577 0 -0.00021369518848474183 0.034284015429707583 0 -0.00022895230878960154 0.034539939226629353 0 -0.00021678427358256787 0.034546465668919599 0 -0.00021369518848474183 0.034284015429707583 0 -0.00065986366961014143 0.03412818058610477 0 -0.00059580396973768328 0.033846167785329145 0 -0.00082879603150133206 0.033825131559002734 0 -0.00089675045074440705 0.034020808133349893 0 -0.00065986366961014143 0.03412818058610477 0 -0.00082879603150133206 0.033825131559002734 0 -0.00065986366961014143 0.03412818058610477 0 -0.00034791152618434009 0.034410486633758577 0 -0.00059580396973768328 0.033846167785329145 0 -0.00059580396973768328 0.033846167785329145 0 -0.00082339946224950803 0.033587559083237344 0 -0.00082879603150133206 0.033825131559002734 0 -0.00059580396973768328 0.033846167785329145 0 -0.00082339946224950803 0.033587559083237344 0 -0.00074933999864001402 0.033421196010013796 0 -0.00059580396973768328 0.033846167785329145 0 -0.00074933999864001402 0.033421196010013796 0 -0.00054564511574388137 0.033426513387330464 0 -0.00029661802012342171 0.033602918561528319 0 -0.00059580396973768328 0.033846167785329145 0 -0.00054564511574388137 0.033426513387330464 0 -0.00074933999864001402 0.033421196010013796 0 -0.00054564511574388137 0.033426513387330464 0 -0.00069558626755704075 0.033243933211982123 0 -0.00049147163521974654 0.033245382864410061 0 -0.00054564511574388137 0.033426513387330464 0 -0.00069558626755704075 0.033243933211982123 0 -0.00074933999864001402 0.033421196010013796 0 -0.00069558626755704075 0.033243933211982123 0 -0.00082428711793083279 0.033254559584229564 0 -0.00069558626755704075 0.033243933211982123 0 -0.00078642515281340363 0.033134453869574781 0 -0.00082428711793083279 0.033254559584229564 0 -0.00069558626755704075 0.033243933211982123 0 -0.00078642515281340363 0.033134453869574781 0 -0.00069159755372520844 0.033151790130071294 0 -0.00078642515281340363 0.033134453869574781 0 -0.00069159755372520844 0.033151790130071294 0 -0.00072862005718054039 0.033119151367648238 0 -0.00067155656485793128 0.033121234324820274 0 -0.00069159755372520844 0.033151790130071294 0 -0.00072862005718054039 0.033119151367648238 0 -0.00049147163521974654 0.033245382864410061 0 -0.00067155656485793128 0.033121234324820274 0 -0.00069159755372520844 0.033151790130071294 0 -0.00049147163521974654 0.033245382864410061 0 -0.00069558626755704075 0.033243933211982123 0 -0.00069159755372520844 0.033151790130071294 0 -0.00041920636496478657 0.033938375512545707 0 -0.00065262996063657479 0.033581802995810789 0 -0.00018988256111463571 0.034632692695803734 0 -0.00033622144961390892 0.034650595431637871 0 -0.00015378709112291941 0.034555206073223849 0 -0.00033622144961390892 0.034650595431637871 0 -0.00067006351841193831 0.034045976002710712 0 -0.00015378709112291941 0.034555206073223849 0 -0.00017648003340807258 0.034636429970602553 0 -0.00015378709112291941 0.034555206073223849 0 -0.00019077691864976837 0.034720195038464401 0 -0.00017648003340807258 0.034636429970602553 0 -0.00018988256111463571 0.034632692695803734 0 -0.00015378709112291941 0.034555206073223849 0 -0.00015378709112291941 0.034555206073223849 0 -0.00019077691864976837 0.034720195038464401 0 -0.00025358651908898884 0.034748243281000173 0 -0.00067006351841193831 0.034045976002710712 0 -0.00015378709112291941 0.034555206073223849 0 -0.00033812837377787609 0.033561376294600903 0 -0.00016182919554419157 0.03452164600917116 0 -0.00031617408931394427 0.034159164046845866 0 -0.00019077691864976837 0.034720195038464401 0 -0.00025358651908898884 0.034748243281000173 0 -0.00021742576972725279 0.03471805303843787 0 -0.00025358651908898884 0.034748243281000173 0 -0.00021742576972725279 0.03471805303843787 0 -0.00029243797024706915 0.034637497098633903 0 -0.00016651346981016858 0.03475016063396473 0 -0.00019077691864976837 0.034720195038464401 0 -0.00021742576972725279 0.03471805303843787 0 -0.00018944528188495369 0.03462977553681168 0 -0.00029243797024706915 0.034637497098633903 0 -0.00031096893531067137 0.034442075221633166 0 -0.00016651346981016858 0.03475016063396473 0 -0.00021742576972725279 0.03471805303843787 0 -0.00018944528188495369 0.03462977553681168 0 -0.00021742576972725279 0.03471805303843787 0 -0.00018944528188495369 0.03462977553681168 0 -0.00029243797024706915 0.034637497098633903 0 -0.00033812837377787609 0.033561376294600903 0 -0.00074528432640334839 0.033230817882662772 0 -0.00072945960305299189 0.033133798054790504 0 -0.00025358651908898884 0.034748243281000173 0 -0.00029243797024706915 0.034637497098633903 0 -0.00055198511194156817 0.034511379640399298 0 -0.00031617408931394427 0.034159164046845866 0 -0.0006116609811272454 0.033824967029353739 0 -0.00074528432640334839 0.033230817882662772 0 -0.00067150109819802287 0.033176761663171891 0 -0.00072945960305299189 0.033133798054790504 0 -0.00074528432640334839 0.033230817882662772 0 -0.00073021573514009419 0.033118160453353571 0 -0.00067150109819802287 0.033176761663171891 0 -0.00074528432640334839 0.033230817882662772 0 -0.00073021573514009419 0.033118160453353571 0 -0.00072862005718054039 0.033119151367648238 0 -0.00065262996063657479 0.033581802995810789 0 -0.00074229902280493196 0.033265534225324168 0 -0.00067155656485793128 0.033121234324820274 0 -0.00074528432640334839 0.033230817882662772 0 -0.00072862005718054039 0.033119151367648238 0 -0.00067006351841193831 0.034045976002710712 0 -0.00033812837377787609 0.033561376294600903 0 -0.00074528432640334839 0.033230817882662772 0 -0.00092688967688761515 0.033017150940429209 0 -0.00081689179256759514 0.033057292813730731 0 -0.00091636736372709203 0.032936215725400599 0 -0.00073021573514009419 0.033118160453353571 0 -0.00072862005718054039 0.033119151367648238 0 -0.00081689179256759514 0.033057292813730731 0 -0.00073021573514009419 0.033118160453353571 0 -0.00081689179256759514 0.033057292813730731 0 -0.00080624788334793804 0.033016871987687955 0 -0.00073021573514009419 0.033118160453353571 0 -0.00080624788334793804 0.033016871987687955 0 -0.0007131919697007463 0.033099556696658122 0 -0.00081689179256759514 0.033057292813730731 0 -0.00080624788334793804 0.033016871987687955 0 -0.00091636736372709203 0.032936215725400599 0 -0.00080624788334793804 0.033016871987687955 0 -0.00091636736372709203 0.032936215725400599 0 -0.00093264470526850717 0.032857126466730169 0 -0.00091636736372709203 0.032936215725400599 0 -0.0010726837203492718 0.032741560323567717 0 -0.0010087993333202162 0.032935108400344325 0 -0.00091636736372709203 0.032936215725400599 0 -0.0010726837203492718 0.032741560323567717 0 -0.00093264470526850717 0.032857126466730169 0 -0.0010726837203492718 0.032741560323567717 0 -0.0010087993333202162 0.032935108400344325 0 -0.001179560309555842 0.032712423868170359 0 -0.0010087993333202162 0.032935108400344325 0 -0.001117896025067777 0.032927971233459807 0 -0.001179560309555842 0.032712423868170359 0 -0.00092688967688761515 0.033017150940429209 0 -0.00091636736372709203 0.032936215725400599 0 -0.0010087993333202162 0.032935108400344325 0 -0.00092688967688761515 0.033017150940429209 0 -0.0010087993333202162 0.032935108400344325 0 -0.0010463935740687271 0.033064963141289615 0 -0.0010087993333202162 0.032935108400344325 0 -0.0010463935740687271 0.033064963141289615 0 -0.001117896025067777 0.032927971233459807 0 -0.0010463935740687271 0.033064963141289615 0 -0.001117896025067777 0.032927971233459807 0 -0.0011715707544892322 0.033065132001676691 0 -0.0010463935740687271 0.033064963141289615 0 -0.0011547121787586596 0.033127253065741678 0 -0.0011715707544892322 0.033065132001676691 0 -0.0011547121787586596 0.033127253065741678 0 -0.0011872140060347639 0.033098315676506812 0 -0.0011715707544892322 0.033065132001676691 0 -0.0010463935740687271 0.033064963141289615 0 -0.0010693749436558413 0.033157814529264792 0 -0.000921893626945298 0.033098170615088421 0 -0.0010463935740687271 0.033064963141289615 0 -0.0011547121787586596 0.033127253065741678 0 -0.0010693749436558413 0.033157814529264792 0 -0.0010693749436558413 0.033157814529264792 0 -0.00093925419191450224 0.033193081012290807 0 -0.000921893626945298 0.033098170615088421 0 -0.00092688967688761515 0.033017150940429209 0 -0.00081689179256759514 0.033057292813730731 0 -0.000921893626945298 0.033098170615088421 0 -0.00092688967688761515 0.033017150940429209 0 -0.0010463935740687271 0.033064963141289615 0 -0.000921893626945298 0.033098170615088421 0 -0.00078642515281340363 0.033134453869574781 0 -0.00081689179256759514 0.033057292813730731 0 -0.000921893626945298 0.033098170615088421 0 -0.00078642515281340363 0.033134453869574781 0 -0.00072862005718054039 0.033119151367648238 0 -0.00081689179256759514 0.033057292813730731 0 -0.00078642515281340363 0.033134453869574781 0 -0.00093925419191450224 0.033193081012290807 0 -0.000921893626945298 0.033098170615088421 0 -0.00078642515281340363 0.033134453869574781 0 -0.00093925419191450224 0.033193081012290807 0 -0.00082428711793083279 0.033254559584229564 0 -0.00074933999864001402 0.033421196010013796 0 -0.00082428711793083279 0.033254559584229564 0 -0.00091674216835793199 0.033358473788881661 0 -0.00093925419191450224 0.033193081012290807 0 -0.00082428711793083279 0.033254559584229564 0 -0.00091674216835793199 0.033358473788881661 0 -0.00093925419191450224 0.033193081012290807 0 -0.0011077637925030442 0.033277163010735057 0 -0.00091674216835793199 0.033358473788881661 0 -0.0010693749436558413 0.033157814529264792 0 -0.00093925419191450224 0.033193081012290807 0 -0.0011077637925030442 0.033277163010735057 0 -0.0011077637925030442 0.033277163010735057 0 -0.00091674216835793199 0.033358473788881661 0 -0.00098299328962162826 0.033519516574110945 0 -0.00082339946224950803 0.033587559083237344 0 -0.00074933999864001402 0.033421196010013796 0 -0.00091674216835793199 0.033358473788881661 0 -0.00082339946224950803 0.033587559083237344 0 -0.00091674216835793199 0.033358473788881661 0 -0.00098299328962162826 0.033519516574110945 0 -0.00082339946224950803 0.033587559083237344 0 -0.00098299328962162826 0.033519516574110945 0 -0.00082879603150133206 0.033825131559002734 0 -0.0011077637925030442 0.033277163010735057 0 -0.00098299328962162826 0.033519516574110945 0 -0.0011853497977011456 0.033457894079035773 0 -0.0013250512955960971 0.033933329969121982 0 -0.0010204936796099295 0.033807003299655407 0 -0.0011853497977011456 0.033457894079035773 0 -0.00098299328962162826 0.033519516574110945 0 -0.0010204936796099295 0.033807003299655407 0 -0.0011853497977011456 0.033457894079035773 0 -0.00098299328962162826 0.033519516574110945 0 -0.0010204936796099295 0.033807003299655407 0 -0.00082879603150133206 0.033825131559002734 0 -0.00089675045074440705 0.034020808133349893 0 -0.0010204936796099295 0.033807003299655407 0 -0.00082879603150133206 0.033825131559002734 0 -0.0013109104562831386 0.032549130517279055 0 -0.0021649382333601627 0.03232144149217249 0 -0.0015201419487919793 0.033217828877506912 0 -0.0013250512955960971 0.033933329969121982 0 -0.0015201419487919793 0.033217828877506912 0 -0.0011853497977011456 0.033457894079035773 0 -0.0017239836982041418 0.033105365438553115 0 -0.0015593694982224716 0.033221791807545725 0 -0.0011077637925030442 0.033277163010735057 0 -0.0012961357268151919 0.033236579663850213 0 -0.0011853497977011456 0.033457894079035773 0 -0.0015201419487919793 0.033217828877506912 0 -0.0012961357268151919 0.033236579663850213 0 -0.0011853497977011456 0.033457894079035773 0 -0.0015201419487919793 0.033217828877506912 0 -0.0012961357268151919 0.033236579663850213 0 -0.0012805642029413361 0.033144825346350278 0 -0.0015201419487919793 0.033217828877506912 0 -0.0012805642029413361 0.033144825346350278 0 -0.0011924895918700275 0.032959455073167235 0 -0.0012961357268151919 0.033236579663850213 0 -0.0012805642029413361 0.033144825346350278 0 -0.0012142666950096909 0.033180098698336893 0 -0.0012805642029413361 0.033144825346350278 0 -0.0012142666950096909 0.033180098698336893 0 -0.0011872140060347639 0.033098315676506812 0 -0.0011077637925030442 0.033277163010735057 0 -0.0012961357268151919 0.033236579663850213 0 -0.0012142666950096909 0.033180098698336893 0 -0.0010693749436558413 0.033157814529264792 0 -0.0011077637925030442 0.033277163010735057 0 -0.0012142666950096909 0.033180098698336893 0 -0.0011547121787586596 0.033127253065741678 0 -0.0010693749436558413 0.033157814529264792 0 -0.0012142666950096909 0.033180098698336893 0 -0.0011547121787586596 0.033127253065741678 0 -0.0012142666950096909 0.033180098698336893 0 -0.0011872140060347639 0.033098315676506812 0 -0.0011872140060347639 0.033098315676506812 0 -0.0011283191207938691 0.033032683862486929 0 -0.0011470345675672728 0.033060098247759677 0 -0.0011283191207938691 0.033032683862486929 0 -0.0010723330527742118 0.032945510614312411 0 -0.0010864469656867639 0.03300576753616169 0 -0.0011872140060347639 0.033098315676506812 0 -0.0011283191207938691 0.033032683862486929 0 -0.001101903719133931 0.033001146907693894 0 -0.0011283191207938691 0.033032683862486929 0 -0.001101903719133931 0.033001146907693894 0 -0.0010723330527742118 0.032945510614312411 0 -0.0011872140060347639 0.033098315676506812 0 -0.001101903719133931 0.033001146907693894 0 -0.0011092908418246432 0.032998236388341137 0 -0.001101903719133931 0.033001146907693894 0 -0.0010163990654480895 0.032929274257213724 0 -0.0010723330527742118 0.032945510614312411 0 -0.001101903719133931 0.033001146907693894 0 -0.0011092908418246432 0.032998236388341137 0 -0.0010163990654480895 0.032929274257213724 0 -0.0012805642029413361 0.033144825346350278 0 -0.0011872140060347639 0.033098315676506812 0 -0.0011092908418246432 0.032998236388341137 0 -0.0012805642029413361 0.033144825346350278 0 -0.0011924895918700275 0.032959455073167235 0 -0.0011092908418246432 0.032998236388341137 0 -0.0011924895918700275 0.032959455073167235 0 -0.0011092908418246432 0.032998236388341137 0 -0.00099172364903888808 0.032886954785008221 0 -0.0011092908418246432 0.032998236388341137 0 -0.00099172364903888808 0.032886954785008221 0 -0.0010163990654480895 0.032929274257213724 0 -0.0011924895918700275 0.032959455073167235 0 -0.00099172364903888808 0.032886954785008221 0 -0.0010345843581400288 0.032698994947847282 0 -0.00099172364903888808 0.032886954785008221 0 -0.0010345843581400288 0.032698994947847282 0 -0.00078703148728169069 0.032680493686894553 0 -0.0010315899336018172 0.032364302151804691 0 -0.0010345843581400288 0.032698994947847282 0 -0.00078703148728169069 0.032680493686894553 0 -0.0013109104562831386 0.032549130517279055 0 -0.0015201419487919793 0.033217828877506912 0 -0.0011924895918700275 0.032959455073167235 0 -0.0013109104562831386 0.032549130517279055 0 -0.0011924895918700275 0.032959455073167235 0 -0.0010345843581400288 0.032698994947847282 0 -0.00092523275993760786 0.031997926480548243 0 -0.0012653950438320939 0.031781827047053055 0 -0.001398183719664851 0.031125660372382669 0 -0.0010213871658353497 0.031350917223623438 0 -0.0013807338214020439 0.030797303493013718 0 -0.001398183719664851 0.031125660372382669 0 -0.0013807338214020439 0.030797303493013718 0 -0.0016839861196644753 0.030801875552482857 0 -0.00099172364903888808 0.032886954785008221 0 -0.00078703148728169069 0.032680493686894553 0 -0.00094904203147863663 0.032899549762308335 0 -0.00078703148728169069 0.032680493686894553 0 -0.00094904203147863663 0.032899549762308335 0 -0.00099264189158320315 0.032939618663807312 0 -0.00099172364903888808 0.032886954785008221 0 -0.00094904203147863663 0.032899549762308335 0 -0.0010163990654480895 0.032929274257213724 0 -0.00094904203147863663 0.032899549762308335 0 -0.0010249860989411826 0.032896024111098189 0 -0.00099359171926412682 0.032883629002690387 0 -0.00094904203147863663 0.032899549762308335 0 -0.0010163990654480895 0.032929274257213724 0 -0.00099359171926412682 0.032883629002690387 0 -0.00094904203147863663 0.032899549762308335 0 -0.0010147198383244789 0.032901974734119009 0 -0.0010249860989411826 0.032896024111098189 0 -0.00094904203147863663 0.032899549762308335 0 -0.0010147198383244789 0.032901974734119009 0 -0.00099264189158320315 0.032939618663807312 0 -0.0010147198383244789 0.032901974734119009 0 -0.00099264189158320315 0.032939618663807312 0 -0.0011621776723391036 0.032856160750174959 0 -0.0010147198383244789 0.032901974734119009 0 -0.0010249860989411826 0.032896024111098189 0 -0.0011621776723391036 0.032856160750174959 0 -0.0010249860989411826 0.032896024111098189 0 -0.0010031713721763711 0.03274540716897259 0 -0.00195739083652095 0.032248342333533117 0 -0.0011833664543683051 0.03271050668097298 0 -0.0013904506633991753 0.03263393582152941 0 -0.0010249860989411826 0.032896024111098189 0 -0.0011621776723391036 0.032856160750174959 0 -0.0012857216583273222 0.03233274488910097 0 -0.0010249860989411826 0.032896024111098189 0 -0.0010031713721763711 0.03274540716897259 0 -0.00099359171926412682 0.032883629002690387 0 -0.0010163990654480895 0.032929274257213724 0 -0.00099359171926412682 0.032883629002690387 0 -0.0010255677439337686 0.032867280819901236 0 -0.0010031713721763711 0.03274540716897259 0 -0.00099359171926412682 0.032883629002690387 0 -0.0010255677439337686 0.032867280819901236 0 -0.0010031713721763711 0.03274540716897259 0 -0.0010255677439337686 0.032867280819901236 0 -0.0010535576119550145 0.032912526045238595 0 -0.0010163990654480895 0.032929274257213724 0 -0.0010255677439337686 0.032867280819901236 0 -0.0010723330527742118 0.032945510614312411 0 -0.0010535576119550145 0.032912526045238595 0 -0.0010864469656867639 0.03300576753616169 0 -0.0010134900941875919 0.033041724762378363 0 -0.0010255677439337686 0.032867280819901236 0 -0.0010723330527742118 0.032945510614312411 0 -0.0010535576119550145 0.032912526045238595 0 -0.0010723330527742118 0.032945510614312411 0 -0.0010535576119550145 0.032912526045238595 0 -0.0010864469656867639 0.03300576753616169 0 -0.0010031713721763711 0.03274540716897259 0 -0.0010535576119550145 0.032912526045238595 0 -0.0010134900941875919 0.033041724762378363 0 -0.0010031713721763711 0.03274540716897259 0 -0.0012865292267449878 0.031525495783157866 0 -0.00195739083652095 0.032248342333533117 0 -0.0010181513470837135 0.032720838639870645 0 -0.0011613410479151165 0.032290746619948782 0 -0.0012865292267449878 0.031525495783157866 0 -0.0017485821234676012 0.030732166563437632 0 -0.0020253159908313325 0.031172952048138695 0 -0.0010134900941875919 0.033041724762378363 0 -0.0010753389568006555 0.033066828966638942 0 -0.0010784395098552169 0.033070754769097023 0 -0.0011613410479151165 0.032290746619948782 0 -0.0013883304413986578 0.031954827309795049 0 -0.0010784395098552169 0.033070754769097023 0 -0.0010968573541236698 0.033053999801693185 0 -0.0011224591178248574 0.033083838501637236 0 -0.0010864469656867639 0.03300576753616169 0 -0.0010134900941875919 0.033041724762378363 0 -0.0010968573541236698 0.033053999801693185 0 -0.0010134900941875919 0.033041724762378363 0 -0.0010784395098552169 0.033070754769097023 0 -0.0010968573541236698 0.033053999801693185 0 -0.0011283191207938691 0.033032683862486929 0 -0.0010864469656867639 0.03300576753616169 0 -0.0010968573541236698 0.033053999801693185 0 -0.0011283191207938691 0.033032683862486929 0 -0.0010968573541236698 0.033053999801693185 0 -0.0011470345675672728 0.033060098247759677 0 -0.0011872140060347639 0.033098315676506812 0 -0.0011470345675672728 0.033060098247759677 0 -0.0011715707544892322 0.033065132001676691 0 -0.0011470345675672728 0.033060098247759677 0 -0.0011715707544892322 0.033065132001676691 0 -0.0011224591178248574 0.033083838501637236 0 -0.0011622737687916431 0.033062426584799694 0 -0.0012504808575758098 0.032953281239553711 0 -0.001117896025067777 0.032927971233459807 0 -0.0011715707544892322 0.033065132001676691 0 -0.0013517874556116234 0.032859763693446703 0 -0.0010968573541236698 0.033053999801693185 0 -0.0011470345675672728 0.033060098247759677 0 -0.0011224591178248574 0.033083838501637236 0 -0.0013517874556116234 0.032859763693446703 0 -0.0013711318618807586 0.03245285649761017 0 -0.0015933853395877116 0.032524120223897099 0 -0.0013517874556116234 0.032859763693446703 0 -0.001179560309555842 0.032712423868170359 0 -0.0013711318618807586 0.03245285649761017 0 -0.001117896025067777 0.032927971233459807 0 -0.0013517874556116234 0.032859763693446703 0 -0.001179560309555842 0.032712423868170359 0 -0.001179560309555842 0.032712423868170359 0 -0.0013711318618807586 0.03245285649761017 0 -0.0012870280860637167 0.032435409615547861 0 -0.0010726837203492718 0.032741560323567717 0 -0.001179560309555842 0.032712423868170359 0 -0.0012870280860637167 0.032435409615547861 0 -0.0013711318618807586 0.03245285649761017 0 -0.00146291733673846 0.032162344071120168 0 -0.0012870280860637167 0.032435409615547861 0 -0.0015752283805847448 0.032052397264498191 0 -0.0017620568985213672 0.031847910705769207 0 -0.0015933853395877116 0.032524120223897099 0 -0.0013711318618807586 0.03245285649761017 0 -0.0015752283805847448 0.032052397264498191 0 -0.0015933853395877116 0.032524120223897099 0 -0.0013711318618807586 0.03245285649761017 0 -0.0015752283805847448 0.032052397264498191 0 -0.00146291733673846 0.032162344071120168 0 -0.0017620568985213672 0.031847910705769207 0 -0.0020161817214134695 0.031931662835531262 0 -0.0015933853395877116 0.032524120223897099 0 -0.0017484143913671024 0.031810721670218041 0 -0.0012566842011539556 0.032891537074518355 0 -0.0017620568985213672 0.031847910705769207 0 -0.0020285124818721408 0.031422559915110448 0 -0.0020161817214134695 0.031931662835531262 0 -0.0018905088167802395 0.031492494772856552 0 -0.0017484143913671024 0.031810721670218041 0 -0.0010753389568006555 0.033066828966638942 0 -0.0011005668584614869 0.03303042751633925 0 -0.0010773101748039076 0.033067366679830665 0 -0.0013883304413986578 0.031954827309795049 0 -0.0017484143913671024 0.031810721670218041 0 -0.0017485821234676012 0.030732166563437632 0 -0.0021159827985224797 0.030803943273672463 0 -0.0020339061692364459 0.030731547056538088 0 -0.0012504808575758098 0.032953281239553711 0 -0.0012566842011539556 0.032891537074518355 0 -0.0010753389568006555 0.033066828966638942 0 -0.0010784395098552169 0.033070754769097023 0 -0.0010773101748039076 0.033067366679830665 0 -0.0010784395098552169 0.033070754769097023 0 -0.0011224591178248574 0.033083838501637236 0 -0.0010773101748039076 0.033067366679830665 0 -0.0015921560114889666 0.031940114653076244 0 -0.0015974409021979532 0.03182234431268989 0 -0.0014887317667203488 0.032127693354084996 0 -0.0015921560114889666 0.031940114653076244 0 -0.001643788468532728 0.031507301703125455 0 -0.0015974409021979532 0.03182234431268989 0 -0.0015921560114889666 0.031940114653076244 0 -0.0014887317667203488 0.032127693354084996 0 -0.0015046880834436623 0.032192100656930699 0 -0.0014767468121658952 0.03284004317616062 0 -0.0018184784133689175 0.028189736592065372 0 -0.001643788468532728 0.031507301703125455 0 -0.0016760625085511058 0.030514033983437966 0 -0.001982039805641894 0.03094654080750539 0 -0.0015921560114889666 0.031940114653076244 0 -0.001643788468532728 0.031507301703125455 0 -0.0013699474078418207 0.032112046230345102 0 -0.001643788468532728 0.031507301703125455 0 -0.0017822031076124415 0.031564358963273607 0 -0.0015974409021979532 0.03182234431268989 0 -0.001643788468532728 0.031507301703125455 0 -0.0017822031076124415 0.031564358963273607 0 -0.0019990039375521128 0.031174715563166595 0 -0.0017620568985213672 0.031847910705769207 0 -0.0020285124818721408 0.031422559915110448 0 -0.0017822031076124415 0.031564358963273607 0 -0.0020285124818721408 0.031422559915110448 0 -0.0017822031076124415 0.031564358963273607 0 -0.0020203311880070381 0.031220280907412898 0 -0.0015752283805847448 0.032052397264498191 0 -0.0017620568985213672 0.031847910705769207 0 -0.0017822031076124415 0.031564358963273607 0 -0.0015752283805847448 0.032052397264498191 0 -0.0017822031076124415 0.031564358963273607 0 -0.0015974409021979532 0.03182234431268989 0 -0.0015974409021979532 0.03182234431268989 0 -0.00146291733673846 0.032162344071120168 0 -0.0014887317667203488 0.032127693354084996 0 -0.0015752283805847448 0.032052397264498191 0 -0.0015974409021979532 0.03182234431268989 0 -0.00146291733673846 0.032162344071120168 0 -0.00146291733673846 0.032162344071120168 0 -0.0012870280860637167 0.032435409615547861 0 -0.0014887317667203488 0.032127693354084996 0 -0.0012870280860637167 0.032435409615547861 0 -0.0013512987108792972 0.032385289854238608 0 -0.0011291061438144878 0.032632094413830602 0 -0.0013512987108792972 0.032385289854238608 0 -0.0014887317667203488 0.032127693354084996 0 -0.0015046880834436623 0.032192100656930699 0 -0.0012870280860637167 0.032435409615547861 0 -0.0013512987108792972 0.032385289854238608 0 -0.0014887317667203488 0.032127693354084996 0 -0.0013512987108792972 0.032385289854238608 0 -0.0014803559933945982 0.03239739297974336 0 -0.0015046880834436623 0.032192100656930699 0 -0.0014803559933945982 0.03239739297974336 0 -0.0015046880834436623 0.032192100656930699 0 -0.0015533600351612779 0.032154468647061001 0 -0.0014628501379346751 0.03240114603424181 0 -0.002263380443991474 0.032758400801334769 0 -0.0014803559933945982 0.03239739297974336 0 -0.0012865768629872613 0.032484829005405141 0 -0.0012183622468400644 0.032415014102605007 0 -0.0013512987108792972 0.032385289854238608 0 -0.0012865768629872613 0.032484829005405141 0 -0.0011253102935657273 0.032621380802334891 0 -0.0013512987108792972 0.032385289854238608 0 -0.0014803559933945982 0.03239739297974336 0 -0.0012865768629872613 0.032484829005405141 0 -0.0014803559933945982 0.03239739297974336 0 -0.0014742695041803633 0.032031563167823164 0 -0.0012183622468400644 0.032415014102605007 0 -0.0014803559933945982 0.03239739297974336 0 -0.0022820037321994542 0.031889908099231694 0 -0.0018295348663614887 0.031789977414942661 0 -0.0014803559933945982 0.03239739297974336 0 -0.0018295348663614887 0.031789977414942661 0 -0.0014742695041803633 0.032031563167823164 0 -0.0014803559933945982 0.03239739297974336 0 -0.0022820037321994542 0.031889908099231694 0 -0.0023672499878092707 0.032875032981952546 0 -0.0022820037321994542 0.031889908099231694 0 -0.0034474262372871114 0.032156446008904285 0 -0.0028693142553448412 0.030672778266907903 0 -0.0022820037321994542 0.031889908099231694 0 -0.0023672499878092707 0.032875032981952546 0 -0.0034474262372871114 0.032156446008904285 0 -0.0015921560114889666 0.031940114653076244 0 -0.0015533600351612779 0.032154468647061001 0 -0.0013699474078418207 0.032112046230345102 0 -0.0015921560114889666 0.031940114653076244 0 -0.0015046880834436623 0.032192100656930699 0 -0.0015533600351612779 0.032154468647061001 0 -0.002263380443991474 0.032758400801334769 0 -0.0018184784133689175 0.028189736592065372 0 -0.004351458655593065 0.03353936786970721 0 -0.0034474262372871114 0.032156446008904285 0 -0.0056013938598656679 0.030891987614782124 0 -0.0018184784133689175 0.028189736592065372 0 -0.0045040769121719821 0.023827361700283191 0 -0.0023672499878092707 0.032875032981952546 0 -0.004351458655593065 0.03353936786970721 0 -0.0034474262372871114 0.032156446008904285 0 -0.0034474262372871114 0.032156446008904285 0 -0.0056013938598656679 0.030891987614782124 0 -0.0028693142553448412 0.030672778266907903 0 -0.0056013938598656679 0.030891987614782124 0 -0.0047889096606894737 0.027751523398693415 0 -0.0072962251958166987 0.024018542486653457 0 -0.0056013938598656679 0.030891987614782124 0 -0.0028693142553448412 0.030672778266907903 0 -0.0047889096606894737 0.027751523398693415 0 -0.0045040769121719821 0.023827361700283191 0 -0.0042178946866054633 0.016305868058641829 0 -0.0028693142553448412 0.030672778266907903 0 -0.0047889096606894737 0.027751523398693415 0 -0.0033419425786550658 0.025283639773233408 0 -0.0027144719860441599 0.030545744193737324 0 -0.00070132442476311392 0.027461847417394724 0 -0.0028693142553448412 0.030672778266907903 0 -0.0021677018168446997 0.0312960131733582 0 -0.0019909262906081322 0.031389832474573935 0 -0.0022820037321994542 0.031889908099231694 0 -0.0021677018168446997 0.0312960131733582 0 -0.0018295348663614887 0.031789977414942661 0 -0.0022820037321994542 0.031889908099231694 0 -0.0028693142553448412 0.030672778266907903 0 -0.0021677018168446997 0.0312960131733582 0 -0.0021677018168446997 0.0312960131733582 0 -0.0019909262906081322 0.031389832474573935 0 -0.001886430753216501 0.031532199543318949 0 -0.0028693142553448412 0.030672778266907903 0 0.00073516634779400723 0.023320921055532247 0 -0.0033419425786550658 0.025283639773233408 0 0.00073516634779400723 0.023320921055532247 0 -0.0033419425786550658 0.025283639773233408 0 -0.0024094235682316804 0.020303673510606166 0 -0.0033419425786550658 0.025283639773233408 0 -0.0024094235682316804 0.020303673510606166 0 -0.0072962251958166987 0.024018542486653457 0 -0.0047889096606894737 0.027751523398693415 0 -0.0033419425786550658 0.025283639773233408 0 -0.0072962251958166987 0.024018542486653457 0 -0.0056847126720609891 0.017754815215352333 0 -0.0024094235682316804 0.020303673510606166 0 -0.0012150135258477389 0.015900584216856365 0 -0.0056847126720609891 0.017754815215352333 0 -0.0024094235682316804 0.020303673510606166 0 -0.0072962251958166987 0.024018542486653457 0 -0.004764765903952156 0.014965935595912944 0 -0.0042178946866054633 0.016305868058641829 0 -0.00070132442476311392 0.027461847417394724 0 -0.0005845580774949434 0.023931623337727439 0 -4.1819202649616889e-05 0.01906048175059805 0 -0.0012150135258477389 0.015900584216856365 0 0.0026670607189148679 0.016980568891589588 0 0.00073516634779400723 0.023320921055532247 0 -0.0024094235682316804 0.020303673510606166 0 -4.1819202649616889e-05 0.01906048175059805 0 0.00073516634779400723 0.023320921055532247 0 -4.1819202649616889e-05 0.01906048175059805 0 0.0026670607189148679 0.016980568891589588 0 -0.0024094235682316804 0.020303673510606166 0 -4.1819202649616889e-05 0.01906048175059805 0 -0.0012150135258477389 0.015900584216856365 0 -0.0012150135258477389 0.015900584216856365 0 0.0026670607189148679 0.016980568891589588 0 -0.00062762018256340749 0.013140148942100721 0 -0.0012150135258477389 0.015900584216856365 0 -0.0035286245975360312 0.012461171849011365 0 -0.00062762018256340749 0.013140148942100721 0 -0.0056847126720609891 0.017754815215352333 0 -0.0012150135258477389 0.015900584216856365 0 -0.0035286245975360312 0.012461171849011365 0 -0.004764765903952156 0.014965935595912944 0 -0.0037537244447994268 0.012535260879974234 0 -0.0037738245684892772 0.011459433127192071 0 -0.0036546676638777834 0.011530330954742523 0 -0.0035286245975360312 0.012461171849011365 0 -0.0015867275500573365 0.03137491498927053 0 -0.0018512366292957143 0.031439170155351678 0 -0.00166764501949259 0.031526289508856879 0 -0.0015867275500573365 0.03137491498927053 0 -0.0018512366292957143 0.031439170155351678 0 -0.0017892301273447265 0.031107976581709971 0 -0.0015867275500573365 0.03137491498927053 0 -0.00166764501949259 0.031526289508856879 0 -0.0013643679569825247 0.031651700246459843 0 -0.0005845580774949434 0.023931623337727439 0 -0.001694864164496331 0.026675060049009807 0 -0.0005845580774949434 0.023931623337727439 0 0.0001690920717484184 0.015391296883011307 0 0.0026670607189148679 0.016980568891589588 0 0.0011129583053040419 0.01162662617123812 0 -0.00062762018256340749 0.013140148942100721 0 -0.0017652083183612496 0.031507556772665236 0 -0.0018512366292957143 0.031439170155351678 0 -0.00166764501949259 0.031526289508856879 0 -0.0019909262906081322 0.031389832474573935 0 -0.0018044113367389142 0.031458082918361815 0 -0.0018290856026745535 0.031456939743473092 0 -0.0019909262906081322 0.031389832474573935 0 -0.0018290856026745535 0.031456939743473092 0 -0.0017483766300178463 0.031575615441310455 0 -0.0005845580774949434 0.023931623337727439 0 -0.00085666130747469034 0.027351189522741005 0 -0.0017652083183612496 0.031507556772665236 0 -0.0018512366292957143 0.031439170155351678 0 -0.0018290856026745535 0.031456939743473092 0 -0.0017652083183612496 0.031507556772665236 0 -0.0017483766300178463 0.031575615441310455 0 -0.00166764501949259 0.031526289508856879 0 -0.0017652083183612496 0.031507556772665236 0 -0.0018290856026745535 0.031456939743473092 0 -0.0017483766300178463 0.031575615441310455 0 -0.00166764501949259 0.031526289508856879 0 -0.0014633126580094085 0.031814515237078622 0 -0.0013643679569825247 0.031651700246459843 0 -0.0017483766300178463 0.031575615441310455 0 -0.00166764501949259 0.031526289508856879 0 -0.0014633126580094085 0.031814515237078622 0 -0.0017483766300178463 0.031575615441310455 0 -0.0014633126580094085 0.031814515237078622 0 -0.0016308927199446043 0.031735829205926581 0 -0.0014633126580094085 0.031814515237078622 0 -0.0016308927199446043 0.031735829205926581 0 -0.0014037709661260975 0.031997855604354641 0 -0.0019909262906081322 0.031389832474573935 0 -0.0017483766300178463 0.031575615441310455 0 -0.001886430753216501 0.031532199543318949 0 -0.0017483766300178463 0.031575615441310455 0 -0.0016308927199446043 0.031735829205926581 0 -0.001886430753216501 0.031532199543318949 0 -0.0016308927199446043 0.031735829205926581 0 -0.001886430753216501 0.031532199543318949 0 -0.0014742695041803633 0.032031563167823164 0 -0.001886430753216501 0.031532199543318949 0 -0.0018295348663614887 0.031789977414942661 0 -0.0014742695041803633 0.032031563167823164 0 -0.0021677018168446997 0.0312960131733582 0 -0.001886430753216501 0.031532199543318949 0 -0.0018295348663614887 0.031789977414942661 0 -0.0016308927199446043 0.031735829205926581 0 -0.0014037709661260975 0.031997855604354641 0 -0.0014742695041803633 0.032031563167823164 0 -0.0014037709661260975 0.031997855604354641 0 -0.0014742695041803633 0.032031563167823164 0 -0.0012422321083759081 0.032252914105732375 0 -0.0014742695041803633 0.032031563167823164 0 -0.0012422321083759081 0.032252914105732375 0 -0.0012183622468400644 0.032415014102605007 0 -0.0012422321083759081 0.032252914105732375 0 -0.0010035383118372088 0.032516032010855463 0 -0.0011856271455976952 0.032189484846340856 0 -0.0014037709661260975 0.031997855604354641 0 -0.0012422321083759081 0.032252914105732375 0 -0.0011856271455976952 0.032189484846340856 0 -0.0010035383118372088 0.032516032010855463 0 -0.00092809061632339067 0.032385205337444517 0 -0.0011856271455976952 0.032189484846340856 0 -0.0010035383118372088 0.032516032010855463 0 -0.00092809061632339067 0.032385205337444517 0 -0.00069931511491817117 0.032747126911342357 0 -0.00092809061632339067 0.032385205337444517 0 -0.0011365282672219815 0.032013305385481951 0 -0.00080245078528723749 0.032137536931864864 0 -0.00092809061632339067 0.032385205337444517 0 -0.00080245078528723749 0.032137536931864864 0 -0.00063675020893981028 0.032534341898074214 0 -0.00092809061632339067 0.032385205337444517 0 -0.0011856271455976952 0.032189484846340856 0 -0.0011365282672219815 0.032013305385481951 0 -0.0014633126580094085 0.031814515237078622 0 -0.0011856271455976952 0.032189484846340856 0 -0.0011365282672219815 0.032013305385481951 0 -0.0014633126580094085 0.031814515237078622 0 -0.0014037709661260975 0.031997855604354641 0 -0.0011856271455976952 0.032189484846340856 0 -0.0014633126580094085 0.031814515237078622 0 -0.0011365282672219815 0.032013305385481951 0 -0.0013643679569825247 0.031651700246459843 0 -0.0011365282672219815 0.032013305385481951 0 -0.0013643679569825247 0.031651700246459843 0 -0.0010382513351840743 0.031694204038552817 0 -0.0011365282672219815 0.032013305385481951 0 -0.00080245078528723749 0.032137536931864864 0 -0.0010382513351840743 0.031694204038552817 0 -0.0010382513351840743 0.031694204038552817 0 -0.00062278827818276815 0.031516974685679759 0 -0.0012542901385339828 0.031163364721902509 0 -0.00080245078528723749 0.032137536931864864 0 -0.0010382513351840743 0.031694204038552817 0 -0.00062278827818276815 0.031516974685679759 0 -0.0015867275500573365 0.03137491498927053 0 -0.0013643679569825247 0.031651700246459843 0 -0.0012542901385339828 0.031163364721902509 0 -0.0013643679569825247 0.031651700246459843 0 -0.0010382513351840743 0.031694204038552817 0 -0.0012542901385339828 0.031163364721902509 0 -0.00036679400189443257 0.032293077959863518 0 0.00044825814153378528 0.032795177840055006 0 6.5672242942529501e-05 0.0314566136773681 0 -0.00062278827818276815 0.031516974685679759 0 -0.00036679400189443257 0.032293077959863518 0 6.5672242942529501e-05 0.0314566136773681 0 -0.00080245078528723749 0.032137536931864864 0 -0.00062278827818276815 0.031516974685679759 0 -0.00036679400189443257 0.032293077959863518 0 -0.00080245078528723749 0.032137536931864864 0 -0.00036679400189443257 0.032293077959863518 0 -0.00063675020893981028 0.032534341898074214 0 -0.00036679400189443257 0.032293077959863518 0 -0.00031054461063258985 0.032928131187917958 0 0.00044825814153378528 0.032795177840055006 0 -0.00031054461063258985 0.032928131187917958 0 -0.00063675020893981028 0.032534341898074214 0 -0.00069931511491817117 0.032747126911342357 0 -0.00036679400189443257 0.032293077959863518 0 -0.00031054461063258985 0.032928131187917958 0 -0.00063675020893981028 0.032534341898074214 0 -0.00092809061632339067 0.032385205337444517 0 -0.00063675020893981028 0.032534341898074214 0 -0.00069931511491817117 0.032747126911342357 0 -0.00031054461063258985 0.032928131187917958 0 -0.00054394665166587872 0.033040438990584363 0 -0.00042830730242366272 0.033191069659979429 0 -0.00031054461063258985 0.032928131187917958 0 -0.00069931511491817117 0.032747126911342357 0 -0.00054394665166587872 0.033040438990584363 0 -0.00054394665166587872 0.033040438990584363 0 -0.00061283920535391324 0.033194392109008222 0 -0.00077627196419163531 0.0328838739356066 0 -0.00054394665166587872 0.033040438990584363 0 -0.00061283920535391324 0.033194392109008222 0 -0.00051638106161495132 0.033351651876419544 0 -0.00077627196419163531 0.0328838739356066 0 -0.00092117547241146931 0.032828370547137192 0 -0.00074007215658684769 0.033040858932628134 0 -0.00061283920535391324 0.033194392109008222 0 -0.00077627196419163531 0.0328838739356066 0 -0.00074007215658684769 0.033040858932628134 0 -0.00069931511491817117 0.032747126911342357 0 -0.00054394665166587872 0.033040438990584363 0 -0.00077627196419163531 0.0328838739356066 0 -0.0010035383118372088 0.032516032010855463 0 -0.00077627196419163531 0.0328838739356066 0 -0.0010217167652736741 0.032663812872814162 0 -0.0010035383118372088 0.032516032010855463 0 -0.00069931511491817117 0.032747126911342357 0 -0.00077627196419163531 0.0328838739356066 0 -0.0010035383118372088 0.032516032010855463 0 -0.0012183622468400644 0.032415014102605007 0 -0.0010217167652736741 0.032663812872814162 0 -0.0012422321083759081 0.032252914105732375 0 -0.0010035383118372088 0.032516032010855463 0 -0.0012183622468400644 0.032415014102605007 0 -0.0012865768629872613 0.032484829005405141 0 -0.0010217167652736741 0.032663812872814162 0 -0.0011253102935657273 0.032621380802334891 0 -0.0012865768629872613 0.032484829005405141 0 -0.0012183622468400644 0.032415014102605007 0 -0.0010217167652736741 0.032663812872814162 0 -0.0010217167652736741 0.032663812872814162 0 -0.00092117547241146931 0.032828370547137192 0 -0.0011253102935657273 0.032621380802334891 0 -0.00077627196419163531 0.0328838739356066 0 -0.0010217167652736741 0.032663812872814162 0 -0.00092117547241146931 0.032828370547137192 0 -0.0013512987108792972 0.032385289854238608 0 -0.0011253102935657273 0.032621380802334891 0 -0.0011291061438144878 0.032632094413830602 0 -0.00092117547241146931 0.032828370547137192 0 -0.0011253102935657273 0.032621380802334891 0 -0.0011291061438144878 0.032632094413830602 0 -0.0010726837203492718 0.032741560323567717 0 -0.0012870280860637167 0.032435409615547861 0 -0.0011291061438144878 0.032632094413830602 0 -0.0010726837203492718 0.032741560323567717 0 -0.0011291061438144878 0.032632094413830602 0 -0.00093264470526850717 0.032857126466730169 0 -0.00092117547241146931 0.032828370547137192 0 -0.00093264470526850717 0.032857126466730169 0 -0.00080677861924330319 0.032979874479713581 0 -0.00092117547241146931 0.032828370547137192 0 -0.0011291061438144878 0.032632094413830602 0 -0.00093264470526850717 0.032857126466730169 0 -0.00080624788334793804 0.033016871987687955 0 -0.00093264470526850717 0.032857126466730169 0 -0.00080677861924330319 0.032979874479713581 0 -0.00080677861924330319 0.032979874479713581 0 -0.0007131919697007463 0.033099556696658122 0 -0.00074007215658684769 0.033040858932628134 0 -0.00080624788334793804 0.033016871987687955 0 -0.00080677861924330319 0.032979874479713581 0 -0.0007131919697007463 0.033099556696658122 0 -0.00061283920535391324 0.033194392109008222 0 -0.00074007215658684769 0.033040858932628134 0 -0.00064330723030554587 0.033245996926619871 0 -0.0007131919697007463 0.033099556696658122 0 -0.00074007215658684769 0.033040858932628134 0 -0.00064330723030554587 0.033245996926619871 0 -0.00092117547241146931 0.032828370547137192 0 -0.00080677861924330319 0.032979874479713581 0 -0.00074007215658684769 0.033040858932628134 0 -0.00064055675710829871 0.033653235329159155 0 -0.00064330723030554587 0.033245996926619871 0 -0.00067150109819802287 0.033176761663171891 0 -0.00061283920535391324 0.033194392109008222 0 -0.00064055675710829871 0.033653235329159155 0 -0.00064330723030554587 0.033245996926619871 0 -0.0007131919697007463 0.033099556696658122 0 -0.00064330723030554587 0.033245996926619871 0 -0.00067150109819802287 0.033176761663171891 0 -0.00073021573514009419 0.033118160453353571 0 -0.0007131919697007463 0.033099556696658122 0 -0.00067150109819802287 0.033176761663171891 0 -0.00064055675710829871 0.033653235329159155 0 -0.00067150109819802287 0.033176761663171891 0 -0.00072945960305299189 0.033133798054790504 0 -0.00065000411966607558 0.033673330511603518 0 -0.0006116609811272454 0.033824967029353739 0 -0.00064055675710829871 0.033653235329159155 0 -0.00055198511194156817 0.034511379640399298 0 -0.00031096893531067137 0.034442075221633166 0 -0.00029243797024706915 0.034637497098633903 0 -0.00055198511194156817 0.034511379640399298 0 -0.00031096893531067137 0.034442075221633166 0 -0.00064055675710829871 0.033653235329159155 0 -0.00031096893531067137 0.034442075221633166 0 -0.0002463949711742391 0.03429451383412073 0 -0.00018944528188495369 0.03462977553681168 0 -0.00031096893531067137 0.034442075221633166 0 -0.0002463949711742391 0.03429451383412073 0 -0.00064055675710829871 0.033653235329159155 0 -0.0004086220601052124 0.033913908954458047 0 -0.000467694701025626 0.033652114001872159 0 -0.00064055675710829871 0.033653235329159155 0 -0.0002463949711742391 0.03429451383412073 0 -0.0004086220601052124 0.033913908954458047 0 -0.0002463949711742391 0.03429451383412073 0 -0.0004086220601052124 0.033913908954458047 0 -0.00026486581360614321 0.034172757339080075 0 -0.00026486581360614321 0.034172757339080075 0 -0.00036473673787533966 0.033940940209626812 0 -0.00023547582481190144 0.034229691249525351 0 -0.0004086220601052124 0.033913908954458047 0 -0.00026486581360614321 0.034172757339080075 0 -0.00036473673787533966 0.033940940209626812 0 -0.0004086220601052124 0.033913908954458047 0 -0.00036473673787533966 0.033940940209626812 0 -0.000467694701025626 0.033652114001872159 0 -0.00064055675710829871 0.033653235329159155 0 -0.000467694701025626 0.033652114001872159 0 -0.00051638106161495132 0.033351651876419544 0 -0.00061283920535391324 0.033194392109008222 0 -0.00064055675710829871 0.033653235329159155 0 -0.00051638106161495132 0.033351651876419544 0 -0.00051638106161495132 0.033351651876419544 0 -0.00042830730242366272 0.033191069659979429 0 -0.00045766333319717967 0.033439045466470127 0 -0.00054394665166587872 0.033040438990584363 0 -0.00051638106161495132 0.033351651876419544 0 -0.00042830730242366272 0.033191069659979429 0 -0.000467694701025626 0.033652114001872159 0 -0.00045766333319717967 0.033439045466470127 0 -0.00043760061496359921 0.03367844926257884 0 -0.000467694701025626 0.033652114001872159 0 -0.00051638106161495132 0.033351651876419544 0 -0.00045766333319717967 0.033439045466470127 0 -0.00045766333319717967 0.033439045466470127 0 -0.00043579834936284843 0.03365224054870166 0 -0.00043234420599490476 0.033504854099002501 0 -0.00043579834936284843 0.03365224054870166 0 -0.00043234420599490476 0.033504854099002501 0 -0.00041414613454269058 0.033814790305775465 0 -0.00045766333319717967 0.033439045466470127 0 -0.00043579834936284843 0.03365224054870166 0 -0.00043760061496359921 0.03367844926257884 0 -0.00042830730242366272 0.033191069659979429 0 -0.00045766333319717967 0.033439045466470127 0 -0.00043234420599490476 0.033504854099002501 0 -0.00031054461063258985 0.032928131187917958 0 0.00048487688633355063 0.032954639367278202 0 0.00044825814153378528 0.032795177840055006 0 -0.00027840922088330212 0.033000432895120745 0 -4.963803409686758e-06 0.033227252217508448 0 -0.00031054461063258985 0.032928131187917958 0 -0.00042830730242366272 0.033191069659979429 0 -0.00043234420599490476 0.033504854099002501 0 0.00048487688633355063 0.032954639367278202 0 0.00044825814153378528 0.032795177840055006 0 0.0003076879545713013 0.033374698491262254 0 0.00044825814153378528 0.032795177840055006 0 0.0003076879545713013 0.033374698491262254 0 0.00047331990319964695 0.033474429650509264 0 0.0003076879545713013 0.033374698491262254 0 0.00014846429954500816 0.033834576344467106 0 6.0522118893167908e-05 0.033452596563204935 0 0.00048487688633355063 0.032954639367278202 0 0.0003076879545713013 0.033374698491262254 0 6.0522118893167908e-05 0.033452596563204935 0 -4.963803409686758e-06 0.033227252217508448 0 -0.00016400464394413937 0.033599257148082817 0 0.0003076879545713013 0.033374698491262254 0 0.00014846429954500816 0.033834576344467106 0 0.00041112084323394004 0.033854652119181476 0 0.0003076879545713013 0.033374698491262254 0 0.00047331990319964695 0.033474429650509264 0 0.00041112084323394004 0.033854652119181476 0 0.00044825814153378528 0.032795177840055006 0 0.00047331990319964695 0.033474429650509264 0 0.00090573536283166084 0.033940639262273906 0 0.00047331990319964695 0.033474429650509264 0 0.00041112084323394004 0.033854652119181476 0 0.00090573536283166084 0.033940639262273906 0 0.00046818869751226645 0.032803334826049593 0 0.00045085860255586317 0.03266036946273828 0 -0.00012910744647587943 0.033887985975281948 0 -5.0430082150563663e-06 0.033932743882207864 0 -7.6249786030691187e-05 0.03422239836779585 0 -0.00012910744647587943 0.033887985975281948 0 -0.00014988462010194029 0.034231598862642716 0 -7.6249786030691187e-05 0.03422239836779585 0 -0.00012910744647587943 0.033887985975281948 0 -0.00014988462010194029 0.034231598862642716 0 -0.00016693022277461522 0.034121482849512892 0 -5.0430082150563663e-06 0.033932743882207864 0 2.9810097587062381e-05 0.034167184350226192 0 -7.6249786030691187e-05 0.03422239836779585 0 0.00014846429954500816 0.033834576344467106 0 -5.0430082150563663e-06 0.033932743882207864 0 6.0522118893167908e-05 0.033452596563204935 0 0.00014846429954500816 0.033834576344467106 0 -5.0430082150563663e-06 0.033932743882207864 0 2.9810097587062381e-05 0.034167184350226192 0 -0.00012910744647587943 0.033887985975281948 0 -5.0430082150563663e-06 0.033932743882207864 0 6.0522118893167908e-05 0.033452596563204935 0 -0.00016400464394413937 0.033599257148082817 0 -0.00030871283730399263 0.034227722492188389 0 -0.00032720914969002293 0.034019954484676027 0 -0.00036049503368843416 0.033967057057835481 0 -0.00031503361991942031 0.034069446452205811 0 -0.00012910744647587943 0.033887985975281948 0 6.0522118893167908e-05 0.033452596563204935 0 -0.00035252639329734785 0.033936079216314453 0 -0.00041414613454269058 0.033814790305775465 0 -0.00032720914969002293 0.034019954484676027 0 -0.00036049503368843416 0.033967057057835481 0 -0.00015398758321097836 0.034035691908266233 0 -0.00030871283730399263 0.034227722492188389 0 -0.00036049503368843416 0.033967057057835481 0 -0.00028399302841402121 0.034139907986441398 0 -0.00031503361991942031 0.034069446452205811 0 -0.00036049503368843416 0.033967057057835481 0 -0.00037586482646770423 0.033903612411149989 0 -0.00028399302841402121 0.034139907986441398 0 -0.00036049503368843416 0.033967057057835481 0 -0.00040840809055505713 0.033803156166969696 0 -0.00037586482646770423 0.033903612411149989 0 -0.00041414613454269058 0.033814790305775465 0 -0.00036049503368843416 0.033967057057835481 0 -0.00040840809055505713 0.033803156166969696 0 -0.00040840809055505713 0.033803156166969696 0 -0.00043760061496359921 0.03367844926257884 0 -0.00037586482646770423 0.033903612411149989 0 -0.00043579834936284843 0.03365224054870166 0 -0.00041414613454269058 0.033814790305775465 0 -0.00040840809055505713 0.033803156166969696 0 -0.00043579834936284843 0.03365224054870166 0 -0.00040840809055505713 0.033803156166969696 0 -0.00043760061496359921 0.03367844926257884 0 -0.00036473673787533966 0.033940940209626812 0 -0.000467694701025626 0.033652114001872159 0 -0.00043760061496359921 0.03367844926257884 0 -0.00036473673787533966 0.033940940209626812 0 -0.00043760061496359921 0.03367844926257884 0 -0.00037586482646770423 0.033903612411149989 0 -0.00036473673787533966 0.033940940209626812 0 -0.00037586482646770423 0.033903612411149989 0 -0.00028399302841402121 0.034139907986441398 0 -0.00036473673787533966 0.033940940209626812 0 -0.00028399302841402121 0.034139907986441398 0 -0.00023547582481190144 0.034229691249525351 0 -0.00028399302841402121 0.034139907986441398 0 -0.00015108830533712615 0.034430639688127533 0 -0.00023547582481190144 0.034229691249525351 0 -0.00015108830533712615 0.034430639688127533 0 -0.00018213526576172092 0.034379484790263488 0 -0.00010506201626697142 0.034569393740259725 0 -0.00028399302841402121 0.034139907986441398 0 -0.00015108830533712615 0.034430639688127533 0 -0.00018213526576172092 0.034379484790263488 0 -0.00024100677272881804 0.03428409033565688 0 -9.8562842445841774e-05 0.034576694006352784 0 -0.00018213526576172092 0.034379484790263488 0 -0.00025534294204907968 0.034216957621141235 0 -9.065953704127499e-05 0.034522202702299415 0 -0.00028399302841402121 0.034139907986441398 0 -0.00025534294204907968 0.034216957621141235 0 -0.00031503361991942031 0.034069446452205811 0 -0.00028399302841402121 0.034139907986441398 0 -0.00018213526576172092 0.034379484790263488 0 -0.00025534294204907968 0.034216957621141235 0 -0.00025534294204907968 0.034216957621141235 0 -0.00031503361991942031 0.034069446452205811 0 -0.00021923199558520392 0.034234910191035132 0 -0.00030871283730399263 0.034227722492188389 0 -0.0002561667011070948 0.034549532799326002 0 -0.00032720914969002293 0.034019954484676027 0 -0.00031503361991942031 0.034069446452205811 0 -0.00021923199558520392 0.034234910191035132 0 -0.0002561667011070948 0.034549532799326002 0 -8.0893423157287842e-05 0.034759316568389022 0 -0.00025534294204907968 0.034216957621141235 0 -0.00021923199558520392 0.034234910191035132 0 -9.4181926783709399e-05 0.034633370401459002 0 -0.000225782994595799 0.034824421664384708 0 -0.00018550402990972386 0.034665009451182019 0 -8.9598200695284032e-05 0.034805995722416244 0 -0.00018550402990972386 0.034665009451182019 0 -8.9598200695284032e-05 0.034805995722416244 0 -0.00011879938880783021 0.034733614886275986 0 -0.00018550402990972386 0.034665009451182019 0 -0.00011879938880783021 0.034733614886275986 0 -0.00015953566236867506 0.034600982820318538 0 -0.00018550402990972386 0.034665009451182019 0 -0.00017311560671173678 0.034423397967299131 0 -0.00015953566236867506 0.034600982820318538 0 -0.00050994061192684314 0.034772120739622242 0 -0.000225782994595799 0.034824421664384708 0 -0.00018550402990972386 0.034665009451182019 0 -0.00030871283730399263 0.034227722492188389 0 -0.00019499498941326156 0.034668050837255139 0 -0.00016693022277461522 0.034121482849512892 0 -0.00018550402990972386 0.034665009451182019 0 -0.00017311560671173678 0.034423397967299131 0 -0.00014988462010194029 0.034231598862642716 0 -0.00017311560671173678 0.034423397967299131 0 -0.00014136852339831845 0.034470760907308072 0 -0.00014988462010194029 0.034231598862642716 0 -0.00016693022277461522 0.034121482849512892 0 -0.00017311560671173678 0.034423397967299131 0 -2.3650241585632276e-05 0.034929828881406957 0 5.5857831226904665e-09 0.0349999650913159 0 -4.1926049499189034e-08 0.034999742113414133 0 -2.3650241585632276e-05 0.034929828881406957 0 -5.0919456655561494e-05 0.034873270765376385 0 -4.1926049499189034e-08 0.034999742113414133 0 -5.0919456655561494e-05 0.034873270765376385 0 -8.9598200695284032e-05 0.034805995722416244 0 -0.00011879938880783021 0.034733614886275986 0 -2.3650241585632276e-05 0.034929828881406957 0 -5.0919456655561494e-05 0.034873270765376385 0 -8.9598200695284032e-05 0.034805995722416244 0 -0.00021923199558520392 0.034234910191035132 0 -6.650141910978383e-05 0.034592474691133877 0 -9.4181926783709399e-05 0.034633370401459002 0 -0.000225782994595799 0.034824421664384708 0 -8.9598200695284032e-05 0.034805995722416244 0 -5.3006086054112933e-05 0.034930835091343052 0 -2.3650241585632276e-05 0.034929828881406957 0 -8.9598200695284032e-05 0.034805995722416244 0 -5.3006086054112933e-05 0.034930835091343052 0 -8.0893423157287842e-05 0.034759316568389022 0 -6.2389177534715988e-08 0.034999883988126486 0 -6.650141910978383e-05 0.034592474691133877 0 -7.566545940200498e-08 0.03499945170562118 0 8.5001844621793995e-08 0.035000160035747019 0 -2.3650241585632276e-05 0.034929828881406957 0 -5.3006086054112933e-05 0.034930835091343052 0 5.5857831226904665e-09 0.0349999650913159 0 -2.7745784117261497e-08 0.034999833763216526 0 -9.8562842445841774e-05 0.034576694006352784 0 -6.650141910978383e-05 0.034592474691133877 0 8.5001844621793995e-08 0.035000160035747019 0 -9.4181926783709399e-05 0.034633370401459002 0 4.3151926805421116e-09 0.034999520410637704 0 -9.065953704127499e-05 0.034522202702299415 0 -4.2428340346078985e-05 0.034770324981371427 0 -9.065953704127499e-05 0.034522202702299415 0 -0.00010506201626697142 0.034569393740259725 0 -4.2428340346078985e-05 0.034770324981371427 0 -0.00018213526576172092 0.034379484790263488 0 -9.065953704127499e-05 0.034522202702299415 0 -0.00010506201626697142 0.034569393740259725 0 -0.00015108830533712615 0.034430639688127533 0 -0.00010506201626697142 0.034569393740259725 0 -5.7815684530627936e-05 0.034741826134940521 0 -0.00010506201626697142 0.034569393740259725 0 -5.7815684530627936e-05 0.034741826134940521 0 -4.2428340346078985e-05 0.034770324981371427 0 4.3151926805421116e-09 0.034999520410637704 0 -2.0964382800953297e-08 0.034999811906971427 0 -4.2428340346078985e-05 0.034770324981371427 0 -5.7815684530627936e-05 0.034741826134940521 0 -2.0964382800953297e-08 0.034999811906971427 0 -4.2428340346078985e-05 0.034770324981371427 0 -2.260799443455077e-08 0.034999691809286748 0 -3.3927181320072222e-08 0.034999288263398841 0 -2.5607964983200189e-05 0.034825273125779467 0 -5.7815684530627936e-05 0.034741826134940521 0 -2.0964382800953297e-08 0.034999811906971427 0 -5.3412998690727273e-08 0.034999582000244188 0 -5.7815684530627936e-05 0.034741826134940521 0 -5.3412998690727273e-08 0.034999582000244188 0 -7.4991676095689404e-05 0.034647976155637063 0 8.1289194642235505e-09 0.034999881656367672 0 -5.0776194530303151e-05 0.034714986107653674 0 -3.3927181320072222e-08 0.034999288263398841 0 -2.4960177398578373e-05 0.034796045430428413 0 -4.4730156257006859e-05 0.034715142862799087 0 -0.00015108830533712615 0.034430639688127533 0 -5.7815684530627936e-05 0.034741826134940521 0 -7.4991676095689404e-05 0.034647976155637063 0 -0.00015108830533712615 0.034430639688127533 0 -7.4991676095689404e-05 0.034647976155637063 0 -0.00013722082639274852 0.034447559011135893 0 -0.00015108830533712615 0.034430639688127533 0 -0.00023547582481190144 0.034229691249525351 0 -0.00013722082639274852 0.034447559011135893 0 -0.00026486581360614321 0.034172757339080075 0 -0.00023547582481190144 0.034229691249525351 0 -0.00013722082639274852 0.034447559011135893 0 -0.0002463949711742391 0.03429451383412073 0 -0.00026486581360614321 0.034172757339080075 0 -0.00013722082639274852 0.034447559011135893 0 -2.4960177398578373e-05 0.034796045430428413 0 -0.00013722082639274852 0.034447559011135893 0 -4.4730156257006859e-05 0.034715142862799087 0 -5.0776194530303151e-05 0.034714986107653674 0 -0.00013031525612641566 0.034505660975433894 0 -0.00013722082639274852 0.034447559011135893 0 -0.00010137666213962283 0.034624451887616731 0 -4.4730156257006859e-05 0.034715142862799087 0 -0.0002463949711742391 0.03429451383412073 0 -0.00013722082639274852 0.034447559011135893 0 -0.00010137666213962283 0.034624451887616731 0 -0.00018944528188495369 0.03462977553681168 0 -0.0002463949711742391 0.03429451383412073 0 -0.00010137666213962283 0.034624451887616731 0 -0.00010434379720856433 0.034769177741804907 0 -0.00018944528188495369 0.03462977553681168 0 -0.00010137666213962283 0.034624451887616731 0 -0.00010434379720856433 0.034769177741804907 0 -0.00010137666213962283 0.034624451887616731 0 -2.5607964983200189e-05 0.034825273125779467 0 -0.00010137666213962283 0.034624451887616731 0 -2.5607964983200189e-05 0.034825273125779467 0 -4.4730156257006859e-05 0.034715142862799087 0 -3.3927181320072222e-08 0.034999288263398841 0 -2.5607964983200189e-05 0.034825273125779467 0 -4.4730156257006859e-05 0.034715142862799087 0 -0.0028297524705029075 -0.0053327169774333352 0 -0.0024575449043398919 -0.0045843907380648998 0 -0.001922147715208706 -0.0052334948306713902 0 -0.0028297524705029075 -0.0053327169774333352 0 -0.001922147715208706 -0.0052334948306713902 0 -0.0020318706187920652 -0.0060022738782714961 0 -0.00022570130913255644 -0.012658384578317907 0 0.0011534140540255357 -0.012910912686204002 0 0.0007965700650283407 -0.011798207453466924 0 0.0011534140540255357 -0.012910912686204002 0 0.0007965700650283407 -0.011798207453466924 0 0.0017624060226581438 -0.012175330669796609 0 -0.00022570130913255644 -0.012658384578317907 0 0.0011534140540255357 -0.012910912686204002 0 0.00064966802591905157 -0.014309442922154874 0 -0.00022570130913255644 -0.012658384578317907 0 0.00064966802591905157 -0.014309442922154874 0 0.00071487591311145072 -0.015376125011514119 0 0.00064966802591905157 -0.014309442922154874 0 0.00071487591311145072 -0.015376125011514119 0 0.002114599626001184 -0.015831730215340404 0 -0.0017105958855949364 -0.009086716732100715 0 0.00041627263047185352 -0.0090087523207104045 0 0.0011534140540255357 -0.012910912686204002 0 0.00064966802591905157 -0.014309442922154874 0 0.0023873935407820201 -0.013498992166203663 0 0.00041627263047185352 -0.0090087523207104045 0 0.0024659009696276018 -0.015109412279027953 0 -0.0025508688235434981 -0.003975749992821534 0 -0.0024575449043398919 -0.0045843907380648998 0 -0.0015799918474883477 -0.0044720714331982188 0 -0.0033535705132429604 -0.0039306857299848839 0 -0.0025508688235434981 -0.003975749992821534 0 -0.0024575449043398919 -0.0045843907380648998 0 0.00041627263047185352 -0.0090087523207104045 0 0.0015401902451354951 0.006197855109342571 0 -0.0028297524705029075 -0.0053327169774333352 0 -0.0033535705132429604 -0.0039306857299848839 0 -0.0024575449043398919 -0.0045843907380648998 0 0.0022472699282156195 0.0096179129745964098 0 0.0027224603640944073 0.0096283194631829154 0 0.0027048880446628098 0.0094071588066560689 0 0.0015401902451354951 0.006197855109342571 0 0.00093129489168532122 0.0020004122700258472 0 0.0015401902451354951 0.006197855109342571 0 0.0047979138366877755 0.014230607875567699 0 0.0067620642638820888 0.018568194379563866 0 0.0063209855602198344 0.018934104702516458 0 0.0065119050240179874 0.018527113403383928 0 0.0027224603640944073 0.0096283194631829154 0 0.0027048880446628098 0.0094071588066560689 0 0.0032011958254062269 0.009628027469099321 0 0.0027048880446628098 0.0094071588066560689 0 0.0032011958254062269 0.009628027469099321 0 0.0031620193925528889 0.0091654661223271906 0 0.0063209855602198344 0.018934104702516458 0 0.0056929278511641977 0.019405065969260647 0 0.0060727539617955201 0.018912199678168509 0 0.0047979138366877755 0.014230607875567699 0 0.0050571989526276276 0.017806681461231526 0 0.0056966695371450252 0.020022014930580805 0 0.0056601911357077542 0.019286957034855005 0 0.005048234952604199 0.019671269618521142 0 0.0050571989526276276 0.017806681461231526 0 0.0053092214909505938 0.01911740017002151 0 0.0056929278511641977 0.019405065969260647 0 0.0056601911357077542 0.019286957034855005 0 0.0060727539617955201 0.018912199678168509 0 0.0037441850891910553 0.020535580291000353 0 0.0037508668054721454 0.020537215375015652 0 0.0037292074666965781 0.020586705545531513 0 0.0050571989526276276 0.017806681461231526 0 0.0011337976527704015 0.0077046284399719007 0 -0.00051329249629460106 -0.0049758897949481774 0 -0.0014279429371679524 -0.0058029671082189529 0 -0.001103176105405945 -0.0062616883394371395 0 0.00093129489168532122 0.0020004122700258472 0 0.0011337976527704015 0.0077046284399719007 0 -0.00051329249629460106 -0.0049758897949481774 0 -0.001366041010237292 -0.0051178838257025855 0 -0.0014279429371679524 -0.0058029671082189529 0 -0.0015799918474883477 -0.0044720714331982188 0 -0.00051329249629460106 -0.0049758897949481774 0 -0.001366041010237292 -0.0051178838257025855 0 -0.0024575449043398919 -0.0045843907380648998 0 -0.0015799918474883477 -0.0044720714331982188 0 -0.001922147715208706 -0.0052334948306713902 0 -0.0015799918474883477 -0.0044720714331982188 0 -0.001922147715208706 -0.0052334948306713902 0 -0.001366041010237292 -0.0051178838257025855 0 -0.001922147715208706 -0.0052334948306713902 0 -0.001366041010237292 -0.0051178838257025855 0 -0.0014279429371679524 -0.0058029671082189529 0 -0.001922147715208706 -0.0052334948306713902 0 -0.0020318706187920652 -0.0060022738782714961 0 -0.0014279429371679524 -0.0058029671082189529 0 -0.0020318706187920652 -0.0060022738782714961 0 -0.0014279429371679524 -0.0058029671082189529 0 -0.0015962445564476847 -0.0065875689394909809 0 -0.0014279429371679524 -0.0058029671082189529 0 -0.0015962445564476847 -0.0065875689394909809 0 -0.001103176105405945 -0.0062616883394371395 0 -0.0015962445564476847 -0.0065875689394909809 0 -0.001103176105405945 -0.0062616883394371395 0 -0.0012436134677667955 -0.0069944612620117027 0 -0.0020318706187920652 -0.0060022738782714961 0 -0.0015962445564476847 -0.0065875689394909809 0 -0.0022289521564386855 -0.0068757171988959795 0 -0.00051329249629460106 -0.0049758897949481774 0 -0.001103176105405945 -0.0062616883394371395 0 -0.00072170066905904377 -0.0068732058976667563 0 -0.00027376017296821902 0.0081160144944742163 0 -0.00025368617659914068 0.0094094318190604855 0 -0.00087812620810949601 0.0092037882535403823 0 0.0011337976527704015 0.0077046284399719007 0 -0.00066942257943573336 5.2378986388886815e-05 0 -0.001103176105405945 -0.0062616883394371395 0 -0.00072170066905904377 -0.0068732058976667563 0 -0.0012436134677667955 -0.0069944612620117027 0 -0.00025368617659914068 0.0094094318190604855 0 -0.00052789512336322297 0.0097640945364004823 0 -0.00027587749555308235 0.010136838048470549 0 -0.00072170066905904377 -0.0068732058976667563 0 -0.0012030953213387661 -0.007490462337581388 0 -0.0013472518717099885 -0.0077855355577906441 0 -0.00066942257943573336 5.2378986388886815e-05 0 -0.0023480853565558441 -0.00012791451772932731 0 -0.00025368617659914068 0.0094094318190604855 0 -0.00052789512336322297 0.0097640945364004823 0 -0.00087812620810949601 0.0092037882535403823 0 -0.00072170066905904377 -0.0068732058976667563 0 -0.0012030953213387661 -0.007490462337581388 0 -0.0012436134677667955 -0.0069944612620117027 0 -0.0016344606841841331 -0.007189057579394878 0 -0.0022289521564386855 -0.0068757171988959795 0 -0.0013480502695113138 -0.0081114114942958167 0 -0.0014843419454346148 -0.0086203733044067487 0 -0.001413530169966972 -0.0081697064788314889 0 -0.0016344606841841331 -0.007189057579394878 0 -0.0013806277055528841 -0.0074859950543802846 0 -0.0013480502695113138 -0.0081114114942958167 0 -0.0015962445564476847 -0.0065875689394909809 0 -0.0016344606841841331 -0.007189057579394878 0 -0.0022289521564386855 -0.0068757171988959795 0 -0.0016344606841841331 -0.007189057579394878 0 -0.0012436134677667955 -0.0069944612620117027 0 -0.0013806277055528841 -0.0074859950543802846 0 -0.0015962445564476847 -0.0065875689394909809 0 -0.0016344606841841331 -0.007189057579394878 0 -0.0012436134677667955 -0.0069944612620117027 0 -0.0012030953213387661 -0.007490462337581388 0 -0.0012436134677667955 -0.0069944612620117027 0 -0.0013806277055528841 -0.0074859950543802846 0 -0.0012030953213387661 -0.007490462337581388 0 -0.0013806277055528841 -0.0074859950543802846 0 -0.0013605206440574784 -0.0077694350035157978 0 -0.00084672562298116654 -0.01039368150486474 0 -0.00035905678449087061 -0.010575707942555548 0 0.00017460215036933818 -0.0091656569747854116 0 -0.00084672562298116654 -0.01039368150486474 0 0.00017460215036933818 -0.0091656569747854116 0 -0.0013480502695113138 -0.0081114114942958167 0 -0.00022570130913255644 -0.012658384578317907 0 -0.00035905678449087061 -0.010575707942555548 0 0.0007965700650283407 -0.011798207453466924 0 -0.0028297524705029075 -0.0053327169774333352 0 -0.0020318706187920652 -0.0060022738782714961 0 -0.0022289521564386855 -0.0068757171988959795 0 -0.00022570130913255644 -0.012658384578317907 0 -0.00084672562298116654 -0.01039368150486474 0 -0.00035905678449087061 -0.010575707942555548 0 -0.0017105958855949364 -0.009086716732100715 0 -0.0014843419454346148 -0.0086203733044067487 0 -0.00035905678449087061 -0.010575707942555548 0 0.0007965700650283407 -0.011798207453466924 0 0.0018523030456859628 -0.010818756640771912 0 -0.00035905678449087061 -0.010575707942555548 0 0.0017299218980374417 -0.010200129917488613 0 0.00017460215036933818 -0.0091656569747854116 0 0.0017299218980374417 -0.010200129917488613 0 0.00017460215036933818 -0.0091656569747854116 0 0.0013966871667642441 -0.0089297172507972946 0 -0.00027942305506179675 -0.010588432117655906 0 0.0017342960983534209 -0.010511323832353387 0 0.0017299218980374417 -0.010200129917488613 0 0.0022856152813985108 -0.0092142442767784109 0 0.0013966871667642441 -0.0089297172507972946 0 0.0017342960983534209 -0.010511323832353387 0 0.0034795952978030615 -0.010478602509428003 0 0.0017299218980374417 -0.010200129917488613 0 0.0032774474356982784 -0.010189333452229291 0 0.0022856152813985108 -0.0092142442767784109 0 0.0018523030456859628 -0.010818756640771912 0 0.0035920133055456572 -0.010775324555722056 0 0.0031082292342593698 -0.012071808142946779 0 0.0007965700650283407 -0.011798207453466924 0 0.0018523030456859628 -0.010818756640771912 0 0.0017624060226581438 -0.012175330669796609 0 0.0018523030456859628 -0.010818756640771912 0 0.0017624060226581438 -0.012175330669796609 0 0.0031082292342593698 -0.012071808142946779 0 0.0050787959052100672 -0.010413978961555099 0 0.0034795952978030615 -0.010478602509428003 0 0.0051345267419847657 -0.010423011254006366 0 0.0032774474356982784 -0.010189333452229291 0 0.0043171998263646354 -0.0093603121885906457 0 0.0051345267419847657 -0.010423011254006366 0 0.0035920133055456572 -0.010775324555722056 0 0.0039084708804924652 -0.011612318260127857 0 0.0035920133055456572 -0.010775324555722056 0 0.0039084708804924652 -0.011612318260127857 0 0.0031082292342593698 -0.012071808142946779 0 0.0039084708804924652 -0.011612318260127857 0 0.0047278756534962453 -0.011701518085604526 0 0.0042309231787962419 -0.012423730285970533 0 0.0051345267419847657 -0.010423011254006366 0 0.0039084708804924652 -0.011612318260127857 0 0.0047278756534962453 -0.011701518085604526 0 0.005909208065611354 -0.012029773838059817 0 0.0047278756534962453 -0.011701518085604526 0 0.0049384433528508881 -0.012278149084984352 0 0.0047278756534962453 -0.011701518085604526 0 0.0049384433528508881 -0.012278149084984352 0 0.0042309231787962419 -0.012423730285970533 0 0.0049384433528508881 -0.012278149084984352 0 0.0042309231787962419 -0.012423730285970533 0 0.0049179057122783077 -0.012953303622540003 0 0.0039084708804924652 -0.011612318260127857 0 0.0042309231787962419 -0.012423730285970533 0 0.0031082292342593698 -0.012071808142946779 0 0.0042309231787962419 -0.012423730285970533 0 0.003667034389102485 -0.013130405517644694 0 0.0031082292342593698 -0.012071808142946779 0 0.0042309231787962419 -0.012423730285970533 0 0.003667034389102485 -0.013130405517644694 0 0.0049179057122783077 -0.012953303622540003 0 0.0032048512898241641 -0.014616003952596089 0 0.0034003621029951819 -0.016149937736643489 0 0.0026408090044034 -0.016316884671730404 0 0.0026232019119118277 -0.016513710483067441 0 0.0025756081346656003 -0.016067298341327391 0 0.0026408090044034 -0.016316884671730404 0 0.0026232019119118277 -0.016513710483067441 0 0.0026766955724807102 -0.016820854774328035 0 0.0026408090044034 -0.016316884671730404 0 0.0026766955724807102 -0.016820854774328035 0 0.0026942698567252884 -0.016902171083384532 0 0.0026232019119118277 -0.016513710483067441 0 0.0026766955724807102 -0.016820854774328035 0 0.0026390987291153379 -0.016847210374918445 0 0.0026766955724807102 -0.016820854774328035 0 0.0026390987291153379 -0.016847210374918445 0 0.002595826697485413 -0.017047392824949766 0 0.0025519740399827092 -0.017075196710178809 0 0.0026390987291153379 -0.016847210374918445 0 0.002595826697485413 -0.017047392824949766 0 0.0026766955724807102 -0.016820854774328035 0 0.002595826697485413 -0.017047392824949766 0 0.0026386214688499717 -0.017136319514148176 0 0.0027515628517599529 -0.016762047807689143 0 0.0034003621029951819 -0.016149937736643489 0 0.0017624060226581438 -0.012175330669796609 0 0.0031082292342593698 -0.012071808142946779 0 0.0023873935407820201 -0.013498992166203663 0 0.0011534140540255357 -0.012910912686204002 0 0.0017624060226581438 -0.012175330669796609 0 0.0023873935407820201 -0.013498992166203663 0 0.003667034389102485 -0.013130405517644694 0 0.0031082292342593698 -0.012071808142946779 0 0.0023873935407820201 -0.013498992166203663 0 0.0026408090044034 -0.016316884671730404 0 0.0024310768327925267 -0.015435044506665245 0 0.0025756081346656003 -0.016067298341327391 0 0.0032048512898241641 -0.014616003952596089 0 0.0022368861134372609 -0.014485667397949792 0 0.0024310768327925267 -0.015435044506665245 0 0.002114599626001184 -0.015831730215340404 0 0.0025756081346656003 -0.016067298341327391 0 0.00069233721928722868 -0.014369141910070696 0 0.0022368861134372609 -0.014485667397949792 0 0.00064966802591905157 -0.014309442922154874 0 0.0024310768327925267 -0.015435044506665245 0 0.002114599626001184 -0.015831730215340404 0 0.0023276116361456256 -0.015506846037048695 0 0.0026333222390166125 -0.0031042653308741919 0 0.002114599626001184 -0.015831730215340404 0 0.0024029391964390154 -0.016049619092778755 0 0.0025756081346656003 -0.016067298341327391 0 0.0024029391964390154 -0.016049619092778755 0 0.0024987202150124088 -0.016189549432112434 0 0.0018307073620842515 -0.015978958476540118 0 0.002114599626001184 -0.015831730215340404 0 0.0024029391964390154 -0.016049619092778755 0 0.0018307073620842515 -0.015978958476540118 0 0.0024029391964390154 -0.016049619092778755 0 0.0025756081346656003 -0.016067298341327391 0 0.0025925514604717816 -0.016143902456138351 0 0.0025756081346656003 -0.016067298341327391 0 0.0025925514604717816 -0.016143902456138351 0 0.0025338670088939177 -0.016337591717870619 0 0.0024029391964390154 -0.016049619092778755 0 0.0025925514604717816 -0.016143902456138351 0 0.0024987202150124088 -0.016189549432112434 0 0.0021381186732260119 -0.013960121672605153 0 0.0016575797721845675 -0.013859745622936593 0 0.0014340747652868771 -0.013114188916760652 0 0.0021419974718470116 -0.014635826382925326 0 0.0023276116361456256 -0.015506846037048695 0 0.0025925514604717816 -0.016143902456138351 0 0.0026204473285488228 -0.015576789266132096 0 0.0024987202150124088 -0.016189549432112434 0 0.0025925514604717816 -0.016143902456138351 0 0.0026204473285488228 -0.015576789266132096 0 0.0025338670088939177 -0.016337591717870619 0 0.0016575797721845675 -0.013859745622936593 0 0.0012583964187841518 -0.013609179339115778 0 0.0011909502900637871 -0.014068202491517778 0 0.0016575797721845675 -0.013859745622936593 0 0.0012583964187841518 -0.013609179339115778 0 0.0014340747652868771 -0.013114188916760652 0 0.00073066881548631928 -0.01331663782077471 0 0.0014340747652868771 -0.013114188916760652 0 0.00032228396423165435 -0.012276517368635624 0 0.0012583964187841518 -0.013609179339115778 0 0.00073066881548631928 -0.01331663782077471 0 0.0011909502900637871 -0.014068202491517778 0 0.0046398492199014579 0.001658699486211359 0 0.0068109004164004124 0.0033693013101713729 0 0.0012583964187841518 -0.013609179339115778 0 0.00073066881548631928 -0.01331663782077471 0 0.0014340747652868771 -0.013114188916760652 0 0.0025519740399827092 -0.017075196710178809 0 0.0026390987291153379 -0.016847210374918445 0 0.0026073266855602142 -0.016931546957448321 0 0.0026232019119118277 -0.016513710483067441 0 0.0026390987291153379 -0.016847210374918445 0 0.0026307285451816313 -0.016699003228906887 0 0.0026390987291153379 -0.016847210374918445 0 0.0026073266855602142 -0.016931546957448321 0 0.0026307285451816313 -0.016699003228906887 0 0.0026073266855602142 -0.016931546957448321 0 0.0026307285451816313 -0.016699003228906887 0 0.0026475147318396346 -0.016861513383012491 0 0.0026232019119118277 -0.016513710483067441 0 0.0025756081346656003 -0.016067298341327391 0 0.0025338670088939177 -0.016337591717870619 0 0.0026307285451816313 -0.016699003228906887 0 0.0025338670088939177 -0.016337591717870619 0 0.0026475147318396346 -0.016861513383012491 0 0.0025417248671880735 -0.016379240673070682 0 0.0022453901266867291 -0.016175403314119083 0 0.0026232019119118277 -0.016513710483067441 0 0.0026307285451816313 -0.016699003228906887 0 0.0025338670088939177 -0.016337591717870619 0 0.0026204473285488228 -0.015576789266132096 0 0.0025338670088939177 -0.016337591717870619 0 0.0018296653138902244 -0.015603448248911436 0 0.0026204473285488228 -0.015576789266132096 0 0.0018296653138902244 -0.015603448248911436 0 0.0019182273311352342 -0.014663377839814322 0 0.0013038552635800944 -0.014864685130367927 0 0.0018296653138902244 -0.015603448248911436 0 0.0016627699470390406 -0.014887677819661533 0 0.0018296653138902244 -0.015603448248911436 0 0.0016627699470390406 -0.014887677819661533 0 0.0019182273311352342 -0.014663377839814322 0 0.0019476179051369073 -0.016196892542553996 0 0.0022453901266867291 -0.016175403314119083 0 0.0024920924335720333 -0.016972247673268014 0 0.0026073266855602142 -0.016931546957448321 0 0.0026475147318396346 -0.016861513383012491 0 0.0016392934781934159 -0.014574204988329072 0 0.0019182273311352342 -0.014663377839814322 0 0.0021805771196026788 -0.014344991436594529 0 0.0013038552635800944 -0.014864685130367927 0 0.0016392934781934159 -0.014574204988329072 0 0.0016627699470390406 -0.014887677819661533 0 0.0016392934781934159 -0.014574204988329072 0 0.0016627699470390406 -0.014887677819661533 0 0.0019182273311352342 -0.014663377839814322 0 0.0021419974718470116 -0.014635826382925326 0 0.0019712123862482981 -0.014653935375845513 0 0.0041178947878519187 -0.0078674453508290627 0 0.0040020071194193669 -0.0096704804475842322 0 0.0063785437879321713 -0.0022698815213859037 0 0.0067256793151816022 -0.0021880130034288804 0 0.0065728490937987287 -0.0021108387273381809 0 0.0021381186732260119 -0.013960121672605153 0 0.0019182273311352342 -0.014663377839814322 0 0.0021805771196026788 -0.014344991436594529 0 0.0067256793151816022 -0.0021880130034288804 0 0.0065728490937987287 -0.0021108387273381809 0 0.0067807767683087401 -0.0020212815395167518 0 0.0066621482682984656 -0.0019539605888829752 0 0.0065728490937987287 -0.0021108387273381809 0 0.0067807767683087401 -0.0020212815395167518 0 0.0080992440520903514 -0.0011294621239491918 0 0.0089697193478533045 -0.001566109438182917 0 0.0075041954346549058 -0.0019567571861706557 0 0.0075788572368269327 -0.002274126053536669 0 0.0069781397673485453 -0.0019777165102413063 0 0.0066621482682984656 -0.0019539605888829752 0 0.0065728490937987287 -0.0021108387273381809 0 0.006366856247607717 -0.0020841061182865863 0 0.0073673678160362244 -0.001110548745846311 0 0.0080992440520903514 -0.0011294621239491918 0 0.0075041954346549058 -0.0019567571861706557 0 0.0063785437879321713 -0.0022698815213859037 0 0.0065728490937987287 -0.0021108387273381809 0 0.006366856247607717 -0.0020841061182865863 0 0.0089521064604914102 0.014516631729851804 0 0.0083910315573707955 0.013455989745345731 0 0.0081008934220570695 0.014728867261427244 0 0.0088613580228983531 0.015979679584509621 0 0.0094617228014889539 0.014449718633851156 0 0.0081008934220570695 0.014728867261427244 0 0.0068109004164004124 0.0033693013101713729 0 0.0082120244934736405 0.012440138683196534 0 0.0016575797721845675 -0.013859745622936593 0 0.0021805771196026788 -0.014344991436594529 0 0.0011909502900637871 -0.014068202491517778 0 0.0040020071194193669 -0.0096704804475842322 0 0.0068109004164004124 0.0033693013101713729 0 0.0067256793151816022 -0.0021880130034288804 0 0.0070628265222518064 -0.0021427935484335196 0 0.0068878941575781566 -0.0020451594248839119 0 0.0021381186732260119 -0.013960121672605153 0 0.0016575797721845675 -0.013859745622936593 0 0.0021805771196026788 -0.014344991436594529 0 0.0067256793151816022 -0.0021880130034288804 0 0.0068878941575781566 -0.0020451594248839119 0 0.0067807767683087401 -0.0020212815395167518 0 0.0070628265222518064 -0.0021427935484335196 0 0.0068878941575781566 -0.0020451594248839119 0 0.0069387693071350908 -0.0018265155108324722 0 0.0075788572368269327 -0.002274126053536669 0 0.0088544471424822409 0.0057763443837995764 0 0.0066621482682984656 -0.0019539605888829752 0 0.0067807767683087401 -0.0020212815395167518 0 0.0069387693071350908 -0.0018265155108324722 0 0.0068878941575781566 -0.0020451594248839119 0 0.0067807767683087401 -0.0020212815395167518 0 0.0069387693071350908 -0.0018265155108324722 0 0.0089521064604914102 0.014516631729851804 0 0.0096960843278798125 0.01259037098553881 0 0.0083910315573707955 0.013455989745345731 0 0.0068109004164004124 0.0033693013101713729 0 0.0088544471424822409 0.0057763443837995764 0 0.0087499762821864006 0.012426234108570171 0 0.0096960843278798125 0.01259037098553881 0 0.0083910315573707955 0.013455989745345731 0 0.0078309565315414914 0.012414397142446866 0 0.0087499762821864006 0.012426234108570171 0 0.0083910315573707955 0.013455989745345731 0 0.0078309565315414914 0.012414397142446866 0 0.0083910315573707955 0.013455989745345731 0 0.0074738585465642495 0.013220390025068465 0 0.0068280609260636862 0.012496525166318993 0 0.0078309565315414914 0.012414397142446866 0 0.0074738585465642495 0.013220390025068465 0 0.0083910315573707955 0.013455989745345731 0 0.0074738585465642495 0.013220390025068465 0 0.0073767579439187369 0.014041319018963159 0 0.0055814117835803669 0.012629243044572804 0 0.0068280609260636862 0.012496525166318993 0 0.0065536096160012641 0.013386669697336 0 0.0068280609260636862 0.012496525166318993 0 0.0074738585465642495 0.013220390025068465 0 0.0065536096160012641 0.013386669697336 0 0.0074738585465642495 0.013220390025068465 0 0.0065536096160012641 0.013386669697336 0 0.0073767579439187369 0.014041319018963159 0 0.0065536096160012641 0.013386669697336 0 0.0063950998241217201 0.014408757541497881 0 0.0053382669908113968 0.014278540277057014 0 0.0063950998241217201 0.014408757541497881 0 0.0070881973812534282 0.014977845376457218 0 0.0073767579439187369 0.014041319018963159 0 0.0065536096160012641 0.013386669697336 0 0.0063950998241217201 0.014408757541497881 0 0.0073767579439187369 0.014041319018963159 0 0.0063950998241217201 0.014408757541497881 0 0.0070881973812534282 0.014977845376457218 0 0.006117481940188854 0.015314341095682114 0 0.0083910315573707955 0.013455989745345731 0 0.0073767579439187369 0.014041319018963159 0 0.0081008934220570695 0.014728867261427244 0 0.0070881973812534282 0.014977845376457218 0 0.0073767579439187369 0.014041319018963159 0 0.0081008934220570695 0.014728867261427244 0 0.0070881973812534282 0.014977845376457218 0 0.0081008934220570695 0.014728867261427244 0 0.007780697027828464 0.015629936105454698 0 0.0088613580228983531 0.015979679584509621 0 0.0081008934220570695 0.014728867261427244 0 0.007780697027828464 0.015629936105454698 0 0.0088613580228983531 0.015979679584509621 0 0.0078688845444820302 0.016507273676558187 0 0.007780697027828464 0.015629936105454698 0 0.0088613580228983531 0.015979679584509621 0 0.0078688845444820302 0.016507273676558187 0 0.0083172604371747113 0.017462734084140258 0 0.0078688845444820302 0.016507273676558187 0 0.0069155374763371072 0.016292165695379345 0 0.0074575585951377633 0.01717771292244059 0 0.0078688845444820302 0.016507273676558187 0 0.007780697027828464 0.015629936105454698 0 0.0069155374763371072 0.016292165695379345 0 0.0070881973812534282 0.014977845376457218 0 0.006117481940188854 0.015314341095682114 0 0.0069155374763371072 0.016292165695379345 0 0.006117481940188854 0.015314341095682114 0 0.0069155374763371072 0.016292165695379345 0 0.0051031653913134441 0.016290989304348819 0 0.0070881973812534282 0.014977845376457218 0 0.007780697027828464 0.015629936105454698 0 0.0069155374763371072 0.016292165695379345 0 0.0069155374763371072 0.016292165695379345 0 0.0068477662483799875 0.01816682879172838 0 0.0051031653913134441 0.016290989304348819 0 0.0069155374763371072 0.016292165695379345 0 0.0068477662483799875 0.01816682879172838 0 0.0074575585951377633 0.01717771292244059 0 0.0067620642638820888 0.018568194379563866 0 0.0068477662483799875 0.01816682879172838 0 0.0083172604371747113 0.017462734084140258 0 0.0067620642638820888 0.018568194379563866 0 0.0068477662483799875 0.01816682879172838 0 0.0065119050240179874 0.018527113403383928 0 0.0015401902451354951 0.006197855109342571 0 0.0026333222390166125 -0.0031042653308741919 0 0.0068477662483799875 0.01816682879172838 0 0.0083172604371747113 0.017462734084140258 0 0.0074575585951377633 0.01717771292244059 0 0.0030067209632378736 -0.00027968337734793109 0 4.2085274768739372e-05 2.868992106264769e-05 0 0.0037953772631185321 -0.0021120298714757996 0 0.0017142894329354734 -0.015721225473743938 0 0.002114599626001184 -0.015831730215340404 0 0.0018307073620842515 -0.015978958476540118 0 0.00041627263047185352 -0.0090087523207104045 0 0.0026333222390166125 -0.0031042653308741919 0 0.0046398492199014579 0.001658699486211359 0 0.0026333222390166125 -0.0031042653308741919 0 0.0078688845444820302 0.016507273676558187 0 0.0083172604371747113 0.017462734084140258 0 0.0074575585951377633 0.01717771292244059 0 0.0058803066623705682 0.018480666268433466 0 0.0060727539617955201 0.018912199678168509 0 0.0064606381205511874 0.018193617776290374 0 0.0058803066623705682 0.018480666268433466 0 0.0056083320832399901 0.018876602369403854 0 0.0060727539617955201 0.018912199678168509 0 0.0056083320832399901 0.018876602369403854 0 0.0050323585635063247 0.019183790074862893 0 0.0051207920694665877 0.018516769022154347 0 0.0058803066623705682 0.018480666268433466 0 0.0056083320832399901 0.018876602369403854 0 0.0051207920694665877 0.018516769022154347 0 0.0056083320832399901 0.018876602369403854 0 0.0056601911357077542 0.019286957034855005 0 0.0050323585635063247 0.019183790074862893 0 0.0056083320832399901 0.018876602369403854 0 0.0056601911357077542 0.019286957034855005 0 0.0060727539617955201 0.018912199678168509 0 0.0068477662483799875 0.01816682879172838 0 0.0065119050240179874 0.018527113403383928 0 0.0064606381205511874 0.018193617776290374 0 0.0068095769980710064 0.018138702661839669 0 0.0058161485818146201 0.0172260963905882 0 0.0060727539617955201 0.018912199678168509 0 0.0065119050240179874 0.018527113403383928 0 0.0064606381205511874 0.018193617776290374 0 0.0063209855602198344 0.018934104702516458 0 0.0060727539617955201 0.018912199678168509 0 0.0065119050240179874 0.018527113403383928 0 0.006117481940188854 0.015314341095682114 0 0.0051031653913134441 0.016290989304348819 0 0.0053382669908113968 0.014278540277057014 0 0.0058803066623705682 0.018480666268433466 0 0.0055031053732369972 0.016751139621056198 0 0.0051207920694665877 0.018516769022154347 0 0.0058161485818146201 0.0172260963905882 0 0.0046193460482391018 0.015825190001828308 0 0.0058803066623705682 0.018480666268433466 0 0.0064606381205511874 0.018193617776290374 0 0.0055031053732369972 0.016751139621056198 0 0.0037963929718415027 0.014912206714591255 0 0.0053382669908113968 0.014278540277057014 0 0.0040194204967618739 0.013079016805549955 0 0.0051031653913134441 0.016290989304348819 0 0.0037963929718415027 0.014912206714591255 0 0.0053382669908113968 0.014278540277057014 0 0.0063950998241217201 0.014408757541497881 0 0.006117481940188854 0.015314341095682114 0 0.0053382669908113968 0.014278540277057014 0 0.0055814117835803669 0.012629243044572804 0 0.0065536096160012641 0.013386669697336 0 0.0053382669908113968 0.014278540277057014 0 0.0055814117835803669 0.012629243044572804 0 0.0053382669908113968 0.014278540277057014 0 0.0040194204967618739 0.013079016805549955 0 0.0037963929718415027 0.014912206714591255 0 0.0040194204967618739 0.013079016805549955 0 0.0025289545525815915 0.013744505432823568 0 0.0024109724350108316 0.012455687855120204 0 0.0040194204967618739 0.013079016805549955 0 0.0025289545525815915 0.013744505432823568 0 0.0055031053732369972 0.016751139621056198 0 0.0040462007514566944 0.016778101908261067 0 0.0036427458421048622 0.014743667955848826 0 0.0046193460482391018 0.015825190001828308 0 0.0030368748433696035 0.014242413329595078 0 0.0040462007514566944 0.016778101908261067 0 0.002003416168941861 0.015462739070074677 0 0.0023700654001540603 0.017038777477496762 0 0.0040462007514566944 0.016778101908261067 0 0.002003416168941861 0.015462739070074677 0 0.0036427458421048622 0.014743667955848826 0 0.0013878187521630045 0.012898175294478479 0 0.0030368748433696035 0.014242413329595078 0 0.0012593661970710917 0.012821321803653899 0 0.0024109724350108316 0.012455687855120204 0 0.0025289545525815915 0.013744505432823568 0 0.0012593661970710917 0.012821321803653899 0 0.002003416168941861 0.015462739070074677 0 0.0036427458421048622 0.014743667955848826 0 -0.00022730210141603592 0.012847937369128041 0 0.0012593661970710917 0.012821321803653899 0 0.00046226184365416671 0.014812340563381954 0 0.0012593661970710917 0.012821321803653899 0 0.002003416168941861 0.015462739070074677 0 0.00046226184365416671 0.014812340563381954 0 -1.160533799578411e-05 0.014415870966404294 0 -0.0016942643142352535 0.017998854798575454 0 -0.00022730210141603592 0.012847937369128041 0 0.00046226184365416671 0.014812340563381954 0 -0.0011411668419237808 0.013983353287952601 0 -0.0022597912978620091 0.022779150729151081 0 -0.0019094181530175879 0.023282277982375019 0 -0.0025464982859019747 0.023145352470140157 0 -0.0016942643142352535 0.017998854798575454 0 -0.0009786104893917155 0.020136607751127172 0 0.00046226184365416671 0.014812340563381954 0 -0.0015605185982755908 0.014041945506662403 0 0.00011785994861572007 0.016573191685784864 0 0.002003416168941861 0.015462739070074677 0 0.00046226184365416671 0.014812340563381954 0 0.00011785994861572007 0.016573191685784864 0 0.002003416168941861 0.015462739070074677 0 0.00011785994861572007 0.016573191685784864 0 0.0023700654001540603 0.017038777477496762 0 -0.0019094181530175879 0.023282277982375019 0 -0.0021226527332998163 0.023989117834997246 0 -0.001538870507711056 0.023794649042115649 0 -0.0009786104893917155 0.020136607751127172 0 0.00095851766122694612 0.020418318549893833 0 0.00011785994861572007 0.016573191685784864 0 0.001807862559720496 0.019061892165877475 0 0.0023700654001540603 0.017038777477496762 0 -0.0019094181530175879 0.023282277982375019 0 -0.0021226527332998163 0.023989117834997246 0 -0.0025457307730176442 0.023600805394326189 0 -0.0029654815784657118 0.021559241534446029 0 0.00095851766122694612 0.020418318549893833 0 -0.003217398677637145 0.019267842718206342 0 0.0016871975089282512 0.017845166293518348 0 -0.00069724302143660559 0.021101294112876961 0 0.0016871975089282512 0.017845166293518348 0 0.0015153675305326813 0.020198474504201293 0 -0.00069724302143660559 0.021101294112876961 0 0.00095851766122694612 0.020418318549893833 0 0.0043476983808253544 0.018167059283633404 0 0.0023994653118003047 0.018855996694139818 0 0.0035266174126468938 0.019375526684790405 0 0.0034018423271825905 0.020364919643217079 0 0.0016871975089282512 0.017845166293518348 0 0.0015153675305326813 0.020198474504201293 0 0.0034018423271825905 0.020364919643217079 0 0.00095851766122694612 0.020418318549893833 0 0.0029562406183320051 0.019873116710884198 0 0.0023994653118003047 0.018855996694139818 0 0.0035266174126468938 0.019375526684790405 0 0.0040179883532289497 0.018314083651148498 0 0.0035266174126468938 0.019375526684790405 0 0.0039896553473633819 0.019847999219811376 0 0.0043073000539946889 0.019124939437011441 0 0.0035266174126468938 0.019375526684790405 0 0.0034018423271825905 0.020364919643217079 0 0.0037422033467334149 0.020172726116705068 0 0.0035266174126468938 0.019375526684790405 0 0.0039896553473633819 0.019847999219811376 0 0.0037422033467334149 0.020172726116705068 0 0.0039896553473633819 0.019847999219811376 0 0.0044990374028342599 0.019666385493621021 0 0.0043202133273086531 0.020186109800176259 0 0.0044990374028342599 0.019666385493621021 0 0.0050323585635063247 0.019183790074862893 0 0.0043073000539946889 0.019124939437011441 0 0.0039896553473633819 0.019847999219811376 0 0.0044990374028342599 0.019666385493621021 0 0.0043073000539946889 0.019124939437011441 0 0.0056601911357077542 0.019286957034855005 0 0.0050323585635063247 0.019183790074862893 0 0.005048234952604199 0.019671269618521142 0 0.0044990374028342599 0.019666385493621021 0 0.0050323585635063247 0.019183790074862893 0 0.005048234952604199 0.019671269618521142 0 0.0050323585635063247 0.019183790074862893 0 0.0051207920694665877 0.018516769022154347 0 0.0043073000539946889 0.019124939437011441 0 0.0035266174126468938 0.019375526684790405 0 0.0043073000539946889 0.019124939437011441 0 0.0040179883532289497 0.018314083651148498 0 0.0051207920694665877 0.018516769022154347 0 0.0043073000539946889 0.019124939437011441 0 0.0040179883532289497 0.018314083651148498 0 0.0055031053732369972 0.016751139621056198 0 0.0040462007514566944 0.016778101908261067 0 0.0051207920694665877 0.018516769022154347 0 0.0040462007514566944 0.016778101908261067 0 0.0051207920694665877 0.018516769022154347 0 0.0040179883532289497 0.018314083651148498 0 0.0040462007514566944 0.016778101908261067 0 0.0040179883532289497 0.018314083651148498 0 0.0023700654001540603 0.017038777477496762 0 0.001807862559720496 0.019061892165877475 0 0.0040179883532289497 0.018314083651148498 0 0.0023700654001540603 0.017038777477496762 0 -0.0012653950438320939 0.031781827047053055 0 -0.0013414209974890571 0.032080114010056775 0 -0.00099264189158320315 0.032939618663807312 0 -0.0011621776723391036 0.032856160750174959 0 -0.0014103044744522948 0.03284525114196396 0 -0.0013807338214020439 0.030797303493013718 0 -0.0016839861196644753 0.030801875552482857 0 -0.0017392646054208965 0.03047831641916663 0 -0.0016839861196644753 0.030801875552482857 0 -0.0018404029414497867 0.030723925167629163 0 -0.0017392646054208965 0.03047831641916663 0 -0.002317594492477675 0.029791040133522937 0 -0.0016438829601263427 0.031342225529970728 0 -0.0015729659184785232 0.031305868168118832 0 -0.001398183719664851 0.031125660372382669 0 -0.0016839861196644753 0.030801875552482857 0 -0.0017993310093571125 0.030796170832356633 0 -0.0018526520615116994 0.03079696477199164 0 -0.0016839861196644753 0.030801875552482857 0 -0.0017993310093571125 0.030796170832356633 0 -0.0016839861196644753 0.030801875552482857 0 -0.0018404029414497867 0.030723925167629163 0 -0.0018404029414497867 0.030723925167629163 0 -0.0018822675936172322 0.030760401522845961 0 -0.001988503463485774 0.030594941355862503 0 -0.0017993310093571125 0.030796170832356633 0 -0.0018404029414497867 0.030723925167629163 0 -0.0018822675936172322 0.030760401522845961 0 -0.0018404029414497867 0.030723925167629163 0 -0.001988503463485774 0.030594941355862503 0 -0.0017392646054208965 0.03047831641916663 0 -0.0029957492896239123 0.02319271128560637 0 -0.0025464982859019747 0.023145352470140157 0 -0.0025457307730176442 0.023600805394326189 0 -0.0023316464710403649 0.024617577032695577 0 -0.0025251671088986679 0.02700587200200881 0 -0.0019728189695367784 0.030789169023747533 0 -0.0018822675936172322 0.030760401522845961 0 -0.001988503463485774 0.030594941355862503 0 -0.0028925438524844923 0.022566509166373053 0 -0.0029957492896239123 0.02319271128560637 0 -0.0025464982859019747 0.023145352470140157 0 -0.0028925438524844923 0.022566509166373053 0 -0.0022597912978620091 0.022779150729151081 0 -0.0025464982859019747 0.023145352470140157 0 -0.0023316464710403649 0.024617577032695577 0 -0.0016942643142352535 0.017998854798575454 0 -0.0019094181530175879 0.023282277982375019 0 -0.0025464982859019747 0.023145352470140157 0 -0.0025457307730176442 0.023600805394326189 0 -0.0021226527332998163 0.023989117834997246 0 -0.0025457307730176442 0.023600805394326189 0 -0.0026899201229105998 0.024179614808570404 0 -0.0029654815784657118 0.021559241534446029 0 -0.0047232959171094142 0.024141173394192379 0 -0.0023995254697080346 0.028562826195406347 0 -0.0047232959171094142 0.024141173394192379 0 -0.0025457307730176442 0.023600805394326189 0 -0.0030970694911326814 0.023831729027993163 0 -0.0026899201229105998 0.024179614808570404 0 -0.0032334441391073188 0.028090444658903493 0 -0.0030877313441272504 0.027111767231783462 0 -0.0040333664190155081 0.027362685116933055 0 -0.0029957492896239123 0.02319271128560637 0 -0.0025457307730176442 0.023600805394326189 0 -0.0030970694911326814 0.023831729027993163 0 -0.0025251671088986679 0.02700587200200881 0 -0.0023995254697080346 0.028562826195406347 0 -0.001988503463485774 0.030594941355862503 0 -0.0019598926041259658 0.030249319090304722 0 -0.0017392646054208965 0.03047831641916663 0 -0.0023995254697080346 0.028562826195406347 0 -0.0013414209974890571 0.032080114010056775 0 -0.0019627521972547697 0.03239586268247896 0 -0.0012857216583273222 0.03233274488910097 0 -0.0014103044744522948 0.03284525114196396 0 -0.0017481266897704888 0.032041640961520089 0 -0.0012857216583273222 0.03233274488910097 0 -0.0018829590033460481 0.031721456006408397 0 -0.0019627521972547697 0.03239586268247896 0 -0.0017481266897704888 0.032041640961520089 0 -0.0012857216583273222 0.03233274488910097 0 -0.0013904506633991753 0.03263393582152941 0 -0.0031005746161689679 0.029781044854156752 0 -0.0023995254697080346 0.028562826195406347 0 -0.0031005746161689679 0.029781044854156752 0 -0.0019627521972547697 0.03239586268247896 0 -0.0017481266897704888 0.032041640961520089 0 -0.0018829590033460481 0.031721456006408397 0 -0.0011621776723391036 0.032856160750174959 0 -0.0012857216583273222 0.03233274488910097 0 -0.0014103044744522948 0.03284525114196396 0 -0.0017485821234676012 0.030732166563437632 0 -0.0020412013115456342 0.030829731105390348 0 -0.0020253159908313325 0.031172952048138695 0 -0.0017485821234676012 0.030732166563437632 0 -0.0020412013115456342 0.030829731105390348 0 -0.002066933053112386 0.030689853762397037 0 -0.0020412013115456342 0.030829731105390348 0 -0.0022573808206843393 0.030760950542414268 0 -0.002066933053112386 0.030689853762397037 0 -0.0020412013115456342 0.030829731105390348 0 -0.0020253159908313325 0.031172952048138695 0 -0.0022096323125984432 0.031030426864205131 0 -0.0012865292267449878 0.031525495783157866 0 -0.00195739083652095 0.032248342333533117 0 -0.0020253159908313325 0.031172952048138695 0 -0.00195739083652095 0.032248342333533117 0 -0.0020253159908313325 0.031172952048138695 0 -0.0028553925729571565 0.031403588724245118 0 -0.0020253159908313325 0.031172952048138695 0 -0.0023826000750107384 0.031216316570882099 0 -0.0022096323125984432 0.031030426864205131 0 -0.002054702294588936 0.031231009275762601 0 -0.0031005746161689679 0.029781044854156752 0 -0.0023826000750107384 0.031216316570882099 0 -0.0022096323125984432 0.031030426864205131 0 -0.0022573808206843393 0.030760950542414268 0 -0.0031005746161689679 0.029781044854156752 0 -0.0023025182593498844 0.031206413003575965 0 -0.0020412013115456342 0.030829731105390348 0 -0.0022096323125984432 0.031030426864205131 0 -0.0022573808206843393 0.030760950542414268 0 -0.0023078146787870193 0.03095492008384515 0 -0.0022573808206843393 0.030760950542414268 0 -0.0025363000984973193 0.030653404561157931 0 -0.0022573808206843393 0.030760950542414268 0 -0.0025363000984973193 0.030653404561157931 0 -0.0024471849869533214 0.030349781378831993 0 -0.0065179085978584565 0.02550868999817683 0 -0.0048132116745378123 0.02726633124105577 0 -0.0052251542448209136 0.025951781814280771 0 -0.0031005746161689679 0.029781044854156752 0 -0.0047232959171094142 0.024141173394192379 0 -0.0031005746161689679 0.029781044854156752 0 -0.0039366891604007111 0.028624909784669153 0 -0.0065179085978584565 0.02550868999817683 0 -0.0052251542448209136 0.025951781814280771 0 -0.0043591151691045726 0.024831192967714098 0 -0.003217398677637145 0.019267842718206342 0 -0.0083782267531206309 0.020828898643659902 0 -0.0050605103427885491 0.023839027651957705 0 -0.0052251542448209136 0.025951781814280771 0 -0.0043591151691045726 0.024831192967714098 0 -0.0027217229975675448 0.026251087813414634 0 -0.0047232959171094142 0.024141173394192379 0 -0.0041343751537360179 0.024798407835581904 0 -0.0048132116745378123 0.02726633124105577 0 -0.002762783114180213 0.029474032630572407 0 -0.0025025401022580759 0.027598636999215713 0 -0.0048132116745378123 0.02726633124105577 0 -0.0052251542448209136 0.025951781814280771 0 -0.0027217229975675448 0.026251087813414634 0 -0.0048132116745378123 0.02726633124105577 0 -0.0027217229975675448 0.026251087813414634 0 -0.0025025401022580759 0.027598636999215713 0 -0.002762783114180213 0.029474032630572407 0 -0.0025888356725528613 0.03017013194275615 0 -0.0024471849869533214 0.030349781378831993 0 -0.0025363000984973193 0.030653404561157931 0 -0.002762783114180213 0.029474032630572407 0 -0.0024471849869533214 0.030349781378831993 0 -0.0039366891604007111 0.028624909784669153 0 -0.0026867693759030902 0.029639442481211423 0 -0.002762783114180213 0.029474032630572407 0 -0.0025577175667831241 0.030188509470963753 0 -0.0022018864759613382 0.030407767978639651 0 -0.002762783114180213 0.029474032630572407 0 -0.0025577175667831241 0.030188509470963753 0 -0.0025888356725528613 0.03017013194275615 0 -0.0025577175667831241 0.030188509470963753 0 -0.0024206062693620137 0.030382686116680588 0 -0.0025298047304160346 0.03032335239419897 0 -0.0025577175667831241 0.030188509470963753 0 -0.0024206062693620137 0.030382686116680588 0 -0.0022018864759613382 0.030407767978639651 0 -0.0025577175667831241 0.030188509470963753 0 -0.0025298047304160346 0.03032335239419897 0 -0.0025888356725528613 0.03017013194275615 0 -0.0025888356725528613 0.03017013194275615 0 -0.0024762281331733613 0.030377710121206741 0 -0.0023764392555571459 0.030416149219087932 0 -0.0025298047304160346 0.03032335239419897 0 -0.0025888356725528613 0.03017013194275615 0 -0.0024762281331733613 0.030377710121206741 0 -0.0025298047304160346 0.03032335239419897 0 -0.0024762281331733613 0.030377710121206741 0 -0.0025075043368385187 0.030378577104668153 0 -0.0024762281331733613 0.030377710121206741 0 -0.0022628998713110277 0.030552194652847281 0 -0.0023705846850560178 0.030467322300321006 0 -0.0024762281331733613 0.030377710121206741 0 -0.0023764392555571459 0.030416149219087932 0 -0.0022628998713110277 0.030552194652847281 0 -0.0023764392555571459 0.030416149219087932 0 -0.0024471849869533214 0.030349781378831993 0 -0.0022404548429262854 0.030553857328116441 0 -0.0025888356725528613 0.03017013194275615 0 -0.0023764392555571459 0.030416149219087932 0 -0.0024471849869533214 0.030349781378831993 0 -0.0022573808206843393 0.030760950542414268 0 -0.0022404548429262854 0.030553857328116441 0 -0.002066933053112386 0.030689853762397037 0 -0.0022573808206843393 0.030760950542414268 0 -0.0024471849869533214 0.030349781378831993 0 -0.0022404548429262854 0.030553857328116441 0 -0.0022404548429262854 0.030553857328116441 0 -0.0021041847862770936 0.030662767924652071 0 -0.002066933053112386 0.030689853762397037 0 -0.0022404548429262854 0.030553857328116441 0 -0.0022327746233535618 0.030557028141626232 0 -0.0021041847862770936 0.030662767924652071 0 -0.0023764392555571459 0.030416149219087932 0 -0.0022404548429262854 0.030553857328116441 0 -0.0022327746233535618 0.030557028141626232 0 -0.0023764392555571459 0.030416149219087932 0 -0.0022327746233535618 0.030557028141626232 0 -0.0022628998713110277 0.030552194652847281 0 -0.0022327746233535618 0.030557028141626232 0 -0.0022628998713110277 0.030552194652847281 0 -0.0021171140797322701 0.030688789969386236 0 -0.0022628998713110277 0.030552194652847281 0 -0.0021171140797322701 0.030688789969386236 0 -0.0021230507620011692 0.030704608225960345 0 -0.0021171140797322701 0.030688789969386236 0 -0.0020326607060449759 0.030935762573946125 0 -0.0021230507620011692 0.030704608225960345 0 -0.0022327746233535618 0.030557028141626232 0 -0.0021171140797322701 0.030688789969386236 0 -0.0021041847862770936 0.030662767924652071 0 -0.0021171140797322701 0.030688789969386236 0 -0.0021041847862770936 0.030662767924652071 0 -0.0020308891795281798 0.030822583309338823 0 -0.0021041847862770936 0.030662767924652071 0 -0.0020308891795281798 0.030822583309338823 0 -0.0020339061692364459 0.030731547056538088 0 -0.0021171140797322701 0.030688789969386236 0 -0.0020308891795281798 0.030822583309338823 0 -0.0020326607060449759 0.030935762573946125 0 -0.0020308891795281798 0.030822583309338823 0 -0.0020187374830248879 0.031093292502499339 0 -0.0020326607060449759 0.030935762573946125 0 -0.0020285124818721408 0.031422559915110448 0 -0.0020187374830248879 0.031093292502499339 0 -0.0020203311880070381 0.031220280907412898 0 -0.0020308891795281798 0.030822583309338823 0 -0.0020187374830248879 0.031093292502499339 0 -0.0020398377791705463 0.030845576257128936 0 -0.0017484143913671024 0.031810721670218041 0 -0.0021215411857096072 0.031319867333129928 0 -0.0021159827985224797 0.030803943273672463 0 -0.0020187374830248879 0.031093292502499339 0 -0.0020398377791705463 0.030845576257128936 0 -0.0020285124818721408 0.031422559915110448 0 -0.0021066722019347324 0.031140335650208593 0 -0.0020187374830248879 0.031093292502499339 0 -0.0021159827985224797 0.030803943273672463 0 -0.0020398377791705463 0.030845576257128936 0 -0.0020339061692364459 0.030731547056538088 0 -0.0020308891795281798 0.030822583309338823 0 -0.0020398377791705463 0.030845576257128936 0 -0.0020339061692364459 0.030731547056538088 0 -0.0017485821234676012 0.030732166563437632 0 -0.0020339061692364459 0.030731547056538088 0 -0.002066933053112386 0.030689853762397037 0 -0.0021041847862770936 0.030662767924652071 0 -0.0020339061692364459 0.030731547056538088 0 -0.002066933053112386 0.030689853762397037 0 0.0037085117215414978 0.020618174965471359 0 0.0035841769077847776 0.02063970410429318 0 0.0036865973307185357 0.020680327360301041 0 0.0037085117215414978 0.020618174965471359 0 0.0037293248728066694 0.020657154736950477 0 0.0035841769077847776 0.02063970410429318 0 0.0037508668054721454 0.020537215375015652 0 0.0037085117215414978 0.020618174965471359 0 0.0036865973307185357 0.020680327360301041 0 0.0037508668054721454 0.020537215375015652 0 0.0037085117215414978 0.020618174965471359 0 0.0037292074666965781 0.020586705545531513 0 0.0011337976527704015 0.0077046284399719007 0 0.0011834739449290933 0.014685337985119026 0 0.0056966695371450252 0.020022014930580805 0 0.005048234952604199 0.019671269618521142 0 0.0043202133273086531 0.020186109800176259 0 0.0037085117215414978 0.020618174965471359 0 0.0037292074666965781 0.020586705545531513 0 0.0037293248728066694 0.020657154736950477 0 0.0050571989526276276 0.017806681461231526 0 0.0035760668225898714 0.021085791886115327 0 0.0056966695371450252 0.020022014930580805 0 0.0043202133273086531 0.020186109800176259 0 0.0037293248728066694 0.020657154736950477 0 0.0037441850891910553 0.020535580291000353 0 0.0037292074666965781 0.020586705545531513 0 0.0037293248728066694 0.020657154736950477 0 0.0044990374028342599 0.019666385493621021 0 0.005048234952604199 0.019671269618521142 0 0.0043202133273086531 0.020186109800176259 0 0.0039896553473633819 0.019847999219811376 0 0.0043202133273086531 0.020186109800176259 0 0.0038749832360456663 0.020330344450680021 0 0.0037039834957902883 0.020719189735951278 0 0.0024663365769583062 0.024258356226854128 0 0.0037204818037595215 0.020686196998643887 0 0.0037293248728066694 0.020657154736950477 0 0.0035841769077847776 0.02063970410429318 0 0.0037204818037595215 0.020686196998643887 0 0.0020975805710224428 0.022063632262034831 0 0.0013599053653185803 0.026843650196003668 0 0.0039896553473633819 0.019847999219811376 0 0.0038749832360456663 0.020330344450680021 0 0.0037422033467334149 0.020172726116705068 0 0.0038749832360456663 0.020330344450680021 0 0.0037422033467334149 0.020172726116705068 0 0.0037204818037595215 0.020686196998643887 0 0.0034018423271825905 0.020364919643217079 0 0.0037422033467334149 0.020172726116705068 0 0.0037204818037595215 0.020686196998643887 0 0.0043202133273086531 0.020186109800176259 0 0.0038749832360456663 0.020330344450680021 0 0.0037293248728066694 0.020657154736950477 0 0.0038749832360456663 0.020330344450680021 0 0.0037204818037595215 0.020686196998643887 0 0.0037293248728066694 0.020657154736950477 0 0.0034018423271825905 0.020364919643217079 0 0.0037204818037595215 0.020686196998643887 0 0.0020975805710224428 0.022063632262034831 0 0.0015153675305326813 0.020198474504201293 0 0.0034018423271825905 0.020364919643217079 0 0.0020975805710224428 0.022063632262034831 0 0.0015153675305326813 0.020198474504201293 0 -0.00069724302143660559 0.021101294112876961 0 0.00047206808265569562 0.022983059460637466 0 0.0020975805710224428 0.022063632262034831 0 0.00047206808265569562 0.022983059460637466 0 0.0013599053653185803 0.026843650196003668 0 0.0015153675305326813 0.020198474504201293 0 0.0020975805710224428 0.022063632262034831 0 0.00047206808265569562 0.022983059460637466 0 0.00047206808265569562 0.022983059460637466 0 -0.0017772610790481498 0.023665778774465233 0 -0.0002851698420661804 0.025193974841091999 0 -0.00069724302143660559 0.021101294112876961 0 0.00047206808265569562 0.022983059460637466 0 -0.0017772610790481498 0.023665778774465233 0 -0.003217398677637145 0.019267842718206342 0 -0.00069724302143660559 0.021101294112876961 0 -0.0017772610790481498 0.023665778774465233 0 -0.003217398677637145 0.019267842718206342 0 -0.0050605103427885491 0.023839027651957705 0 -0.0017772610790481498 0.023665778774465233 0 -0.0041343751537360179 0.024798407835581904 0 -0.001380473799910004 0.027124977936731329 0 -0.0027217229975675448 0.026251087813414634 0 -0.0012366167671279439 0.027183953224477825 0 -0.0025025401022580759 0.027598636999215713 0 -0.0050605103427885491 0.023839027651957705 0 -0.0017772610790481498 0.023665778774465233 0 -0.0012366167671279439 0.027183953224477825 0 -0.0012366167671279439 0.027183953224477825 0 -0.0025025401022580759 0.027598636999215713 0 -0.0016706290006560927 0.028912484381509153 0 -0.0012366167671279439 0.027183953224477825 0 0.0013599053653185803 0.026843650196003668 0 -0.0016706290006560927 0.028912484381509153 0 0.00047206808265569562 0.022983059460637466 0 -0.0002851698420661804 0.025193974841091999 0 0.0013599053653185803 0.026843650196003668 0 -0.0017772610790481498 0.023665778774465233 0 -0.0012366167671279439 0.027183953224477825 0 -0.0002851698420661804 0.025193974841091999 0 -0.0012366167671279439 0.027183953224477825 0 -0.0002851698420661804 0.025193974841091999 0 0.0013599053653185803 0.026843650196003668 0 0.0024663365769583062 0.024258356226854128 0 8.9028171446601208e-05 0.022354081756902081 0 8.9028171446601208e-05 0.022354081756902081 0 0.0011834739449290933 0.014685337985119026 0 -0.0031636664655923831 0.0097786034841820576 0 -0.0021405578330997714 0.0097246002243370211 0 -0.0015829413017988743 0.0088537194805108962 0 0.0013599053653185803 0.026843650196003668 0 -0.0016706290006560927 0.028912484381509153 0 -0.00091278033968279814 0.03016882476545012 0 0.0035841769077847776 0.02063970410429318 0 0.0033840417256854271 0.020886458184843974 0 0.0036865973307185357 0.020680327360301041 0 -0.002762783114180213 0.029474032630572407 0 -0.0016706290006560927 0.028912484381509153 0 -0.0022018864759613382 0.030407767978639651 0 -0.002762783114180213 0.029474032630572407 0 -0.0025025401022580759 0.027598636999215713 0 -0.0016706290006560927 0.028912484381509153 0 -0.0022018864759613382 0.030407767978639651 0 -0.0020488117847886518 0.030301986435143299 0 -0.0022986907533907109 0.030465130510398248 0 -0.0016706290006560927 0.028912484381509153 0 -0.0022018864759613382 0.030407767978639651 0 -0.00091278033968279814 0.03016882476545012 0 8.9028171446601208e-05 0.022354081756902081 0 -0.0032088140285155644 0.019983517898466873 0 -0.003644499523132845 0.029992879901006943 0 8.9028171446601208e-05 0.022354081756902081 0 -0.0024206062693620137 0.030382686116680588 0 -0.0022018864759613382 0.030407767978639651 0 -0.0022986907533907109 0.030465130510398248 0 -0.0031636664655923831 0.0097786034841820576 0 -0.0021405578330997714 0.0097246002243370211 0 -0.0020226296835687456 0.01050762263370463 0 -0.0031636664655923831 0.0097786034841820576 0 -0.0020226296835687456 0.01050762263370463 0 -0.0038458552875870037 0.011147778192751628 0 -0.001451756649725493 0.0096311353241533802 0 -0.0021405578330997714 0.0097246002243370211 0 -0.0020226296835687456 0.01050762263370463 0 -0.001451756649725493 0.0096311353241533802 0 -0.0021405578330997714 0.0097246002243370211 0 -0.0015829413017988743 0.0088537194805108962 0 -0.00027376017296821902 0.0081160144944742163 0 -0.0015829413017988743 0.0088537194805108962 0 -0.00087812620810949601 0.0092037882535403823 0 -0.001451756649725493 0.0096311353241533802 0 -0.0015829413017988743 0.0088537194805108962 0 -0.00087812620810949601 0.0092037882535403823 0 -0.00071569085214246602 0.010213218499966517 0 -0.0016900489020967575 0.0088285151316121763 0 -0.00052789512336322297 0.0097640945364004823 0 -0.001451756649725493 0.0096311353241533802 0 -0.0020226296835687456 0.01050762263370463 0 -0.00052789512336322297 0.0097640945364004823 0 -0.001451756649725493 0.0096311353241533802 0 -0.00087812620810949601 0.0092037882535403823 0 -0.0022219514290229515 -0.005926677239070012 0 -0.0019408112424114303 -0.005766893814641863 0 -0.0017313077656944075 -0.0058633227869538855 0 -0.00052789512336322297 0.0097640945364004823 0 -0.0011085872978968483 0.01027676958708317 0 -0.00027587749555308235 0.010136838048470549 0 -0.00052789512336322297 0.0097640945364004823 0 -0.0011085872978968483 0.01027676958708317 0 -0.0016428373118769406 0.0099415742323307622 0 -0.0014573050368205571 0.0024851048990436201 0 -0.0023480853565558441 -0.00012791451772932731 0 -0.0022219514290229515 -0.005926677239070012 0 -0.0019420150372391417 -0.0055202695019605647 0 -0.0026689465827800284 -0.0054058030812648991 0 -0.0022219514290229515 -0.005926677239070012 0 -0.0019408112424114303 -0.005766893814641863 0 -0.0019420150372391417 -0.0055202695019605647 0 -0.0019420150372391417 -0.0055202695019605647 0 -0.0026689465827800284 -0.0054058030812648991 0 -0.0024735047532158396 -0.0047364369650451116 0 -0.0011085872978968483 0.01027676958708317 0 -0.0016428373118769406 0.0099415742323307622 0 -0.0021026882358603578 0.010500489118170817 0 -0.0022219514290229515 -0.005926677239070012 0 -0.0026689465827800284 -0.0054058030812648991 0 -0.003309670658786657 -0.0059503793871083423 0 -0.0014573050368205571 0.0024851048990436201 0 -0.0027978286172048771 0.0010493612063544708 0 -0.0016428373118769406 0.0099415742323307622 0 -0.0021026882358603578 0.010500489118170817 0 -0.0029827018651956824 0.01032465530974648 0 -0.0016900489020967575 0.0088285151316121763 0 -0.0032088140285155644 0.019983517898466873 0 -0.0027978286172048771 0.0010493612063544708 0 -0.0027104602818491361 0.015915888707146469 0 -0.0021026882358603578 0.010500489118170817 0 -0.0029827018651956824 0.01032465530974648 0 -0.0031986304085214884 0.010751119587587767 0 -0.0032088140285155644 0.019983517898466873 0 -0.0027104602818491361 0.015915888707146469 0 -0.003309670658786657 -0.0059503793871083423 0 -0.0047054758616770819 -0.0057223695283179429 0 -0.0038825130206853026 -0.0053395237941140303 0 -0.0047054758616770819 -0.0057223695283179429 0 -0.0038825130206853026 -0.0053395237941140303 0 -0.0046268358706400819 -0.0050419480038569634 0 -0.0026689465827800284 -0.0054058030812648991 0 -0.003309670658786657 -0.0059503793871083423 0 -0.0038825130206853026 -0.0053395237941140303 0 -0.0026689465827800284 -0.0054058030812648991 0 -0.0038825130206853026 -0.0053395237941140303 0 -0.0031661904496709226 -0.0045083485393799796 0 -0.0038825130206853026 -0.0053395237941140303 0 -0.0031661904496709226 -0.0045083485393799796 0 -0.0044735885052254749 -0.0046978512715213569 0 -0.0031661904496709226 -0.0045083485393799796 0 -0.0044735885052254749 -0.0046978512715213569 0 -0.0034371119528794525 -0.0025011077796919063 0 -0.0046268358706400819 -0.0050419480038569634 0 -0.0044735885052254749 -0.0046978512715213569 0 -0.0053620275115818638 -0.0044584652382288386 0 -0.0038825130206853026 -0.0053395237941140303 0 -0.0046268358706400819 -0.0050419480038569634 0 -0.0044735885052254749 -0.0046978512715213569 0 -0.0044735885052254749 -0.0046978512715213569 0 -0.0034371119528794525 -0.0025011077796919063 0 -0.0061101585238864213 -0.003015787006487945 0 -0.0034371119528794525 -0.0025011077796919063 0 -0.0061101585238864213 -0.003015787006487945 0 -0.0066497764721667905 0.0017061299999539281 0 -0.0034371119528794525 -0.0025011077796919063 0 -0.0027773163502009227 -0.0037333772929655906 0 -0.002738575875119614 -0.0035270212436366226 0 -0.0031661904496709226 -0.0045083485393799796 0 -0.0034371119528794525 -0.0025011077796919063 0 -0.0027773163502009227 -0.0037333772929655906 0 -0.0027773163502009227 -0.0037333772929655906 0 -0.0023457766275878657 -0.0041397704112551698 0 -0.0024735047532158396 -0.0047364369650451116 0 -0.0027773163502009227 -0.0037333772929655906 0 -0.0023457766275878657 -0.0041397704112551698 0 -0.002738575875119614 -0.0035270212436366226 0 -0.0019883811499743775 -0.004949094835630421 0 -0.0023457766275878657 -0.0041397704112551698 0 -0.0017542282944924164 -0.0041909053129848403 0 -0.0019883811499743775 -0.004949094835630421 0 -0.0023457766275878657 -0.0041397704112551698 0 -0.0024735047532158396 -0.0047364369650451116 0 -0.0019420150372391417 -0.0055202695019605647 0 -0.0019883811499743775 -0.004949094835630421 0 -0.0024735047532158396 -0.0047364369650451116 0 -0.0026689465827800284 -0.0054058030812648991 0 -0.0031661904496709226 -0.0045083485393799796 0 -0.0024735047532158396 -0.0047364369650451116 0 -0.0031661904496709226 -0.0045083485393799796 0 -0.0027773163502009227 -0.0037333772929655906 0 -0.0024735047532158396 -0.0047364369650451116 0 -0.001982039805641894 0.03094654080750539 0 -0.0020718867611230871 0.030960197658566006 0 -0.00211616492423825 0.030846792128133231 0 -0.001982039805641894 0.03094654080750539 0 -0.0020718867611230871 0.030960197658566006 0 -0.0019990039375521128 0.031174715563166595 0 -0.001643788468532728 0.031507301703125455 0 -0.001982039805641894 0.03094654080750539 0 -0.0019990039375521128 0.031174715563166595 0 -0.0017822031076124415 0.031564358963273607 0 -0.0019990039375521128 0.031174715563166595 0 -0.0020203311880070381 0.031220280907412898 0 -0.0020187374830248879 0.031093292502499339 0 -0.0020203311880070381 0.031220280907412898 0 -0.0020326607060449759 0.030935762573946125 0 -0.0019990039375521128 0.031174715563166595 0 -0.0020326607060449759 0.030935762573946125 0 -0.0020439884980892999 0.030747097870048992 0 -0.0019990039375521128 0.031174715563166595 0 -0.0020203311880070381 0.031220280907412898 0 -0.0020326607060449759 0.030935762573946125 0 -0.0020718867611230871 0.030960197658566006 0 -0.0019990039375521128 0.031174715563166595 0 -0.0020439884980892999 0.030747097870048992 0 -0.0020326607060449759 0.030935762573946125 0 -0.0020439884980892999 0.030747097870048992 0 -0.0021230507620011692 0.030704608225960345 0 -0.0020439884980892999 0.030747097870048992 0 -0.0021230507620011692 0.030704608225960345 0 -0.0022184640119317796 0.03057433270052333 0 -0.0022628998713110277 0.030552194652847281 0 -0.0021230507620011692 0.030704608225960345 0 -0.0022184640119317796 0.03057433270052333 0 -0.0020439884980892999 0.030747097870048992 0 -0.0022184640119317796 0.03057433270052333 0 -0.0023150270237156847 0.030365321605452914 0 -0.0020439884980892999 0.030747097870048992 0 -0.0020811064693701939 0.029738247367310087 0 -0.0023150270237156847 0.030365321605452914 0 -0.0020718867611230871 0.030960197658566006 0 -0.0020439884980892999 0.030747097870048992 0 -0.0022263668907334926 0.030868357333084094 0 -0.0022997367904170605 0.030258576386194787 0 -0.0015198488706391787 0.031397424607143801 0 -0.0020718867611230871 0.030960197658566006 0 -0.00211616492423825 0.030846792128133231 0 -0.0022263668907334926 0.030868357333084094 0 -0.0020811064693701939 0.029738247367310087 0 -0.0026793894562994911 0.029412660428173084 0 -0.0024822238573202135 0.029923668291821404 0 -0.0024822238573202135 0.029923668291821404 0 -0.002588974764211059 0.030234010184206388 0 -0.002834882968821078 0.029936430281642466 0 -0.0026793894562994911 0.029412660428173084 0 -0.0024822238573202135 0.029923668291821404 0 -0.002834882968821078 0.029936430281642466 0 -0.0020811064693701939 0.029738247367310087 0 -0.0024822238573202135 0.029923668291821404 0 -0.0023150270237156847 0.030365321605452914 0 -0.0022184640119317796 0.03057433270052333 0 -0.0023150270237156847 0.030365321605452914 0 -0.0023705846850560178 0.030467322300321006 0 -0.0023150270237156847 0.030365321605452914 0 -0.0023705846850560178 0.030467322300321006 0 -0.0025075043368385187 0.030378577104668153 0 -0.0022628998713110277 0.030552194652847281 0 -0.0022184640119317796 0.03057433270052333 0 -0.0023705846850560178 0.030467322300321006 0 -0.0024762281331733613 0.030377710121206741 0 -0.0023705846850560178 0.030467322300321006 0 -0.0025075043368385187 0.030378577104668153 0 -0.0023150270237156847 0.030365321605452914 0 -0.0025075043368385187 0.030378577104668153 0 -0.002588974764211059 0.030234010184206388 0 -0.0024822238573202135 0.029923668291821404 0 -0.0023150270237156847 0.030365321605452914 0 -0.002588974764211059 0.030234010184206388 0 -0.0032088140285155644 0.019983517898466873 0 -0.0029201996002068886 0.032436759103047434 0 -0.0022986907533907109 0.030465130510398248 0 -0.002588974764211059 0.030234010184206388 0 -0.0024858069790542445 0.030360606917210098 0 -0.0035078583867709239 0.030117993740423368 0 -0.0033457190317632344 0.029867592988871067 0 -0.002588974764211059 0.030234010184206388 0 -0.0025298047304160346 0.03032335239419897 0 -0.0025075043368385187 0.030378577104668153 0 -0.0024858069790542445 0.030360606917210098 0 -0.0025075043368385187 0.030378577104668153 0 -0.002588974764211059 0.030234010184206388 0 -0.0024858069790542445 0.030360606917210098 0 -0.0024206062693620137 0.030382686116680588 0 -0.0025298047304160346 0.03032335239419897 0 -0.0024858069790542445 0.030360606917210098 0 -0.0024206062693620137 0.030382686116680588 0 -0.0022986907533907109 0.030465130510398248 0 -0.0024858069790542445 0.030360606917210098 0 -0.0047054758616770819 -0.0057223695283179429 0 -0.0046268358706400819 -0.0050419480038569634 0 -0.0053620275115818638 -0.0044584652382288386 0 -0.0034638921572059276 0.029913490697181043 0 -0.0026793894562994911 0.029412660428173084 0 -0.0029702900599175497 0.028845494256975659 0 -0.0027104602818491361 0.015915888707146469 0 -0.0039065900899773482 0.027991506469334477 0 -0.0033457190317632344 0.029867592988871067 0 -0.002588974764211059 0.030234010184206388 0 -0.002834882968821078 0.029936430281642466 0 -0.0034638921572059276 0.029913490697181043 0 -0.0026793894562994911 0.029412660428173084 0 -0.002834882968821078 0.029936430281642466 0 -0.0027104602818491361 0.015915888707146469 0 -0.0062082600726865046 0.007709315195743905 0 -0.0046820633891474913 -0.0054785350087135747 0 -0.0062082600726865046 0.007709315195743905 0 -0.0044735885052254749 -0.0046978512715213569 0 -0.0079161718849043456 -0.0049080040256420706 0 -0.0061101585238864213 -0.003015787006487945 0 -0.0062082600726865046 0.007709315195743905 0 -0.006374235830893837 0.0075733354508831854 0 -0.0061101585238864213 -0.003015787006487945 0 -0.0090024079450056818 -0.0032357592384262596 0 -0.0066497764721667905 0.0017061299999539281 0 -0.006374235830893837 0.0075733354508831854 0 -0.0047764061835441603 0.0039274390501243608 0 -0.0079161718849043456 -0.0049080040256420706 0 -0.0061101585238864213 -0.003015787006487945 0 -0.0090024079450056818 -0.0032357592384262596 0 -0.006374235830893837 0.0075733354508831854 0 -0.0051016500534613396 0.012600627570976798 0 -0.0073593260014667402 0.01733569490428102 0 -0.0056810172451034384 0.017066113534729883 0 -0.0063130022946318969 0.015269212271216397 0 -0.0073593260014667402 0.01733569490428102 0 -0.0067570836580510083 0.018300963917591766 0 -0.0056810172451034384 0.017066113534729883 0 -0.0069917489698356717 0.013399998578135258 0 -0.0058833078157274473 0.011256529930084804 0 -0.0045885951827938556 0.013300039153283939 0 -0.0062082600726865046 0.007709315195743905 0 -0.0036119865480086825 0.022088926108149068 0 -0.006374235830893837 0.0075733354508831854 0 -0.0036119865480086825 0.022088926108149068 0 -0.0020811064693701939 0.029738247367310087 0 -0.0026793894562994911 0.029412660428173084 0 -0.0024511459942841494 0.028849880783461949 0 -0.0026793894562994911 0.029412660428173084 0 -0.0029702900599175497 0.028845494256975659 0 -0.0024511459942841494 0.028849880783461949 0 -0.0015198488706391787 0.031397424607143801 0 -0.0036119865480086825 0.022088926108149068 0 -0.0067570836580510083 0.018300963917591766 0 -0.0044917296426288745 0.018209518156391779 0 -0.0056810172451034384 0.017066113534729883 0 -0.00211616492423825 0.030846792128133231 0 -0.0022263668907334926 0.030868357333084094 0 -0.0021382766523073346 0.030617930752263971 0 -0.0022263668907334926 0.030868357333084094 0 -0.0024113830985278101 0.030579698814184594 0 -0.0021382766523073346 0.030617930752263971 0 -0.0036119865480086825 0.022088926108149068 0 -0.0035723934197636805 0.024286601650699971 0 -0.0056810172451034384 0.017066113534729883 0 -0.004597432584854207 0.016094862585079479 0 -0.0063130022946318969 0.015269212271216397 0 -0.0056810172451034384 0.017066113534729883 0 -0.0046088253069413183 0.017187649416685165 0 -0.004597432584854207 0.016094862585079479 0 -0.0044917296426288745 0.018209518156391779 0 -0.0056810172451034384 0.017066113534729883 0 -0.0046088253069413183 0.017187649416685165 0 -0.0030189496690095274 0.016642648180130098 0 -0.0036085017570662223 0.017353727173249508 0 -0.003328600119733655 0.016446904075743504 0 -0.0044917296426288745 0.018209518156391779 0 -0.0046088253069413183 0.017187649416685165 0 -0.0036085017570662223 0.017353727173249508 0 -0.0036085017570662223 0.017353727173249508 0 -0.0032286272494241445 0.015392152766239968 0 -0.004597432584854207 0.016094862585079479 0 -0.003588109549096506 0.017313455508159919 0 -0.0032359887065649112 0.015632696170473505 0 -0.002669196454906677 0.018045340694828237 0 -0.0030189496690095274 0.016642648180130098 0 -0.0036085017570662223 0.017353727173249508 0 -0.0046088253069413183 0.017187649416685165 0 -0.0036085017570662223 0.017353727173249508 0 -0.004597432584854207 0.016094862585079479 0 -0.0018184784133689175 0.028189736592065372 0 -0.0035723934197636805 0.024286601650699971 0 -0.0016760625085511058 0.030514033983437966 0 -0.001982039805641894 0.03094654080750539 0 -0.0021382766523073346 0.030617930752263971 0 -0.002669196454906677 0.018045340694828237 0 -0.0044917296426288745 0.018209518156391779 0 -0.0036085017570662223 0.017353727173249508 0 -0.001982039805641894 0.03094654080750539 0 -0.00211616492423825 0.030846792128133231 0 -0.0021382766523073346 0.030617930752263971 0 -0.0030359373909002434 0.013549267447638767 0 -0.004476466149525537 0.014489334834758373 0 -0.0040226305115885225 0.01272382659316508 0 -0.0030359373909002434 0.013549267447638767 0 -0.0032286272494241445 0.015392152766239968 0 -0.004476466149525537 0.014489334834758373 0 -0.0030189496690095274 0.016642648180130098 0 -0.0032298003610043763 0.015723518715319774 0 -0.003328600119733655 0.016446904075743504 0 -0.0042178946866054633 0.016305868058641829 0 -0.0032359887065649112 0.015632696170473505 0 -0.0032286272494241445 0.015392152766239968 0 -0.004476466149525537 0.014489334834758373 0 -0.004597432584854207 0.016094862585079479 0 -0.004476466149525537 0.014489334834758373 0 -0.004597432584854207 0.016094862585079479 0 -0.0063130022946318969 0.015269212271216397 0 -0.004476466149525537 0.014489334834758373 0 -0.0052267080072844032 0.013243898284979695 0 -0.0063130022946318969 0.015269212271216397 0 -0.0045580311325318541 0.011130245726902336 0 -0.0051016500534613396 0.012600627570976798 0 -0.004476466149525537 0.014489334834758373 0 -0.0052267080072844032 0.013243898284979695 0 -0.0040226305115885225 0.01272382659316508 0 -0.0041078759300295737 0.0093155093008916705 0 -0.003641375490622936 0.008258462806920313 0 -0.0031025561694777342 0.0092305845546624531 0 -0.003266453726626276 0.0074604906206546225 0 -0.003641375490622936 0.008258462806920313 0 -0.0026649584646102594 0.0082955771270257876 0 -0.003641375490622936 0.008258462806920313 0 -0.0026649584646102594 0.0082955771270257876 0 -0.0031025561694777342 0.0092305845546624531 0 -0.0026649584646102594 0.0082955771270257876 0 -0.0031025561694777342 0.0092305845546624531 0 -0.0022245324599468939 0.0082224305986027847 0 -0.0031025561694777342 0.0092305845546624531 0 -0.0033189905899361468 0.010493125312924061 0 -0.0025550799514464637 0.010057749582417379 0 -0.0031025561694777342 0.0092305845546624531 0 -0.0022245324599468939 0.0082224305986027847 0 -0.0025550799514464637 0.010057749582417379 0 -0.0033189905899361468 0.010493125312924061 0 -0.0025550799514464637 0.010057749582417379 0 -0.0033387229560157519 0.011499144070163168 0 -0.0033189905899361468 0.010493125312924061 0 -0.0037615671225599123 0.010431038891403854 0 -0.0038284334636657638 0.011251147930185546 0 -0.0041078759300295737 0.0093155093008916705 0 -0.0031025561694777342 0.0092305845546624531 0 -0.0037615671225599123 0.010431038891403854 0 -0.0031025561694777342 0.0092305845546624531 0 -0.0033189905899361468 0.010493125312924061 0 -0.0037615671225599123 0.010431038891403854 0 -0.0045580311325318541 0.011130245726902336 0 -0.0043116143657860578 0.011339356934704201 0 -0.0052267080072844032 0.013243898284979695 0 -0.0042116230670140231 0.011368441937099041 0 -0.0040226305115885225 0.01272382659316508 0 -0.0041078759300295737 0.0093155093008916705 0 -0.0037615671225599123 0.010431038891403854 0 -0.0042116230670140231 0.011368441937099041 0 -0.0037615671225599123 0.010431038891403854 0 -0.0042116230670140231 0.011368441937099041 0 -0.0038284334636657638 0.011251147930185546 0 -0.0042116230670140231 0.011368441937099041 0 -0.0039429199584859326 0.011461677574010103 0 -0.0038284334636657638 0.011251147930185546 0 -0.0042116230670140231 0.011368441937099041 0 -0.0039429199584859326 0.011461677574010103 0 -0.0036546676638777834 0.011530330954742523 0 -0.0039429199584859326 0.011461677574010103 0 -0.0036546676638777834 0.011530330954742523 0 -0.0037297925982090899 0.011833407406813091 0 -0.0036546676638777834 0.011530330954742523 0 -0.0037297925982090899 0.011833407406813091 0 -0.0035286245975360312 0.012461171849011365 0 -0.0042178946866054633 0.016305868058641829 0 -0.0034787583235804105 0.0099416633500616879 0 -0.0037738245684892772 0.011459433127192071 0 -0.0038129835110858198 0.011400326980523293 0 -0.0036546676638777834 0.011530330954742523 0 -0.0030359373909002434 0.013549267447638767 0 -0.0036546676638777834 0.011530330954742523 0 -0.0040226305115885225 0.01272382659316508 0 -0.0042116230670140231 0.011368441937099041 0 -0.0036546676638777834 0.011530330954742523 0 -0.0040226305115885225 0.01272382659316508 0 0.0012188870537552913 0.0012511033381298008 0 -0.00093034884829436943 -0.00074535757931127721 0 0.0020288080321510149 0.0063077807817953947 0 0.0039808909792637152 0.0055695496827362851 0 0.0013861670268803007 0.0022338811810918568 0 0.0020288080321510149 0.0063077807817953947 0 0.0013861670268803007 0.0022338811810918568 0 -0.00016717451055830537 0.0054720374109591399 0 -0.0022214617058369185 -0.0034216587367007093 0 -0.0021680290141820198 -0.0038269553720325488 0 -0.0017115797408554553 -0.00362895047142428 0 -0.0023457766275878657 -0.0041397704112551698 0 -0.0021680290141820198 -0.0038269553720325488 0 -0.0017542282944924164 -0.0041909053129848403 0 -0.0021680290141820198 -0.0038269553720325488 0 -0.0017115797408554553 -0.00362895047142428 0 -0.0017542282944924164 -0.0041909053129848403 0 -0.0022214617058369185 -0.0034216587367007093 0 -0.0021680290141820198 -0.0038269553720325488 0 -0.002738575875119614 -0.0035270212436366226 0 -0.0023457766275878657 -0.0041397704112551698 0 -0.0021680290141820198 -0.0038269553720325488 0 -0.002738575875119614 -0.0035270212436366226 0 -0.0032641979153253103 -0.002451634439955979 0 -0.00093034884829436943 -0.00074535757931127721 0 -0.0034371119528794525 -0.0025011077796919063 0 0.0013861670268803007 0.0022338811810918568 0 -0.0024240487732608475 0.0025457139851574506 0 0.0013861670268803007 0.0022338811810918568 0 -0.0024240487732608475 0.0025457139851574506 0 -0.00016717451055830537 0.0054720374109591399 0 -0.0034371119528794525 -0.0025011077796919063 0 -0.0066497764721667905 0.0017061299999539281 0 -0.0024240487732608475 0.0025457139851574506 0 -0.0066497764721667905 0.0017061299999539281 0 -0.0024240487732608475 0.0025457139851574506 0 -0.0022245324599468939 0.0082224305986027847 0 -0.0047764061835441603 0.0039274390501243608 0 -0.0022392657407362998 0.0085223345754710939 0 -0.0024240487732608475 0.0025457139851574506 0 -0.00016717451055830537 0.0054720374109591399 0 -0.0022245324599468939 0.0082224305986027847 0 0.0020288080321510149 0.0063077807817953947 0 -0.00016717451055830537 0.0054720374109591399 0 -5.1303345447024433e-05 0.0086801196666012777 0 -0.00016717451055830537 0.0054720374109591399 0 -5.1303345447024433e-05 0.0086801196666012777 0 -0.0022245324599468939 0.0082224305986027847 0 -5.1303345447024433e-05 0.0086801196666012777 0 -0.0022245324599468939 0.0082224305986027847 0 -0.0014694176321637582 0.0097164584410154992 0 -0.0022245324599468939 0.0082224305986027847 0 -0.0025550799514464637 0.010057749582417379 0 -0.0014694176321637582 0.0097164584410154992 0 -0.0025550799514464637 0.010057749582417379 0 -0.0014694176321637582 0.0097164584410154992 0 -0.0011855814814041019 0.010908819144263986 0 -5.1303345447024433e-05 0.0086801196666012777 0 -0.0014694176321637582 0.0097164584410154992 0 -8.5517063487435078e-05 0.010491619600597574 0 -0.0014694176321637582 0.0097164584410154992 0 -8.5517063487435078e-05 0.010491619600597574 0 -0.0011855814814041019 0.010908819144263986 0 0.0021068611947233982 0.0099486873423688844 0 0.00070007624004665182 0.0081173958349394105 0 -5.1303345447024433e-05 0.0086801196666012777 0 -8.5517063487435078e-05 0.010491619600597574 0 0.0013335421800012204 0.009801352057760929 0 -8.5517063487435078e-05 0.010491619600597574 0 0.0013335421800012204 0.009801352057760929 0 0.0010532727864041959 0.011556716119677232 0 0.0020288080321510149 0.0063077807817953947 0 0.0025519990610171476 0.0088979806996391693 0 0.0041521848035243579 0.0076256465863509581 0 0.0019023342711814118 0.0061870530875152881 0 0.0021068611947233982 0.0099486873423688844 0 0.0020288080321510149 0.0063077807817953947 0 -5.1303345447024433e-05 0.0086801196666012777 0 0.0013335421800012204 0.009801352057760929 0 0.0039808909792637152 0.0055695496827362851 0 0.0041521848035243579 0.0076256465863509581 0 0.0060452571257061712 0.0074598163638697227 0 0.0041521848035243579 0.0076256465863509581 0 0.0044256872731444222 0.0094807188731399795 0 0.0060452571257061712 0.0074598163638697227 0 0.0012188870537552913 0.0012511033381298008 0 0.00050904026288755026 0.001387058851776484 0 0.0020288080321510149 0.0063077807817953947 0 0.0039808909792637152 0.0055695496827362851 0 0.0041521848035243579 0.0076256465863509581 0 0.0025519990610171476 0.0088979806996391693 0 0.0044256872731444222 0.0094807188731399795 0 0.0028397020669892231 0.011411086867458778 0 0.0025519990610171476 0.0088979806996391693 0 0.0041521848035243579 0.0076256465863509581 0 0.0044256872731444222 0.0094807188731399795 0 2.8740830493638848e-05 0.0015061263245585129 0 0.00047219048835454885 0.0012464362462801357 0 3.405857438764978e-05 0.00076151244708646463 0 0.0022236190671449606 0.0054611430329207971 0 0.00050904026288755026 0.001387058851776484 0 -0.00045903595882655494 0.0014035208511941307 0 2.8740830493638848e-05 0.0015061263245585129 0 3.405857438764978e-05 0.00076151244708646463 0 2.8740830493638848e-05 0.0015061263245585129 0 0.00047219048835454885 0.0012464362462801357 0 0.00020796849247609525 0.0019792986033680985 0 0.00071041718274018656 0.0012562466446420408 0 0.00047219048835454885 0.0012464362462801357 0 0.00020796849247609525 0.0019792986033680985 0 0.00070074608726500211 0.0012578088576367533 0 0.00047219048835454885 0.0012464362462801357 0 3.405857438764978e-05 0.00076151244708646463 0 -0.00065612094178589856 -0.0058734331882779618 0 -0.00022175942752594106 -0.0053306086928116506 0 -0.00072278374408125924 -0.0052638156212372455 0 -4.4414626384129771e-05 -0.0025852342009576074 0 0.00057550210393418665 -0.0013023882819046702 0 -0.00070982202744583394 -0.002019219738517397 0 -0.0010435067126041715 -0.0027390714743222785 0 -0.0016584561200505576 -0.0027576712400700985 0 -4.4414626384129771e-05 -0.0025852342009576074 0 0.00050904026288755026 0.001387058851776484 0 -0.00070982202744583394 -0.002019219738517397 0 -0.0010435067126041715 -0.0027390714743222785 0 -0.00058219410015945155 -0.0028038160288669225 0 -0.0010435067126041715 -0.0027390714743222785 0 -0.00058219410015945155 -0.0028038160288669225 0 -0.0012039537156328932 -0.0033659928646962824 0 -0.0010435067126041715 -0.0027390714743222785 0 -0.0016584561200505576 -0.0027576712400700985 0 -0.0012039537156328932 -0.0033659928646962824 0 0.00050904026288755026 0.001387058851776484 0 -0.00053559643978275096 -0.0034240940559805166 0 0.00095505221887749606 -0.0054487300455257287 0 0.00078840877934955179 -0.0056272423770375142 0 0.001255348857460723 -0.0057477699132600264 0 -4.4414626384129771e-05 -0.0025852342009576074 0 0.00056113223450964488 -0.005917141708958149 0 0.00044343220813301078 -0.0054526115840600776 0 0.00095505221887749606 -0.0054487300455257287 0 0.00078840877934955179 -0.0056272423770375142 0 -0.00065612094178589856 -0.0058734331882779618 0 0.00026736039152258759 -0.0057212298233312751 0 -0.00022175942752594106 -0.0053306086928116506 0 0.00044343220813301078 -0.0054526115840600776 0 0.00078840877934955179 -0.0056272423770375142 0 0.00077273958959031129 -0.005907693888719992 0 -0.00070982202744583394 -0.002019219738517397 0 -0.00058219410015945155 -0.0028038160288669225 0 0.00012527014995381493 -0.0031878315397297296 0 -4.4414626384129771e-05 -0.0025852342009576074 0 0.00057900429493018286 -0.0042916495181747737 0 0.00078840877934955179 -0.0056272423770375142 0 0.00077273958959031129 -0.005907693888719992 0 0.001255348857460723 -0.0057477699132600264 0 0.00018313457064766375 -0.003426738737593746 0 0.0011549309321102048 -0.0037208397296149389 0 0.0015318238781915302 -0.0028889700911258831 0 0.00057900429493018286 -0.0042916495181747737 0 0.0013421199082065891 -0.0043967227760552847 0 0.00018313457064766375 -0.003426738737593746 0 0.0011549309321102048 -0.0037208397296149389 0 0.00072163882897400818 -0.0041248983130511806 0 0.0011549309321102048 -0.0037208397296149389 0 0.00072163882897400818 -0.0041248983130511806 0 0.0013528306502546602 -0.0044868289537142213 0 0.00057900429493018286 -0.0042916495181747737 0 0.00045081583500128982 -0.0037455932767376542 0 -0.00058219410015945155 -0.0028038160288669225 0 0.00012527014995381493 -0.0031878315397297296 0 -0.00053278924498134455 -0.0038086002740488172 0 0.00012527014995381493 -0.0031878315397297296 0 0.00072163882897400818 -0.0041248983130511806 0 7.9669235884572318e-05 -0.0041960244025015681 0 0.00012527014995381493 -0.0031878315397297296 0 7.9669235884572318e-05 -0.0041960244025015681 0 -0.00053278924498134455 -0.0038086002740488172 0 7.9669235884572318e-05 -0.0041960244025015681 0 -0.00046482568117308667 -0.0047104880311273443 0 -0.00053278924498134455 -0.0038086002740488172 0 7.9669235884572318e-05 -0.0041960244025015681 0 -0.00046482568117308667 -0.0047104880311273443 0 0.00060331759291056811 -0.0050960470972309466 0 0.00072163882897400818 -0.0041248983130511806 0 7.9669235884572318e-05 -0.0041960244025015681 0 0.00060331759291056811 -0.0050960470972309466 0 0.00072163882897400818 -0.0041248983130511806 0 0.00060331759291056811 -0.0050960470972309466 0 0.0013528306502546602 -0.0044868289537142213 0 0.00060331759291056811 -0.0050960470972309466 0 0.0013528306502546602 -0.0044868289537142213 0 0.0015498464541754474 -0.005271295961053607 0 -0.0015591494884549357 -0.0028879140629775768 0 -0.0017115797408554553 -0.00362895047142428 0 -0.0012039537156328932 -0.0033659928646962824 0 -0.0022214617058369185 -0.0034216587367007093 0 -0.0015591494884549357 -0.0028879140629775768 0 -0.0017115797408554553 -0.00362895047142428 0 -0.0017115797408554553 -0.00362895047142428 0 -0.0012039537156328932 -0.0033659928646962824 0 -0.0011766072738817049 -0.0040538201757662875 0 -0.00058219410015945155 -0.0028038160288669225 0 -0.0012039537156328932 -0.0033659928646962824 0 -0.00053278924498134455 -0.0038086002740488172 0 -0.0012039537156328932 -0.0033659928646962824 0 -0.00053278924498134455 -0.0038086002740488172 0 -0.0011766072738817049 -0.0040538201757662875 0 -0.00046482568117308667 -0.0047104880311273443 0 -0.0011766072738817049 -0.0040538201757662875 0 -0.0012209167270821565 -0.0050566261973559543 0 -0.00046482568117308667 -0.0047104880311273443 0 -0.00053278924498134455 -0.0038086002740488172 0 -0.0011766072738817049 -0.0040538201757662875 0 -0.0011766072738817049 -0.0040538201757662875 0 -0.0017542282944924164 -0.0041909053129848403 0 -0.0012209167270821565 -0.0050566261973559543 0 -0.0017115797408554553 -0.00362895047142428 0 -0.0011766072738817049 -0.0040538201757662875 0 -0.0017542282944924164 -0.0041909053129848403 0 -0.0019883811499743775 -0.004949094835630421 0 -0.0017542282944924164 -0.0041909053129848403 0 -0.0012209167270821565 -0.0050566261973559543 0 -0.0019883811499743775 -0.004949094835630421 0 -0.0016428895627825641 -0.0056654049452658497 0 -0.0012209167270821565 -0.0050566261973559543 0 -0.0019420150372391417 -0.0055202695019605647 0 -0.0019883811499743775 -0.004949094835630421 0 -0.0016428895627825641 -0.0056654049452658497 0 -0.0016428895627825641 -0.0056654049452658497 0 -0.00069727688050168538 -0.0063340400974713903 0 -0.0010390802444902039 -0.0071846174965154129 0 -0.0016428895627825641 -0.0056654049452658497 0 -0.00069727688050168538 -0.0063340400974713903 0 -0.0012209167270821565 -0.0050566261973559543 0 -0.00046482568117308667 -0.0047104880311273443 0 -0.0012209167270821565 -0.0050566261973559543 0 -0.00018944431030398597 -0.0057047885689940746 0 -0.00069727688050168538 -0.0063340400974713903 0 -0.0012209167270821565 -0.0050566261973559543 0 -0.00018944431030398597 -0.0057047885689940746 0 -0.00046482568117308667 -0.0047104880311273443 0 0.00060331759291056811 -0.0050960470972309466 0 -0.00018944431030398597 -0.0057047885689940746 0 0.00060331759291056811 -0.0050960470972309466 0 -0.00018944431030398597 -0.0057047885689940746 0 0.00081470426414736324 -0.0061277076282930725 0 0.00060331759291056811 -0.0050960470972309466 0 0.0012740376536126152 -0.0058125022836734794 0 0.0015498464541754474 -0.005271295961053607 0 0.00060331759291056811 -0.0050960470972309466 0 0.00081470426414736324 -0.0061277076282930725 0 0.0012740376536126152 -0.0058125022836734794 0 0.00081470426414736324 -0.0061277076282930725 0 0.0012740376536126152 -0.0058125022836734794 0 0.0017881068573178847 -0.0064225973251435392 0 0.00081470426414736324 -0.0061277076282930725 0 0.00024925283888824109 -0.0065284060479196245 0 0.000896046372319117 -0.0071850349059690392 0 0.00081470426414736324 -0.0061277076282930725 0 0.000896046372319117 -0.0071850349059690392 0 0.0017352130044879493 -0.0071789327003198358 0 -0.00018944431030398597 -0.0057047885689940746 0 0.00081470426414736324 -0.0061277076282930725 0 0.00024925283888824109 -0.0065284060479196245 0 -0.00069727688050168538 -0.0063340400974713903 0 -0.00018944431030398597 -0.0057047885689940746 0 0.00024925283888824109 -0.0065284060479196245 0 0.00024925283888824109 -0.0065284060479196245 0 -8.9739312583317848e-05 -0.0071074662400174406 0 0.000896046372319117 -0.0071850349059690392 0 -0.00069727688050168538 -0.0063340400974713903 0 0.00024925283888824109 -0.0065284060479196245 0 -8.9739312583317848e-05 -0.0071074662400174406 0 -8.9739312583317848e-05 -0.0071074662400174406 0 -0.00035762779938439305 -0.0078814459161578379 0 -0.0010390802444902039 -0.0071846174965154129 0 -8.9739312583317848e-05 -0.0071074662400174406 0 -0.00035762779938439305 -0.0078814459161578379 0 0.00062455685748628441 -0.0080325836365282531 0 0.000896046372319117 -0.0071850349059690392 0 0.00062455685748628441 -0.0080325836365282531 0 0.0016813974561014687 -0.0080705616480519285 0 -8.9739312583317848e-05 -0.0071074662400174406 0 0.000896046372319117 -0.0071850349059690392 0 0.00062455685748628441 -0.0080325836365282531 0 0.00062455685748628441 -0.0080325836365282531 0 0.0013966871667642441 -0.0089297172507972946 0 0.0016813974561014687 -0.0080705616480519285 0 0.00062455685748628441 -0.0080325836365282531 0 0.00017460215036933818 -0.0091656569747854116 0 0.0013966871667642441 -0.0089297172507972946 0 -0.00035762779938439305 -0.0078814459161578379 0 0.00017460215036933818 -0.0091656569747854116 0 -0.0013480502695113138 -0.0081114114942958167 0 -0.00035762779938439305 -0.0078814459161578379 0 0.00062455685748628441 -0.0080325836365282531 0 0.00017460215036933818 -0.0091656569747854116 0 -0.0013480502695113138 -0.0081114114942958167 0 -0.0016018976439327493 -0.0079753391765257173 0 -0.0010390802444902039 -0.0071846174965154129 0 -0.0013480502695113138 -0.0081114114942958167 0 -0.0013605206440574784 -0.0077694350035157978 0 -0.0016018976439327493 -0.0079753391765257173 0 -0.0013806277055528841 -0.0074859950543802846 0 -0.0013480502695113138 -0.0081114114942958167 0 -0.0013605206440574784 -0.0077694350035157978 0 -0.0012030953213387661 -0.007490462337581388 0 -0.0013472518717099885 -0.0077855355577906441 0 -0.0016018976439327493 -0.0079753391765257173 0 -0.0012030953213387661 -0.007490462337581388 0 -0.0013605206440574784 -0.0077694350035157978 0 -0.0016018976439327493 -0.0079753391765257173 0 -0.0019408112424114303 -0.005766893814641863 0 -0.0017313077656944075 -0.0058633227869538855 0 -0.0017439474326401689 -0.0057624152741185906 0 -0.0023480853565558441 -0.00012791451772932731 0 -0.0019968897036727502 -0.0062490541534955006 0 -0.001564885988926722 -0.0059669040238719585 0 -0.0019968897036727502 -0.0062490541534955006 0 -0.0016428895627825641 -0.0056654049452658497 0 -0.0016018976439327493 -0.0079753391765257173 0 -0.0010390802444902039 -0.0071846174965154129 0 -0.0019420150372391417 -0.0055202695019605647 0 -0.0016428895627825641 -0.0056654049452658497 0 -0.0017439474326401689 -0.0057624152741185906 0 -0.0019408112424114303 -0.005766893814641863 0 -0.0019420150372391417 -0.0055202695019605647 0 -0.0017439474326401689 -0.0057624152741185906 0 -0.00069727688050168538 -0.0063340400974713903 0 -8.9739312583317848e-05 -0.0071074662400174406 0 -0.0010390802444902039 -0.0071846174965154129 0 -0.00035762779938439305 -0.0078814459161578379 0 -0.0013480502695113138 -0.0081114114942958167 0 -0.0010390802444902039 -0.0071846174965154129 0 0.0031685925370759961 -0.0082087399721738619 0 0.0047671028494280596 -0.0082734162127077182 0 0.0032870440535862815 -0.0089505960926289339 0 0.0040371368330062172 -0.0086928116953544007 0 0.0032367945653292863 -0.0078253326218016145 0 0.0031685925370759961 -0.0082087399721738619 0 0.0047671028494280596 -0.0082734162127077182 0 0.0031343437760653231 -0.0077174679887849693 0 0.0047671028494280596 -0.0082734162127077182 0 0.0043171998263646354 -0.0093603121885906457 0 0.0032870440535862815 -0.0089505960926289339 0 0.0053769440430392517 -0.0094961030748264719 0 0.0047671028494280596 -0.0082734162127077182 0 0.0043171998263646354 -0.0093603121885906457 0 0.0053769440430392517 -0.0094961030748264719 0 0.0051345267419847657 -0.010423011254006366 0 0.0043171998263646354 -0.0093603121885906457 0 0.0032774474356982784 -0.010189333452229291 0 0.0043171998263646354 -0.0093603121885906457 0 0.0032870440535862815 -0.0089505960926289339 0 0.0032870440535862815 -0.0089505960926289339 0 0.0022856152813985108 -0.0092142442767784109 0 0.0024809335227010819 -0.0084139844460544913 0 0.0032774474356982784 -0.010189333452229291 0 0.0032870440535862815 -0.0089505960926289339 0 0.0022856152813985108 -0.0092142442767784109 0 0.0022856152813985108 -0.0092142442767784109 0 0.0013966871667642441 -0.0089297172507972946 0 0.0016813974561014687 -0.0080705616480519285 0 0.0022856152813985108 -0.0092142442767784109 0 0.0016813974561014687 -0.0080705616480519285 0 0.0024809335227010819 -0.0084139844460544913 0 0.0016813974561014687 -0.0080705616480519285 0 0.0024809335227010819 -0.0084139844460544913 0 0.0024708768235109997 -0.0076371063989727379 0 0.0016813974561014687 -0.0080705616480519285 0 0.0024708768235109997 -0.0076371063989727379 0 0.0017352130044879493 -0.0071789327003198358 0 0.000896046372319117 -0.0071850349059690392 0 0.0016813974561014687 -0.0080705616480519285 0 0.0017352130044879493 -0.0071789327003198358 0 0.0031685925370759961 -0.0082087399721738619 0 0.0032870440535862815 -0.0089505960926289339 0 0.0024809335227010819 -0.0084139844460544913 0 0.0031685925370759961 -0.0082087399721738619 0 0.0024809335227010819 -0.0084139844460544913 0 0.0024708768235109997 -0.0076371063989727379 0 0.0031685925370759961 -0.0082087399721738619 0 0.0024708768235109997 -0.0076371063989727379 0 0.0031343437760653231 -0.0077174679887849693 0 0.0024708768235109997 -0.0076371063989727379 0 0.0028090752563099284 -0.0069931909964741062 0 0.0031343437760653231 -0.0077174679887849693 0 0.0028090752563099284 -0.0069931909964741062 0 0.002237428126216232 -0.0070037668526175632 0 0.0023472486494598116 -0.0065716519558002926 0 0.0024708768235109997 -0.0076371063989727379 0 0.0028090752563099284 -0.0069931909964741062 0 0.002237428126216232 -0.0070037668526175632 0 0.00081470426414736324 -0.0061277076282930725 0 0.0017352130044879493 -0.0071789327003198358 0 0.0017881068573178847 -0.0064225973251435392 0 0.0024708768235109997 -0.0076371063989727379 0 0.0017352130044879493 -0.0071789327003198358 0 0.002237428126216232 -0.0070037668526175632 0 0.0017352130044879493 -0.0071789327003198358 0 0.002237428126216232 -0.0070037668526175632 0 0.0017881068573178847 -0.0064225973251435392 0 0.002237428126216232 -0.0070037668526175632 0 0.0017881068573178847 -0.0064225973251435392 0 0.0023472486494598116 -0.0065716519558002926 0 0.0012740376536126152 -0.0058125022836734794 0 0.0017881068573178847 -0.0064225973251435392 0 0.0020371913108286994 -0.0059326517380276292 0 0.0017881068573178847 -0.0064225973251435392 0 0.0020371913108286994 -0.0059326517380276292 0 0.0023472486494598116 -0.0065716519558002926 0 0.0012740376536126152 -0.0058125022836734794 0 0.0020371913108286994 -0.0059326517380276292 0 0.0015498464541754474 -0.005271295961053607 0 0.0028090752563099284 -0.0069931909964741062 0 0.0028259766660945055 -0.0064410834398590322 0 0.0031527902077968621 -0.0066114146311450116 0 0.0028090752563099284 -0.0069931909964741062 0 0.0023472486494598116 -0.0065716519558002926 0 0.0028259766660945055 -0.0064410834398590322 0 0.0020371913108286994 -0.0059326517380276292 0 0.0023472486494598116 -0.0065716519558002926 0 0.0028259766660945055 -0.0064410834398590322 0 0.0020371913108286994 -0.0059326517380276292 0 0.0028259766660945055 -0.0064410834398590322 0 0.0023354115589771297 -0.0050651121730823211 0 0.0028094452967999434 -0.007093516600658563 0 0.0032508345864819561 -0.0073092266309274772 0 0.0033505833153872171 -0.0068783915514446722 0 0.0031527902077968621 -0.0066114146311450116 0 0.003409132087505234 -0.0067259172095924143 0 0.0028090752563099284 -0.0069931909964741062 0 0.0033505833153872171 -0.0068783915514446722 0 0.0031527902077968621 -0.0066114146311450116 0 0.0028090752563099284 -0.0069931909964741062 0 0.0032326615128926879 -0.0077681806369703059 0 0.0031343437760653231 -0.0077174679887849693 0 0.0033565861385878542 -0.008989690573608284 0 0.0032326615128926879 -0.0077681806369703059 0 0.0031343437760653231 -0.0077174679887849693 0 0.003711465462795206 -0.0085635449231357651 0 0.0033565861385878542 -0.008989690573608284 0 0.0032326615128926879 -0.0077681806369703059 0 0.003639063349827101 -0.0070570026921358648 0 0.0033505833153872171 -0.0068783915514446722 0 0.003409132087505234 -0.0067259172095924143 0 0.0036843032910595236 -0.0075134818628341303 0 0.0032508345864819561 -0.0073092266309274772 0 0.003711465462795206 -0.0085635449231357651 0 0.0037001946912225791 -0.0080018520270186671 0 0.0032326615128926879 -0.0077681806369703059 0 0.0031527902077968621 -0.0066114146311450116 0 0.003409132087505234 -0.0067259172095924143 0 0.0031844192735671125 -0.0065771232949441904 0 0.0032634533169792496 -0.0056228939758390054 0 0.003726290110336628 -0.0045887798560945966 0 0.0034554791358729605 -0.0045158334192366536 0 0.0028720143373133821 -0.003436269541254899 0 0.0038968917601173874 -0.0031750174878138263 0 0.0031844192735671125 -0.0065771232949441904 0 0.0034595791599310245 -0.0065598038624680964 0 0.00329358778662574 -0.0063970955036420233 0 0.003409132087505234 -0.0067259172095924143 0 0.0031844192735671125 -0.0065771232949441904 0 0.0034595791599310245 -0.0065598038624680964 0 0.0036886501345675263 -0.0066830954720834852 0 0.003409132087505234 -0.0067259172095924143 0 0.0034595791599310245 -0.0065598038624680964 0 0.0013528306502546602 -0.0044868289537142213 0 0.0015498464541754474 -0.005271295961053607 0 0.0023354115589771297 -0.0050651121730823211 0 0.0013528306502546602 -0.0044868289537142213 0 0.0023354115589771297 -0.0050651121730823211 0 0.0020075891603490094 -0.0039986638264873893 0 0.0020371913108286994 -0.0059326517380276292 0 0.0015498464541754474 -0.005271295961053607 0 0.0023354115589771297 -0.0050651121730823211 0 0.0028259766660945055 -0.0064410834398590322 0 0.0031527902077968621 -0.0066114146311450116 0 0.0031844192735671125 -0.0065771232949441904 0 0.0028691782332255313 -0.0063987993617308355 0 0.0032634533169792496 -0.0056228939758390054 0 0.0034554791358729605 -0.0045158334192366536 0 0.0023354115589771297 -0.0050651121730823211 0 0.0020075891603490094 -0.0039986638264873893 0 0.0028259766660945055 -0.0064410834398590322 0 0.0034554791358729605 -0.0045158334192366536 0 0.0023354115589771297 -0.0050651121730823211 0 0.0034554791358729605 -0.0045158334192366536 0 0.0020075891603490094 -0.0039986638264873893 0 0.0028720143373133821 -0.003436269541254899 0 0.0011549309321102048 -0.0037208397296149389 0 0.0020075891603490094 -0.0039986638264873893 0 0.0015318238781915302 -0.0028889700911258831 0 0.0011549309321102048 -0.0037208397296149389 0 0.0013528306502546602 -0.0044868289537142213 0 0.0020075891603490094 -0.0039986638264873893 0 0.0013421199082065891 -0.0043967227760552847 0 0.0024400893770346451 -0.0038608089746472859 0 0.0020075891603490094 -0.0039986638264873893 0 0.0015318238781915302 -0.0028889700911258831 0 0.0028720143373133821 -0.003436269541254899 0 0.0015318238781915302 -0.0028889700911258831 0 0.0028720143373133821 -0.003436269541254899 0 0.0029970614209293895 -0.0023929619481713096 0 0.0017091095943686473 -0.0056528610107863409 0 0.0014446633435690785 -0.0054772158886296019 0 0.001907307392566599 -0.0055594185996931406 0 0.0012990124587194151 -0.0055430908435306261 0 0.0018513015404111597 -0.0055651982523991159 0 0.00095505221887749606 -0.0054487300455257287 0 0.001255348857460723 -0.0057477699132600264 0 0.0014446633435690785 -0.0054772158886296019 0 0.001255348857460723 -0.0057477699132600264 0 0.0017091095943686473 -0.0056528610107863409 0 0.0014446633435690785 -0.0054772158886296019 0 0.00026736039152258759 -0.0057212298233312751 0 0.0011215415100712168 -0.0056836648892751003 0 0.00076012186623933492 -0.0051981462299100631 0 0.00056113223450964488 -0.005917141708958149 0 0.0012990124587194151 -0.0055430908435306261 0 0.0034595791599310245 -0.0065598038624680964 0 0.003519491159666403 -0.006354390615529738 0 0.00329358778662574 -0.0063970955036420233 0 0.003519491159666403 -0.006354390615529738 0 0.00329358778662574 -0.0063970955036420233 0 0.0034121909371735946 -0.0060619497296315987 0 0.0028720143373133821 -0.003436269541254899 0 0.0029970614209293895 -0.0023929619481713096 0 0.0038968917601173874 -0.0031750174878138263 0 0.0029970614209293895 -0.0023929619481713096 0 0.0038968917601173874 -0.0031750174878138263 0 0.0038932258573596964 -0.0023756451476066543 0 0.0029970614209293895 -0.0023929619481713096 0 0.0038932258573596964 -0.0023756451476066543 0 0.0042884219287909519 -0.001945705821966517 0 0.0024400893770346451 -0.0038608089746472859 0 0.0030375824750785933 -0.0049258101502132022 0 0.0017091095943686473 -0.0056528610107863409 0 0.001907307392566599 -0.0055594185996931406 0 0.0021559358554657433 -0.0055772608270739559 0 0.0038968917601173874 -0.0031750174878138263 0 0.0038932258573596964 -0.0023756451476066543 0 0.0043840409326248268 -0.0019902961836191211 0 0.0032920413831184357 -0.005860918225065583 0 0.0026560524952163309 -0.0059412497878544579 0 0.0028243493729574218 -0.0058092378810343662 0 0.003726290110336628 -0.0045887798560945966 0 0.0031389936698144197 -0.0048601251392846583 0 0.0038932258573596964 -0.0023756451476066543 0 0.0042884219287909519 -0.001945705821966517 0 0.0043840409326248268 -0.0019902961836191211 0 0.0028737606238992477 -0.0052278592424271136 0 0.0031389936698144197 -0.0048601251392846583 0 0.0032310073973150378 -0.0049090793688341353 0 0.0030076998759618646 -0.0049976103279463606 0 0.0031601592332961954 -0.0050700086597518798 0 0.0028737606238992477 -0.0052278592424271136 0 0.0030375824750785933 -0.0049258101502132022 0 0.0030375824750785933 -0.0049258101502132022 0 0.0031389936698144197 -0.0048601251392846583 0 0.0026869399631667449 -0.005867010475823665 0 0.0026560524952163309 -0.0059412497878544579 0 0.0028243493729574218 -0.0058092378810343662 0 0.0028737606238992477 -0.0052278592424271136 0 0.0027638029040042188 -0.0053595848673965397 0 0.0026435116865950164 -0.0053415030270535461 0 0.002327612380298143 -0.0050143624137610459 0 0.0034288404324680556 -0.0053804733824224203 0 0.0028243493729574218 -0.0058092378810343662 0 0.0028905221776808275 -0.0055849093735950454 0 0.0031028682222205162 -0.0057259641157591246 0 0.0028243493729574218 -0.0058092378810343662 0 0.0027086607978416681 -0.0057202516372391208 0 0.0028905221776808275 -0.0055849093735950454 0 0.0026395340680276801 -0.0058770396368333045 0 0.0028243493729574218 -0.0058092378810343662 0 0.0027086607978416681 -0.0057202516372391208 0 0.0028737606238992477 -0.0052278592424271136 0 0.0027930643443860306 -0.0054244613971157988 0 0.0027086607978416681 -0.0057202516372391208 0 0.0028905221776808275 -0.0055849093735950454 0 0.0026116678413758902 -0.0055333790122827388 0 0.0028905221776808275 -0.0055849093735950454 0 0.0026435116865950164 -0.0053415030270535461 0 0.0026116678413758902 -0.0055333790122827388 0 0.0026435116865950164 -0.0053415030270535461 0 0.0022614416010479526 -0.0054119252559671014 0 0.002327612380298143 -0.0050143624137610459 0 0.0026435116865950164 -0.0053415030270535461 0 0.0026116678413758902 -0.0055333790122827388 0 0.0022614416010479526 -0.0054119252559671014 0 0.0026116678413758902 -0.0055333790122827388 0 0.0025220012741674703 -0.0056718675446287966 0 0.0022614416010479526 -0.0054119252559671014 0 0.0025285886834176914 -0.0058879763586893669 0 0.0025220012741674703 -0.0056718675446287966 0 0.0022614416010479526 -0.0054119252559671014 0 0.0027086607978416681 -0.0057202516372391208 0 0.0026116678413758902 -0.0055333790122827388 0 0.0025220012741674703 -0.0056718675446287966 0 0.0026512530058026857 -0.0058419357442263588 0 0.0027086607978416681 -0.0057202516372391208 0 0.0025220012741674703 -0.0056718675446287966 0 0.0026512530058026857 -0.0058419357442263588 0 0.0025285886834176914 -0.0058879763586893669 0 0.0025220012741674703 -0.0056718675446287966 0 0.0030375824750785933 -0.0049258101502132022 0 0.0016725495841619039 -0.0054711303294390961 0 0.0025285886834176914 -0.0058879763586893669 0 0.001770506763922099 -0.0053654153617432639 0 0.0022614416010479526 -0.0054119252559671014 0 0.001907307392566599 -0.0055594185996931406 0 0.0021559358554657433 -0.0055772608270739559 0 0.001770506763922099 -0.0053654153617432639 0 0.001770506763922099 -0.0053654153617432639 0 0.002327612380298143 -0.0050143624137610459 0 0.0012989302765201928 -0.0048007745734083623 0 0.001770506763922099 -0.0053654153617432639 0 0.0022614416010479526 -0.0054119252559671014 0 0.002327612380298143 -0.0050143624137610459 0 0.0017308516733527803 -0.0051834602597305487 0 0.00094334264107804949 -0.0048992778808271634 0 0.0012780779684100176 -0.0045268758365971011 0 0.0017308516733527803 -0.0051834602597305487 0 0.0012780779684100176 -0.0045268758365971011 0 0.0020240709895753581 -0.0046233481776974247 0 0.0020384601549297515 -0.0051083875100556208 0 0.0011182136485435434 -0.0048508040546121059 0 0.0017308516733527803 -0.0051834602597305487 0 0.0023397280560504487 -0.0050710524595764563 0 0.0020240709895753581 -0.0046233481776974247 0 0.0017308516733527803 -0.0051834602597305487 0 0.0023397280560504487 -0.0050710524595764563 0 0.002915755993643136 -0.0055680931002053298 0 0.0020384601549297515 -0.0051083875100556208 0 0.0031709426753811134 -0.0054703679948707833 0 0.0011215415100712168 -0.0056836648892751003 0 0.00076012186623933492 -0.0051981462299100631 0 0.0012386609789789074 -0.0052650008081717185 0 0.00076012186623933492 -0.0051981462299100631 0 0.0012386609789789074 -0.0052650008081717185 0 0.0012989302765201928 -0.0048007745734083623 0 0.0011215415100712168 -0.0056836648892751003 0 0.001770506763922099 -0.0053654153617432639 0 0.0012386609789789074 -0.0052650008081717185 0 0.0011215415100712168 -0.0056836648892751003 0 0.001907307392566599 -0.0055594185996931406 0 0.001770506763922099 -0.0053654153617432639 0 0.001770506763922099 -0.0053654153617432639 0 0.0012386609789789074 -0.0052650008081717185 0 0.0012989302765201928 -0.0048007745734083623 0 0.00094334264107804949 -0.0048992778808271634 0 0.00075341860646530533 -0.0045258421414772444 0 0.0012780779684100176 -0.0045268758365971011 0 0.00094334264107804949 -0.0048992778808271634 0 0.00075341860646530533 -0.0045258421414772444 0 0.00030217766625437745 -0.0046605790318951547 0 0.0011182136485435434 -0.0048508040546121059 0 0.00034970473334887913 -0.004680571936776361 0 0.00076012186623933492 -0.0051981462299100631 0 0.0012989302765201928 -0.0048007745734083623 0 0.00030217766625437745 -0.0046605790318951547 0 0.00049630392909922303 -0.0043598656593083537 0 0.00075341860646530533 -0.0045258421414772444 0 0.00030217766625437745 -0.0046605790318951547 0 0.00049630392909922303 -0.0043598656593083537 0 0.00082442534460808485 -0.0041364536720425839 0 0.00049050041862074619 -0.0040995842468815333 0 0.00049630392909922303 -0.0043598656593083537 0 0.00075341860646530533 -0.0045258421414772444 0 0.00082442534460808485 -0.0041364536720425839 0 0.0012780779684100176 -0.0045268758365971011 0 0.0012320609956572106 -0.0041327785279771257 0 0.00082442534460808485 -0.0041364536720425839 0 0.00075341860646530533 -0.0045258421414772444 0 0.0012780779684100176 -0.0045268758365971011 0 0.00082442534460808485 -0.0041364536720425839 0 0.0012320609956572106 -0.0041327785279771257 0 0.00099654976568749908 -0.0037594591242473847 0 0.0014821722353214918 -0.0034502809697451739 0 0.0012320609956572106 -0.0041327785279771257 0 0.00099654976568749908 -0.0037594591242473847 0 0.00082442534460808485 -0.0041364536720425839 0 0.00061949956443078588 -0.003884610238603241 0 0.0005952337633162027 -0.0034995415213084293 0 0.00026262967858920914 -0.0040046301252162431 0 0.00099654976568749908 -0.0037594591242473847 0 0.00082442534460808485 -0.0041364536720425839 0 0.00075360295263866156 -0.0037560137811826931 0 0.00082442534460808485 -0.0041364536720425839 0 0.00075360295263866156 -0.0037560137811826931 0 0.00061949956443078588 -0.003884610238603241 0 0.00082442534460808485 -0.0041364536720425839 0 0.00061949956443078588 -0.003884610238603241 0 0.00049050041862074619 -0.0040995842468815333 0 0.0020240709895753581 -0.0046233481776974247 0 0.0017186351729621201 -0.0041337221298297176 0 0.0024558057717894211 -0.0041924136600705857 0 0.0012780779684100176 -0.0045268758365971011 0 0.0012320609956572106 -0.0041327785279771257 0 0.0017186351729621201 -0.0041337221298297176 0 0.0012780779684100176 -0.0045268758365971011 0 0.0020240709895753581 -0.0046233481776974247 0 0.0017186351729621201 -0.0041337221298297176 0 0.0012320609956572106 -0.0041327785279771257 0 0.0017186351729621201 -0.0041337221298297176 0 0.0014821722353214918 -0.0034502809697451739 0 0.0017186351729621201 -0.0041337221298297176 0 0.0020909698110224916 -0.0036697542688188343 0 0.0024558057717894211 -0.0041924136600705857 0 0.0017186351729621201 -0.0041337221298297176 0 0.0020909698110224916 -0.0036697542688188343 0 0.0014821722353214918 -0.0034502809697451739 0 0.0020909698110224916 -0.0036697542688188343 0 0.0020879989474735547 -0.003143350788256664 0 0.0014821722353214918 -0.0034502809697451739 0 0.0020879989474735547 -0.003143350788256664 0 0.001582235568229957 -0.002794782790059046 0 0.0020089122564560338 -0.0023684028881770249 0 0.0020879989474735547 -0.003143350788256664 0 0.001582235568229957 -0.002794782790059046 0 0.0014821722353214918 -0.0034502809697451739 0 0.001582235568229957 -0.002794782790059046 0 0.0014821722353214918 -0.0034502809697451739 0 0.0011382140533902376 -0.0028848552911891743 0 0.001582235568229957 -0.002794782790059046 0 0.0011382140533902376 -0.0028848552911891743 0 0.0012493835798249794 -0.0025580302824513086 0 0.00099654976568749908 -0.0037594591242473847 0 0.0014821722353214918 -0.0034502809697451739 0 0.00082297338520787098 -0.0031653263989295114 0 0.00099654976568749908 -0.0037594591242473847 0 0.00073444280944952561 -0.0035109004822933888 0 0.00082297338520787098 -0.0031653263989295114 0 0.00075360295263866156 -0.0037560137811826931 0 0.00061949956443078588 -0.003884610238603241 0 0.0005952337633162027 -0.0034995415213084293 0 0.00075360295263866156 -0.0037560137811826931 0 0.00073444280944952561 -0.0035109004822933888 0 0.0005952337633162027 -0.0034995415213084293 0 0.00099654976568749908 -0.0037594591242473847 0 0.00075360295263866156 -0.0037560137811826931 0 0.00073444280944952561 -0.0035109004822933888 0 0.0012443637428506303 -0.0018676158340856963 0 0.00077335317884876637 -0.0022927470879312933 0 0.00073444280944952561 -0.0035109004822933888 0 0.00059022306929809056 -0.0034916936402498923 0 0.00082297338520787098 -0.0031653263989295114 0 0.00094908548704568624 -0.0022599655349303397 0 0.0012443637428506303 -0.0018676158340856963 0 0.00072080995742597259 -0.0025578623231483481 0 0.00051348690530185438 -0.0022914845587014812 0 0.00021652434088830644 -0.0023158099143233343 0 0.00077335317884876637 -0.0022927470879312933 0 0.00046076493444741133 -0.0013901730961462925 0 0.0010961814229744245 -0.0010509087480823935 0 0.0013782904936075584 -0.00066718695950485638 0 0.00070733060454952041 -0.00076691147728194672 0 0.00072080995742597259 -0.0025578623231483481 0 0.00051348690530185438 -0.0022914845587014812 0 0.00071085693537739896 -0.0023426301317063612 0 0.00050876782137887098 -0.0030456055013649277 0 0.0011382140533902376 -0.0028848552911891743 0 0.0008443382325374365 -0.0025857212565320825 0 0.0014821722353214918 -0.0034502809697451739 0 0.00050876782137887098 -0.0030456055013649277 0 0.0011382140533902376 -0.0028848552911891743 0 0.0014522536581076744 -0.0036593455533445265 0 0.00077335317884876637 -0.0022927470879312933 0 0.00077335317884876637 -0.0022927470879312933 0 0.00083615014704297732 -0.0025005566568687748 0 0.00072080995742597259 -0.0025578623231483481 0 0.00090961086763652701 -0.0023146285520675531 0 0.00071085693537739896 -0.0023426301317063612 0 0.0011382140533902376 -0.0028848552911891743 0 0.0008443382325374365 -0.0025857212565320825 0 0.0012493835798249794 -0.0025580302824513086 0 0.0008443382325374365 -0.0025857212565320825 0 0.0012493835798249794 -0.0025580302824513086 0 0.00115456334106326 -0.002108712171707322 0 0.00078167806513656363 -0.0022171547633636998 0 0.00090961086763652701 -0.0023146285520675531 0 0.00071085693537739896 -0.0023426301317063612 0 0.00078167806513656363 -0.0022171547633636998 0 0.00090961086763652701 -0.0023146285520675531 0 0.00089675804570832145 -0.0020374494003873593 0 0.00078167806513656363 -0.0022171547633636998 0 0.00061056350449706484 -0.0021731331260030897 0 0.00089675804570832145 -0.0020374494003873593 0 0.00083615014704297732 -0.0025005566568687748 0 0.0011301987283865802 -0.0021265534910471398 0 0.00090961086763652701 -0.0023146285520675531 0 0.00089675804570832145 -0.0020374494003873593 0 0.00115456334106326 -0.002108712171707322 0 0.0008992198770400912 -0.0019390792146184569 0 0.00024176247425669833 -0.0023254135472947405 0 0.00061056350449706484 -0.0021731331260030897 0 0.00089675804570832145 -0.0020374494003873593 0 0.00030665869954926006 -0.0020498895388302474 0 0.00078167806513656363 -0.0022171547633636998 0 0.00071085693537739896 -0.0023426301317063612 0 0.00061056350449706484 -0.0021731331260030897 0 0.00051348690530185438 -0.0022914845587014812 0 0.00071085693537739896 -0.0023426301317063612 0 0.00061056350449706484 -0.0021731331260030897 0 0.00051348690530185438 -0.0022914845587014812 0 0.00061056350449706484 -0.0021731331260030897 0 0.00030665869954926006 -0.0020498895388302474 0 0.00055992543313195041 -0.0017591243953874638 0 0.00089675804570832145 -0.0020374494003873593 0 0.00026801763519511407 -0.0019525176510141054 0 0.00055992543313195041 -0.0017591243953874638 0 0.00081395409299301713 -0.0017294293909951308 0 0.00062495568862225726 -0.0014498501183055716 0 0.00089675804570832145 -0.0020374494003873593 0 0.0010250764904457625 -0.0018476698599473472 0 0.00115456334106326 -0.002108712171707322 0 0.00055992543313195041 -0.0017591243953874638 0 0.00089675804570832145 -0.0020374494003873593 0 0.00081395409299301713 -0.0017294293909951308 0 0.00089675804570832145 -0.0020374494003873593 0 0.00081395409299301713 -0.0017294293909951308 0 0.0010250764904457625 -0.0018476698599473472 0 0.00081395409299301713 -0.0017294293909951308 0 0.0010250764904457625 -0.0018476698599473472 0 0.0010479984469586702 -0.0015567248323175463 0 0.0010250764904457625 -0.0018476698599473472 0 0.0015351205979772782 -0.0018967492774814945 0 0.00115456334106326 -0.002108712171707322 0 0.0010250764904457625 -0.0018476698599473472 0 0.0015351205979772782 -0.0018967492774814945 0 0.0010479984469586702 -0.0015567248323175463 0 0.0015351205979772782 -0.0018967492774814945 0 0.00115456334106326 -0.002108712171707322 0 0.0015164039058288481 -0.0023283297858438727 0 0.0015351205979772782 -0.0018967492774814945 0 0.0016616280623082821 -0.0013577863946122606 0 0.0024277670494387282 -0.001733557427583399 0 0.0015351205979772782 -0.0018967492774814945 0 0.0020089122564560338 -0.0023684028881770249 0 0.0024277670494387282 -0.001733557427583399 0 0.0015351205979772782 -0.0018967492774814945 0 0.0020089122564560338 -0.0023684028881770249 0 0.0015164039058288481 -0.0023283297858438727 0 0.001582235568229957 -0.002794782790059046 0 0.0020089122564560338 -0.0023684028881770249 0 0.0015164039058288481 -0.0023283297858438727 0 0.001582235568229957 -0.002794782790059046 0 0.0012493835798249794 -0.0025580302824513086 0 0.0015164039058288481 -0.0023283297858438727 0 0.0012493835798249794 -0.0025580302824513086 0 0.00115456334106326 -0.002108712171707322 0 0.0015164039058288481 -0.0023283297858438727 0 -0.00015015742057803729 0.0030586477975492786 0 -0.0006259530954827485 0.0023609869773643386 0 0.00035141068158606919 0.0021321205053084174 0 -0.00015015742057803729 0.0030586477975492786 0 -0.0006259530954827485 0.0023609869773643386 0 -0.0011512232052786184 0.0030026286568182754 0 -0.00040440385848507156 0.0051967212865751634 0 -0.00036664600555543717 0.0051239597638831676 0 -0.00096480595716537767 0.005120359078815394 0 -0.00018797173047596988 0.0017045445467036404 0 -0.0010356288371692994 0.0040459430622467431 0 -0.00029037306934170861 8.2280866348555061e-05 0 -0.00019510975070156119 8.681658258031109e-05 0 -1.1731005041307319e-05 -0.00043919546410210714 0 -0.00034826700473095475 0.0020423903235455912 0 -0.00012797134564320942 0.00029370348782506331 0 -0.00042338693065281473 0.0011406737784775173 0 -0.00034581904326207321 0.00099688260165755769 0 -0.00013641491206832363 0.0010091605929992747 0 -0.00018797173047596988 0.0017045445467036404 0 -0.00012797134564320942 0.00029370348782506331 0 -0.00034826700473095475 0.0020423903235455912 0 -0.00018797173047596988 0.0017045445467036404 0 -0.00018797173047596988 0.0017045445467036404 0 0.0001756368923303554 0.00083132686956749805 0 -0.0011512232052786184 0.0030026286568182754 0 -0.0014484605318215579 0.0022228649309379992 0 -0.00214960686029099 0.0029451368737762997 0 -0.00040440385848507156 0.0051967212865751634 0 -0.00096480595716537767 0.005120359078815394 0 -0.00094913688714580913 0.0054687346322191783 0 -0.0006259530954827485 0.0023609869773643386 0 -0.0011512232052786184 0.0030026286568182754 0 -0.0014484605318215579 0.0022228649309379992 0 -0.001249080133253929 0.005288765428722743 0 -0.00096480595716537767 0.005120359078815394 0 -0.00094913688714580913 0.0054687346322191783 0 -0.00037224871178049125 0.0051799403923052005 0 -0.00094913688714580913 0.0054687346322191783 0 -0.00082145587956885657 0.0059926808506376959 0 -0.001249080133253929 0.005288765428722743 0 -0.00094913688714580913 0.0054687346322191783 0 -0.0011951583939035625 0.0057263477905311489 0 -0.00094913688714580913 0.0054687346322191783 0 -0.0011951583939035625 0.0057263477905311489 0 -0.00082145587956885657 0.0059926808506376959 0 -0.00034826700473095475 0.0020423903235455912 0 -0.00070105102550315694 0.0021621489607413606 0 -0.00036356549440692463 -0.001902293184389547 0 -0.00030928016621812368 -0.0016700363475068238 0 -0.00061737035607034314 -0.0014897593140796312 0 -0.00034826700473095475 0.0020423903235455912 0 -0.0013004768051146213 0.0055574884217140207 0 -0.00036356549440692463 -0.001902293184389547 0 -0.00028713641027548314 -0.0019401603574163587 0 -0.00030928016621812368 -0.0016700363475068238 0 -0.00028713641027548314 -0.0019401603574163587 0 -3.9863886647452582e-05 -0.0016572556516279561 0 0.00026801763519511407 -0.0019525176510141054 0 -0.00028713641027548314 -0.0019401603574163587 0 -0.00030928016621812368 -0.0016700363475068238 0 -3.9863886647452582e-05 -0.0016572556516279561 0 0.00055992543313195041 -0.0017591243953874638 0 0.00026801763519511407 -0.0019525176510141054 0 0.00029659957858712329 -0.0015542949472807331 0 -3.9863886647452582e-05 -0.0016572556516279561 0 0.00026801763519511407 -0.0019525176510141054 0 0.00029659957858712329 -0.0015542949472807331 0 0.00051348690530185438 -0.0022914845587014812 0 0.00030665869954926006 -0.0020498895388302474 0 0.00021652434088830644 -0.0023158099143233343 0 -0.00019510975070156119 8.681658258031109e-05 0 0.00060160151381614773 -0.00029589606565762937 0 -1.1731005041307319e-05 -0.00043919546410210714 0 -0.000298525377529765 -0.0020452658986908844 0 0.00030665869954926006 -0.0020498895388302474 0 0.00021652434088830644 -0.0023158099143233343 0 -0.00012797134564320942 0.00029370348782506331 0 0.00024176247425669833 -0.0023254135472947405 0 -0.00012797134564320942 0.00029370348782506331 0 0.00046076493444741133 -0.0013901730961462925 0 0.00060160151381614773 -0.00029589606565762937 0 -1.1731005041307319e-05 -0.00043919546410210714 0 0.00026707568709205732 -0.00094908800404517224 0 0.0001756368923303554 0.00083132686956749805 0 0.00079841346584594601 0.00024637930738067481 0 0.00060160151381614773 -0.00029589606565762937 0 0.00070733060454952041 -0.00076691147728194672 0 0.00026707568709205732 -0.00094908800404517224 0 0.0013782904936075584 -0.00066718695950485638 0 0.00060160151381614773 -0.00029589606565762937 0 0.00070733060454952041 -0.00076691147728194672 0 0.0012443637428506303 -0.0018676158340856963 0 0.00079841346584594601 0.00024637930738067481 0 0.0010961814229744245 -0.0010509087480823935 0 0.00070733060454952041 -0.00076691147728194672 0 0.00026707568709205732 -0.00094908800404517224 0 0.0026002472455469664 -0.00017517946895672824 0 0.00077257701884915627 2.6446391635900675e-05 0 0.001247040572646238 -0.00084352818021216482 0 0.00072191821942517865 0.00016989093376406514 0 0.001247040572646238 -0.00084352818021216482 0 0.00036445064718210369 -0.00086456281845916864 0 0.00079841346584594601 0.00024637930738067481 0 0.0011961752627497252 -0.00070476528036779451 0 0.00072191821942517865 0.00016989093376406514 0 -0.00036533957326053806 -0.000505044981178359 0 0.00036445064718210369 -0.00086456281845916864 0 0.00079841346584594601 0.00024637930738067481 0 -0.0010972505019170339 0.00072878442865765636 0 0.00072191821942517865 0.00016989093376406514 0 -0.00036533957326053806 -0.000505044981178359 0 -0.001404337725128031 0.00040853880458816482 0 -0.00036533957326053806 -0.000505044981178359 0 -0.001404337725128031 0.00040853880458816482 0 -0.001122577796544331 -0.00087311285208467539 0 -0.0006259530954827485 0.0023609869773643386 0 0.00035141068158606919 0.0021321205053084174 0 -0.00073035584200244186 0.0013863359967649451 0 0.00035141068158606919 0.0021321205053084174 0 0.00085375334886138873 0.0011984399623317799 0 -0.00073035584200244186 0.0013863359967649451 0 -0.0010972505019170339 0.00072878442865765636 0 -0.0025859198631206269 0.0029302957285244164 0 -0.0006259530954827485 0.0023609869773643386 0 -0.0014484605318215579 0.0022228649309379992 0 -0.00073035584200244186 0.0013863359967649451 0 -0.0014484605318215579 0.0022228649309379992 0 -0.00073035584200244186 0.0013863359967649451 0 -0.0023057296620535008 0.0015759868947674875 0 -0.001404337725128031 0.00040853880458816482 0 -0.0019479345875716505 -0.00041785456226693814 0 -0.0032983728939025092 0.0005999039303464527 0 -0.001404337725128031 0.00040853880458816482 0 -0.0019479345875716505 -0.00041785456226693814 0 -0.001122577796544331 -0.00087311285208467539 0 -0.0019479345875716505 -0.00041785456226693814 0 -0.0022916996059197101 -0.001956779179373085 0 -0.001122577796544331 -0.00087311285208467539 0 -0.0022916996059197101 -0.001956779179373085 0 -0.001122577796544331 -0.00087311285208467539 0 -0.0010936696757770617 -0.0019882892567858945 0 -0.00036533957326053806 -0.000505044981178359 0 -0.001122577796544331 -0.00087311285208467539 0 -0.00036668920787468135 -0.0014401425781751377 0 -0.00036668920787468135 -0.0014401425781751377 0 -0.0010936696757770617 -0.0019882892567858945 0 -0.00021877078980267443 -0.0023176106446199103 0 -0.001122577796544331 -0.00087311285208467539 0 -0.00036668920787468135 -0.0014401425781751377 0 -0.0010936696757770617 -0.0019882892567858945 0 -0.0010936696757770617 -0.0019882892567858945 0 -0.00021877078980267443 -0.0023176106446199103 0 -0.0010944156290678608 -0.003136081830948944 0 -0.00021877078980267443 -0.0023176106446199103 0 -0.0010944156290678608 -0.003136081830948944 0 0.00056873748300108372 -0.0031426268930743679 0 -0.0022916996059197101 -0.001956779179373085 0 -0.0010944156290678608 -0.003136081830948944 0 -0.0027279904693721241 -0.0035277829263639341 0 -0.0022916996059197101 -0.001956779179373085 0 -0.0010936696757770617 -0.0019882892567858945 0 -0.0010944156290678608 -0.003136081830948944 0 0.0012443637428506303 -0.0018676158340856963 0 0.00099493914594284073 -0.0027631489105813265 0 0.0026002472455469664 -0.00017517946895672824 0 0.001247040572646238 -0.00084352818021216482 0 0.0016305146572092848 -0.0015732677751112557 0 0.00061949956443078588 -0.003884610238603241 0 0.00049050041862074619 -0.0040995842468815333 0 0.00026262967858920914 -0.0040046301252162431 0 0.001247040572646238 -0.00084352818021216482 0 0.0016305146572092848 -0.0015732677751112557 0 0.00058137741404677928 -0.0016848738480258129 0 0.001247040572646238 -0.00084352818021216482 0 0.00058137741404677928 -0.0016848738480258129 0 0.00036445064718210369 -0.00086456281845916864 0 -0.00036668920787468135 -0.0014401425781751377 0 0.00058137741404677928 -0.0016848738480258129 0 0.00036445064718210369 -0.00086456281845916864 0 -0.00036533957326053806 -0.000505044981178359 0 -0.00036668920787468135 -0.0014401425781751377 0 0.00036445064718210369 -0.00086456281845916864 0 -0.00036668920787468135 -0.0014401425781751377 0 -0.00021877078980267443 -0.0023176106446199103 0 0.00058137741404677928 -0.0016848738480258129 0 -0.00021877078980267443 -0.0023176106446199103 0 0.00058137741404677928 -0.0016848738480258129 0 0.00056873748300108372 -0.0031426268930743679 0 0.0016305146572092848 -0.0015732677751112557 0 0.00058137741404677928 -0.0016848738480258129 0 0.00056873748300108372 -0.0031426268930743679 0 0.00099493914594284073 -0.0027631489105813265 0 0.0001969005871247731 -0.0038068041517528234 0 0.00026262967858920914 -0.0040046301252162431 0 -9.7355998385484453e-05 -0.0044215263482088839 0 0.00025131302530486137 -0.004343210743548701 0 -9.7355998385484453e-05 -0.0044215263482088839 0 0.00025131302530486137 -0.004343210743548701 0 0.00030217766625437745 -0.0046605790318951547 0 0.00049630392909922303 -0.0043598656593083537 0 0.00025131302530486137 -0.004343210743548701 0 0.00030217766625437745 -0.0046605790318951547 0 0.00049630392909922303 -0.0043598656593083537 0 0.00049050041862074619 -0.0040995842468815333 0 0.00025131302530486137 -0.004343210743548701 0 0.00049050041862074619 -0.0040995842468815333 0 0.00026262967858920914 -0.0040046301252162431 0 0.00025131302530486137 -0.004343210743548701 0 0.00030217766625437745 -0.0046605790318951547 0 -7.167466133514701e-05 -0.0048517894182954525 0 0.00022864343992700468 -0.0051564565003177241 0 -9.7355998385484453e-05 -0.0044215263482088839 0 0.00030217766625437745 -0.0046605790318951547 0 -7.167466133514701e-05 -0.0048517894182954525 0 -9.7355998385484453e-05 -0.0044215263482088839 0 -7.167466133514701e-05 -0.0048517894182954525 0 -0.00063632550981944727 -0.0047984531494872215 0 0.0001969005871247731 -0.0038068041517528234 0 -0.00056600125861821593 -0.0047450544930265999 0 -7.167466133514701e-05 -0.0048517894182954525 0 -0.00022175942752594106 -0.0053306086928116506 0 -0.00063632550981944727 -0.0047984531494872215 0 0.00026736039152258759 -0.0057212298233312751 0 -0.00022175942752594106 -0.0053306086928116506 0 0.00022864343992700468 -0.0051564565003177241 0 -7.167466133514701e-05 -0.0048517894182954525 0 -0.00022175942752594106 -0.0053306086928116506 0 0.00022864343992700468 -0.0051564565003177241 0 0.00026736039152258759 -0.0057212298233312751 0 0.00076012186623933492 -0.0051981462299100631 0 0.00022864343992700468 -0.0051564565003177241 0 0.00076012186623933492 -0.0051981462299100631 0 0.00030217766625437745 -0.0046605790318951547 0 0.00022864343992700468 -0.0051564565003177241 0 -0.00070928547766036594 -0.0013866429790304344 0 -0.0014321304029582566 -0.00084877501393243449 0 -0.0013401387805240491 -0.0041281210732891024 0 -0.001527168751347093 -0.0050263223996050224 0 -0.0027279904693721241 -0.0035277829263639341 0 -0.0010944156290678608 -0.003136081830948944 0 -0.0013401387805240491 -0.0041281210732891024 0 -0.0027279904693721241 -0.0035277829263639341 0 0.00020796849247609525 0.0019792986033680985 0 -0.00039035118509756167 0.0020764059583615719 0 -0.00030692059389070384 0.0026897425140970793 0 -0.0010944156290678608 -0.003136081830948944 0 0.00056873748300108372 -0.0031426268930743679 0 -0.00063632550981944727 -0.0047984531494872215 0 -0.0010944156290678608 -0.003136081830948944 0 -0.0013401387805240491 -0.0041281210732891024 0 -0.00063632550981944727 -0.0047984531494872215 0 -4.4414626384129771e-05 -0.0025852342009576074 0 -0.00070928547766036594 -0.0013866429790304344 0 -0.00065612094178589856 -0.0058734331882779618 0 -0.00072278374408125924 -0.0052638156212372455 0 -0.001527168751347093 -0.0050263223996050224 0 -0.0013401387805240491 -0.0041281210732891024 0 -0.00063632550981944727 -0.0047984531494872215 0 -0.001527168751347093 -0.0050263223996050224 0 -0.00063632550981944727 -0.0047984531494872215 0 -0.00072278374408125924 -0.0052638156212372455 0 -0.001527168751347093 -0.0050263223996050224 0 -0.00022175942752594106 -0.0053306086928116506 0 -0.00063632550981944727 -0.0047984531494872215 0 -0.00072278374408125924 -0.0052638156212372455 0 2.8740830493638848e-05 0.0015061263245585129 0 0.00020796849247609525 0.0019792986033680985 0 -0.00039035118509756167 0.0020764059583615719 0 -0.00045903595882655494 0.0014035208511941307 0 2.8740830493638848e-05 0.0015061263245585129 0 -0.00039035118509756167 0.0020764059583615719 0 -0.00045903595882655494 0.0014035208511941307 0 -0.00039035118509756167 0.0020764059583615719 0 -0.00095397514489012933 0.0020601261526187915 0 0.0022236190671449606 0.0054611430329207971 0 0.00070007624004665182 0.0081173958349394105 0 -0.00039035118509756167 0.0020764059583615719 0 -0.00030692059389070384 0.0026897425140970793 0 -0.00088723910656405419 0.0027190671150741407 0 -0.00039035118509756167 0.0020764059583615719 0 -0.00088723910656405419 0.0027190671150741407 0 -0.00095397514489012933 0.0020601261526187915 0 -0.0011821869846314391 0.004848550243010093 0 0.00070007624004665182 0.0081173958349394105 0 -0.00091995887040430279 0.0077201047242620316 0 -0.0013722590278634622 0.0075035765975917232 0 -0.0012752823342146954 0.0081858883207576779 0 -0.00091995887040430279 0.0077201047242620316 0 -0.0013722590278634622 0.0075035765975917232 0 -0.0011352380266646883 0.0071961762712977285 0 -0.00045922886527391686 0.010154851855745438 0 0.00070007624004665182 0.0081173958349394105 0 0.00012595228430158542 0.012446286439677221 0 0.0010532727864041959 0.011556716119677232 0 -0.00027896387474387306 0.011533456216776712 0 -8.5517063487435078e-05 0.010491619600597574 0 0.0010532727864041959 0.011556716119677232 0 -0.00027896387474387306 0.011533456216776712 0 -8.5517063487435078e-05 0.010491619600597574 0 -0.0011855814814041019 0.010908819144263986 0 -0.00027896387474387306 0.011533456216776712 0 -0.0011855814814041019 0.010908819144263986 0 -0.00027896387474387306 0.011533456216776712 0 -0.0011437018760381611 0.011914038817715161 0 -0.0025550799514464637 0.010057749582417379 0 -0.0011855814814041019 0.010908819144263986 0 -0.0022457394180262478 0.011231392530579858 0 -0.0011855814814041019 0.010908819144263986 0 -0.0022457394180262478 0.011231392530579858 0 -0.0011437018760381611 0.011914038817715161 0 -0.0020745466936734542 0.01265860094968497 0 -0.0016028625931374131 0.011080714512959449 0 -0.0022457394180262478 0.011231392530579858 0 -0.0022905236292922078 0.012186654357325861 0 -0.0011437018760381611 0.011914038817715161 0 -0.0022905236292922078 0.012186654357325861 0 -0.0011437018760381611 0.011914038817715161 0 -0.00072538181329335702 0.013390412883347351 0 0.00012595228430158542 0.012446286439677221 0 -0.0011437018760381611 0.011914038817715161 0 -0.00072538181329335702 0.013390412883347351 0 0.00012595228430158542 0.012446286439677221 0 -0.00027896387474387306 0.011533456216776712 0 -0.0011437018760381611 0.011914038817715161 0 -0.00045922886527391686 0.010154851855745438 0 -0.0016028625931374131 0.011080714512959449 0 -0.0026410937350965329 0.012252645057670127 0 -0.0025201654315458741 0.012154038193836062 0 -0.0026859678337689138 0.012072229471054456 0 -0.0016028625931374131 0.011080714512959449 0 -0.002804800539106173 0.0125293980823549 0 -0.0024746845257636618 0.012210858322150728 0 -0.0024453085803450413 0.012248293852774631 0 -0.0025201654315458741 0.012154038193836062 0 -0.0022905236292922078 0.012186654357325861 0 -0.0024746845257636618 0.012210858322150728 0 -0.0024453085803450413 0.012248293852774631 0 -0.0025201654315458741 0.012154038193836062 0 -0.0023658281985540182 0.012105598810211712 0 -0.0024679678969436224 0.011925640135943766 0 -0.0025201654315458741 0.012154038193836062 0 -0.0026096125612198586 0.011968902391533654 0 -0.0024679678969436224 0.011925640135943766 0 -0.0024453085803450413 0.012248293852774631 0 -0.0025201654315458741 0.012154038193836062 0 -0.0023658281985540182 0.012105598810211712 0 -0.0025201654315458741 0.012154038193836062 0 -0.0026859678337689138 0.012072229471054456 0 -0.0026096125612198586 0.011968902391533654 0 -0.0026859678337689138 0.012072229471054456 0 -0.0027655173185077556 0.01191427747129436 0 -0.0026096125612198586 0.011968902391533654 0 -0.0020894567877464978 0.0062888090022511986 0 -0.0033512362334666974 0.009106492452462157 0 -0.0028593743827132123 0.0047111603946728428 0 -0.0027444191055478349 0.0047814941067196998 0 -0.003380616579106618 0.005439711836992568 0 -0.0026859678337689138 0.012072229471054456 0 -0.0028774078453194614 0.01206338603565188 0 -0.0027655173185077556 0.01191427747129436 0 -0.0020894567877464978 0.0062888090022511986 0 -0.0017001630148180073 0.0034811268176092006 0 -0.0020894567877464978 0.0062888090022511986 0 -0.0031777270957309561 0.0023035746047710302 0 -0.0022916996059197101 -0.001956779179373085 0 -0.0038198933070116006 -0.0015645387203802187 0 -0.0038627929937527497 -0.0019455840473331725 0 -0.0025281618950053881 -0.0015972344232182409 0 -0.0031777270957309561 0.0023035746047710302 0 -0.0019479345875716505 -0.00041785456226693814 0 -0.0022916996059197101 -0.001956779179373085 0 -0.0038198933070116006 -0.0015645387203802187 0 -0.0031777270957309561 0.0023035746047710302 0 -0.0017001630148180073 0.0034811268176092006 0 -0.002057072364706715 0.0047948986059448782 0 -0.0018111188369472552 0.004949109909750506 0 -0.0018535527502751674 0.0045189511880621138 0 -0.0022916996059197101 -0.001956779179373085 0 -0.0027279904693721241 -0.0035277829263639341 0 -0.0038627929937527497 -0.0019455840473331725 0 -0.00030692059389070384 0.0026897425140970793 0 -0.00088723910656405419 0.0027190671150741407 0 -0.00082389320837759699 0.0033872422630005809 0 -0.0014321304029582566 -0.00084877501393243449 0 -0.0017001630148180073 0.0034811268176092006 0 -0.00054714103345005253 0.0072556018358414355 0 -0.0013796031238316941 0.0066893697398603055 0 -0.0011352380266646883 0.0071961762712977285 0 -0.0016028625931374131 0.011080714512959449 0 -0.0020894567877464978 0.0062888090022511986 0 -0.0026410937350965329 0.012252645057670127 0 -0.0026859678337689138 0.012072229471054456 0 -0.0028774078453194614 0.01206338603565188 0 -0.0011821869846314391 0.004848550243010093 0 -0.0017001630148180073 0.0034811268176092006 0 -0.00091995887040430279 0.0077201047242620316 0 -0.00054714103345005253 0.0072556018358414355 0 -0.0011352380266646883 0.0071961762712977285 0 -0.0013722590278634622 0.0075035765975917232 0 -0.0014625542189560521 0.0068005807242033896 0 -0.0011352380266646883 0.0071961762712977285 0 -0.0013796031238316941 0.0066893697398603055 0 -0.0014625542189560521 0.0068005807242033896 0 -0.0011352380266646883 0.0071961762712977285 0 -0.0039853842998939402 0.011492225626844311 0 -0.0031871641666533666 0.011190646825619785 0 -0.0030903596425862967 0.0097901969835805652 0 -0.0039547183654438916 0.011447333078074926 0 -0.0034794008958700796 0.010780772636800358 0 -0.0039853842998939402 0.011492225626844311 0 -0.0036748256395235778 0.011752593546777578 0 -0.003944116008902084 0.011824535103368601 0 -0.0037297925982090899 0.011833407406813091 0 -0.0039853842998939402 0.011492225626844311 0 -0.0031871641666533666 0.011190646825619785 0 -0.0039429199584859326 0.011461677574010103 0 -0.0037297925982090899 0.011833407406813091 0 -0.0039853842998939402 0.011492225626844311 0 -0.0039853842998939402 0.011492225626844311 0 -0.0038284334636657638 0.011251147930185546 0 -0.0036748256395235778 0.011752593546777578 0 -0.0039429199584859326 0.011461677574010103 0 -0.0039853842998939402 0.011492225626844311 0 -0.0038284334636657638 0.011251147930185546 0 -0.0033021235995036248 0.011498367525464178 0 -0.0030300284566471686 0.012065890783691522 0 -0.0036748256395235778 0.011752593546777578 0 -0.0033387229560157519 0.011499144070163168 0 -0.0033526474269145378 0.011875767207250481 0 -0.0038284334636657638 0.011251147930185546 0 -0.0036748256395235778 0.011752593546777578 0 -0.0033387229560157519 0.011499144070163168 0 -0.0033189905899361468 0.010493125312924061 0 -0.0038284334636657638 0.011251147930185546 0 -0.0033387229560157519 0.011499144070163168 0 -0.0022457394180262478 0.011231392530579858 0 -0.0022905236292922078 0.012186654357325861 0 -0.0033387229560157519 0.011499144070163168 0 -0.0025550799514464637 0.010057749582417379 0 -0.0022457394180262478 0.011231392530579858 0 -0.0033387229560157519 0.011499144070163168 0 -0.0022905236292922078 0.012186654357325861 0 -0.0033387229560157519 0.011499144070163168 0 -0.002687553367161788 0.012301089400842319 0 -0.0024453085803450413 0.012248293852774631 0 -0.002687553367161788 0.012301089400842319 0 -0.0023658281985540182 0.012105598810211712 0 -0.0022905236292922078 0.012186654357325861 0 -0.0024453085803450413 0.012248293852774631 0 -0.002687553367161788 0.012301089400842319 0 -0.0030300284566471686 0.012065890783691522 0 -0.0028786025149740331 0.011990096315153013 0 -0.0033526474269145378 0.011875767207250481 0 -0.0033236940434542258 0.012125935866762813 0 -0.0034749065906717865 0.012153838543657385 0 -0.0033526474269145378 0.011875767207250481 0 -0.0036587776920328058 0.01200278135860708 0 -0.0034749065906717865 0.012153838543657385 0 -0.0036748256395235778 0.011752593546777578 0 -0.0033526474269145378 0.011875767207250481 0 -0.0036587776920328058 0.01200278135860708 0 -0.0036748256395235778 0.011752593546777578 0 -0.0036587776920328058 0.01200278135860708 0 -0.003944116008902084 0.011824535103368601 0 -0.0036587776920328058 0.01200278135860708 0 -0.0037936196719974774 0.012075393324158546 0 -0.003944116008902084 0.011824535103368601 0 -0.0036587776920328058 0.01200278135860708 0 -0.0037936196719974774 0.012075393324158546 0 -0.0036235543183489091 0.01224879498449038 0 -0.003694989154823693 0.012422405865531934 0 -0.0036235543183489091 0.01224879498449038 0 -0.0037960589726866497 0.012211797127133217 0 -0.0037936196719974774 0.012075393324158546 0 -0.0036235543183489091 0.01224879498449038 0 -0.0037960589726866497 0.012211797127133217 0 -0.0036587776920328058 0.01200278135860708 0 -0.0036235543183489091 0.01224879498449038 0 -0.0034749065906717865 0.012153838543657385 0 -0.0036235543183489091 0.01224879498449038 0 -0.0034325990020604383 0.012335324286500499 0 -0.0035255694101450131 0.012441887391991658 0 -0.003694989154823693 0.012422405865531934 0 -0.0036235543183489091 0.01224879498449038 0 -0.0035255694101450131 0.012441887391991658 0 -0.0036235543183489091 0.01224879498449038 0 -0.0034325990020604383 0.012335324286500499 0 -0.0034749065906717865 0.012153838543657385 0 -0.0034325990020604383 0.012335324286500499 0 -0.0034749065906717865 0.012153838543657385 0 -0.0033831144588317933 0.012256852660563661 0 -0.0028786025149740331 0.011990096315153013 0 -0.0027519220410019327 0.012535619872138793 0 -0.0033236940434542258 0.012125935866762813 0 -0.0034749065906717865 0.012153838543657385 0 -0.0033831144588317933 0.012256852660563661 0 -0.0023658281985540182 0.012105598810211712 0 -0.00231178268646309 0.011681602260788205 0 -0.0024679678969436224 0.011925640135943766 0 -0.0033236940434542258 0.012125935866762813 0 -0.0033831144588317933 0.012256852660563661 0 -0.0033245432789807002 0.012333172186678499 0 -0.0023985051313038662 0.011639098701032292 0 -0.00231178268646309 0.011681602260788205 0 -0.002494723459767386 0.010634050789077315 0 -0.0034325990020604383 0.012335324286500499 0 -0.0033831144588317933 0.012256852660563661 0 -0.003378928308316776 0.012340213903664438 0 -0.0033831144588317933 0.012256852660563661 0 -0.0033245432789807002 0.012333172186678499 0 -0.003378928308316776 0.012340213903664438 0 -0.003378928308316776 0.012340213903664438 0 -0.0033558477797348699 0.012380592133990639 0 -0.0033888670231231391 0.012399307410387639 0 -0.0034325990020604383 0.012335324286500499 0 -0.003378928308316776 0.012340213903664438 0 -0.0033888670231231391 0.012399307410387639 0 -0.0033245432789807002 0.012333172186678499 0 -0.003378928308316776 0.012340213903664438 0 -0.0033558477797348699 0.012380592133990639 0 -0.0033245432789807002 0.012333172186678499 0 -0.0033558477797348699 0.012380592133990639 0 -0.003340021396563446 0.012440830483242798 0 -0.0027519220410019327 0.012535619872138793 0 -0.0030213914209508436 0.0089730221448541224 0 -0.0033888670231231391 0.012399307410387639 0 -0.0034187921191567851 0.01246434099180554 0 -0.003340021396563446 0.012440830483242798 0 -0.0033558477797348699 0.012380592133990639 0 -0.0033888670231231391 0.012399307410387639 0 -0.003340021396563446 0.012440830483242798 0 -0.0033888670231231391 0.012399307410387639 0 -0.0034187921191567851 0.01246434099180554 0 -0.0034449858756924381 0.012432881018275686 0 -0.0030213914209508436 0.0089730221448541224 0 -0.0035637390381559847 0.0094587240369088301 0 -0.0034187921191567851 0.01246434099180554 0 -0.003340021396563446 0.012440830483242798 0 -0.0034484306456722667 0.012506069204971472 0 -0.0032014898947102591 0.0058532457044424601 0 -0.0031233295743658702 0.0061693656634538782 0 -0.0035823956569729274 0.0062962116120074798 0 -0.0034187921191567851 0.01246434099180554 0 -0.0034849703527390316 0.012503614562807196 0 -0.0034484306456722667 0.012506069204971472 0 -0.0034849703527390316 0.012503614562807196 0 -0.0035061544224997509 0.012520010803901315 0 -0.0034484306456722667 0.012506069204971472 0 -0.0034325990020604383 0.012335324286500499 0 -0.0034449858756924381 0.012432881018275686 0 -0.0035255694101450131 0.012441887391991658 0 -0.0034849703527390316 0.012503614562807196 0 -0.0034449858756924381 0.012432881018275686 0 -0.0035255694101450131 0.012441887391991658 0 -0.0034325990020604383 0.012335324286500499 0 -0.0033888670231231391 0.012399307410387639 0 -0.0034449858756924381 0.012432881018275686 0 -0.0034187921191567851 0.01246434099180554 0 -0.0034849703527390316 0.012503614562807196 0 -0.0034449858756924381 0.012432881018275686 0 -0.0034849703527390316 0.012503614562807196 0 -0.0035255694101450131 0.012441887391991658 0 -0.0035470763568120549 0.012581954837234822 0 -0.0034849703527390316 0.012503614562807196 0 -0.0035470763568120549 0.012581954837234822 0 -0.0035061544224997509 0.012520010803901315 0 -0.0035470763568120549 0.012581954837234822 0 -0.0036624648330960668 0.013051554707662649 0 -0.0037561136720598719 0.012690730805333773 0 -0.0035293445818537776 0.012605739091040359 0 -0.0036166070257345451 0.012765478715967525 0 -0.003694989154823693 0.012422405865531934 0 -0.0035470763568120549 0.012581954837234822 0 -0.0037561136720598719 0.012690730805333773 0 -0.003694989154823693 0.012422405865531934 0 -0.0035255694101450131 0.012441887391991658 0 -0.0035470763568120549 0.012581954837234822 0 -0.0019733055703063337 0.0048014229136300341 0 -0.0016794898131082725 0.0044615788340437437 0 -0.0026265822822847612 0.0045885314854063903 0 -0.0025859198631206269 0.0029302957285244164 0 -0.0029290562744020802 0.0084932949999870014 0 -0.0014484605318215579 0.0022228649309379992 0 -0.0023057296620535008 0.0015759868947674875 0 -0.00214960686029099 0.0029451368737762997 0 -0.0025859198631206269 0.0029302957285244164 0 -0.0018954088190477974 0.0042980354463312406 0 -0.0019733055703063337 0.0048014229136300341 0 -0.0016794898131082725 0.0044615788340437437 0 -0.0015884604899532874 0.0051698824175937319 0 -0.0019479345875716505 -0.00041785456226693814 0 -0.0034933771999801542 -0.0013237029934760533 0 -0.0032983728939025092 0.0005999039303464527 0 -0.0031777270957309561 0.0023035746047710302 0 -0.0025859198631206269 0.0029302957285244164 0 -0.0026099655209274389 0.0059887945969992924 0 -0.003380616579106618 0.005439711836992568 0 -0.0038955495257457021 0.0061667467730442752 0 -0.0027444191055478349 0.0047814941067196998 0 -0.0026099655209274389 0.0059887945969992924 0 -0.003380616579106618 0.005439711836992568 0 -0.0027655173185077556 0.01191427747129436 0 -0.0026096125612198586 0.011968902391533654 0 -0.0026665468902814043 0.011718293126630737 0 -0.0033512362334666974 0.009106492452462157 0 -0.0029290562744020802 0.0084932949999870014 0 -0.0026096125612198586 0.011968902391533654 0 -0.0024679678969436224 0.011925640135943766 0 -0.0026665468902814043 0.011718293126630737 0 -0.0023985051313038662 0.011639098701032292 0 -0.00326346868836271 0.011672851257164827 0 -0.0028927776215428233 0.011176729880548556 0 -0.0023985051313038662 0.011639098701032292 0 -0.0024679678969436224 0.011925640135943766 0 -0.0026665468902814043 0.011718293126630737 0 -0.0025311925293109937 0.012089157678648739 0 -0.0029290562744020802 0.0084932949999870014 0 -0.0023985051313038662 0.011639098701032292 0 -0.00231178268646309 0.011681602260788205 0 -0.0024679678969436224 0.011925640135943766 0 -0.0019733055703063337 0.0048014229136300341 0 -0.0026265822822847612 0.0045885314854063903 0 -0.0023423121055176125 0.0049323036522958691 0 -0.0029290562744020802 0.0084932949999870014 0 -0.0027937322106020646 0.0079587121918232775 0 -0.0026265822822847612 0.0045885314854063903 0 -0.0026080518893819293 0.0050272298593290257 0 -0.0029326232307942757 0.0049981198735606453 0 -0.0026265822822847612 0.0045885314854063903 0 -0.0023423121055176125 0.0049323036522958691 0 -0.0026080518893819293 0.0050272298593290257 0 -0.0023423121055176125 0.0049323036522958691 0 -0.0026080518893819293 0.0050272298593290257 0 -0.0023548422018392808 0.0052087156507462148 0 -0.0026080518893819293 0.0050272298593290257 0 -0.0027344992215818644 0.0053478389512138201 0 -0.0029326232307942757 0.0049981198735606453 0 -0.0026080518893819293 0.0050272298593290257 0 -0.0027344992215818644 0.0053478389512138201 0 -0.0023548422018392808 0.0052087156507462148 0 -0.0027344992215818644 0.0053478389512138201 0 -0.0023548422018392808 0.0052087156507462148 0 -0.0024810105037634139 0.0054516785887957263 0 -0.0023985051313038662 0.011639098701032292 0 -0.0028927776215428233 0.011176729880548556 0 -0.002494723459767386 0.010634050789077315 0 -0.0027344992215818644 0.0053478389512138201 0 -0.0029326232307942757 0.0049981198735606453 0 -0.0032429631531804906 0.0054193085995112014 0 -0.0027937322106020646 0.0079587121918232775 0 -0.0030213914209508436 0.0089730221448541224 0 -0.0029227889055671885 0.0056032894457517966 0 -0.0031336549540401282 0.0059198440612261115 0 -0.0025777373057062317 0.0057285999118242012 0 -0.0030213914209508436 0.0089730221448541224 0 -0.0032544582302731109 0.0055459787319730456 0 -0.0032429631531804906 0.0054193085995112014 0 -0.0029227889055671885 0.0056032894457517966 0 -0.0031336549540401282 0.0059198440612261115 0 -0.0027344992215818644 0.0053478389512138201 0 -0.0032429631531804906 0.0054193085995112014 0 -0.0029227889055671885 0.0056032894457517966 0 -0.0024810105037634139 0.0054516785887957263 0 -0.0025777373057062317 0.0057285999118242012 0 -0.002258411877981978 0.0055230577598204293 0 -0.0023548422018392808 0.0052087156507462148 0 -0.0024810105037634139 0.0054516785887957263 0 -0.002258411877981978 0.0055230577598204293 0 -0.0027344992215818644 0.0053478389512138201 0 -0.0024810105037634139 0.0054516785887957263 0 -0.0025777373057062317 0.0057285999118242012 0 -0.0027344992215818644 0.0053478389512138201 0 -0.0029227889055671885 0.0056032894457517966 0 -0.0025777373057062317 0.0057285999118242012 0 -0.0025777373057062317 0.0057285999118242012 0 -0.0023127769973218647 0.0058465961453005423 0 -0.002258411877981978 0.0055230577598204293 0 -0.0025777373057062317 0.0057285999118242012 0 -0.0023127769973218647 0.0058465961453005423 0 -0.0025608570727157598 0.0061630228652076752 0 -0.0023127769973218647 0.0058465961453005423 0 -0.0020532427369155757 0.0057225679182560333 0 -0.002117078728162667 0.0060994954293434106 0 -0.0023127769973218647 0.0058465961453005423 0 -0.0020532427369155757 0.0057225679182560333 0 -0.002258411877981978 0.0055230577598204293 0 -0.0020532427369155757 0.0057225679182560333 0 -0.00181623730170628 0.0058711719616338113 0 -0.0018508400862818559 0.0055900477911207799 0 -0.0020532427369155757 0.0057225679182560333 0 -0.0018508400862818559 0.0055900477911207799 0 -0.0019727752262062165 0.0054611530896521423 0 -0.0018508400862818559 0.0055900477911207799 0 -0.0019727752262062165 0.0054611530896521423 0 -0.001758789156640914 0.0054183306991311001 0 -0.0019727752262062165 0.0054611530896521423 0 -0.0018437373349327333 0.0052607043189850568 0 -0.001758789156640914 0.0054183306991311001 0 -0.0019727752262062165 0.0054611530896521423 0 -0.002258411877981978 0.0055230577598204293 0 -0.0020711977569679739 0.0052578339787878589 0 -0.0020532427369155757 0.0057225679182560333 0 -0.0019727752262062165 0.0054611530896521423 0 -0.002258411877981978 0.0055230577598204293 0 -0.0023548422018392808 0.0052087156507462148 0 -0.002258411877981978 0.0055230577598204293 0 -0.0020711977569679739 0.0052578339787878589 0 -0.0023548422018392808 0.0052087156507462148 0 -0.0020711977569679739 0.0052578339787878589 0 -0.0021419498808930917 0.0050543445599195201 0 -0.0020711977569679739 0.0052578339787878589 0 -0.0019514156875573244 0.0051037015022164451 0 -0.0021419498808930917 0.0050543445599195201 0 -0.0019727752262062165 0.0054611530896521423 0 -0.0020711977569679739 0.0052578339787878589 0 -0.0018437373349327333 0.0052607043189850568 0 -0.0018437373349327333 0.0052607043189850568 0 -0.0019514156875573244 0.0051037015022164451 0 -0.001719807066563024 0.0051605520627398946 0 -0.0020711977569679739 0.0052578339787878589 0 -0.0018437373349327333 0.0052607043189850568 0 -0.0019514156875573244 0.0051037015022164451 0 -0.0019733055703063337 0.0048014229136300341 0 -0.0019514156875573244 0.0051037015022164451 0 -0.001719807066563024 0.0051605520627398946 0 -0.0019733055703063337 0.0048014229136300341 0 -0.0019514156875573244 0.0051037015022164451 0 -0.0021419498808930917 0.0050543445599195201 0 -0.0019733055703063337 0.0048014229136300341 0 -0.0023423121055176125 0.0049323036522958691 0 -0.0021419498808930917 0.0050543445599195201 0 -0.0023423121055176125 0.0049323036522958691 0 -0.0023548422018392808 0.0052087156507462148 0 -0.0021419498808930917 0.0050543445599195201 0 -0.0010356288371692994 0.0040459430622467431 0 -0.0018954088190477974 0.0042980354463312406 0 -0.001249080133253929 0.005288765428722743 0 -0.00096480595716537767 0.005120359078815394 0 -0.0015651715964575734 0.0051304624526831407 0 -0.0019733055703063337 0.0048014229136300341 0 -0.0015884604899532874 0.0051698824175937319 0 -0.001719807066563024 0.0051605520627398946 0 -0.0018954088190477974 0.0042980354463312406 0 -0.001760119361590652 0.0044513320014740749 0 -0.001569389865835166 0.0051498720809839129 0 -0.001719807066563024 0.0051605520627398946 0 -0.001672998992294428 0.00526502818779628 0 -0.001569389865835166 0.0051498720809839129 0 -0.001672998992294428 0.00526502818779628 0 -0.001556639195159653 0.0052225500525830554 0 -0.0018954088190477974 0.0042980354463312406 0 -0.0018588073657262955 0.0044979360915974572 0 -0.0018437373349327333 0.0052607043189850568 0 -0.001719807066563024 0.0051605520627398946 0 -0.001672998992294428 0.00526502818779628 0 -0.0018437373349327333 0.0052607043189850568 0 -0.001672998992294428 0.00526502818779628 0 -0.001758789156640914 0.0054183306991311001 0 -0.001672998992294428 0.00526502818779628 0 -0.001556639195159653 0.0052225500525830554 0 -0.0015862430832450066 0.0053897274857098868 0 -0.001249080133253929 0.005288765428722743 0 -0.0015651715964575734 0.0051304624526831407 0 -0.0014197197079140762 0.0053139325510605084 0 -0.001556639195159653 0.0052225500525830554 0 -0.0014197197079140762 0.0053139325510605084 0 -0.0015862430832450066 0.0053897274857098868 0 -0.0015651715964575734 0.0051304624526831407 0 -0.001556639195159653 0.0052225500525830554 0 -0.0014197197079140762 0.0053139325510605084 0 -0.001249080133253929 0.005288765428722743 0 -0.0011951583939035625 0.0057263477905311489 0 -0.0014345591452918475 0.0055328210238333462 0 -0.001249080133253929 0.005288765428722743 0 -0.0014197197079140762 0.0053139325510605084 0 -0.0014345591452918475 0.0055328210238333462 0 -0.0014197197079140762 0.0053139325510605084 0 -0.0014345591452918475 0.0055328210238333462 0 -0.0015862430832450066 0.0053897274857098868 0 -0.001672998992294428 0.00526502818779628 0 -0.001758789156640914 0.0054183306991311001 0 -0.0015862430832450066 0.0053897274857098868 0 -0.001758789156640914 0.0054183306991311001 0 -0.0015862430832450066 0.0053897274857098868 0 -0.0016598287440968145 0.0056130319966301613 0 -0.0014345591452918475 0.0055328210238333462 0 -0.0015862430832450066 0.0053897274857098868 0 -0.0016598287440968145 0.0056130319966301613 0 -0.0018508400862818559 0.0055900477911207799 0 -0.001758789156640914 0.0054183306991311001 0 -0.0016598287440968145 0.0056130319966301613 0 -0.00181623730170628 0.0058711719616338113 0 -0.0018508400862818559 0.0055900477911207799 0 -0.0016598287440968145 0.0056130319966301613 0 -0.00181623730170628 0.0058711719616338113 0 -0.0016598287440968145 0.0056130319966301613 0 -0.0015073071562995851 0.0058775781275480611 0 -0.0014345591452918475 0.0055328210238333462 0 -0.0016598287440968145 0.0056130319966301613 0 -0.0015073071562995851 0.0058775781275480611 0 -0.0011951583939035625 0.0057263477905311489 0 -0.0014345591452918475 0.0055328210238333462 0 -0.0015073071562995851 0.0058775781275480611 0 -0.0017069037009476997 0.0063048247048997051 0 -0.0012958667878129274 0.0061276285979035214 0 -0.0012416897819307556 0.0067182601988323076 0 -0.0015073071562995851 0.0058775781275480611 0 -0.0017069037009476997 0.0063048247048997051 0 -0.0012958667878129274 0.0061276285979035214 0 -0.0011951583939035625 0.0057263477905311489 0 -0.0015073071562995851 0.0058775781275480611 0 -0.0012958667878129274 0.0061276285979035214 0 -0.00181623730170628 0.0058711719616338113 0 -0.0015073071562995851 0.0058775781275480611 0 -0.0017069037009476997 0.0063048247048997051 0 -0.0017069037009476997 0.0063048247048997051 0 -0.0020098594262510806 0.0069331737059320636 0 -0.0012416897819307556 0.0067182601988323076 0 -0.0017069037009476997 0.0063048247048997051 0 -0.0021925524094645894 0.0064881219895954684 0 -0.0020098594262510806 0.0069331737059320636 0 -0.0021925524094645894 0.0064881219895954684 0 -0.0023918839741126001 0.0068159991119128883 0 -0.0020098594262510806 0.0069331737059320636 0 -0.0021925524094645894 0.0064881219895954684 0 -0.002117078728162667 0.0060994954293434106 0 -0.0025608570727157598 0.0061630228652076752 0 -0.0017069037009476997 0.0063048247048997051 0 -0.0021925524094645894 0.0064881219895954684 0 -0.002117078728162667 0.0060994954293434106 0 -0.00181623730170628 0.0058711719616338113 0 -0.0017069037009476997 0.0063048247048997051 0 -0.002117078728162667 0.0060994954293434106 0 -0.0020532427369155757 0.0057225679182560333 0 -0.00181623730170628 0.0058711719616338113 0 -0.002117078728162667 0.0060994954293434106 0 -0.0023127769973218647 0.0058465961453005423 0 -0.002117078728162667 0.0060994954293434106 0 -0.0025608570727157598 0.0061630228652076752 0 -0.0031336549540401282 0.0059198440612261115 0 -0.0025777373057062317 0.0057285999118242012 0 -0.0025608570727157598 0.0061630228652076752 0 -0.0025608570727157598 0.0061630228652076752 0 -0.0030036071301649779 0.0064870287981865001 0 -0.0025900160274288601 0.0065732851812864467 0 -0.0021925524094645894 0.0064881219895954684 0 -0.0025608570727157598 0.0061630228652076752 0 -0.0025900160274288601 0.0065732851812864467 0 -0.0031233295743658702 0.0061693656634538782 0 -0.0030036071301649779 0.0064870287981865001 0 -0.0033662719691936824 0.0065601074134840525 0 -0.0031336549540401282 0.0059198440612261115 0 -0.0025608570727157598 0.0061630228652076752 0 -0.0030036071301649779 0.0064870287981865001 0 -0.0032544582302731109 0.0055459787319730456 0 -0.0029902884484678026 0.0065888895604675158 0 -0.0030036071301649779 0.0064870287981865001 0 -0.0027967942045776851 0.0068914378214427439 0 -0.0033114002104037746 0.0070171586053077552 0 -0.0030036071301649779 0.0064870287981865001 0 -0.0033662719691936824 0.0065601074134840525 0 -0.0033114002104037746 0.0070171586053077552 0 -0.0021925524094645894 0.0064881219895954684 0 -0.0025900160274288601 0.0065732851812864467 0 -0.0023918839741126001 0.0068159991119128883 0 -0.0030036071301649779 0.0064870287981865001 0 -0.0027967942045776851 0.0068914378214427439 0 -0.0025900160274288601 0.0065732851812864467 0 -0.0027967942045776851 0.0068914378214427439 0 -0.0025900160274288601 0.0065732851812864467 0 -0.0023918839741126001 0.0068159991119128883 0 -0.0023918839741126001 0.0068159991119128883 0 -0.0025145173973214752 0.0071511106325452658 0 -0.0020098594262510806 0.0069331737059320636 0 -0.0025145173973214752 0.0071511106325452658 0 -0.0023315273772957887 0.0075531299140843928 0 -0.0020098594262510806 0.0069331737059320636 0 -0.0025145173973214752 0.0071511106325452658 0 -0.0029196312040825007 0.0073300841452275927 0 -0.0023315273772957887 0.0075531299140843928 0 -0.0027967942045776851 0.0068914378214427439 0 -0.0025145173973214752 0.0071511106325452658 0 -0.0029196312040825007 0.0073300841452275927 0 -0.0027967942045776851 0.0068914378214427439 0 -0.0023918839741126001 0.0068159991119128883 0 -0.0025145173973214752 0.0071511106325452658 0 -0.0027967942045776851 0.0068914378214427439 0 -0.0029196312040825007 0.0073300841452275927 0 -0.0033114002104037746 0.0070171586053077552 0 -0.0029196312040825007 0.0073300841452275927 0 -0.0033114002104037746 0.0070171586053077552 0 -0.0033082449691788523 0.007574379411657354 0 -0.002900389251588253 0.0077855375706359503 0 -0.0033082449691788523 0.007574379411657354 0 -0.0031685679852388529 0.0081522301103812179 0 -0.0029196312040825007 0.0073300841452275927 0 -0.002900389251588253 0.0077855375706359503 0 -0.0033082449691788523 0.007574379411657354 0 -0.0029196312040825007 0.0073300841452275927 0 -0.002900389251588253 0.0077855375706359503 0 -0.0023315273772957887 0.0075531299140843928 0 -0.002900389251588253 0.0077855375706359503 0 -0.0023315273772957887 0.0075531299140843928 0 -0.0026037722066150335 0.0081312028235862397 0 -0.0023315273772957887 0.0075531299140843928 0 -0.0016383033941359336 0.0074156490033583048 0 -0.0020188432000019093 0.0081009232081588629 0 -0.0015398487923570486 0.0033087636017060922 0 -0.0020727564711308646 0.0061883796112140827 0 -0.0012047004031365011 0.00026839118602048459 0 -0.0015997863068159585 -0.00017888962652552572 0 -0.0022141838219871066 0.0009403397760881138 0 -0.0012047004031365011 0.00026839118602048459 0 -0.0015997863068159585 -0.00017888962652552572 0 -0.00097142537639841812 -0.00033283661323811516 0 -0.0015398487923570486 0.0033087636017060922 0 -0.0011502602562623019 0.00293651884549344 0 -0.0016383033941359336 0.0074156490033583048 0 -0.0020098594262510806 0.0069331737059320636 0 -0.0012416897819307556 0.0067182601988323076 0 -0.0015997863068159585 -0.00017888962652552572 0 -0.00098374312365943385 -0.0010207392453219243 0 -0.00097142537639841812 -0.00033283661323811516 0 -0.0023315273772957887 0.0075531299140843928 0 -0.0016383033941359336 0.0074156490033583048 0 -0.0020098594262510806 0.0069331737059320636 0 -0.0034829369182042456 0.012486171317882645 0 -0.0034678932116085121 0.012520168570123516 0 -0.0034327853839190244 0.012474816188214671 0 -0.0034829369182042456 0.012486171317882645 0 -0.0034678932116085121 0.012520168570123516 0 -0.0035061544224997509 0.012520010803901315 0 -0.0035470763568120549 0.012581954837234822 0 -0.0034678932116085121 0.012520168570123516 0 -0.0035061544224997509 0.012520010803901315 0 -0.0034829369182042456 0.012486171317882645 0 -0.0035061544224997509 0.012520010803901315 0 -0.0035051907962760078 0.01248324240426919 0 -0.0037744106401806652 0.0095905950150240345 0 -0.0035637390381559847 0.0094587240369088301 0 -0.0035061544224997509 0.012520010803901315 0 -0.0035051907962760078 0.01248324240426919 0 -0.0034484306456722667 0.012506069204971472 0 -0.0031233295743658702 0.0061693656634538782 0 -0.0035823956569729274 0.0062962116120074798 0 -0.0033662719691936824 0.0065601074134840525 0 -0.0040421416500589051 0.0068736100571252469 0 -0.0033662719691936824 0.0065601074134840525 0 -0.0033114002104037746 0.0070171586053077552 0 -0.0040421416500589051 0.0068736100571252469 0 -0.0035823956569729274 0.0062962116120074798 0 -0.0033662719691936824 0.0065601074134840525 0 -0.0033114002104037746 0.0070171586053077552 0 -0.0033082449691788523 0.007574379411657354 0 -0.0037969580800003848 0.0073550806724336192 0 -0.0033082449691788523 0.007574379411657354 0 -0.0038320124709792973 0.0078134167804874959 0 -0.0037969580800003848 0.0073550806724336192 0 -0.0033082449691788523 0.007574379411657354 0 -0.0038320124709792973 0.0078134167804874959 0 -0.0031685679852388529 0.0081522301103812179 0 -0.0038320124709792973 0.0078134167804874959 0 -0.0037969580800003848 0.0073550806724336192 0 -0.0044856511880322384 0.0075015508396708199 0 -0.0040421416500589051 0.0068736100571252469 0 -0.0037969580800003848 0.0073550806724336192 0 -0.0044856511880322384 0.0075015508396708199 0 -0.0040421416500589051 0.0068736100571252469 0 -0.0033114002104037746 0.0070171586053077552 0 -0.0037969580800003848 0.0073550806724336192 0 -0.0034829369182042456 0.012486171317882645 0 -0.0035051907962760078 0.01248324240426919 0 -0.0034922789385347149 0.012427611647290089 0 -0.0037744106401806652 0.0095905950150240345 0 -0.0037329038824161975 0.010457703049414426 0 -0.0035163596258165385 0.011645551813453628 0 -0.0033731593803211063 0.011642514473914588 0 -0.003316130415993896 0.011769171277470961 0 -0.0037929468516433671 0.0095501603083494521 0 -0.0037329038824161975 0.010457703049414426 0 -0.0033731593803211063 0.011642514473914588 0 -0.003316130415993896 0.011769171277470961 0 -0.0032463229177576193 0.011700055333487305 0 -0.0033392078188390103 0.011817129146001011 0 -0.0032463229177576193 0.011700055333487305 0 -0.0031623625737619873 0.011916929744689627 0 -0.0032463229177576193 0.011700055333487305 0 -0.0031623625737619873 0.011916929744689627 0 -0.003062616321205117 0.011777125951243859 0 -0.0037329038824161975 0.010457703049414426 0 -0.0035722198735335903 0.011713720498898985 0 -0.0034829369182042456 0.012486171317882645 0 -0.0034620314834120139 0.012452375037520919 0 -0.0034327853839190244 0.012474816188214671 0 -0.0034829369182042456 0.012486171317882645 0 -0.0034922789385347149 0.012427611647290089 0 -0.0034620314834120139 0.012452375037520919 0 -0.0037329038824161975 0.010457703049414426 0 -0.0032090434901929144 0.01223592567240101 0 -0.0023817504884988804 0.010551655450349943 0 -0.0024196668282108502 0.01073707762716835 0 -0.0022405870930568162 0.0106513839970302 0 -0.0023817504884988804 0.010551655450349943 0 -0.0022527484440089639 0.010489605837475643 0 -0.0022405870930568162 0.0106513839970302 0 -0.0024196668282108502 0.01073707762716835 0 -0.0021562111495621655 0.010799268023986891 0 -0.0022405870930568162 0.0106513839970302 0 -0.0028501075674559942 0.011174626538410448 0 -0.0025627007114612144 0.010817724589548269 0 -0.0032463229177576193 0.011700055333487305 0 -0.0032814380436458654 0.011553784022579901 0 -0.0030243124058227638 0.011573695596615275 0 -0.0028501075674559942 0.011174626538410448 0 -0.0030990844104268316 0.011176488977399503 0 -0.0033731593803211063 0.011642514473914588 0 -0.0032814380436458654 0.011553784022579901 0 -0.0034998015823478001 0.011540693317979508 0 -0.0033731593803211063 0.011642514473914588 0 -0.0032463229177576193 0.011700055333487305 0 -0.0032814380436458654 0.011553784022579901 0 -0.0024196668282108502 0.01073707762716835 0 -0.0026171113467655573 0.010469723501994845 0 -0.0026740951921313846 0.010659542801187204 0 -0.0023817504884988804 0.010551655450349943 0 -0.0024196668282108502 0.01073707762716835 0 -0.0026171113467655573 0.010469723501994845 0 -0.0026171113467655573 0.010469723501994845 0 -0.0026740951921313846 0.010659542801187204 0 -0.0028243689884303413 0.010477617429048276 0 -0.0035163596258165385 0.011645551813453628 0 -0.0033731593803211063 0.011642514473914588 0 -0.0034998015823478001 0.011540693317979508 0 -0.0035163596258165385 0.011645551813453628 0 -0.0034998015823478001 0.011540693317979508 0 -0.0037018820771146858 0.011522177318414616 0 -0.0030990844104268316 0.011176488977399503 0 -0.00323605558399355 0.010280229935320493 0 -0.0026740951921313846 0.010659542801187204 0 -0.0028243689884303413 0.010477617429048276 0 -0.0029084708700246212 0.010594257398202621 0 -0.0037929468516433671 0.0095501603083494521 0 -0.00323605558399355 0.010280229935320493 0 -0.0026171113467655573 0.010469723501994845 0 -0.0028243689884303413 0.010477617429048276 0 -0.0028120960871114323 0.010336460945937497 0 -0.0028243689884303413 0.010477617429048276 0 -0.0028120960871114323 0.010336460945937497 0 -0.0029430268031497217 0.010355712620447587 0 -0.0028120960871114323 0.010336460945937497 0 -0.0028863449175011648 0.010158257445424283 0 -0.0027418973108528401 0.010262827786109263 0 -0.0028120960871114323 0.010336460945937497 0 -0.0028863449175011648 0.010158257445424283 0 -0.002900425072465991 0.010268519931623976 0 -0.0028863449175011648 0.010158257445424283 0 -0.0028450316156549923 0.010126363098966725 0 -0.0027418973108528401 0.010262827786109263 0 -0.0028863449175011648 0.010158257445424283 0 -0.0028450316156549923 0.010126363098966725 0 -0.0030014503727568012 0.01009640469125297 0 -0.0028450316156549923 0.010126363098966725 0 -0.0026741014795591037 0.010162218282249027 0 -0.0027418973108528401 0.010262827786109263 0 -0.0026741014795591037 0.010162218282249027 0 -0.0025932080185549745 0.010313909697878772 0 -0.0027418973108528401 0.010262827786109263 0 -0.0026171113467655573 0.010469723501994845 0 -0.0028120960871114323 0.010336460945937497 0 -0.0027418973108528401 0.010262827786109263 0 -0.0026171113467655573 0.010469723501994845 0 -0.0025932080185549745 0.010313909697878772 0 -0.0027418973108528401 0.010262827786109263 0 -0.0023817504884988804 0.010551655450349943 0 -0.0026171113467655573 0.010469723501994845 0 -0.0024323825866361067 0.01038586689548366 0 -0.0026171113467655573 0.010469723501994845 0 -0.0025932080185549745 0.010313909697878772 0 -0.0024323825866361067 0.01038586689548366 0 -0.0026741014795591037 0.010162218282249027 0 -0.0025932080185549745 0.010313909697878772 0 -0.0024931556388461148 0.010196195115920223 0 -0.0025932080185549745 0.010313909697878772 0 -0.0024323825866361067 0.01038586689548366 0 -0.0024931556388461148 0.010196195115920223 0 -0.0024323825866361067 0.01038586689548366 0 -0.0024931556388461148 0.010196195115920223 0 -0.0022854601932617413 0.010264819234229589 0 -0.0024323825866361067 0.01038586689548366 0 -0.0022854601932617413 0.010264819234229589 0 -0.0022527484440089639 0.010489605837475643 0 -0.0023817504884988804 0.010551655450349943 0 -0.0024323825866361067 0.01038586689548366 0 -0.0022527484440089639 0.010489605837475643 0 -0.0020727564711308646 0.0061883796112140827 0 -0.0026892710324586803 0.0095263000147808984 0 -0.00074421396585027831 0.006937631317983149 0 -0.0010325372562313244 0.0056104739407033186 0 -0.0021569462895327618 0.0079218186862789353 0 -0.00074421396585027831 0.006937631317983149 0 -0.0021569462895327618 0.0079218186862789353 0 -0.00064194042833458983 0.0081048830756245763 0 -0.00019218973484034989 0.0010820521182289141 0 -0.00080730090473848015 0.0038947111898981223 0 -0.00019047104740754965 -0.00068724677406585891 0 -0.00011843940213489958 -0.00083735423679080637 0 -0.00036071915261085035 -0.00065573299964806812 0 -0.00066151424595111753 -0.00097008728792127928 0 -0.0009226563922928113 -0.00092682370334295334 0 -0.00082133024541705462 -0.00089034606974696751 0 -0.00019047104740754965 -0.00068724677406585891 0 -0.00011843940213489958 -0.00083735423679080637 0 -7.8379699206168946e-05 -0.00075910776600202306 0 -0.00074421396585027831 0.006937631317983149 0 0.00090642302041512928 0.0061008011412258456 0 -0.00064194042833458983 0.0081048830756245763 0 -0.00019218973484034989 0.0010820521182289141 0 -0.0005597099853012292 -0.0011577472127104801 0 -0.0012047004031365011 0.00026839118602048459 0 -0.0022141838219871066 0.0009403397760881138 0 -0.00095522789675022118 0.00084715150531946214 0 -0.0020727564711308646 0.0061883796112140827 0 -1.2377300930040175e-05 0.0013408628238743669 0 0.00090642302041512928 0.0061008011412258456 0 -0.0010325372562313244 0.0056104739407033186 0 0.0011974483801482283 0.0054915590995967623 0 -0.00074421396585027831 0.006937631317983149 0 0.00090642302041512928 0.0061008011412258456 0 -0.0010325372562313244 0.0056104739407033186 0 -0.0030823892856435098 0.010402525740598688 0 -0.003071707173768728 0.010408210819728151 0 -0.0030701003556900209 0.010419583681236905 0 -0.0020727564711308646 0.0061883796112140827 0 -0.0029144577513509689 0.0093212712211698818 0 -0.0023315273772957887 0.0075531299140843928 0 -0.0020188432000019093 0.0081009232081588629 0 -0.0026037722066150335 0.0081312028235862397 0 -0.002900389251588253 0.0077855375706359503 0 -0.0026037722066150335 0.0081312028235862397 0 -0.0031685679852388529 0.0081522301103812179 0 -0.0029084708700246212 0.010594257398202621 0 -0.0029636633200268462 0.01044806743172827 0 -0.0030701003556900209 0.010419583681236905 0 -0.00323605558399355 0.010280229935320493 0 -0.0029611809091162895 0.010498701268713689 0 -0.003071707173768728 0.010408210819728151 0 -0.003094926808816581 0.010405175362995622 0 -0.0030701003556900209 0.010419583681236905 0 -0.0029144577513509689 0.0093212712211698818 0 -0.00323605558399355 0.010280229935320493 0 -0.0028243689884303413 0.010477617429048276 0 -0.0029084708700246212 0.010594257398202621 0 -0.0029636633200268462 0.01044806743172827 0 -0.0029636633200268462 0.01044806743172827 0 -0.0030701003556900209 0.010419583681236905 0 -0.0030298206387981753 0.010377807526097816 0 -0.0029636633200268462 0.01044806743172827 0 -0.0029430268031497217 0.010355712620447587 0 -0.0030298206387981753 0.010377807526097816 0 -0.0028243689884303413 0.010477617429048276 0 -0.0029636633200268462 0.01044806743172827 0 -0.0029430268031497217 0.010355712620447587 0 -0.0030823892856435098 0.010402525740598688 0 -0.0030701003556900209 0.010419583681236905 0 -0.0031139185175965965 0.010346287622393506 0 -0.0030701003556900209 0.010419583681236905 0 -0.0030298206387981753 0.010377807526097816 0 -0.0031139185175965965 0.010346287622393506 0 -0.0026892710324586803 0.0095263000147808984 0 -0.0028420849794675057 0.0097312831652886459 0 -0.0031139185175965965 0.010346287622393506 0 -0.0029486173883388994 0.010229832877972947 0 -0.0028897120040496183 0.0099519757620581666 0 -0.0030298206387981753 0.010377807526097816 0 -0.0031139185175965965 0.010346287622393506 0 -0.0029486173883388994 0.010229832877972947 0 -0.0029430268031497217 0.010355712620447587 0 -0.002900425072465991 0.010268519931623976 0 -0.0029486173883388994 0.010229832877972947 0 -0.0028120960871114323 0.010336460945937497 0 -0.0029430268031497217 0.010355712620447587 0 -0.002900425072465991 0.010268519931623976 0 -0.0029430268031497217 0.010355712620447587 0 -0.0030298206387981753 0.010377807526097816 0 -0.0029486173883388994 0.010229832877972947 0 -0.0028863449175011648 0.010158257445424283 0 -0.002900425072465991 0.010268519931623976 0 -0.0029486173883388994 0.010229832877972947 0 -0.0028863449175011648 0.010158257445424283 0 -0.0029486173883388994 0.010229832877972947 0 -0.0028897120040496183 0.0099519757620581666 0 -0.0028863449175011648 0.010158257445424283 0 -0.0028897120040496183 0.0099519757620581666 0 -0.0030014503727568012 0.01009640469125297 0 -0.0021569462895327618 0.0079218186862789353 0 -0.0028897120040496183 0.0099519757620581666 0 -0.0020798328944190451 0.0098865391036089753 0 -0.0011215382044452882 -0.00015579289000597452 0 -0.00036071915261085035 -0.00065573299964806812 0 -0.00045910272997256717 -0.00032445938461017133 0 -0.0011246095627552943 7.4433148689928409e-06 0 -0.0005597099853012292 -0.0011577472127104801 0 -0.0017739534098543065 -0.00034185501681007727 0 -0.0011215382044452882 -0.00015579289000597452 0 -0.0009226563922928113 -0.00092682370334295334 0 -0.0011215382044452882 -0.00015579289000597452 0 -0.00045910272997256717 -0.00032445938461017133 0 -0.00050583820120354329 3.2835643264317477e-05 0 -0.0021569462895327618 0.0079218186862789353 0 -0.0020798328944190451 0.0098865391036089753 0 -0.00064194042833458983 0.0081048830756245763 0 -0.0011215382044452882 -0.00015579289000597452 0 -0.0009226563922928113 -0.00092682370334295334 0 -0.00082133024541705462 -0.00089034606974696751 0 -0.0019838875774248507 0.0045868517841811604 0 -0.00080730090473848015 0.0038947111898981223 0 -0.00019047104740754965 -0.00068724677406585891 0 -0.00017739363727664083 -0.00054920828625488278 0 -9.9112330645567318e-05 -0.00065140098307786348 0 -0.00019047104740754965 -0.00068724677406585891 0 -0.00025521805401950711 -0.00060499542938774529 0 -0.00036071915261085035 -0.00065573299964806812 0 -0.00019047104740754965 -0.00068724677406585891 0 -0.00025521805401950711 -0.00060499542938774529 0 -0.00017739363727664083 -0.00054920828625488278 0 -0.00036071915261085035 -0.00065573299964806812 0 -0.00029725306292579986 -0.0005045423261467528 0 -0.00045910272997256717 -0.00032445938461017133 0 -0.00025521805401950711 -0.00060499542938774529 0 -0.00036071915261085035 -0.00065573299964806812 0 -0.00029725306292579986 -0.0005045423261467528 0 -0.00017739363727664083 -0.00054920828625488278 0 -0.00021818254280996785 -0.00037164163670656754 0 -4.127846292461112e-05 -0.0003388554285365836 0 -0.00029725306292579986 -0.0005045423261467528 0 -0.00017739363727664083 -0.00054920828625488278 0 -0.00021818254280996785 -0.00037164163670656754 0 -0.00025521805401950711 -0.00060499542938774529 0 -0.00029725306292579986 -0.0005045423261467528 0 -0.00017739363727664083 -0.00054920828625488278 0 -0.00021818254280996785 -0.00037164163670656754 0 -0.00014071380629621926 -6.8227391270687476e-05 0 -4.127846292461112e-05 -0.0003388554285365836 0 -0.00021818254280996785 -0.00037164163670656754 0 -0.00045910272997256717 -0.00032445938461017133 0 -0.00014071380629621926 -6.8227391270687476e-05 0 -0.00029725306292579986 -0.0005045423261467528 0 -0.00021818254280996785 -0.00037164163670656754 0 -0.00045910272997256717 -0.00032445938461017133 0 -0.00045910272997256717 -0.00032445938461017133 0 -0.00014071380629621926 -6.8227391270687476e-05 0 -0.00050583820120354329 3.2835643264317477e-05 0 -0.00014071380629621926 -6.8227391270687476e-05 0 0.00010967449833751805 -0.00014729598118158634 0 -4.127846292461112e-05 -0.0003388554285365836 0 0.00010967449833751805 -0.00014729598118158634 0 0.00011812722258604203 -0.00036768421401962506 0 -4.127846292461112e-05 -0.0003388554285365836 0 0.00010967449833751805 -0.00014729598118158634 0 0.00011812722258604203 -0.00036768421401962506 0 0.00029009545272119021 -0.0003054307560396471 0 0.00011812722258604203 -0.00036768421401962506 0 0.00029009545272119021 -0.0003054307560396471 0 0.00018935328179372861 -0.0004953435720976121 0 0.00029009545272119021 -0.0003054307560396471 0 0.00018935328179372861 -0.0004953435720976121 0 0.00033780500335576244 -0.00050031902745131102 0 0.00018935328179372861 -0.0004953435720976121 0 1.3848579955592368e-05 -0.0005448879797472243 0 0.00012749710896811119 -0.00063853468038646576 0 0.00018935328179372861 -0.0004953435720976121 0 0.00012749710896811119 -0.00063853468038646576 0 0.00026305872355272082 -0.00062861326109225739 0 0.00018935328179372861 -0.0004953435720976121 0 0.00026305872355272082 -0.00062861326109225739 0 0.00033780500335576244 -0.00050031902745131102 0 -0.00017739363727664083 -0.00054920828625488278 0 -4.127846292461112e-05 -0.0003388554285365836 0 1.3848579955592368e-05 -0.0005448879797472243 0 0.00011812722258604203 -0.00036768421401962506 0 0.00018935328179372861 -0.0004953435720976121 0 1.3848579955592368e-05 -0.0005448879797472243 0 0.00011812722258604203 -0.00036768421401962506 0 -4.127846292461112e-05 -0.0003388554285365836 0 1.3848579955592368e-05 -0.0005448879797472243 0 1.3848579955592368e-05 -0.0005448879797472243 0 -9.9112330645567318e-05 -0.00065140098307786348 0 4.4288102182194564e-06 -0.00069925821408922944 0 -0.00017739363727664083 -0.00054920828625488278 0 1.3848579955592368e-05 -0.0005448879797472243 0 -9.9112330645567318e-05 -0.00065140098307786348 0 -9.9112330645567318e-05 -0.00065140098307786348 0 -7.8379699206168946e-05 -0.00075910776600202306 0 4.4288102182194564e-06 -0.00069925821408922944 0 -0.00019047104740754965 -0.00068724677406585891 0 -9.9112330645567318e-05 -0.00065140098307786348 0 -7.8379699206168946e-05 -0.00075910776600202306 0 -7.8379699206168946e-05 -0.00075910776600202306 0 -5.2330789253324272e-05 -0.00084133701463225282 0 5.4856749534803371e-06 -0.00080513218872602902 0 -7.8379699206168946e-05 -0.00075910776600202306 0 4.4288102182194564e-06 -0.00069925821408922944 0 5.4856749534803371e-06 -0.00080513218872602902 0 4.4288102182194564e-06 -0.00069925821408922944 0 9.5209620019529997e-05 -0.00075851997260916848 0 5.4856749534803371e-06 -0.00080513218872602902 0 4.4288102182194564e-06 -0.00069925821408922944 0 0.00012749710896811119 -0.00063853468038646576 0 9.5209620019529997e-05 -0.00075851997260916848 0 1.3848579955592368e-05 -0.0005448879797472243 0 4.4288102182194564e-06 -0.00069925821408922944 0 0.00012749710896811119 -0.00063853468038646576 0 0.00012749710896811119 -0.00063853468038646576 0 0.00026305872355272082 -0.00062861326109225739 0 0.0001890241102603563 -0.00070244376498146475 0 0.00025022030880738559 -0.00075337897610001459 0 0.0001890241102603563 -0.00070244376498146475 0 0.00018323380488263909 -0.00082921943878555332 0 0.00026305872355272082 -0.00062861326109225739 0 0.00025022030880738559 -0.00075337897610001459 0 0.00034364073057547743 -0.00072726422587269352 0 0.00026305872355272082 -0.00062861326109225739 0 0.00025022030880738559 -0.00075337897610001459 0 0.0001890241102603563 -0.00070244376498146475 0 0.00025022030880738559 -0.00075337897610001459 0 0.000280420054859236 -0.00080198867711660422 0 0.00034364073057547743 -0.00072726422587269352 0 0.0001890241102603563 -0.00070244376498146475 0 9.5209620019529997e-05 -0.00075851997260916848 0 0.00018323380488263909 -0.00082921943878555332 0 0.00012749710896811119 -0.00063853468038646576 0 0.0001890241102603563 -0.00070244376498146475 0 9.5209620019529997e-05 -0.00075851997260916848 0 -0.00023936432156265117 -0.00028876655428142163 0 -0.00053466157332058824 -0.00034616269846298651 0 -0.00033243420136952728 -0.00040155207796789517 0 9.0402635897624345e-05 -0.00087308562739355118 0 0.00023862635882490271 -0.00090068859272831377 0 -5.9148280304950939e-05 -0.00091611915926365453 0 -5.047716298845956e-05 -0.00068899721019885258 0 -8.205502198691389e-05 0.00059512267689265977 0 0.00018323380488263909 -0.00082921943878555332 0 9.0402635897624345e-05 -0.00087308562739355118 0 0.00023862635882490271 -0.00090068859272831377 0 9.5209620019529997e-05 -0.00075851997260916848 0 0.00018323380488263909 -0.00082921943878555332 0 9.0402635897624345e-05 -0.00087308562739355118 0 0.00025022030880738559 -0.00075337897610001459 0 0.00018323380488263909 -0.00082921943878555332 0 0.000280420054859236 -0.00080198867711660422 0 0.00018323380488263909 -0.00082921943878555332 0 0.000280420054859236 -0.00080198867711660422 0 0.00023862635882490271 -0.00090068859272831377 0 -0.00023936432156265117 -0.00028876655428142163 0 -0.00053466157332058824 -0.00034616269846298651 0 -0.00059068909583600356 -0.00027066223609497096 0 -0.00010121363344294863 0.00017643891426525851 0 -8.205502198691389e-05 0.00059512267689265977 0 -1.2377300930040175e-05 0.0013408628238743669 0 -8.205502198691389e-05 0.00059512267689265977 0 -0.00053466157332058824 -0.00034616269846298651 0 -0.0006249411072900944 -0.00026461727537504441 0 -0.00059295377688591477 -0.00026574935721108603 0 -0.00011843940213489958 -0.00083735423679080637 0 -7.8379699206168946e-05 -0.00075910776600202306 0 -5.2330789253324272e-05 -0.00084133701463225282 0 -5.9148280304950939e-05 -0.00091611915926365453 0 -5.2330789253324272e-05 -0.00084133701463225282 0 -3.699148558392325e-06 -0.00085838350293830157 0 -0.00030216651373533187 0.0010275129930283806 0 -0.00020673525621323608 0.00083436785408467725 0 -0.00015033378773749546 0.00083246317548387936 0 -0.00019218973484034989 0.0010820521182289141 0 -1.2377300930040175e-05 0.0013408628238743669 0 -0.00011843940213489958 -0.00083735423679080637 0 -5.9148280304950939e-05 -0.00091611915926365453 0 -5.2330789253324272e-05 -0.00084133701463225282 0 -0.00019218973484034989 0.0010820521182289141 0 -8.205502198691389e-05 0.00059512267689265977 0 -5.2330789253324272e-05 -0.00084133701463225282 0 5.4856749534803371e-06 -0.00080513218872602902 0 -3.699148558392325e-06 -0.00085838350293830157 0 9.5209620019529997e-05 -0.00075851997260916848 0 9.0402635897624345e-05 -0.00087308562739355118 0 5.4856749534803371e-06 -0.00080513218872602902 0 9.0402635897624345e-05 -0.00087308562739355118 0 -5.9148280304950939e-05 -0.00091611915926365453 0 -3.699148558392325e-06 -0.00085838350293830157 0 9.0402635897624345e-05 -0.00087308562739355118 0 5.4856749534803371e-06 -0.00080513218872602902 0 -3.699148558392325e-06 -0.00085838350293830157 0 0.00015609701534761359 -0.00031076300996558742 0 0.0001065962510376982 -0.00037160780803382635 0 0.00056429776046801273 -0.0003353720833101021 0 0.00013007053594109183 -0.00041365969832753011 0 0.00059186852541565538 -0.00051133969906337401 0 0.0004476576780421526 -0.00055880479019941836 0 0.0005061396771859698 -0.00084123022799951965 0 0.00070701696650152669 -0.00077960020125865392 0 0.00062108957574569918 -0.00078326899170467481 0 0.00010417658841673053 -0.00038454444997658481 0 0.0005977872548715296 -0.00053223655243634564 0 0.00034144719829408876 -0.00057057588867168965 0 0.0005977872548715296 -0.00053223655243634564 0 0.00052104992335995088 -0.00076439042873269647 0 0.00057493231124217993 -0.00076173160528431494 0 0.0005061396771859698 -0.00084123022799951965 0 0.00052104992335995088 -0.00076439042873269647 0 0.0005061396771859698 -0.00084123022799951965 0 0.00046646738535477265 -0.00077805809981189636 0 0.00049017901965492958 -0.00073415363461403816 0 0.00052104992335995088 -0.00076439042873269647 0 0.00046646738535477265 -0.00077805809981189636 0 0.00049017901965492958 -0.00073415363461403816 0 0.00052104992335995088 -0.00076439042873269647 0 0.00056385768453119049 -0.00070773233362871231 0 0.00052104992335995088 -0.00076439042873269647 0 0.00057493231124217993 -0.00076173160528431494 0 0.00056385768453119049 -0.00070773233362871231 0 0.00061697240839316437 -0.00074239144900890429 0 0.00057493231124217993 -0.00076173160528431494 0 0.00056385768453119049 -0.00070773233362871231 0 0.00061697240839316437 -0.00074239144900890429 0 0.00057493231124217993 -0.00076173160528431494 0 0.00062108957574569918 -0.00078326899170467481 0 0.00057493231124217993 -0.00076173160528431494 0 0.0005061396771859698 -0.00084123022799951965 0 0.00062108957574569918 -0.00078326899170467481 0 -0.00023936432156265117 -0.00028876655428142163 0 0.0001065962510376982 -0.00037160780803382635 0 -0.00033243420136952728 -0.00040155207796789517 0 -5.047716298845956e-05 -0.00068899721019885258 0 0.00034144719829408876 -0.00057057588867168965 0 -0.00023936432156265117 -0.00028876655428142163 0 0.00015609701534761359 -0.00031076300996558742 0 0.0001065962510376982 -0.00037160780803382635 0 0.00023862635882490271 -0.00090068859272831377 0 0.0005061396771859698 -0.00084123022799951965 0 0.00037969785365230701 -0.0008013151398163069 0 0.000280420054859236 -0.00080198867711660422 0 0.00037969785365230701 -0.0008013151398163069 0 0.00034364073057547743 -0.00072726422587269352 0 0.000280420054859236 -0.00080198867711660422 0 0.00023862635882490271 -0.00090068859272831377 0 0.00037969785365230701 -0.0008013151398163069 0 0.00037969785365230701 -0.0008013151398163069 0 0.00042948141529198727 -0.00072970848179655645 0 0.00034364073057547743 -0.00072726422587269352 0 0.0005061396771859698 -0.00084123022799951965 0 0.00037969785365230701 -0.0008013151398163069 0 0.00046646738535477265 -0.00077805809981189636 0 0.00037969785365230701 -0.0008013151398163069 0 0.00046646738535477265 -0.00077805809981189636 0 0.00042948141529198727 -0.00072970848179655645 0 0.00049017901965492958 -0.00073415363461403816 0 0.00046646738535477265 -0.00077805809981189636 0 0.00042948141529198727 -0.00072970848179655645 0 0.00049017901965492958 -0.00073415363461403816 0 0.00042948141529198727 -0.00072970848179655645 0 0.00047336863594493847 -0.00066003925748656686 0 0.00042948141529198727 -0.00072970848179655645 0 0.00047336863594493847 -0.00066003925748656686 0 0.00038704165849210787 -0.00063409005260602134 0 0.00042948141529198727 -0.00072970848179655645 0 0.00034364073057547743 -0.00072726422587269352 0 0.00038704165849210787 -0.00063409005260602134 0 0.00026305872355272082 -0.00062861326109225739 0 0.00034364073057547743 -0.00072726422587269352 0 0.00038704165849210787 -0.00063409005260602134 0 0.00026305872355272082 -0.00062861326109225739 0 0.00038704165849210787 -0.00063409005260602134 0 0.00033780500335576244 -0.00050031902745131102 0 0.00047336863594493847 -0.00066003925748656686 0 0.00038704165849210787 -0.00063409005260602134 0 0.00044911964833620731 -0.00052925334942314389 0 0.00047336863594493847 -0.00066003925748656686 0 0.00056619420147338442 -0.00060915976826980971 0 0.00044911964833620731 -0.00052925334942314389 0 0.00047336863594493847 -0.00066003925748656686 0 0.00056385768453119049 -0.00070773233362871231 0 0.00056619420147338442 -0.00060915976826980971 0 0.00049017901965492958 -0.00073415363461403816 0 0.00047336863594493847 -0.00066003925748656686 0 0.00056385768453119049 -0.00070773233362871231 0 0.00061697240839316437 -0.00074239144900890429 0 0.00056385768453119049 -0.00070773233362871231 0 0.00062336554399433544 -0.00067137829135475871 0 0.00056385768453119049 -0.00070773233362871231 0 0.00056619420147338442 -0.00060915976826980971 0 0.00062336554399433544 -0.00067137829135475871 0 0.00056619420147338442 -0.00060915976826980971 0 0.00062336554399433544 -0.00067137829135475871 0 0.00065266487074670105 -0.00058465022019989319 0 0.00056619420147338442 -0.00060915976826980971 0 0.00061961892748029857 -0.00049604857173022199 0 0.00044911964833620731 -0.00052925334942314389 0 0.00061961892748029857 -0.00049604857173022199 0 0.00044911964833620731 -0.00052925334942314389 0 0.00054642946585786039 -0.00039694700308221979 0 0.00056619420147338442 -0.00060915976826980971 0 0.00061961892748029857 -0.00049604857173022199 0 0.00065266487074670105 -0.00058465022019989319 0 0.00038704165849210787 -0.00063409005260602134 0 0.00033780500335576244 -0.00050031902745131102 0 0.00044911964833620731 -0.00052925334942314389 0 0.00044911964833620731 -0.00052925334942314389 0 0.00042606838623001709 -0.00038784632562024552 0 0.00054642946585786039 -0.00039694700308221979 0 0.00033780500335576244 -0.00050031902745131102 0 0.00044911964833620731 -0.00052925334942314389 0 0.00042606838623001709 -0.00038784632562024552 0 0.00029009545272119021 -0.0003054307560396471 0 0.00033780500335576244 -0.00050031902745131102 0 0.00042606838623001709 -0.00038784632562024552 0 0.00029009545272119021 -0.0003054307560396471 0 0.00042606838623001709 -0.00038784632562024552 0 0.00049025481503209235 -0.00025129777188880238 0 0.00042606838623001709 -0.00038784632562024552 0 0.00049025481503209235 -0.00025129777188880238 0 0.00054642946585786039 -0.00039694700308221979 0 0.00049025481503209235 -0.00025129777188880238 0 0.00054642946585786039 -0.00039694700308221979 0 0.00067714659311207941 -0.00036291204184446074 0 0.00061961892748029857 -0.00049604857173022199 0 0.00054642946585786039 -0.00039694700308221979 0 0.00067714659311207941 -0.00036291204184446074 0 0.00067714659311207941 -0.00036291204184446074 0 0.0007900851336359924 -0.00044777232086836409 0 0.00075927396561403196 -0.00036423808962897342 0 0.00067714659311207941 -0.00036291204184446074 0 0.0007900851336359924 -0.00044777232086836409 0 0.00072159780860324158 -0.00051377529743584153 0 0.0007900851336359924 -0.00044777232086836409 0 0.00075927396561403196 -0.00036423808962897342 0 0.00084216588707194094 -0.00040024223164125927 0 0.0007900851336359924 -0.00044777232086836409 0 0.00092065306204881672 -0.00051934865219123623 0 0.0008025885793897106 -0.00058761459051690271 0 0.0007900851336359924 -0.00044777232086836409 0 0.00072159780860324158 -0.00051377529743584153 0 0.0008025885793897106 -0.00058761459051690271 0 0.00061961892748029857 -0.00049604857173022199 0 0.00067714659311207941 -0.00036291204184446074 0 0.00072159780860324158 -0.00051377529743584153 0 0.00061961892748029857 -0.00049604857173022199 0 0.00072159780860324158 -0.00051377529743584153 0 0.00065266487074670105 -0.00058465022019989319 0 0.00094951587205193029 -0.00039443152776698598 0 0.00084216588707194094 -0.00040024223164125927 0 0.00092065306204881672 -0.00051934865219123623 0 0.0007900851336359924 -0.00044777232086836409 0 0.00084216588707194094 -0.00040024223164125927 0 0.00092065306204881672 -0.00051934865219123623 0 0.00092065306204881672 -0.00051934865219123623 0 0.0010254313460534134 -0.0006206461186577738 0 0.0011511521858238343 -0.0005111426063503803 0 0.00094951587205193029 -0.00039443152776698598 0 0.00092065306204881672 -0.00051934865219123623 0 0.0011511521858238343 -0.0005111426063503803 0 0.00092065306204881672 -0.00051934865219123623 0 0.0010254313460534134 -0.0006206461186577738 0 0.00091034140777513576 -0.00068213175496313356 0 0.00092065306204881672 -0.00051934865219123623 0 0.00091034140777513576 -0.00068213175496313356 0 0.0008025885793897106 -0.00058761459051690271 0 0.0010254313460534134 -0.0006206461186577738 0 0.00091034140777513576 -0.00068213175496313356 0 0.0011361968255197501 -0.00076916199984527903 0 0.00072159780860324158 -0.00051377529743584153 0 0.00070603917691560662 -0.00064352800256108013 0 0.00065266487074670105 -0.00058465022019989319 0 0.00072159780860324158 -0.00051377529743584153 0 0.00070603917691560662 -0.00064352800256108013 0 0.0008025885793897106 -0.00058761459051690271 0 0.00070603917691560662 -0.00064352800256108013 0 0.00062336554399433544 -0.00067137829135475871 0 0.00066289483580197789 -0.00072118329603616587 0 0.00070603917691560662 -0.00064352800256108013 0 0.00062336554399433544 -0.00067137829135475871 0 0.00065266487074670105 -0.00058465022019989319 0 0.00091034140777513576 -0.00068213175496313356 0 0.0008025885793897106 -0.00058761459051690271 0 0.00076709990532364042 -0.00068589993432280989 0 0.00070603917691560662 -0.00064352800256108013 0 0.0008025885793897106 -0.00058761459051690271 0 0.00076709990532364042 -0.00068589993432280989 0 0.00091034140777513576 -0.00068213175496313356 0 0.00063936844470553257 -0.00053400352181333746 0 0.00080325044309499237 -0.00071454448554604901 0 0.00091034140777513576 -0.00068213175496313356 0 0.00076709990532364042 -0.00068589993432280989 0 0.00072782691248867706 -0.00077019665947541309 0 0.00089157618178686425 -0.0006912082063490854 0 0.00065596092351606324 -0.00058252410854038789 0 0.00076709990532364042 -0.00068589993432280989 0 0.00070701696650152669 -0.00077960020125865392 0 0.00072782691248867706 -0.00077019665947541309 0 0.00059186852541565538 -0.00051133969906337401 0 0.00063936844470553257 -0.00053400352181333746 0 0.00056924688219390021 -0.00057228490562692225 0 0.00070701696650152669 -0.00077960020125865392 0 0.0007064781100554775 -0.00072067707591019694 0 0.00067991694223124444 -0.00075892923938918261 0 0.0005977872548715296 -0.00053223655243634564 0 0.00065596092351606324 -0.00058252410854038789 0 0.00076709990532364042 -0.00068589993432280989 0 0.00070701696650152669 -0.00077960020125865392 0 0.0007064781100554775 -0.00072067707591019694 0 0.00070603917691560662 -0.00064352800256108013 0 0.00076709990532364042 -0.00068589993432280989 0 0.0007064781100554775 -0.00072067707591019694 0 0.00070603917691560662 -0.00064352800256108013 0 0.0007064781100554775 -0.00072067707591019694 0 0.00066289483580197789 -0.00072118329603616587 0 0.00061697240839316437 -0.00074239144900890429 0 0.00062336554399433544 -0.00067137829135475871 0 0.00066289483580197789 -0.00072118329603616587 0 0.0007064781100554775 -0.00072067707591019694 0 0.00066289483580197789 -0.00072118329603616587 0 0.00067991694223124444 -0.00075892923938918261 0 0.00066289483580197789 -0.00072118329603616587 0 0.00064537473759408628 -0.00075136930215436207 0 0.00067991694223124444 -0.00075892923938918261 0 0.00061697240839316437 -0.00074239144900890429 0 0.00064537473759408628 -0.00075136930215436207 0 0.00062108957574569918 -0.00078326899170467481 0 0.00064537473759408628 -0.00075136930215436207 0 0.00062108957574569918 -0.00078326899170467481 0 0.00067991694223124444 -0.00075892923938918261 0 0.00061697240839316437 -0.00074239144900890429 0 0.00066289483580197789 -0.00072118329603616587 0 0.00064537473759408628 -0.00075136930215436207 0 0.00070701696650152669 -0.00077960020125865392 0 0.00062108957574569918 -0.00078326899170467481 0 0.00067991694223124444 -0.00075892923938918261 0 0.00059186852541565538 -0.00051133969906337401 0 0.0004476576780421526 -0.00055880479019941836 0 0.00056924688219390021 -0.00057228490562692225 0 0.0004476576780421526 -0.00055880479019941836 0 0.00049831150960004769 -0.00066197422098768731 0 0.00034628372448334904 -0.00057067346878749683 0 0.0004476576780421526 -0.00055880479019941836 0 0.00053448273284152745 -0.00060946482823847617 0 0.00056924688219390021 -0.00057228490562692225 0 0.0004476576780421526 -0.00055880479019941836 0 0.00053448273284152745 -0.00060946482823847617 0 0.00049831150960004769 -0.00066197422098768731 0 0.00049831150960004769 -0.00066197422098768731 0 0.00061748060915430252 -0.00077652263313609279 0 0.00036178378731980404 -0.00075101895665661428 0 0.00049831150960004769 -0.00066197422098768731 0 0.00061748060915430252 -0.00077652263313609279 0 0.00061830693434798321 -0.00064265539070039815 0 0.00063936844470553257 -0.00053400352181333746 0 0.00061830693434798321 -0.00064265539070039815 0 0.00056924688219390021 -0.00057228490562692225 0 0.00053448273284152745 -0.00060946482823847617 0 0.00049831150960004769 -0.00066197422098768731 0 0.00061830693434798321 -0.00064265539070039815 0 0.00053448273284152745 -0.00060946482823847617 0 0.00061830693434798321 -0.00064265539070039815 0 0.00056924688219390021 -0.00057228490562692225 0 0.00061748060915430252 -0.00077652263313609279 0 0.00080325044309499237 -0.00071454448554604901 0 0.0008280804599796501 -0.00090100261360858422 0 0.00063936844470553257 -0.00053400352181333746 0 0.00061830693434798321 -0.00064265539070039815 0 0.00080325044309499237 -0.00071454448554604901 0 0.00061748060915430252 -0.00077652263313609279 0 0.00061830693434798321 -0.00064265539070039815 0 0.00080325044309499237 -0.00071454448554604901 0 0.00061748060915430252 -0.00077652263313609279 0 0.0008280804599796501 -0.00090100261360858422 0 0.00064701426766847496 -0.00091929422089207999 0 0.0008280804599796501 -0.00090100261360858422 0 0.00064701426766847496 -0.00091929422089207999 0 0.000903833796515065 -0.0011291819084670021 0 0.00064701426766847496 -0.00091929422089207999 0 0.00044814218497067274 -0.00092442282954734774 0 0.00059747452553560599 -0.001116275593182444 0 0.00061748060915430252 -0.00077652263313609279 0 0.00044814218497067274 -0.00092442282954734774 0 0.00036178378731980404 -0.00075101895665661428 0 0.00061748060915430252 -0.00077652263313609279 0 0.00064701426766847496 -0.00091929422089207999 0 0.00044814218497067274 -0.00092442282954734774 0 0.00091034140777513576 -0.00068213175496313356 0 0.00099306425027407066 -0.00089898370131673007 0 0.0011361968255197501 -0.00076916199984527903 0 0.00099306425027407066 -0.00089898370131673007 0 0.0011918645161952302 -0.00094519472287981612 0 0.0011361968255197501 -0.00076916199984527903 0 0.00091034140777513576 -0.00068213175496313356 0 0.00080325044309499237 -0.00071454448554604901 0 0.00099306425027407066 -0.00089898370131673007 0 0.00080325044309499237 -0.00071454448554604901 0 0.0008280804599796501 -0.00090100261360858422 0 0.00099306425027407066 -0.00089898370131673007 0 0.0008280804599796501 -0.00090100261360858422 0 0.00099306425027407066 -0.00089898370131673007 0 0.000903833796515065 -0.0011291819084670021 0 0.00099306425027407066 -0.00089898370131673007 0 0.0010834771655552477 -0.0010995380645263393 0 0.0011918645161952302 -0.00094519472287981612 0 0.0010834771655552477 -0.0010995380645263393 0 0.0010280063682788566 -0.0012256938805864264 0 0.000903833796515065 -0.0011291819084670021 0 0.00099306425027407066 -0.00089898370131673007 0 0.0010834771655552477 -0.0010995380645263393 0 0.000903833796515065 -0.0011291819084670021 0 0.0016616280623082821 -0.0013577863946122606 0 0.000903833796515065 -0.0011291819084670021 0 0.0010479984469586702 -0.0015567248323175463 0 0.0015351205979772782 -0.0018967492774814945 0 0.0016616280623082821 -0.0013577863946122606 0 0.0010479984469586702 -0.0015567248323175463 0 0.0013610500819413404 -0.0013206833817085398 0 0.00093798641976229928 -0.0011288690791916858 0 0.0010834771655552477 -0.0010995380645263393 0 0.0010280063682788566 -0.0012256938805864264 0 0.0012035400167116955 -0.0013624605261643643 0 0.0013610500819413404 -0.0013206833817085398 0 0.0017619873116822571 -0.0014088124849710461 0 0.00059747452553560599 -0.001116275593182444 0 0.00062495568862225726 -0.0014498501183055716 0 0.00034982302775010677 -0.0012128163586891713 0 0.00044814218497067274 -0.00092442282954734774 0 0.00059747452553560599 -0.001116275593182444 0 0.00034982302775010677 -0.0012128163586891713 0 0.00064701426766847496 -0.00091929422089207999 0 0.00059747452553560599 -0.001116275593182444 0 0.000903833796515065 -0.0011291819084670021 0 0.00059747452553560599 -0.001116275593182444 0 0.000903833796515065 -0.0011291819084670021 0 0.00062495568862225726 -0.0014498501183055716 0 0.00081395409299301713 -0.0017294293909951308 0 0.0010479984469586702 -0.0015567248323175463 0 0.00062495568862225726 -0.0014498501183055716 0 0.000903833796515065 -0.0011291819084670021 0 0.0010479984469586702 -0.0015567248323175463 0 0.00062495568862225726 -0.0014498501183055716 0 0.00062495568862225726 -0.0014498501183055716 0 0.00029659957858712329 -0.0015542949472807331 0 0.00034982302775010677 -0.0012128163586891713 0 0.00055992543313195041 -0.0017591243953874638 0 0.00062495568862225726 -0.0014498501183055716 0 0.00029659957858712329 -0.0015542949472807331 0 0.00029659957858712329 -0.0015542949472807331 0 0.00034982302775010677 -0.0012128163586891713 0 3.677094481300814e-05 -0.0013015561880210219 0 -3.9863886647452582e-05 -0.0016572556516279561 0 0.00029659957858712329 -0.0015542949472807331 0 3.677094481300814e-05 -0.0013015561880210219 0 0.00034982302775010677 -0.0012128163586891713 0 3.677094481300814e-05 -0.0013015561880210219 0 0.00010817303746049938 -0.00090401187080672569 0 0.00044814218497067274 -0.00092442282954734774 0 0.00034982302775010677 -0.0012128163586891713 0 0.00010817303746049938 -0.00090401187080672569 0 -0.00017790147861544364 -0.0010687382906305425 0 3.677094481300814e-05 -0.0013015561880210219 0 0.00010817303746049938 -0.00090401187080672569 0 -0.00017790147861544364 -0.0010687382906305425 0 3.677094481300814e-05 -0.0013015561880210219 0 -0.00024471303025728265 -0.0013535272966634659 0 -3.9863886647452582e-05 -0.0016572556516279561 0 3.677094481300814e-05 -0.0013015561880210219 0 -0.00024471303025728265 -0.0013535272966634659 0 -0.00030928016621812368 -0.0016700363475068238 0 -3.9863886647452582e-05 -0.0016572556516279561 0 -0.00024471303025728265 -0.0013535272966634659 0 -0.00024471303025728265 -0.0013535272966634659 0 -0.00061737035607034314 -0.0014897593140796312 0 -0.00042756321058827224 -0.0010701931056275864 0 -0.00030928016621812368 -0.0016700363475068238 0 -0.00024471303025728265 -0.0013535272966634659 0 -0.00061737035607034314 -0.0014897593140796312 0 -0.00070105102550315694 0.0021621489607413606 0 -0.0011502602562623019 0.00293651884549344 0 -0.0012958667878129274 0.0061276285979035214 0 -0.00082145587956885657 0.0059926808506376959 0 -0.0012416897819307556 0.0067182601988323076 0 -0.0011951583939035625 0.0057263477905311489 0 -0.0012958667878129274 0.0061276285979035214 0 -0.00082145587956885657 0.0059926808506376959 0 -0.00098374312365943385 -0.0010207392453219243 0 -0.00042756321058827224 -0.0010701931056275864 0 -0.00044288908675302823 -0.00066148600582544839 0 -0.00061737035607034314 -0.0014897593140796312 0 -0.00098374312365943385 -0.0010207392453219243 0 -0.00042756321058827224 -0.0010701931056275864 0 -0.00017790147861544364 -0.0010687382906305425 0 -0.00024471303025728265 -0.0013535272966634659 0 -0.00042756321058827224 -0.0010701931056275864 0 -0.00017790147861544364 -0.0010687382906305425 0 -0.00042756321058827224 -0.0010701931056275864 0 -0.00022608232126505333 -0.00078855962339904244 0 -0.00042756321058827224 -0.0010701931056275864 0 -0.00022608232126505333 -0.00078855962339904244 0 -0.00044288908675302823 -0.00066148600582544839 0 -0.00044288908675302823 -0.00066148600582544839 0 -0.00025792536648536386 -0.00064397413257957943 0 -0.00037222132296943044 -0.00056155058071482395 0 -0.00022608232126505333 -0.00078855962339904244 0 -0.00044288908675302823 -0.00066148600582544839 0 -0.00025792536648536386 -0.00064397413257957943 0 -0.00022608232126505333 -0.00078855962339904244 0 -0.00025792536648536386 -0.00064397413257957943 0 -6.1138298222883572e-05 -0.00066887090842906386 0 -0.00098374312365943385 -0.0010207392453219243 0 -0.00044288908675302823 -0.00066148600582544839 0 -0.00097142537639841812 -0.00033283661323811516 0 -0.00046161263057267548 -0.00055748700356118169 0 -0.00052256645715993699 -0.00028685139857330974 0 -0.00044288908675302823 -0.00066148600582544839 0 -0.00097142537639841812 -0.00033283661323811516 0 -0.00064845204884118846 9.0810901115022125e-05 0 -0.0012047004031365011 0.00026839118602048459 0 -0.00097142537639841812 -0.00033283661323811516 0 -0.00064845204884118846 9.0810901115022125e-05 0 -0.00044288908675302823 -0.00066148600582544839 0 -0.0005075914290111744 -0.00050488254529310105 0 -0.00037222132296943044 -0.00056155058071482395 0 -0.00053466157332058824 -0.00034616269846298651 0 -0.0005075914290111744 -0.00050488254529310105 0 -0.00033243420136952728 -0.00040155207796789517 0 -0.00053466157332058824 -0.00034616269846298651 0 -0.0006249411072900944 -0.00026461727537504441 0 -0.0005075914290111744 -0.00050488254529310105 0 -1.2377300930040175e-05 0.0013408628238743669 0 -0.00052256645715993699 -0.00028685139857330974 0 -0.0012047004031365011 0.00026839118602048459 0 -0.00095522789675022118 0.00084715150531946214 0 -0.00064845204884118846 9.0810901115022125e-05 0 -0.00025792536648536386 -0.00064397413257957943 0 -0.00016486962029605497 -0.00052625244802815489 0 -0.00037222132296943044 -0.00056155058071482395 0 -0.0005075914290111744 -0.00050488254529310105 0 -0.00037222132296943044 -0.00056155058071482395 0 -0.00033243420136952728 -0.00040155207796789517 0 -0.00016486962029605497 -0.00052625244802815489 0 -0.00037222132296943044 -0.00056155058071482395 0 -0.00033243420136952728 -0.00040155207796789517 0 0.00013007053594109183 -0.00041365969832753011 0 -0.00016486962029605497 -0.00052625244802815489 0 1.882047561819078e-05 -0.00054178365576984728 0 0.00013007053594109183 -0.00041365969832753011 0 -0.00016486962029605497 -0.00052625244802815489 0 -0.00033243420136952728 -0.00040155207796789517 0 0.00010417658841673053 -0.00038454444997658481 0 -0.00030491992256815177 -0.00040829796304552631 0 -0.00025792536648536386 -0.00064397413257957943 0 -0.00016486962029605497 -0.00052625244802815489 0 -6.1138298222883572e-05 -0.00066887090842906386 0 -0.00016486962029605497 -0.00052625244802815489 0 1.882047561819078e-05 -0.00054178365576984728 0 -6.1138298222883572e-05 -0.00066887090842906386 0 1.882047561819078e-05 -0.00054178365576984728 0 0.00016778853644931977 -0.00064965689475729286 0 -6.1138298222883572e-05 -0.00066887090842906386 0 0.00012460807993496759 -0.00053101099496175844 0 1.882047561819078e-05 -0.00054178365576984728 0 0.00016778853644931977 -0.00064965689475729286 0 0.00013007053594109183 -0.00041365969832753011 0 0.00012460807993496759 -0.00053101099496175844 0 1.882047561819078e-05 -0.00054178365576984728 0 0.00013007053594109183 -0.00041365969832753011 0 0.00021379727652844836 -0.00055966649282959799 0 0.00034628372448334904 -0.00057067346878749683 0 0.00013007053594109183 -0.00041365969832753011 0 0.0004476576780421526 -0.00055880479019941836 0 0.00034628372448334904 -0.00057067346878749683 0 0.00013007053594109183 -0.00041365969832753011 0 0.00012460807993496759 -0.00053101099496175844 0 0.00021379727652844836 -0.00055966649282959799 0 0.00021379727652844836 -0.00055966649282959799 0 0.00034628372448334904 -0.00057067346878749683 0 0.00030485797238331071 -0.0006395337067419181 0 0.00049831150960004769 -0.00066197422098768731 0 0.00034628372448334904 -0.00057067346878749683 0 0.00030485797238331071 -0.0006395337067419181 0 0.00049831150960004769 -0.00066197422098768731 0 0.00030485797238331071 -0.0006395337067419181 0 0.00036178378731980404 -0.00075101895665661428 0 0.00030485797238331071 -0.0006395337067419181 0 0.00016778853644931977 -0.00064965689475729286 0 0.00036178378731980404 -0.00075101895665661428 0 0.00012460807993496759 -0.00053101099496175844 0 0.00021379727652844836 -0.00055966649282959799 0 0.00016778853644931977 -0.00064965689475729286 0 0.00021379727652844836 -0.00055966649282959799 0 0.00030485797238331071 -0.0006395337067419181 0 0.00016778853644931977 -0.00064965689475729286 0 0.00016778853644931977 -0.00064965689475729286 0 0.00036178378731980404 -0.00075101895665661428 0 0.00010817303746049938 -0.00090401187080672569 0 0.00044814218497067274 -0.00092442282954734774 0 0.00036178378731980404 -0.00075101895665661428 0 0.00010817303746049938 -0.00090401187080672569 0 -0.00022608232126505333 -0.00078855962339904244 0 0.00010817303746049938 -0.00090401187080672569 0 -6.1138298222883572e-05 -0.00066887090842906386 0 0.00016778853644931977 -0.00064965689475729286 0 0.00010817303746049938 -0.00090401187080672569 0 -6.1138298222883572e-05 -0.00066887090842906386 0 -0.00017790147861544364 -0.0010687382906305425 0 -0.00022608232126505333 -0.00078855962339904244 0 0.00010817303746049938 -0.00090401187080672569 0 -4.7994353665221712e-06 0.034975624589051159 0 -4.3312250778141649e-05 0.034949963341473884 0 -2.277061994369688e-05 0.035001201160841322 0 -4.7994353665221712e-06 0.034975624589051159 0 1.1804423664159418e-08 0.034999934823991476 0 -1.5898661942549554e-08 0.034999993622169732 0 -4.7994353665221712e-06 0.034975624589051159 0 -2.277061994369688e-05 0.035001201160841322 0 -1.5898661942549554e-08 0.034999993622169732 0 -4.7994353665221712e-06 0.034975624589051159 0 1.1804423664159418e-08 0.034999934823991476 0 -1.8624830515344888e-06 0.034892776942232778 0 -4.7994353665221712e-06 0.034975624589051159 0 -4.3312250778141649e-05 0.034949963341473884 0 -1.8624830515344888e-06 0.034892776942232778 0 -0.00010551422883045611 0.034879671565705136 0 -4.3312250778141649e-05 0.034949963341473884 0 -1.8624830515344888e-06 0.034892776942232778 0 -0.00010551422883045611 0.034879671565705136 0 -0.00024245288582964053 0.034926048585626646 0 -0.0002309817250215363 0.034790784343244514 0 -0.00010551422883045611 0.034879671565705136 0 -0.00014367187691156265 0.035007696837081041 0 -0.00024245288582964053 0.034926048585626646 0 -0.00014367187691156265 0.035007696837081041 0 -4.3312250778141649e-05 0.034949963341473884 0 -2.277061994369688e-05 0.035001201160841322 0 -0.00010551422883045611 0.034879671565705136 0 -0.00014367187691156265 0.035007696837081041 0 -4.3312250778141649e-05 0.034949963341473884 0 -0.00011401745953069612 0.035099397694685799 0 -1.9760806711738816e-05 0.034990421443459152 0 -0.00014367187691156265 0.035007696837081041 0 -0.00014626181336575654 0.035155528099074629 0 -2.277061994369688e-05 0.035001201160841322 0 -0.00014367187691156265 0.035007696837081041 0 -0.00014626181336575654 0.035155528099074629 0 -0.00026931399652661446 0.03514980439844121 0 -3.8967309396494456e-05 0.034946361677950344 0 -3.5363742716175677e-05 0.034857860454001237 0 7.7624786142355262e-05 0.034882913303383153 0 -3.8967309396494456e-05 0.034946361677950344 0 -4.3922379934241522e-05 0.034959412234455325 0 -2.277061994369688e-05 0.035001201160841322 0 -3.8967309396494456e-05 0.034946361677950344 0 -4.3922379934241522e-05 0.034959412234455325 0 -6.6635841603830288e-05 0.034889203879613612 0 -4.3922379934241522e-05 0.034959412234455325 0 -2.277061994369688e-05 0.035001201160841322 0 -1.5898661942549554e-08 0.034999993622169732 0 -4.3922379934241522e-05 0.034959412234455325 0 -1.5898661942549554e-08 0.034999993622169732 0 -5.3661478539232629e-08 0.034999916266128077 0 -4.3922379934241522e-05 0.034959412234455325 0 -5.3661478539232629e-08 0.034999916266128077 0 -6.9927099255121127e-05 0.034897268577412315 0 -4.3922379934241522e-05 0.034959412234455325 0 -6.9927099255121127e-05 0.034897268577412315 0 -6.6635841603830288e-05 0.034889203879613612 0 -5.3661478539232629e-08 0.034999916266128077 0 -6.9927099255121127e-05 0.034897268577412315 0 -7.1363443211897859e-08 0.034999826367608615 0 -6.9927099255121127e-05 0.034897268577412315 0 -7.1363443211897859e-08 0.034999826367608615 0 -5.8677032662196204e-05 0.034881178022417088 0 -7.1363443211897859e-08 0.034999826367608615 0 -4.1926049499189034e-08 0.034999742113414133 0 -5.8677032662196204e-05 0.034881178022417088 0 -6.9927099255121127e-05 0.034897268577412315 0 -5.8677032662196204e-05 0.034881178022417088 0 -0.0001149374404046058 0.034753573140059321 0 -5.0919456655561494e-05 0.034873270765376385 0 -0.00011879938880783021 0.034733614886275986 0 -5.8677032662196204e-05 0.034881178022417088 0 -0.00011879938880783021 0.034733614886275986 0 -5.8677032662196204e-05 0.034881178022417088 0 -0.0001149374404046058 0.034753573140059321 0 -5.0919456655561494e-05 0.034873270765376385 0 -4.1926049499189034e-08 0.034999742113414133 0 -5.8677032662196204e-05 0.034881178022417088 0 -0.00014136852339831845 0.034470760907308072 0 -0.00015953566236867506 0.034600982820318538 0 -0.00011977692437023972 0.034638829081145912 0 -0.00017311560671173678 0.034423397967299131 0 -0.00014136852339831845 0.034470760907308072 0 -0.00015953566236867506 0.034600982820318538 0 -0.00011879938880783021 0.034733614886275986 0 -0.00015953566236867506 0.034600982820318538 0 -0.0001149374404046058 0.034753573140059321 0 -0.00015953566236867506 0.034600982820318538 0 -0.0001149374404046058 0.034753573140059321 0 -0.00011977692437023972 0.034638829081145912 0 -0.0001149374404046058 0.034753573140059321 0 -0.00011977692437023972 0.034638829081145912 0 -9.2458380822694832e-05 0.034786665728620408 0 -0.00014136852339831845 0.034470760907308072 0 -0.00011977692437023972 0.034638829081145912 0 -7.01164862546372e-05 0.03454257139878128 0 -0.00011977692437023972 0.034638829081145912 0 -5.0500203231749112e-05 0.034710255483397054 0 -7.01164862546372e-05 0.03454257139878128 0 -0.00011977692437023972 0.034638829081145912 0 -5.0500203231749112e-05 0.034710255483397054 0 -9.2458380822694832e-05 0.034786665728620408 0 -5.0500203231749112e-05 0.034710255483397054 0 -9.2458380822694832e-05 0.034786665728620408 0 -3.5363742716175677e-05 0.034857860454001237 0 -6.9927099255121127e-05 0.034897268577412315 0 -9.2458380822694832e-05 0.034786665728620408 0 -6.6635841603830288e-05 0.034889203879613612 0 -6.9927099255121127e-05 0.034897268577412315 0 -0.0001149374404046058 0.034753573140059321 0 -9.2458380822694832e-05 0.034786665728620408 0 -9.2458380822694832e-05 0.034786665728620408 0 -6.6635841603830288e-05 0.034889203879613612 0 -3.5363742716175677e-05 0.034857860454001237 0 -3.8967309396494456e-05 0.034946361677950344 0 -6.6635841603830288e-05 0.034889203879613612 0 -3.5363742716175677e-05 0.034857860454001237 0 -6.7629307179267841e-06 0.03471835796902463 0 -8.8103034690278055e-05 0.034826335343766807 0 -5.0500203231749112e-05 0.034710255483397054 0 -3.5363742716175677e-05 0.034857860454001237 0 7.7624786142355262e-05 0.034882913303383153 0 -1.8534992818445869e-06 0.034743675929862841 0 1.0547260654321785e-05 0.034735928120936455 0 -1.3792192169210835e-05 0.034715476007325684 0 0.00017887528681745788 0.034702314933552393 0 0.00040735876665699285 0.034671501122794483 0 0.00036099640051990504 0.034689220059506705 0 0.00049740671595812714 0.034610971993350163 0 0.00043564432036143124 0.034769798055119545 0 8.6949293056649623e-05 0.034848739522507201 0 9.6732880652324605e-05 0.034700559219566378 0 0.00030159872495335525 0.034739035265076039 0 0.00017887528681745788 0.034702314933552393 0 0.00029175139832728677 0.033472686291010113 0 5.4566579101723598e-05 0.034384664523447482 0 5.2112105110055559e-05 0.034333819490072658 0 -1.4325703991236518e-05 0.034303811947781586 0 0.00010500727363852157 0.034354100205763079 0 5.4566579101723598e-05 0.034384664523447482 0 5.2112105110055559e-05 0.034333819490072658 0 -8.8103034690278055e-05 0.034826335343766807 0 0.00017887528681745788 0.034702314933552393 0 8.6949293056649623e-05 0.034848739522507201 0 9.6732880652324605e-05 0.034700559219566378 0 -1.3792192169210835e-05 0.034715476007325684 0 0.00017887528681745788 0.034702314933552393 0 5.2250312093341439e-07 0.03471521196519297 0 9.6732880652324605e-05 0.034700559219566378 0 0.00014809606968975997 0.034555983925721609 0 0.00030159872495335525 0.034739035265076039 0 9.6732880652324605e-05 0.034700559219566378 0 0.00014809606968975997 0.034555983925721609 0 -1.7092964823056663e-06 0.03460772740760075 0 -5.0500203231749112e-05 0.034710255483397054 0 -1.8534992818445869e-06 0.034743675929862841 0 -1.3792192169210835e-05 0.034715476007325684 0 9.6732880652324605e-05 0.034700559219566378 0 -1.3792192169210835e-05 0.034715476007325684 0 -1.7092964823056663e-06 0.03460772740760075 0 -5.0500203231749112e-05 0.034710255483397054 0 -1.3792192169210835e-05 0.034715476007325684 0 -1.7092964823056663e-06 0.03460772740760075 0 -5.0500203231749112e-05 0.034710255483397054 0 -1.7092964823056663e-06 0.03460772740760075 0 -7.01164862546372e-05 0.03454257139878128 0 -7.01164862546372e-05 0.03454257139878128 0 3.7223474243752774e-05 0.034413754321978469 0 -8.267680673432029e-05 0.034402775678343996 0 -1.7092964823056663e-06 0.03460772740760075 0 -7.01164862546372e-05 0.03454257139878128 0 3.7223474243752774e-05 0.034413754321978469 0 0.00014809606968975997 0.034555983925721609 0 -1.7092964823056663e-06 0.03460772740760075 0 3.7223474243752774e-05 0.034413754321978469 0 0.00014809606968975997 0.034555983925721609 0 3.7223474243752774e-05 0.034413754321978469 0 0.00020211615772210143 0.034383449245404589 0 3.7223474243752774e-05 0.034413754321978469 0 0.00018462071411014128 0.034165769625386713 0 0.00020211615772210143 0.034383449245404589 0 3.7223474243752774e-05 0.034413754321978469 0 2.9810097587062381e-05 0.034167184350226192 0 0.00018462071411014128 0.034165769625386713 0 0.00014846429954500816 0.033834576344467106 0 2.9810097587062381e-05 0.034167184350226192 0 0.00018462071411014128 0.034165769625386713 0 2.9810097587062381e-05 0.034167184350226192 0 -7.6249786030691187e-05 0.03422239836779585 0 -8.267680673432029e-05 0.034402775678343996 0 -0.00014988462010194029 0.034231598862642716 0 -0.00014136852339831845 0.034470760907308072 0 -7.6249786030691187e-05 0.03422239836779585 0 -0.00014136852339831845 0.034470760907308072 0 -7.6249786030691187e-05 0.03422239836779585 0 -8.267680673432029e-05 0.034402775678343996 0 -0.00014136852339831845 0.034470760907308072 0 -7.01164862546372e-05 0.03454257139878128 0 -8.267680673432029e-05 0.034402775678343996 0 3.7223474243752774e-05 0.034413754321978469 0 2.9810097587062381e-05 0.034167184350226192 0 -8.267680673432029e-05 0.034402775678343996 0 0.00041112084323394004 0.033854652119181476 0 0.00037813352087448721 0.034253522786018065 0 0.00071128764721577653 0.03427795023701203 0 0.00041112084323394004 0.033854652119181476 0 0.00071128764721577653 0.03427795023701203 0 0.00090573536283166084 0.033940639262273906 0 0.00014846429954500816 0.033834576344467106 0 0.00041112084323394004 0.033854652119181476 0 0.00018462071411014128 0.034165769625386713 0 0.00041112084323394004 0.033854652119181476 0 0.00018462071411014128 0.034165769625386713 0 0.00037813352087448721 0.034253522786018065 0 0.00018462071411014128 0.034165769625386713 0 0.00037813352087448721 0.034253522786018065 0 0.00020211615772210143 0.034383449245404589 0 0.00037813352087448721 0.034253522786018065 0 0.00031896885797548215 0.034494916807134401 0 0.00061821252276956888 0.034539246020820105 0 0.00037813352087448721 0.034253522786018065 0 0.00020211615772210143 0.034383449245404589 0 0.00031896885797548215 0.034494916807134401 0 0.00014809606968975997 0.034555983925721609 0 0.00020211615772210143 0.034383449245404589 0 0.00031896885797548215 0.034494916807134401 0 0.00037813352087448721 0.034253522786018065 0 0.00071128764721577653 0.03427795023701203 0 0.00061821252276956888 0.034539246020820105 0 0.00061821252276956888 0.034539246020820105 0 0.00049740671595812714 0.034610971993350163 0 0.00067167555647421528 0.034734950988113397 0 0.00059543512738345291 0.034553600682681457 0 0.00040735876665699285 0.034671501122794483 0 0.00031896885797548215 0.034494916807134401 0 0.00061821252276956888 0.034539246020820105 0 0.00030159872495335525 0.034739035265076039 0 0.00014809606968975997 0.034555983925721609 0 0.00031896885797548215 0.034494916807134401 0 0.00030159872495335525 0.034739035265076039 0 0.00049740671595812714 0.034610971993350163 0 0.00067167555647421528 0.034734950988113397 0 0.00043564432036143124 0.034769798055119545 0 0.00061821252276956888 0.034539246020820105 0 0.00067167555647421528 0.034734950988113397 0 0.00079185255536108438 0.034615363207923563 0 0.00010534191684212045 0.0313824217314497 0 -3.8733278037327309e-05 0.030994265326587188 0 0.00027163268448091992 0.030865617044623577 0 -3.8733278037327309e-05 0.030994265326587188 0 -2.278076492247423e-05 0.03075239834984558 0 0.00027163268448091992 0.030865617044623577 0 -0.00073115987302782657 0.034917968860525082 0 -0.00071682607110543323 0.034924271570351627 0 -0.00080472131507163924 0.034923538396760177 0 0.00027163268448091992 0.030865617044623577 0 0.00040773596880210662 0.030812647378236403 0 0.00016643061669201534 0.030695332338978091 0 -0.00020297627130631666 0.032825276629347505 0 -0.00032488645656371238 0.032683252359261922 0 -2.278076492247423e-05 0.03075239834984558 0 0.00027163268448091992 0.030865617044623577 0 -0.0003667902093279169 0.030211817060297578 0 0.00023701837809436791 0.030850754812746514 0 -0.00011428582957646891 0.03041010197331525 0 0.00027163268448091992 0.030865617044623577 0 0.00016643061669201534 0.030695332338978091 0 6.0055486553545114e-05 0.030730249973375888 0 -0.00071447367173115874 0.03492445147388936 0 -0.00073115987302782657 0.034917968860525082 0 -0.00071682607110543323 0.034924271570351627 0 -0.00071447367173115874 0.03492445147388936 0 -0.00071682607110543323 0.034924271570351627 0 -0.00070787638243260508 0.034905312274177633 0 -0.00020297627130631666 0.032825276629347505 0 0.00029175139832728677 0.033472686291010113 0 0.00010534191684212045 0.0313824217314497 0 0.00027163268448091992 0.030865617044623577 0 0.00081345413963199024 0.031237500004973294 0 0.00027163268448091992 0.030865617044623577 0 0.00040773596880210662 0.030812647378236403 0 0.00081345413963199024 0.031237500004973294 0 0.00047142097202162764 0.033177329440084356 0 0.00029175139832728677 0.033472686291010113 0 -0.00071447367173115874 0.03492445147388936 0 -0.00070787638243260508 0.034905312274177633 0 -0.0007125012681193139 0.034906663068548394 0 -0.00063048741856440373 0.035038415815212769 0 -0.00039002378734821628 0.034853466872406896 0 5.2112105110055559e-05 0.034333819490072658 0 -1.4325703991236518e-05 0.034303811947781586 0 6.3343548860649197e-05 0.034292745534516292 0 0.00029175139832728677 0.033472686291010113 0 -0.00039002378734821628 0.034853466872406896 0 0.00010500727363852157 0.034354100205763079 0 5.2112105110055559e-05 0.034333819490072658 0 6.3343548860649197e-05 0.034292745534516292 0 -8.8103034690278055e-05 0.034826335343766807 0 -0.00039002378734821628 0.034853466872406896 0 -0.00034002887263714579 0.035297753794552272 0 -0.00037355860170671995 0.035235020043978695 0 -0.0003857420825678594 0.035237026646882441 0 -0.00039364857765453946 0.034863581379686655 0 -0.00039002378734821628 0.034853466872406896 0 -0.00037355860170671995 0.035235020043978695 0 -0.00038510228121644506 0.03523782459302361 0 -0.000394916073437569 0.035139114028446689 0 -0.00011401745953069612 0.035099397694685799 0 -8.8103034690278055e-05 0.034826335343766807 0 -0.00014626181336575654 0.035155528099074629 0 -0.00034002887263714579 0.035297753794552272 0 -0.00026931399652661446 0.03514980439844121 0 -0.00034002887263714579 0.035297753794552272 0 -0.00037355860170671995 0.035235020043978695 0 -0.00026931399652661446 0.03514980439844121 0 -0.00037355860170671995 0.035235020043978695 0 -0.00026931399652661446 0.03514980439844121 0 -0.000394916073437569 0.035139114028446689 0 -0.00014367187691156265 0.035007696837081041 0 -0.00026931399652661446 0.03514980439844121 0 -0.00030342105983477365 0.035037174732132637 0 -0.00026931399652661446 0.03514980439844121 0 -0.00030342105983477365 0.035037174732132637 0 -0.000394916073437569 0.035139114028446689 0 -0.00052208421807384004 0.035102874742439241 0 -0.00038510228121644506 0.03523782459302361 0 -0.000394916073437569 0.035139114028446689 0 -0.00030342105983477365 0.035037174732132637 0 -0.000394916073437569 0.035139114028446689 0 -0.00041998086709875009 0.035044649727564173 0 -0.00052208421807384004 0.035102874742439241 0 -0.000394916073437569 0.035139114028446689 0 -0.00041998086709875009 0.035044649727564173 0 -0.00041998086709875009 0.035044649727564173 0 -0.0005056318997579321 0.034966721816619591 0 -0.000377699780561224 0.034950823588010237 0 -0.00052208421807384004 0.035102874742439241 0 -0.00041998086709875009 0.035044649727564173 0 -0.0005056318997579321 0.034966721816619591 0 -0.00030342105983477365 0.035037174732132637 0 -0.00041998086709875009 0.035044649727564173 0 -0.000377699780561224 0.034950823588010237 0 -0.0005056318997579321 0.034966721816619591 0 -0.000377699780561224 0.034950823588010237 0 -0.00051945619613793994 0.034841261725956245 0 -0.00014367187691156265 0.035007696837081041 0 -0.00030342105983477365 0.035037174732132637 0 -0.00024245288582964053 0.034926048585626646 0 -0.00030342105983477365 0.035037174732132637 0 -0.000377699780561224 0.034950823588010237 0 -0.00024245288582964053 0.034926048585626646 0 -0.00024245288582964053 0.034926048585626646 0 -0.00037065403232099646 0.034824176053729006 0 -0.0002309817250215363 0.034790784343244514 0 -0.000377699780561224 0.034950823588010237 0 -0.00024245288582964053 0.034926048585626646 0 -0.00037065403232099646 0.034824176053729006 0 -0.00037065403232099646 0.034824176053729006 0 -0.00051945619613793994 0.034841261725956245 0 -0.0005332410832160012 0.03466941173382946 0 -0.000377699780561224 0.034950823588010237 0 -0.00037065403232099646 0.034824176053729006 0 -0.00051945619613793994 0.034841261725956245 0 -0.00051945619613793994 0.034841261725956245 0 -0.00065517779460527834 0.034762337555665476 0 -0.00071613112878767503 0.034891009124957927 0 -0.00051945619613793994 0.034841261725956245 0 -0.00065517779460527834 0.034762337555665476 0 -0.0005332410832160012 0.03466941173382946 0 -0.00065517779460527834 0.034762337555665476 0 -0.00077329559127680054 0.034772175811335806 0 -0.00074008672823900484 0.034632395947052648 0 -0.00077329559127680054 0.034772175811335806 0 -0.00088626026376964625 0.034792412159533131 0 -0.00087494955282302973 0.034671993393580861 0 -0.00077329559127680054 0.034772175811335806 0 -0.00081476203988853726 0.034857196299625581 0 -0.00088626026376964625 0.034792412159533131 0 -0.00077329559127680054 0.034772175811335806 0 -0.00071613112878767503 0.034891009124957927 0 -0.00081476203988853726 0.034857196299625581 0 -0.00065517779460527834 0.034762337555665476 0 -0.00077329559127680054 0.034772175811335806 0 -0.00071613112878767503 0.034891009124957927 0 -0.00071613112878767503 0.034891009124957927 0 -0.00081476203988853726 0.034857196299625581 0 -0.00080472131507163924 0.034923538396760177 0 -0.00073115987302782657 0.034917968860525082 0 -0.00071613112878767503 0.034891009124957927 0 -0.00080472131507163924 0.034923538396760177 0 -0.00052208421807384004 0.035102874742439241 0 -0.0005056318997579321 0.034966721816619591 0 -0.00071613112878767503 0.034891009124957927 0 -0.0005056318997579321 0.034966721816619591 0 -0.00051945619613793994 0.034841261725956245 0 -0.00071613112878767503 0.034891009124957927 0 -0.00063048741856440373 0.035038415815212769 0 -0.00071058487318224309 0.034886877951271121 0 -0.00071447367173115874 0.03492445147388936 0 -0.00073115987302782657 0.034917968860525082 0 -0.00071613112878767503 0.034891009124957927 0 -0.00085559917176780827 0.029979607149062084 0 -0.0010378920293114702 0.029703673870101518 0 -0.00096305086542239056 0.030276674049058056 0 -0.00011428582957646891 0.03041010197331525 0 -0.00094992271230204283 0.03073015896157115 0 -0.00085559917176780827 0.029979607149062084 0 -0.0003667902093279169 0.030211817060297578 0 -0.00099290338423579537 0.029694992606437178 0 -0.0010645144086447525 0.030158146272955797 0 -0.00099401060942606498 0.029805799329477703 0 6.0055486553545114e-05 0.030730249973375888 0 2.042211409680249e-05 0.030589563155749896 0 -0.00011028229630634114 0.030614773058677377 0 -0.00085559917176780827 0.029979607149062084 0 -0.0010378920293114702 0.029703673870101518 0 -0.00099290338423579537 0.029694992606437178 0 -0.00085559917176780827 0.029979607149062084 0 -0.00071327742680779539 0.030249958716639404 0 -0.00096305086542239056 0.030276674049058056 0 -0.00085559917176780827 0.029979607149062084 0 -0.0003667902093279169 0.030211817060297578 0 -0.00071327742680779539 0.030249958716639404 0 0.00016643061669201534 0.030695332338978091 0 6.0055486553545114e-05 0.030730249973375888 0 2.042211409680249e-05 0.030589563155749896 0 -0.00032488645656371238 0.032683252359261922 0 -0.00087041720205807064 0.033814004614147908 0 -0.00081476203988853726 0.034857196299625581 0 -0.00080472131507163924 0.034923538396760177 0 -0.0009713430379108658 0.034807481787809735 0 -0.00081476203988853726 0.034857196299625581 0 -0.0009713430379108658 0.034807481787809735 0 -0.00088626026376964625 0.034792412159533131 0 -0.00087041720205807064 0.033814004614147908 0 -0.0010256225630370761 0.034479508916895732 0 -0.0010596104205257068 0.034825520230917707 0 -0.00088626026376964625 0.034792412159533131 0 -0.0010007378546680796 0.034713010043484031 0 -0.00088626026376964625 0.034792412159533131 0 -0.0010007378546680796 0.034713010043484031 0 -0.00087494955282302973 0.034671993393580861 0 -0.0010596104205257068 0.034825520230917707 0 -0.0010007378546680796 0.034713010043484031 0 -0.0011739073036610822 0.034684192407518993 0 -0.0010007378546680796 0.034713010043484031 0 -0.0011739073036610822 0.034684192407518993 0 -0.0010254782548619328 0.034608195007895123 0 -0.00087041720205807064 0.033814004614147908 0 -0.00089435522144415208 0.03459300791320493 0 -0.0011739073036610822 0.034684192407518993 0 -0.0012865790660342956 0.034779322321504234 0 -0.001350445464729668 0.03451682660366899 0 -0.0010576493641579637 0.031351801048357358 0 -0.0014591881085894646 0.034332195131269574 0 -0.0010979082623626575 0.034759500325645516 0 -0.0011739073036610822 0.034684192407518993 0 -0.0012671138117758705 0.034793169651502837 0 -0.00087041720205807064 0.033814004614147908 0 -0.00094992271230204283 0.03073015896157115 0 -0.0011739073036610822 0.034684192407518993 0 -0.0012865790660342956 0.034779322321504234 0 -0.0012671138117758705 0.034793169651502837 0 -0.0010576493641579637 0.031351801048357358 0 -0.0010645144086447525 0.030158146272955797 0 -0.0010576493641579637 0.031351801048357358 0 -0.00094992271230204283 0.03073015896157115 0 -0.0019265923187058206 0.030317444236880604 0 -0.0018144900324496202 0.031224917360623411 0 -0.0010486695811526953 0.031074518326392558 0 -0.0010645144086447525 0.030158146272955797 0 -0.00094992271230204283 0.03073015896157115 0 -0.0010576493641579637 0.031351801048357358 0 -0.0015304099431377974 0.027858073102735095 0 -0.0019895847909299075 0.024692441603107962 0 -0.0015304099431377974 0.027858073102735095 0 -0.0013472292315271305 0.02817545372258777 0 -0.0015841152950121528 0.028240922280186837 0 -0.0017298897695217923 0.027842240043097363 0 -0.0010645144086447525 0.030158146272955797 0 -0.0019895847909299075 0.024692441603107962 0 -0.0013472292315271305 0.02817545372258777 0 -0.0013431746248790005 0.028206997990114144 0 -0.0015841152950121528 0.028240922280186837 0 -0.0024492510622112634 0.021915436027541417 0 -0.0019828714709582756 0.021311218004322473 0 -0.0030286372352562999 0.021522297184620436 0 -0.0024492510622112634 0.021915436027541417 0 -0.0030286372352562999 0.021522297184620436 0 -0.0025963888090053734 0.022859620976310464 0 -0.0018255657504121262 0.02221501082325621 0 -0.0021843551736578314 0.022200388998174794 0 -0.0016920137045803878 0.021721650823736848 0 -0.0018255657504121262 0.02221501082325621 0 -0.0021720676750717361 0.022571761216424034 0 -0.0018255397278160539 0.022590860722267056 0 -0.0018255657504121262 0.02221501082325621 0 -0.0021843551736578314 0.022200388998174794 0 -0.0021720676750717361 0.022571761216424034 0 -0.0021843551736578314 0.022200388998174794 0 -0.0024492510622112634 0.021915436027541417 0 -0.0025963888090053734 0.022859620976310464 0 -0.0021843551736578314 0.022200388998174794 0 -0.0024492510622112634 0.021915436027541417 0 -0.0016920137045803878 0.021721650823736848 0 -0.0024492510622112634 0.021915436027541417 0 -0.0019828714709582756 0.021311218004322473 0 -0.0016920137045803878 0.021721650823736848 0 -0.0014820920901387549 0.021225196380006656 0 -0.0019895847909299075 0.024692441603107962 0 -0.0011685261332895671 0.021183784927243036 0 -0.0012293302986204077 0.021187151714153377 0 -0.0011807202464214188 0.021140791221970552 0 -0.0011685261332895671 0.021183784927243036 0 -0.0011807202464214188 0.021140791221970552 0 -0.0011263991360662173 0.021119488520060559 0 -0.0012293302986204077 0.021187151714153377 0 -0.0012188093482850431 0.021158884693417833 0 -0.0011807202464214188 0.021140791221970552 0 -0.0019950296413036189 0.028613459141838875 0 -0.0013722232386791304 0.030409689425592534 0 -0.00095821207354116508 0.029715508072813149 0 -0.0011054483107778958 0.028447883090017206 0 -0.0019950296413036189 0.028613459141838875 0 -0.00095821207354116508 0.029715508072813149 0 -0.0019895847909299075 0.024692441603107962 0 -0.00069199623869692752 0.025886891441429184 0 -0.0012188093482850431 0.021158884693417833 0 -0.0011713686083462322 0.021050137400652934 0 -0.0012270487545621947 0.021008558323699876 0 -0.0012293302986204077 0.021187151714153377 0 -0.0012188093482850431 0.021158884693417833 0 -0.0011747500653807447 0.021207675057903413 0 -0.001384393635646957 0.019975116074268395 0 -0.00099062494421075023 0.024413330232152454 0 -0.0012188093482850431 0.021158884693417833 0 -0.0011747500653807447 0.021207675057903413 0 -0.0012254607002990644 0.021343653205836404 0 -0.0011807202464214188 0.021140791221970552 0 -0.0011129025885185957 0.021029229500419085 0 -0.0011263991360662173 0.021119488520060559 0 -0.0012188093482850431 0.021158884693417833 0 -0.0011807202464214188 0.021140791221970552 0 -0.0011713686083462322 0.021050137400652934 0 -0.0011807202464214188 0.021140791221970552 0 -0.0011713686083462322 0.021050137400652934 0 -0.0011129025885185957 0.021029229500419085 0 -0.0011266648552087286 0.020965144533912662 0 -0.0011713686083462322 0.021050137400652934 0 -0.0011129025885185957 0.021029229500419085 0 -0.0011266648552087286 0.020965144533912662 0 -0.0011713686083462322 0.021050137400652934 0 -0.0012270487545621947 0.021008558323699876 0 -0.00055805207358867277 0.025762244213153776 0 -0.0015514681731545097 0.027540599807315061 0 -0.00060004029270379039 0.028113948258810403 0 -0.00069199623869692752 0.025886891441429184 0 -0.00099062494421075023 0.024413330232152454 0 -0.00055805207358867277 0.025762244213153776 0 -0.00060004029270379039 0.028113948258810403 0 0.00080445815663428473 0.029365078473791859 0 -0.0009371331102861301 0.030808857825710665 0 -0.0005518213285499561 0.031221692552023294 0 -0.00085301173892048966 0.031665858759292016 0 -0.00069199623869692752 0.025886891441429184 0 -0.00011035546356538939 0.031786311268069078 0 -0.0013722232386791304 0.030409689425592534 0 -0.0009371331102861301 0.030808857825710665 0 -0.00085301173892048966 0.031665858759292016 0 -0.0009371331102861301 0.030808857825710665 0 -0.00059618393122453717 0.030838688170912506 0 -0.0005518213285499561 0.031221692552023294 0 -0.00091595966666438845 0.030784024515256799 0 -0.00099401060942606498 0.029805799329477703 0 -0.0009371331102861301 0.030808857825710665 0 -0.00066153836291464867 0.03052926592478724 0 -0.00096305086542239056 0.030276674049058056 0 -0.0013722232386791304 0.030409689425592534 0 -0.0009371331102861301 0.030808857825710665 0 -0.00095821207354116508 0.029715508072813149 0 -0.0009371331102861301 0.030808857825710665 0 -0.00066153836291464867 0.03052926592478724 0 -0.00059618393122453717 0.030838688170912506 0 -0.00066153836291464867 0.03052926592478724 0 -0.00071327742680779539 0.030249958716639404 0 -0.00096305086542239056 0.030276674049058056 0 -2.278076492247423e-05 0.03075239834984558 0 -0.0003667902093279169 0.030211817060297578 0 -0.00033818787582809564 0.03058035833685915 0 -0.0003667902093279169 0.030211817060297578 0 -0.00066153836291464867 0.03052926592478724 0 -0.00033818787582809564 0.03058035833685915 0 -0.0003667902093279169 0.030211817060297578 0 -0.00066153836291464867 0.03052926592478724 0 -0.00071327742680779539 0.030249958716639404 0 -0.00066153836291464867 0.03052926592478724 0 -0.00030787146514447234 0.030824139415556662 0 -0.00059618393122453717 0.030838688170912506 0 -0.00066153836291464867 0.03052926592478724 0 -0.00033818787582809564 0.03058035833685915 0 -0.00030787146514447234 0.030824139415556662 0 -2.278076492247423e-05 0.03075239834984558 0 -0.00033818787582809564 0.03058035833685915 0 -0.00030787146514447234 0.030824139415556662 0 0.00010534191684212045 0.0313824217314497 0 -0.00027065405350231217 0.031062183091914795 0 -0.0005518213285499561 0.031221692552023294 0 -3.8733278037327309e-05 0.030994265326587188 0 -2.278076492247423e-05 0.03075239834984558 0 -0.00030787146514447234 0.030824139415556662 0 -3.8733278037327309e-05 0.030994265326587188 0 -0.00030787146514447234 0.030824139415556662 0 -0.00027065405350231217 0.031062183091914795 0 -0.00027065405350231217 0.031062183091914795 0 -0.00059618393122453717 0.030838688170912506 0 -0.0005518213285499561 0.031221692552023294 0 -0.00030787146514447234 0.030824139415556662 0 -0.00027065405350231217 0.031062183091914795 0 -0.00059618393122453717 0.030838688170912506 0 0.00010534191684212045 0.0313824217314497 0 -3.8733278037327309e-05 0.030994265326587188 0 -0.00027065405350231217 0.031062183091914795 0 0.00047142097202162764 0.033177329440084356 0 -0.00011035546356538939 0.031786311268069078 0 0.00067167555647421528 0.034734950988113397 0 0.0009318962749584979 0.034681973205075038 0 0.00079185255536108438 0.034615363207923563 0 0.00010534191684212045 0.0313824217314497 0 -0.0005518213285499561 0.031221692552023294 0 -0.00085301173892048966 0.031665858759292016 0 -0.00011035546356538939 0.031786311268069078 0 -0.00070021621487998385 0.029989693182580549 0 -0.00041217390900123496 0.030399656559441515 0 -0.0004949564152832948 0.030664905875864432 0 -0.00068436128734267686 0.030441025335156829 0 -0.0004949564152832948 0.030664905875864432 0 -0.00022312885426404466 0.030868095811805479 0 -0.00062574535621547479 0.030946035636800904 0 -0.00011035546356538939 0.031786311268069078 0 0.00042335647488905045 0.032819461903619382 0 -0.00041217390900123496 0.030399656559441515 0 -0.0004949564152832948 0.030664905875864432 0 -0.00022312885426404466 0.030868095811805479 0 0.00061821252276956888 0.034539246020820105 0 0.00079185255536108438 0.034615363207923563 0 0.00090478275433906921 0.034435787943251243 0 0.0009318962749584979 0.034681973205075038 0 0.00079185255536108438 0.034615363207923563 0 0.00090478275433906921 0.034435787943251243 0 0.00071128764721577653 0.03427795023701203 0 0.00061821252276956888 0.034539246020820105 0 0.00090478275433906921 0.034435787943251243 0 0.00071128764721577653 0.03427795023701203 0 0.00090478275433906921 0.034435787943251243 0 0.00090573536283166084 0.033940639262273906 0 0.00042335647488905045 0.032819461903619382 0 0.00045085860255586317 0.03266036946273828 0 -0.00022312885426404466 0.030868095811805479 0 -0.00037575285493036443 0.031194143586910091 0 -0.00062574535621547479 0.030946035636800904 0 -0.00062278827818276815 0.031516974685679759 0 -0.00037575285493036443 0.031194143586910091 0 6.5672242942529501e-05 0.0314566136773681 0 -0.00062278827818276815 0.031516974685679759 0 -0.00037575285493036443 0.031194143586910091 0 -0.00062574535621547479 0.030946035636800904 0 -0.00022312885426404466 0.030868095811805479 0 -0.00037575285493036443 0.031194143586910091 0 6.5672242942529501e-05 0.0314566136773681 0 -0.00062278827818276815 0.031516974685679759 0 -0.0012542901385339828 0.031163364721902509 0 -0.00058102205701811727 0.030501260431970312 0 -0.00060493212461476336 0.031480916326841753 0 -0.00060718326833999082 0.03069943416303968 0 -0.0012542901385339828 0.031163364721902509 0 -0.00058102205701811727 0.030501260431970312 0 -0.0011143999188591895 0.03057041332291684 0 -0.00058102205701811727 0.030501260431970312 0 -0.0011143999188591895 0.03057041332291684 0 -0.00092147016707025073 0.029999360734353608 0 -0.0012542901385339828 0.031163364721902509 0 -0.0011143999188591895 0.03057041332291684 0 -0.0016170841157812589 0.030444027352807254 0 -0.0011143999188591895 0.03057041332291684 0 -0.00092147016707025073 0.029999360734353608 0 -0.0016170841157812589 0.030444027352807254 0 -0.001130227159898912 0.020940178869013733 0 -0.001106712589999617 0.020912199813623172 0 -0.001069625530213437 0.020993209798075119 0 -0.001221461022404454 0.025303635943642478 0 -0.0012794103701912758 0.025595065060730473 0 -0.00092147016707025073 0.029999360734353608 0 -0.001285219487906686 0.029541264770506614 0 -0.0016170841157812589 0.030444027352807254 0 -0.00092147016707025073 0.029999360734353608 0 -0.00096027045414310772 0.029349187967318145 0 -0.001285219487906686 0.029541264770506614 0 -0.0004949564152832948 0.030664905875864432 0 -0.00062574535621547479 0.030946035636800904 0 -0.00068436128734267686 0.030441025335156829 0 -0.00058102205701811727 0.030501260431970312 0 -0.00092147016707025073 0.029999360734353608 0 -0.00062530957159038364 0.029312102337893057 0 -0.00060718326833999082 0.03069943416303968 0 -0.00070021621487998385 0.029989693182580549 0 -0.00092147016707025073 0.029999360734353608 0 -0.00062530957159038364 0.029312102337893057 0 -0.00096027045414310772 0.029349187967318145 0 -0.00070410019692128108 0.028307728270611329 0 -0.00052104945907486058 0.029260611323259383 0 -0.00096027045414310772 0.029349187967318145 0 -0.00099062494421075023 0.024413330232152454 0 -0.001221461022404454 0.025303635943642478 0 -0.00070410019692128108 0.028307728270611329 0 -0.00096027045414310772 0.029349187967318145 0 -0.001285219487906686 0.029541264770506614 0 -0.0015514681731545097 0.027540599807315061 0 -0.00060004029270379039 0.028113948258810403 0 -0.0012049454664378144 0.029726249911059956 0 -0.00099062494421075023 0.024413330232152454 0 -0.00070021621487998385 0.029989693182580549 0 -0.00070021621487998385 0.029989693182580549 0 -0.00076832791316465041 0.029693338768695263 0 -0.00060004029270379039 0.028113948258810403 0 0.00080445815663428473 0.029365078473791859 0 -0.0012049454664378144 0.029726249911059956 0 -0.0011266648552087286 0.020965144533912662 0 -0.0012270487545621947 0.021008558323699876 0 -0.001130227159898912 0.020940178869013733 0 -0.0011266648552087286 0.020965144533912662 0 -0.001130227159898912 0.020940178869013733 0 -0.001106712589999617 0.020912199813623172 0 -0.0011266648552087286 0.020965144533912662 0 -0.001106712589999617 0.020912199813623172 0 -0.0010475309196555829 0.020898099953822902 0 -0.00048371675603223717 0.015349362659819404 0 -0.00046540224779273101 0.013971238263693599 0 -0.001106712589999617 0.020912199813623172 0 -0.0011441271552427258 0.02088734369740354 0 -0.0010475309196555829 0.020898099953822902 0 -0.001106712589999617 0.020912199813623172 0 -0.0011441271552427258 0.02088734369740354 0 -0.001069625530213437 0.020993209798075119 0 0.00023069738182635431 0.0091356864943031788 0 0.0011129583053040419 0.01162662617123812 0 -0.0015315406188473601 0.010562534684648789 0 -0.00048371675603223717 0.015349362659819404 0 0.0001690920717484184 0.015391296883011307 0 -0.0011441271552427258 0.02088734369740354 0 -0.001069625530213437 0.020993209798075119 0 -0.0012138810327053263 0.021086606849432043 0 -0.0012453741461827003 0.021541580478341382 0 -0.0012138810327053263 0.021086606849432043 0 -0.001100597014523231 0.021201028118189885 0 -0.0015867275500573365 0.03137491498927053 0 -0.0012542901385339828 0.031163364721902509 0 -0.0017892301273447265 0.031107976581709971 0 -0.0012794103701912758 0.025595065060730473 0 -0.001694864164496331 0.026675060049009807 0 -0.0012542901385339828 0.031163364721902509 0 -0.0016170841157812589 0.030444027352807254 0 -0.0017892301273447265 0.031107976581709971 0 -0.001069625530213437 0.020993209798075119 0 -0.0012138810327053263 0.021086606849432043 0 -0.001100597014523231 0.021201028118189885 0 -0.0035286245975360312 0.012461171849011365 0 -0.0015315406188473601 0.010562534684648789 0 -0.0031871641666533666 0.011190646825619785 0 -0.0037297925982090899 0.011833407406813091 0 -0.0035286245975360312 0.012461171849011365 0 -0.0031871641666533666 0.011190646825619785 0 -0.0035286245975360312 0.012461171849011365 0 -0.00062762018256340749 0.013140148942100721 0 -0.0015315406188473601 0.010562534684648789 0 0.0011129583053040419 0.01162662617123812 0 -0.00062762018256340749 0.013140148942100721 0 -0.0015315406188473601 0.010562534684648789 0 -0.0015315406188473601 0.010562534684648789 0 -0.0031871641666533666 0.011190646825619785 0 -0.0030903596425862967 0.0097901969835805652 0 0.00023069738182635431 0.0091356864943031788 0 -0.0015315406188473601 0.010562534684648789 0 -0.0015991626365606259 0.0082039618840975773 0 -0.0034794008958700796 0.010780772636800358 0 -0.0028668617508939443 0.010325519631539199 0 -0.0015315406188473601 0.010562534684648789 0 -0.0030903596425862967 0.0097901969835805652 0 -0.0015991626365606259 0.0082039618840975773 0 0.00023069738182635431 0.0091356864943031788 0 -0.0015991626365606259 0.0082039618840975773 0 -0.00011312607212660387 0.0076457813112762304 0 -0.0037936196719974774 0.012075393324158546 0 -0.0039491188142339474 0.012020777728011913 0 -0.0037960589726866497 0.012211797127133217 0 -0.0037936196719974774 0.012075393324158546 0 -0.003944116008902084 0.011824535103368601 0 -0.0039491188142339474 0.012020777728011913 0 -0.0039491188142339474 0.012020777728011913 0 -0.0037960589726866497 0.012211797127133217 0 -0.0038990398536389069 0.012286646044007038 0 -0.003694989154823693 0.012422405865531934 0 -0.0037960589726866497 0.012211797127133217 0 -0.0038990398536389069 0.012286646044007038 0 -0.003694989154823693 0.012422405865531934 0 -0.0038990398536389069 0.012286646044007038 0 -0.0038822052565596877 0.012516120289331021 0 -0.0038990398536389069 0.012286646044007038 0 -0.0040400750133536651 0.012424316529423123 0 -0.0038822052565596877 0.012516120289331021 0 -0.0038990398536389069 0.012286646044007038 0 -0.0040400750133536651 0.012424316529423123 0 -0.0040506466839330202 0.012212273033797742 0 -0.0039491188142339474 0.012020777728011913 0 -0.0038990398536389069 0.012286646044007038 0 -0.0040506466839330202 0.012212273033797742 0 -0.0028668617508939443 0.010325519631539199 0 -0.0022340685598362824 0.0088388512548950582 0 -0.0015991626365606259 0.0082039618840975773 0 -0.00066256793160078163 0.0073991694711848712 0 -0.00011312607212660387 0.0076457813112762304 0 -0.0011266648552087286 0.020965144533912662 0 -0.0010475309196555829 0.020898099953822902 0 -0.0011129025885185957 0.021029229500419085 0 -0.0010475309196555829 0.020898099953822902 0 -0.0011129025885185957 0.021029229500419085 0 -0.0010534058702006243 0.021045692546701345 0 -0.0011129025885185957 0.021029229500419085 0 -0.0010534058702006243 0.021045692546701345 0 -0.0011263991360662173 0.021119488520060559 0 -0.00046540224779273101 0.013971238263693599 0 -0.0013391829985019857 0.015212530492199245 0 -0.0040400750133536651 0.012424316529423123 0 -0.0040506466839330202 0.012212273033797742 0 -0.0042603692226965252 0.012502949812514865 0 -0.0022340685598362824 0.0088388512548950582 0 -0.0013391829985019857 0.015212530492199245 0 -0.0010475309196555829 0.020898099953822902 0 -0.0010534058702006243 0.021045692546701345 0 -0.00092969405371369832 0.021060650808700843 0 -0.00066256793160078163 0.0073991694711848712 0 -0.00011312607212660387 0.0076457813112762304 0 -0.00027026940007917163 0.006953349175297184 0 -0.0042603692226965252 0.012502949812514865 0 -0.0042075404241473432 0.01280858240263515 0 -0.0040631721293789757 0.012592218715363373 0 -0.0010534058702006243 0.021045692546701345 0 -0.00092969405371369832 0.021060650808700843 0 -0.001073198384515608 0.021189496954087304 0 -0.0013391829985019857 0.015212530492199245 0 -0.0018650366573359466 0.022702203410117184 0 -0.00092969405371369832 0.021060650808700843 0 -0.001073198384515608 0.021189496954087304 0 -0.00108423691376706 0.021597812319745606 0 -0.0019828714709582756 0.021311218004322473 0 -0.001073198384515608 0.021189496954087304 0 -0.0016920137045803878 0.021721650823736848 0 -0.0014820920901387549 0.021225196380006656 0 -0.0011644849754171103 0.021194065723965032 0 -0.0011685261332895671 0.021183784927243036 0 -0.0011263991360662173 0.021119488520060559 0 -0.001073198384515608 0.021189496954087304 0 -0.0010534058702006243 0.021045692546701345 0 -0.0011263991360662173 0.021119488520060559 0 -0.001073198384515608 0.021189496954087304 0 -0.001073198384515608 0.021189496954087304 0 -0.0016920137045803878 0.021721650823736848 0 -0.00108423691376706 0.021597812319745606 0 -0.0016920137045803878 0.021721650823736848 0 -0.00108423691376706 0.021597812319745606 0 -0.0013404491632714591 0.022099765218743263 0 -0.00108423691376706 0.021597812319745606 0 -0.0013404491632714591 0.022099765218743263 0 -0.0005234859020494954 0.02254205939685568 0 -0.0013404491632714591 0.022099765218743263 0 -0.0005234859020494954 0.02254205939685568 0 -0.0014575893273377904 0.022618498138058146 0 -0.0018255657504121262 0.02221501082325621 0 -0.0013404491632714591 0.022099765218743263 0 -0.0014575893273377904 0.022618498138058146 0 -0.0018255657504121262 0.02221501082325621 0 -0.0016920137045803878 0.021721650823736848 0 -0.0013404491632714591 0.022099765218743263 0 -0.0018255657504121262 0.02221501082325621 0 -0.0014575893273377904 0.022618498138058146 0 -0.0018255397278160539 0.022590860722267056 0 -0.00045426933577557638 0.020547746890935158 0 -0.00108423691376706 0.021597812319745606 0 -0.0005234859020494954 0.02254205939685568 0 -0.0013391829985019857 0.015212530492199245 0 -0.0028703401297168929 0.017724404410799817 0 -0.0042603692226965252 0.012502949812514865 0 -0.0042075404241473432 0.01280858240263515 0 -0.0043299580240190464 0.012954759421911556 0 -0.0042075404241473432 0.01280858240263515 0 -0.0039595174005218024 0.013062319095333072 0 -0.004305338154766556 0.013175267577222052 0 -0.0042075404241473432 0.01280858240263515 0 -0.004305338154766556 0.013175267577222052 0 -0.0048281883808546115 0.013121044519409628 0 -0.0031170926666406577 0.013563808780372427 0 -0.0028703401297168929 0.017724404410799817 0 -0.0042075404241473432 0.01280858240263515 0 -0.0039343612005888519 0.012753777897081585 0 -0.0039595174005218024 0.013062319095333072 0 -0.0042075404241473432 0.01280858240263515 0 -0.0039343612005888519 0.012753777897081585 0 -0.0040631721293789757 0.012592218715363373 0 -0.0039343612005888519 0.012753777897081585 0 -0.0038406059006084428 0.012939802382527234 0 -0.0039595174005218024 0.013062319095333072 0 -0.0036624648330960668 0.013051554707662649 0 -0.0038406059006084428 0.012939802382527234 0 -0.0037561136720598719 0.012690730805333773 0 -0.0039343612005888519 0.012753777897081585 0 -0.0038406059006084428 0.012939802382527234 0 -0.0037561136720598719 0.012690730805333773 0 -0.0039343612005888519 0.012753777897081585 0 -0.0037561136720598719 0.012690730805333773 0 -0.0038822052565596877 0.012516120289331021 0 -0.003694989154823693 0.012422405865531934 0 -0.0037561136720598719 0.012690730805333773 0 -0.0038822052565596877 0.012516120289331021 0 -0.0040400750133536651 0.012424316529423123 0 -0.0038822052565596877 0.012516120289331021 0 -0.0040631721293789757 0.012592218715363373 0 -0.0040400750133536651 0.012424316529423123 0 -0.0042603692226965252 0.012502949812514865 0 -0.0040631721293789757 0.012592218715363373 0 -0.0039343612005888519 0.012753777897081585 0 -0.0038822052565596877 0.012516120289331021 0 -0.0040631721293789757 0.012592218715363373 0 -0.0039784048282933554 0.013208150038254514 0 -0.0038662388196555411 0.013115429459946664 0 -0.0038078708553484822 0.013313130897727584 0 -0.0036369542311493865 0.013973466637647331 0 -0.0032423264796751826 0.013046369454536791 0 -0.0036166070257345451 0.012765478715967525 0 -0.0032423264796751826 0.013046369454536791 0 -0.0036624648330960668 0.013051554707662649 0 -0.0038662388196555411 0.013115429459946664 0 -0.0038078708553484822 0.013313130897727584 0 -0.0036624648330960668 0.013051554707662649 0 -0.0038406059006084428 0.012939802382527234 0 -0.0038662388196555411 0.013115429459946664 0 -0.0038406059006084428 0.012939802382527234 0 -0.0038662388196555411 0.013115429459946664 0 -0.0039595174005218024 0.013062319095333072 0 -0.0039784048282933554 0.013208150038254514 0 -0.0038662388196555411 0.013115429459946664 0 -0.0039595174005218024 0.013062319095333072 0 -0.0038205720664711207 0.014881726602202447 0 -0.0039595174005218024 0.013062319095333072 0 -0.0042517661110872094 0.013946056538080613 0 -0.0036369542311493865 0.013973466637647331 0 -0.0039672390707832144 0.013201921151571611 0 -0.0048281883808546115 0.013121044519409628 0 -0.004503095369732508 0.014426104198180013 0 -0.005039528242537521 0.015130466746826167 0 -0.004305338154766556 0.013175267577222052 0 -0.0048281883808546115 0.013121044519409628 0 -0.0042517661110872094 0.013946056538080613 0 -0.0011914638145344887 0.020263554713924641 0 -0.002267192467728552 0.021402705580167932 0 -0.0012735910542309411 0.022344417768189608 0 -0.0039595174005218024 0.013062319095333072 0 -0.004305338154766556 0.013175267577222052 0 -0.0042517661110872094 0.013946056538080613 0 -0.0028703401297168929 0.017724404410799817 0 -0.0031533222526256319 0.018518005274619619 0 -0.0048281883808546115 0.013121044519409628 0 -0.0042517661110872094 0.013946056538080613 0 -0.004503095369732508 0.014426104198180013 0 -0.0014575893273377904 0.022618498138058146 0 -0.0013157919724738926 0.023391147215166001 0 -0.0018486493774259689 0.022957919802370708 0 -0.0014575893273377904 0.022618498138058146 0 -0.0018255397278160539 0.022590860722267056 0 -0.0018486493774259689 0.022957919802370708 0 -0.0028703401297168929 0.017724404410799817 0 -0.0016065485470865518 0.022206373881965315 0 -0.0005234859020494954 0.02254205939685568 0 -0.0014575893273377904 0.022618498138058146 0 -0.0013157919724738926 0.023391147215166001 0 -0.0013157919724738926 0.023391147215166001 0 -0.0021295144278770882 0.024269509960221987 0 -0.0018486493774259689 0.022957919802370708 0 -0.0016065485470865518 0.022206373881965315 0 -0.0015971062042735825 0.028329517214391958 0 -0.002267192467728552 0.021402705580167932 0 -0.002252602195367093 0.022375909256351682 0 -0.0033039980864943701 0.022536741056109592 0 -0.002267192467728552 0.021402705580167932 0 -0.002252602195367093 0.022375909256351682 0 -0.0012735910542309411 0.022344417768189608 0 -0.002252602195367093 0.022375909256351682 0 -0.0012735910542309411 0.022344417768189608 0 -0.0021586234624156164 0.02321143856365205 0 -0.002252602195367093 0.022375909256351682 0 -0.0021586234624156164 0.02321143856365205 0 -0.0033039980864943701 0.022536741056109592 0 -0.0038205720664711207 0.014881726602202447 0 -0.0042517661110872094 0.013946056538080613 0 -0.004503095369732508 0.014426104198180013 0 -0.004503095369732508 0.014426104198180013 0 -0.005039528242537521 0.015130466746826167 0 -0.0043956721918487615 0.015309850222499685 0 -0.0038205720664711207 0.014881726602202447 0 -0.004503095369732508 0.014426104198180013 0 -0.0043956721918487615 0.015309850222499685 0 -0.0036369542311493865 0.013973466637647331 0 -0.0037461066538422216 0.016241893015823385 0 -0.0031533222526256319 0.018518005274619619 0 -0.0032943663698564917 0.021010986575660685 0 -0.0043956721918487615 0.015309850222499685 0 -0.0039986786048642848 0.017385938782874623 0 -0.0050985769150155361 0.01753908014002321 0 -0.0038205720664711207 0.014881726602202447 0 -0.0043956721918487615 0.015309850222499685 0 -0.0039986786048642848 0.017385938782874623 0 -0.005039528242537521 0.015130466746826167 0 -0.0043956721918487615 0.015309850222499685 0 -0.0050985769150155361 0.01753908014002321 0 -0.0021586234624156164 0.02321143856365205 0 -0.0026010467830114166 0.024432784075071958 0 -0.0033039980864943701 0.022536741056109592 0 -0.0012735910542309411 0.022344417768189608 0 -0.0021586234624156164 0.02321143856365205 0 -0.0013778777555843251 0.024333455177496088 0 -0.0021586234624156164 0.02321143856365205 0 -0.0026010467830114166 0.024432784075071958 0 -0.0013778777555843251 0.024333455177496088 0 -0.0013631615447623712 0.028579260376744593 0 -0.0014101598824906247 0.028350637604767637 0 -0.0026010467830114166 0.024432784075071958 0 -0.0013778777555843251 0.024333455177496088 0 -0.0019385311959297465 0.026269652794849906 0 -0.0037461066538422216 0.016241893015823385 0 -0.0029064817305117403 0.016982222116741826 0 -0.0039986786048642848 0.017385938782874623 0 -0.0050985769150155361 0.01753908014002321 0 -0.0042417474297583423 0.019905967178545321 0 -0.0032943663698564917 0.021010986575660685 0 -0.0027424736185952194 0.022938162215382876 0 -0.0032896762835510794 0.014626846441094604 0 -0.002946125417749659 0.014776546126858643 0 -0.0033108890526935128 0.015505608894817443 0 -0.0032896762835510794 0.014626846441094604 0 -0.002946125417749659 0.014776546126858643 0 -0.0025799316687434124 0.014054099546330284 0 -0.0031971510502498066 0.013749523343074423 0 -0.0032896762835510794 0.014626846441094604 0 -0.0025799316687434124 0.014054099546330284 0 -0.0028757265136782032 0.013061756504227671 0 -0.0032423264796751826 0.013046369454536791 0 -0.0028869793419882051 0.011788788019131901 0 -0.0029984873474774637 0.012008941511019377 0 -0.003062616321205117 0.011777125951243859 0 -0.0031623625737619873 0.011916929744689627 0 -0.0029984873474774637 0.012008941511019377 0 -0.003062616321205117 0.011777125951243859 0 -0.0032090434901929144 0.01223592567240101 0 -0.0032423264796751826 0.013046369454536791 0 -0.0032463229177576193 0.011700055333487305 0 -0.003062616321205117 0.011777125951243859 0 -0.0030243124058227638 0.011573695596615275 0 -0.0028869793419882051 0.011788788019131901 0 -0.003062616321205117 0.011777125951243859 0 -0.0030243124058227638 0.011573695596615275 0 -0.0021562111495621655 0.010799268023986891 0 -0.0020146026060593029 0.010726779830458204 0 -0.0019387360465109068 0.010845485287845246 0 -0.0028869793419882051 0.011788788019131901 0 -0.0030243124058227638 0.011573695596615275 0 -0.0027807684742066634 0.011602646647393642 0 -0.0025627007114612144 0.010817724589548269 0 -0.0024317526312886049 0.014826154258166014 0 -0.0028757265136782032 0.013061756504227671 0 -0.0024317526312886049 0.014826154258166014 0 -0.0022461568212149021 0.0098808392336430118 0 -0.0020592664111745641 0.015145285951952874 0 -0.0020146026060593029 0.010726779830458204 0 -0.0020584287149036456 0.010675482371359703 0 -0.0019103692220600369 0.010716737195537089 0 -0.0020584287149036456 0.010675482371359703 0 -0.0020816501569793852 0.010620613223603014 0 -0.0019103692220600369 0.010716737195537089 0 -0.0020816501569793852 0.010620613223603014 0 -0.0020396572364508913 0.010635261912941408 0 -0.0018091266237425913 0.010817393105722968 0 -0.0020146026060593029 0.010726779830458204 0 -0.001949702801905808 0.010758952536989311 0 -0.0019387360465109068 0.010845485287845246 0 -0.0020146026060593029 0.010726779830458204 0 -0.0020584287149036456 0.010675482371359703 0 -0.0021169839281590008 0.010696606860814454 0 -0.0021562111495621655 0.010799268023986891 0 -0.0022405870930568162 0.0106513839970302 0 -0.0021169839281590008 0.010696606860814454 0 -0.0021562111495621655 0.010799268023986891 0 -0.0020146026060593029 0.010726779830458204 0 -0.0021169839281590008 0.010696606860814454 0 -0.0020584287149036456 0.010675482371359703 0 -0.0021456758545762037 0.010610607253954747 0 -0.0020816501569793852 0.010620613223603014 0 -0.0020584287149036456 0.010675482371359703 0 -0.0021169839281590008 0.010696606860814454 0 -0.0021456758545762037 0.010610607253954747 0 -0.0022527484440089639 0.010489605837475643 0 -0.0022405870930568162 0.0106513839970302 0 -0.0021456758545762037 0.010610607253954747 0 -0.0022405870930568162 0.0106513839970302 0 -0.0021169839281590008 0.010696606860814454 0 -0.0021456758545762037 0.010610607253954747 0 -0.0022527484440089639 0.010489605837475643 0 -0.0021456758545762037 0.010610607253954747 0 -0.002154341625621651 0.010522343033610149 0 -0.0022527484440089639 0.010489605837475643 0 -0.002154341625621651 0.010522343033610149 0 -0.0021742748483061739 0.010405177175423391 0 -0.0020726684099904285 0.010496741897348451 0 -0.002154341625621651 0.010522343033610149 0 -0.0021742748483061739 0.010405177175423391 0 -0.0020726684099904285 0.010496741897348451 0 -0.0021087546746225219 0.010566300340245397 0 -0.002154341625621651 0.010522343033610149 0 -0.0020726684099904285 0.010496741897348451 0 -0.0021087546746225219 0.010566300340245397 0 -0.0020590716919578946 0.010572655383924759 0 -0.0021456758545762037 0.010610607253954747 0 -0.0021087546746225219 0.010566300340245397 0 -0.002154341625621651 0.010522343033610149 0 -0.0021087546746225219 0.010566300340245397 0 -0.0020816501569793852 0.010620613223603014 0 -0.0020590716919578946 0.010572655383924759 0 -0.0021456758545762037 0.010610607253954747 0 -0.0021087546746225219 0.010566300340245397 0 -0.0020816501569793852 0.010620613223603014 0 -0.0020726684099904285 0.010496741897348451 0 -0.0019737736769841361 0.010561355667953966 0 -0.0020590716919578946 0.010572655383924759 0 -0.0017157914556412107 0.0098763705552488961 0 -0.0014753030668574693 0.016096138119185258 0 -0.0020396572364508913 0.010635261912941408 0 -0.0019737736769841361 0.010561355667953966 0 -0.0017613684865403886 0.010593146463406894 0 -0.0020816501569793852 0.010620613223603014 0 -0.0020396572364508913 0.010635261912941408 0 -0.0020590716919578946 0.010572655383924759 0 -0.0020396572364508913 0.010635261912941408 0 -0.0019737736769841361 0.010561355667953966 0 -0.0020590716919578946 0.010572655383924759 0 -0.0019737736769841361 0.010561355667953966 0 -0.0019283658849946 0.010508717119040991 0 -0.0017613684865403886 0.010593146463406894 0 -0.0020726684099904285 0.010496741897348451 0 -0.0019737736769841361 0.010561355667953966 0 -0.0019283658849946 0.010508717119040991 0 -0.0020726684099904285 0.010496741897348451 0 -0.0019283658849946 0.010508717119040991 0 -0.0020792999095345529 0.010326454832276448 0 -0.0019283658849946 0.010508717119040991 0 -0.0020792999095345529 0.010326454832276448 0 -0.0018825628695895045 0.010159448152582105 0 -0.0022854601932617413 0.010264819234229589 0 -0.0022527484440089639 0.010489605837475643 0 -0.0021742748483061739 0.010405177175423391 0 -0.0022854601932617413 0.010264819234229589 0 -0.0020792999095345529 0.010326454832276448 0 -0.0021703891213758347 0.010074839045209937 0 -0.0022854601932617413 0.010264819234229589 0 -0.0020792999095345529 0.010326454832276448 0 -0.0021742748483061739 0.010405177175423391 0 -0.0020726684099904285 0.010496741897348451 0 -0.0020792999095345529 0.010326454832276448 0 -0.0021742748483061739 0.010405177175423391 0 -0.00055201097055091722 0.033103923537510814 0 -0.00045271694032803905 0.032915506152624681 0 -0.00046226630793624548 0.033204208990051692 0 -0.00055201097055091722 0.033103923537510814 0 -0.00045271694032803905 0.032915506152624681 0 -0.00068102268631749891 0.033074994467978555 0 -0.0014939338934682111 0.022876586923839783 0 -0.002166192671243794 0.022592444095092652 0 -0.002280717534247691 0.025425012929049827 0 -0.0020927345003056677 0.01694423142249691 0 -0.0025189259993836717 0.023204408191140183 0 -0.0019283658849946 0.010508717119040991 0 -0.0017552969819264112 0.010524678958893138 0 -0.0018825628695895045 0.010159448152582105 0 -0.0020629238465655489 0.017429601466567638 0 -0.0021783563167901928 0.018389895955712478 0 -0.001711182615785052 0.018437178228217475 0 -0.0014939338934682111 0.022876586923839783 0 -0.0017950586149735907 0.025483945539668488 0 -0.002280717534247691 0.025425012929049827 0 -0.0014387375540728753 0.027945557339410645 0 -0.0010123160318306779 0.028191200500496255 0 -0.0020927345003056677 0.01694423142249691 0 -0.0019182569501039457 0.014582215666904942 0 -0.0020396572364508913 0.010635261912941408 0 -0.0017937129702543997 0.010675425123895799 0 -0.0018091266237425913 0.010817393105722968 0 -0.0020927345003056677 0.01694423142249691 0 -0.0016770635627097823 0.019907046946190315 0 -0.0014939338934682111 0.022876586923839783 0 -0.0016554443907943655 0.022420643207026542 0 -0.002166192671243794 0.022592444095092652 0 -0.0027734074299248959 0.017432673862407089 0 -0.0024635689703480777 0.018295354993464543 0 -0.0028824438149680103 0.018427496048100914 0 -0.0020927345003056677 0.01694423142249691 0 -0.0014753030668574693 0.016096138119185258 0 -0.0016770635627097823 0.019907046946190315 0 -0.0014753030668574693 0.016096138119185258 0 -0.0016770635627097823 0.019907046946190315 0 -0.0014387375540728753 0.027945557339410645 0 -0.0019283658849946 0.010508717119040991 0 -0.0017552969819264112 0.010524678958893138 0 -0.0017613684865403886 0.010593146463406894 0 -0.0014753030668574693 0.016096138119185258 0 -0.0020592664111745641 0.015145285951952874 0 -0.0018634367931566697 0.018305345533724957 0 -0.0018674895513246595 0.018343454819415017 0 -0.0018463139620405187 0.018337806151882189 0 -0.0016770635627097823 0.019907046946190315 0 -0.001777885520128216 0.022095356313042519 0 -0.0012389218434268922 0.023772286598679689 0 -0.00077048325781235076 0.023630869711480408 0 -0.00094313011379347652 0.024584805820843783 0 -0.0018562345258085898 0.018305189789133845 0 -0.0018634367931566697 0.018305345533724957 0 -0.0018463139620405187 0.018337806151882189 0 -0.00077048325781235076 0.023630869711480408 0 -0.00094313011379347652 0.024584805820843783 0 -0.00080870023373765378 0.024952641040002145 0 -0.0014387375540728753 0.027945557339410645 0 -0.0011652934168816255 0.026302640300067216 0 -0.00088722015096720942 0.033178370226815135 0 -0.00088961075508118875 0.033206763475781165 0 -0.00089093757280333532 0.033167825518767138 0 -0.0014387375540728753 0.027945557339410645 0 -0.00078545279655443674 0.033769012935920786 0 -0.00088722015096720942 0.033178370226815135 0 -0.00088961075508118875 0.033206763475781165 0 -0.00089039228210289567 0.033247358558180493 0 -0.0017617184833811955 0.029509546128509305 0 -0.0014965441176592455 0.030128532560990413 0 -0.0007138711687781755 0.029844137265816501 0 -0.001246593009822563 0.025901188917171091 0 -0.00063032915481934777 0.032018074737537011 0 -0.00088961075508118875 0.033206763475781165 0 -0.00089237070361359303 0.033165037614134564 0 -0.0008872247937658633 0.033232216385863156 0 -0.00088961075508118875 0.033206763475781165 0 -0.00089093757280333532 0.033167825518767138 0 -0.00089237070361359303 0.033165037614134564 0 -0.001246593009822563 0.025901188917171091 0 -0.0014101598824906247 0.028350637604767637 0 -0.0020592664111745641 0.015145285951952874 0 -0.0018686846576131152 0.020279060180668562 0 -0.0018686846576131152 0.020279060180668562 0 -0.001777885520128216 0.022095356313042519 0 -0.0018674895513246595 0.018343454819415017 0 -0.0018554579851098945 0.018351177408747772 0 -0.0018463139620405187 0.018337806151882189 0 -0.001777885520128216 0.022095356313042519 0 -0.0011652934168816255 0.026302640300067216 0 -0.002165406290771965 0.022956355386946615 0 -0.0022762307312752424 0.023163605923229684 0 -0.0023244425165635102 0.023022359083760834 0 -0.0011652934168816255 0.026302640300067216 0 -0.001246593009822563 0.025901188917171091 0 -0.0018686846576131152 0.020279060180668562 0 -0.001246593009822563 0.025901188917171091 0 -0.002165406290771965 0.022956355386946615 0 -0.0023244425165635102 0.023022359083760834 0 -0.0023183832012216598 0.022921026696161109 0 -0.0019683827903963407 0.02203835937509457 0 -0.0020466880054192949 0.021142093365412128 0 -0.0012705926911874767 0.02068327817987177 0 -0.001246593009822563 0.025901188917171091 0 -0.0027424736185952194 0.022938162215382876 0 -0.0025558624984310377 0.021887213313094109 0 -0.0020466880054192949 0.021142093365412128 0 -0.0024901998360136613 0.020075756319725337 0 -0.0019683827903963407 0.02203835937509457 0 -0.0025558624984310377 0.021887213313094109 0 -0.0020466880054192949 0.021142093365412128 0 -0.0014141543270986975 0.018050016457734117 0 -0.0019835934762372815 0.017901500642636996 0 -0.0012306504301252985 0.016456356100198351 0 -0.0020146026060593029 0.010726779830458204 0 -0.0019103692220600369 0.010716737195537089 0 -0.001949702801905808 0.010758952536989311 0 -0.0020592664111745641 0.015145285951952874 0 -0.0021722980302042254 0.015973043462357738 0 -0.0018686846576131152 0.020279060180668562 0 -0.0021722980302042254 0.015973043462357738 0 -0.0019103692220600369 0.010716737195537089 0 -0.001949702801905808 0.010758952536989311 0 -0.0019179942795348104 0.010805605012670144 0 -0.0050985769150155361 0.01753908014002321 0 -0.0042417474297583423 0.019905967178545321 0 -0.0051541868885715764 0.019945296546078933 0 -0.0013778777555843251 0.024333455177496088 0 -0.0014592339026838895 0.026246222700407558 0 -0.0019385311959297465 0.026269652794849906 0 -0.0032896762835510794 0.014626846441094604 0 -0.0033108890526935128 0.015505608894817443 0 -0.0033783831692546836 0.015508843960775214 0 -0.0012705926911874767 0.02068327817987177 0 -0.0011973496190610649 0.020021954350680656 0 -0.0024901998360136613 0.020075756319725337 0 -0.001949702801905808 0.010758952536989311 0 -0.0019387360465109068 0.010845485287845246 0 -0.0019179942795348104 0.010805605012670144 0 -0.0024317526312886049 0.014826154258166014 0 -0.0029064817305117403 0.016982222116741826 0 -0.0024317526312886049 0.014826154258166014 0 -0.0021722980302042254 0.015973043462357738 0 -0.0030916907525190078 0.015919581131743066 0 -0.0030012868147903456 0.015744103036755958 0 -0.003020320937789023 0.015918014105734991 0 -0.0021722980302042254 0.015973043462357738 0 -0.0029064817305117403 0.016982222116741826 0 -0.0029064817305117403 0.016982222116741826 0 -0.0027424736185952194 0.022938162215382876 0 -0.0020466880054192949 0.021142093365412128 0 -0.0012705926911874767 0.02068327817987177 0 -0.0024901998360136613 0.020075756319725337 0 -0.0014101598824906247 0.028350637604767637 0 -0.00033053144211306145 0.031665233049902757 0 -0.00018207134521349387 0.032610711984490517 0 -6.6023324439084689e-05 0.03298886431286871 0 -0.00036927898421295008 0.033047223929072632 0 -0.0021467122967715364 0.025887302373117795 0 -0.0021403130688587859 0.025713088227805277 0 -0.0022196488978186929 0.025720683650168295 0 -0.0027424736185952194 0.022938162215382876 0 -0.0014101598824906247 0.028350637604767637 0 -0.00036927898421295008 0.033047223929072632 0 -0.00056600961206287697 0.032948153673056174 0 -0.00043202362571337447 0.03270717252988195 0 -0.00061497115838203477 0.030134068731982142 0 0.0002184644050920749 0.030165427128551057 0 -0.0007138711687781755 0.029844137265816501 0 -0.0014965441176592455 0.030128532560990413 0 -0.00061497115838203477 0.030134068731982142 0 -0.0007138711687781755 0.029844137265816501 0 -0.00033053144211306145 0.031665233049902757 0 -0.00057961507455508011 0.032274809177077132 0 -0.00057961507455508011 0.032274809177077132 0 -0.00063032915481934777 0.032018074737537011 0 -0.00036927898421295008 0.033047223929072632 0 -0.00056600961206287697 0.032948153673056174 0 -0.00067647053739894368 0.033118518029798143 0 -0.00072006998443468171 0.033004657524661703 0 -0.00056600961206287697 0.032948153673056174 0 -0.00065655721345893401 0.032832358551119163 0 -0.00072006998443468171 0.033004657524661703 0 -0.00056600961206287697 0.032948153673056174 0 -0.00067647053739894368 0.033118518029798143 0 -0.00057961507455508011 0.032274809177077132 0 -0.00066795835071020184 0.032757404054425572 0 -0.00072006998443468171 0.033004657524661703 0 -0.00067647053739894368 0.033118518029798143 0 -0.00080782099977875176 0.033141927337075286 0 -0.00088818595612942444 0.033272324331692776 0 -0.00088653771804186182 0.033266454163163636 0 -0.0008872247937658633 0.033232216385863156 0 -0.00088818595612942444 0.033272324331692776 0 -0.00088653771804186182 0.033266454163163636 0 -0.00089667184029761267 0.03330103663598262 0 -0.00088653771804186182 0.033266454163163636 0 -0.00088366266462097242 0.033283053282095854 0 -0.00089667184029761267 0.03330103663598262 0 -0.00088653771804186182 0.033266454163163636 0 -0.0008872247937658633 0.033232216385863156 0 -0.00088755662820689358 0.033246280047991204 0 -0.00088961075508118875 0.033206763475781165 0 -0.0008872247937658633 0.033232216385863156 0 -0.00088755662820689358 0.033246280047991204 0 -0.00088961075508118875 0.033206763475781165 0 -0.00088755662820689358 0.033246280047991204 0 -0.00089039228210289567 0.033247358558180493 0 -0.00088755662820689358 0.033246280047991204 0 -0.00088366266462097242 0.033283053282095854 0 -0.00089039228210289567 0.033247358558180493 0 -0.00088653771804186182 0.033266454163163636 0 -0.00088755662820689358 0.033246280047991204 0 -0.00088366266462097242 0.033283053282095854 0 -0.00088366266462097242 0.033283053282095854 0 -0.00089039228210289567 0.033247358558180493 0 -0.00085281137537137849 0.033283019210589883 0 -0.00078545279655443674 0.033769012935920786 0 -0.00081159672452105007 0.033117221702177249 0 -0.00068102268631749891 0.033074994467978555 0 -0.00085281137537137849 0.033283019210589883 0 -0.0007390667983583803 0.033262575908057444 0 -0.00068102268631749891 0.033074994467978555 0 -0.00060602304411857947 0.033220137839049743 0 -0.0007390667983583803 0.033262575908057444 0 -0.00055201097055091722 0.033103923537510814 0 -0.00068102268631749891 0.033074994467978555 0 -0.00060602304411857947 0.033220137839049743 0 -0.00088821613639230711 0.033326912613694484 0 -0.00089228140394529646 0.033362489714595628 0 -0.0008628280389692812 0.0333458811039977 0 -0.00088821613639230711 0.033326912613694484 0 -0.00089228140394529646 0.033362489714595628 0 -0.0009054414422296934 0.033346269692919525 0 -0.00088821613639230711 0.033326912613694484 0 -0.00085281137537137849 0.033283019210589883 0 -0.0008628280389692812 0.0333458811039977 0 -0.00088821613639230711 0.033326912613694484 0 -0.00085281137537137849 0.033283019210589883 0 -0.00089293945875207131 0.033315102244666099 0 -0.00088366266462097242 0.033283053282095854 0 -0.00085281137537137849 0.033283019210589883 0 -0.00089293945875207131 0.033315102244666099 0 -0.00088821613639230711 0.033326912613694484 0 -0.00089293945875207131 0.033315102244666099 0 -0.00093385323973605501 0.033347486172203275 0 -0.00088366266462097242 0.033283053282095854 0 -0.00089293945875207131 0.033315102244666099 0 -0.00089667184029761267 0.03330103663598262 0 -0.00089293945875207131 0.033315102244666099 0 -0.00093385323973605501 0.033347486172203275 0 -0.00089667184029761267 0.03330103663598262 0 -0.00088821613639230711 0.033326912613694484 0 -0.0009054414422296934 0.033346269692919525 0 -0.00093385323973605501 0.033347486172203275 0 -0.00093385323973605501 0.033347486172203275 0 -0.0009671289082098213 0.033470157477913279 0 -0.00086011146292535462 0.033519635517164116 0 -0.00093385323973605501 0.033347486172203275 0 -0.0009671289082098213 0.033470157477913279 0 -0.00092583751834281072 0.033314277411189433 0 -0.00088818595612942444 0.033272324331692776 0 -0.00089667184029761267 0.03330103663598262 0 -0.00092583751834281072 0.033314277411189433 0 -0.00093385323973605501 0.033347486172203275 0 -0.00089667184029761267 0.03330103663598262 0 -0.00092583751834281072 0.033314277411189433 0 -0.00072380431205939155 0.033083014912924577 0 -0.00080782099977875176 0.033141927337075286 0 -0.00092583751834281072 0.033314277411189433 0 -0.00057961507455508011 0.032274809177077132 0 -0.0010285334625896121 0.033424301808519734 0 -0.00080782099977875176 0.033141927337075286 0 -0.00092583751834281072 0.033314277411189433 0 -0.00090466589494454927 0.032963574665943525 0 -0.00072006998443468171 0.033004657524661703 0 -0.00080782099977875176 0.033141927337075286 0 -0.00090466589494454927 0.032963574665943525 0 -0.00072006998443468171 0.033004657524661703 0 -0.00090466589494454927 0.032963574665943525 0 -0.00065655721345893401 0.032832358551119163 0 -0.0009671289082098213 0.033470157477913279 0 -0.0010095360182345511 0.033814593768670367 0 -0.00082456607456952091 0.033752440335080923 0 -0.0010051582291951543 0.033483834005018039 0 -0.0010019057121014531 0.033296152418627649 0 -0.0009671289082098213 0.033470157477913279 0 -0.00092583751834281072 0.033314277411189433 0 -0.00090466589494454927 0.032963574665943525 0 -0.0009671289082098213 0.033470157477913279 0 -0.0010095360182345511 0.033814593768670367 0 -0.0012663431243122828 0.033877249597022166 0 -0.0010095360182345511 0.033814593768670367 0 -0.0011189736361389053 0.033981805018941082 0 -0.00089947082228342145 0.033975243571856439 0 -0.0010095360182345511 0.033814593768670367 0 -0.0011189736361389053 0.033981805018941082 0 -0.0012663431243122828 0.033877249597022166 0 -0.0011189736361389053 0.033981805018941082 0 -0.0010088421556151113 0.034094552690821532 0 -0.00089947082228342145 0.033975243571856439 0 -0.0011189736361389053 0.033981805018941082 0 -0.0010088421556151113 0.034094552690821532 0 -0.0011374411005297487 0.034119521817045785 0 -0.0011374411005297487 0.034119521817045785 0 -0.0010376493872071685 0.034262525159488653 0 -0.0011711596682878042 0.034280690347561746 0 -0.0010088421556151113 0.034094552690821532 0 -0.0011374411005297487 0.034119521817045785 0 -0.0010376493872071685 0.034262525159488653 0 -0.0010088421556151113 0.034094552690821532 0 -0.0010376493872071685 0.034262525159488653 0 -0.00088364438825280821 0.034225032175813443 0 -0.0011374411005297487 0.034119521817045785 0 -0.0012872333239637586 0.034105593489984536 0 -0.0011711596682878042 0.034280690347561746 0 -0.0012872333239637586 0.034105593489984536 0 -0.0012442656221201369 0.03405584357190522 0 -0.0013135726926003046 0.034167363585529957 0 -0.0012872333239637586 0.034105593489984536 0 -0.0013776556143837721 0.034062147371850066 0 -0.0011711596682878042 0.034280690347561746 0 -0.0011374411005297487 0.034119521817045785 0 -0.0012872333239637586 0.034105593489984536 0 -0.0012442656221201369 0.03405584357190522 0 -0.0012442656221201369 0.03405584357190522 0 -0.0012663431243122828 0.033877249597022166 0 -0.0013135726926003046 0.034167363585529957 0 -0.0010019057121014531 0.033296152418627649 0 -0.0010572807211418902 0.03402518798971213 0 -0.0011189736361389053 0.033981805018941082 0 -0.0011374411005297487 0.034119521817045785 0 -0.0012442656221201369 0.03405584357190522 0 -0.0011189736361389053 0.033981805018941082 0 -0.0012442656221201369 0.03405584357190522 0 -0.0012663431243122828 0.033877249597022166 0 -0.00090466589494454927 0.032963574665943525 0 -0.00065655721345893401 0.032832358551119163 0 -0.00064790503652357697 0.032532127695826668 0 -0.00056600961206287697 0.032948153673056174 0 -0.00065655721345893401 0.032832358551119163 0 -0.00043202362571337447 0.03270717252988195 0 -0.00065655721345893401 0.032832358551119163 0 -0.00043202362571337447 0.03270717252988195 0 -0.00064790503652357697 0.032532127695826668 0 -0.00018207134521349387 0.032610711984490517 0 -0.00036927898421295008 0.033047223929072632 0 -0.00043202362571337447 0.03270717252988195 0 -0.0010572807211418902 0.03402518798971213 0 -0.0015971062042735825 0.028329517214391958 0 -0.00018207134521349387 0.032610711984490517 0 -0.00043202362571337447 0.03270717252988195 0 -0.0003334452806690804 0.032134507928951846 0 -0.0013631615447623712 0.028579260376744593 0 -0.0015971062042735825 0.028329517214391958 0 -0.00043202362571337447 0.03270717252988195 0 -0.00064790503652357697 0.032532127695826668 0 -0.0003334452806690804 0.032134507928951846 0 -0.0013135726926003046 0.034167363585529957 0 -0.0013776556143837721 0.034062147371850066 0 -0.0007788393153923968 0.033812940497982939 0 -0.0012872333239637586 0.034105593489984536 0 -0.0013135726926003046 0.034167363585529957 0 -0.0013776556143837721 0.034062147371850066 0 -0.0013776556143837721 0.034062147371850066 0 -0.001155350741481201 0.033586004323669323 0 -0.0007788393153923968 0.033812940497982939 0 -0.0013776556143837721 0.034062147371850066 0 -0.001155350741481201 0.033586004323669323 0 -0.0015906382743257903 0.03323085411234087 0 -0.0014108994669815265 0.033863768737554902 0 -0.0014591881085894646 0.034332195131269574 0 -0.0015971062042735825 0.028329517214391958 0 -0.0015304099431377974 0.027858073102735095 0 -0.001155350741481201 0.033586004323669323 0 -0.0007788393153923968 0.033812940497982939 0 -0.00093831407427387924 0.033044629849321376 0 -0.0021295144278770882 0.024269509960221987 0 -0.0025963888090053734 0.022859620976310464 0 -0.0018486493774259689 0.022957919802370708 0 -0.0021843551736578314 0.022200388998174794 0 -0.0025963888090053734 0.022859620976310464 0 -0.0021720676750717361 0.022571761216424034 0 -0.0025963888090053734 0.022859620976310464 0 -0.0021720676750717361 0.022571761216424034 0 -0.0018486493774259689 0.022957919802370708 0 -0.0021720676750717361 0.022571761216424034 0 -0.0018255397278160539 0.022590860722267056 0 -0.0018486493774259689 0.022957919802370708 0 -0.001155350741481201 0.033586004323669323 0 -0.00093831407427387924 0.033044629849321376 0 -0.0015906382743257903 0.03323085411234087 0 -0.001697737049946003 0.032345018371516973 0 -0.00093831407427387924 0.033044629849321376 0 -0.0015906382743257903 0.03323085411234087 0 -0.001350445464729668 0.03451682660366899 0 -0.0011622497330471928 0.034515134439123907 0 -0.0011711596682878042 0.034280690347561746 0 -0.0011739073036610822 0.034684192407518993 0 -0.001350445464729668 0.03451682660366899 0 -0.0011622497330471928 0.034515134439123907 0 -0.0011739073036610822 0.034684192407518993 0 -0.0011622497330471928 0.034515134439123907 0 -0.0010254782548619328 0.034608195007895123 0 -0.0011622497330471928 0.034515134439123907 0 -0.0010254782548619328 0.034608195007895123 0 -0.00094497346015753121 0.034458623492474721 0 -0.0010254782548619328 0.034608195007895123 0 -0.00094497346015753121 0.034458623492474721 0 -0.00087494955282302973 0.034671993393580861 0 -0.0010007378546680796 0.034713010043484031 0 -0.0010254782548619328 0.034608195007895123 0 -0.00087494955282302973 0.034671993393580861 0 -0.0011622497330471928 0.034515134439123907 0 -0.00094497346015753121 0.034458623492474721 0 -0.0011711596682878042 0.034280690347561746 0 -0.00094497346015753121 0.034458623492474721 0 -0.0010376493872071685 0.034262525159488653 0 -0.00088364438825280821 0.034225032175813443 0 -0.00094497346015753121 0.034458623492474721 0 -0.0010376493872071685 0.034262525159488653 0 -0.0011711596682878042 0.034280690347561746 0 -0.0013776556143837721 0.034062147371850066 0 -0.001350445464729668 0.03451682660366899 0 -0.0011711596682878042 0.034280690347561746 0 -0.00073379716951119534 0.034454037600301184 0 -0.0005332410832160012 0.03466941173382946 0 -0.00052623661122029814 0.034512372649021419 0 -0.00073379716951119534 0.034454037600301184 0 -0.00052623661122029814 0.034512372649021419 0 -0.00063936993144436043 0.034305563704050628 0 -0.00094497346015753121 0.034458623492474721 0 -0.00073379716951119534 0.034454037600301184 0 -0.00088364438825280821 0.034225032175813443 0 -0.00094497346015753121 0.034458623492474721 0 -0.00073379716951119534 0.034454037600301184 0 -0.00074008672823900484 0.034632395947052648 0 -0.00094497346015753121 0.034458623492474721 0 -0.00087494955282302973 0.034671993393580861 0 -0.00074008672823900484 0.034632395947052648 0 -0.00077329559127680054 0.034772175811335806 0 -0.00087494955282302973 0.034671993393580861 0 -0.00074008672823900484 0.034632395947052648 0 -0.00065517779460527834 0.034762337555665476 0 -0.00074008672823900484 0.034632395947052648 0 -0.0005332410832160012 0.03466941173382946 0 -0.00073379716951119534 0.034454037600301184 0 -0.00074008672823900484 0.034632395947052648 0 -0.0005332410832160012 0.03466941173382946 0 -0.00037065403232099646 0.034824176053729006 0 -0.0005332410832160012 0.03466941173382946 0 -0.00037785664368951465 0.034698385869118595 0 -0.0005332410832160012 0.03466941173382946 0 -0.00037785664368951465 0.034698385869118595 0 -0.00052623661122029814 0.034512372649021419 0 -0.00037785664368951465 0.034698385869118595 0 -0.0002309817250215363 0.034790784343244514 0 -0.00028817663841465617 0.034614684356447718 0 -0.0002309817250215363 0.034790784343244514 0 -0.00028817663841465617 0.034614684356447718 0 -8.1898777571438302e-05 0.034752265403487852 0 -0.00037065403232099646 0.034824176053729006 0 -0.00037785664368951465 0.034698385869118595 0 -0.0002309817250215363 0.034790784343244514 0 -0.00028817663841465617 0.034614684356447718 0 -0.00042763301384839386 0.034396681349866683 0 -0.00026963111773452595 0.034477118282687798 0 -0.00028817663841465617 0.034614684356447718 0 -0.00026963111773452595 0.034477118282687798 0 -0.00014616132662129323 0.034611954663197442 0 -0.00028817663841465617 0.034614684356447718 0 -0.00052623661122029814 0.034512372649021419 0 -0.00042763301384839386 0.034396681349866683 0 -0.00037785664368951465 0.034698385869118595 0 -0.00028817663841465617 0.034614684356447718 0 -0.00052623661122029814 0.034512372649021419 0 -0.00052623661122029814 0.034512372649021419 0 -0.00042763301384839386 0.034396681349866683 0 -0.00063936993144436043 0.034305563704050628 0 -0.00042763301384839386 0.034396681349866683 0 -0.00031220416212397338 0.034280277248231204 0 -0.00051070234974572449 0.034168425281463542 0 -0.00042763301384839386 0.034396681349866683 0 -0.00051070234974572449 0.034168425281463542 0 -0.00063936993144436043 0.034305563704050628 0 -0.00026963111773452595 0.034477118282687798 0 -0.00014850521611219411 0.034453407949180274 0 -0.00014616132662129323 0.034611954663197442 0 -0.00042763301384839386 0.034396681349866683 0 -0.00026963111773452595 0.034477118282687798 0 -0.00031220416212397338 0.034280277248231204 0 -0.00026963111773452595 0.034477118282687798 0 -0.00031220416212397338 0.034280277248231204 0 -0.00014850521611219411 0.034453407949180274 0 -0.00031220416212397338 0.034280277248231204 0 -0.00019381452800310383 0.034161911465821503 0 -0.00014850521611219411 0.034453407949180274 0 -0.00031220416212397338 0.034280277248231204 0 -0.00019381452800310383 0.034161911465821503 0 -0.00037734746887377953 0.034010365459512207 0 -0.00019381452800310383 0.034161911465821503 0 -0.00037734746887377953 0.034010365459512207 0 -0.00021080375374912667 0.033901112663642513 0 -0.00019381452800310383 0.034161911465821503 0 -0.00021080375374912667 0.033901112663642513 0 -7.2052692525241221e-05 0.034044029298106425 0 -0.00031220416212397338 0.034280277248231204 0 -0.00051070234974572449 0.034168425281463542 0 -0.00037734746887377953 0.034010365459512207 0 -0.00051070234974572449 0.034168425281463542 0 -0.00037734746887377953 0.034010365459512207 0 -0.00058017227535887719 0.033926814182620946 0 -0.00071805742700078664 0.034063501310159588 0 -0.00082456607456952091 0.033752440335080923 0 -0.00058017227535887719 0.033926814182620946 0 -0.00051070234974572449 0.034168425281463542 0 -0.00071805742700078664 0.034063501310159588 0 -0.00058017227535887719 0.033926814182620946 0 -0.00051070234974572449 0.034168425281463542 0 -0.00071805742700078664 0.034063501310159588 0 -0.00063936993144436043 0.034305563704050628 0 -0.00071805742700078664 0.034063501310159588 0 -0.00063936993144436043 0.034305563704050628 0 -0.00088364438825280821 0.034225032175813443 0 -0.0010088421556151113 0.034094552690821532 0 -0.00088364438825280821 0.034225032175813443 0 -0.00089947082228342145 0.033975243571856439 0 -0.00073379716951119534 0.034454037600301184 0 -0.00063936993144436043 0.034305563704050628 0 -0.00088364438825280821 0.034225032175813443 0 -0.00071805742700078664 0.034063501310159588 0 -0.00088364438825280821 0.034225032175813443 0 -0.00089947082228342145 0.033975243571856439 0 -0.00071805742700078664 0.034063501310159588 0 -0.00089947082228342145 0.033975243571856439 0 -0.00082456607456952091 0.033752440335080923 0 -0.0010095360182345511 0.033814593768670367 0 -0.00089947082228342145 0.033975243571856439 0 -0.00082456607456952091 0.033752440335080923 0 -0.00082456607456952091 0.033752440335080923 0 -0.00068054084156952271 0.033694704219362666 0 -0.00086011146292535462 0.033519635517164116 0 -0.0009671289082098213 0.033470157477913279 0 -0.00082456607456952091 0.033752440335080923 0 -0.00086011146292535462 0.033519635517164116 0 -0.00082456607456952091 0.033752440335080923 0 -0.00058017227535887719 0.033926814182620946 0 -0.00068054084156952271 0.033694704219362666 0 -0.00084054206509225223 0.03342488801215409 0 -0.00068913705540515359 0.033420236535605836 0 -0.00068054084156952271 0.033694704219362666 0 -0.00077520937153036107 0.033481772958119611 0 -0.00038806669453289355 0.033610078200840665 0 -0.00093385323973605501 0.033347486172203275 0 -0.00077520937153036107 0.033481772958119611 0 -0.00086011146292535462 0.033519635517164116 0 -0.00068054084156952271 0.033694704219362666 0 -0.00077520937153036107 0.033481772958119611 0 -0.00086011146292535462 0.033519635517164116 0 -0.00093859090997434045 0.033353600128090494 0 -0.00084054206509225223 0.03342488801215409 0 -0.0009054414422296934 0.033346269692919525 0 -0.00090999752132902212 0.033353365112694815 0 -0.00091243978976245912 0.033368812103632038 0 -0.0009054414422296934 0.033346269692919525 0 -0.00093385323973605501 0.033347486172203275 0 -0.00090999752132902212 0.033353365112694815 0 -0.00090999752132902212 0.033353365112694815 0 -0.00093718985917194697 0.033383008892544509 0 -0.00095266759340011955 0.033361831354270309 0 -0.00090999752132902212 0.033353365112694815 0 -0.00093718985917194697 0.033383008892544509 0 -0.00091243978976245912 0.033368812103632038 0 -0.00093718985917194697 0.033383008892544509 0 -0.00091243978976245912 0.033368812103632038 0 -0.00092013829255264588 0.033406034738571698 0 -0.00093718985917194697 0.033383008892544509 0 -0.00096809952636190018 0.033435726193513877 0 -0.00092013829255264588 0.033406034738571698 0 -0.00089228140394529646 0.033362489714595628 0 -0.00091243978976245912 0.033368812103632038 0 -0.00092013829255264588 0.033406034738571698 0 -0.00089228140394529646 0.033362489714595628 0 -0.0009054414422296934 0.033346269692919525 0 -0.00091243978976245912 0.033368812103632038 0 -0.00096532529900516487 0.033397483973042007 0 -0.00098325914247649306 0.033392180583492068 0 -0.00098589817435136367 0.033423896314875211 0 -0.00093718985917194697 0.033383008892544509 0 -0.00096532529900516487 0.033397483973042007 0 -0.00096809952636190018 0.033435726193513877 0 -0.00093718985917194697 0.033383008892544509 0 -0.00096532529900516487 0.033397483973042007 0 -0.00095266759340011955 0.033361831354270309 0 -0.00096532529900516487 0.033397483973042007 0 -0.00095266759340011955 0.033361831354270309 0 -0.00098325914247649306 0.033392180583492068 0 -0.00068913705540515359 0.033420236535605836 0 -0.00040969517880850372 0.033970088227367509 0 -0.00038806669453289355 0.033610078200840665 0 -0.00021080375374912667 0.033901112663642513 0 4.6451630188291077e-05 0.033690634953620791 0 -0.00058017227535887719 0.033926814182620946 0 -0.00068054084156952271 0.033694704219362666 0 -0.00038806669453289355 0.033610078200840665 0 -0.00037734746887377953 0.034010365459512207 0 -0.00058017227535887719 0.033926814182620946 0 -0.00038806669453289355 0.033610078200840665 0 -0.00037734746887377953 0.034010365459512207 0 -0.00038806669453289355 0.033610078200840665 0 -0.00021080375374912667 0.033901112663642513 0 -0.00013178142615081115 0.034458038012038734 0 -0.00010086175755447326 0.034362063174259869 0 -0.00014890114010782595 0.034355321166164479 0 -0.00021080375374912667 0.033901112663642513 0 -1.8887332856876451e-05 0.033881931220225245 0 -7.2052692525241221e-05 0.034044029298106425 0 0.00010422381428142437 0.033978622521222947 0 -1.8887332856876451e-05 0.033881931220225245 0 4.6451630188291077e-05 0.033690634953620791 0 -0.00021080375374912667 0.033901112663642513 0 -1.8887332856876451e-05 0.033881931220225245 0 4.6451630188291077e-05 0.033690634953620791 0 -6.0750974911448477e-06 0.034476056329831979 0 -0.00040969517880850372 0.033970088227367509 0 -1.8887332856876451e-05 0.033881931220225245 0 -7.2052692525241221e-05 0.034044029298106425 0 0.00011913788170194184 0.034065794161151304 0 0.00010422381428142437 0.033978622521222947 0 -1.8887332856876451e-05 0.033881931220225245 0 0.00011913788170194184 0.034065794161151304 0 -6.0750974911448477e-06 0.034476056329831979 0 5.627912730521364e-05 0.034498985710496984 0 6.0944224953411467e-05 0.034962616064235653 0 8.5693530263039106e-05 0.035009304554388672 0 5.3394520496847155e-06 0.034991103025065508 0 0.00012602329217052007 0.034938875583236467 0 6.0944224953411467e-05 0.034962616064235653 0 8.5693530263039106e-05 0.035009304554388672 0 -6.0750974911448477e-06 0.034476056329831979 0 -0.00011043702717251931 0.034673810935186657 0 7.6424286730429017e-05 0.034922485618461396 0 6.0944224953411467e-05 0.034962616064235653 0 2.3861852574871305e-05 0.034929731194578865 0 0.00012602329217052007 0.034938875583236467 0 7.6424286730429017e-05 0.034922485618461396 0 0.00013256719055131802 0.034913956172688984 0 0.00012602329217052007 0.034938875583236467 0 7.6424286730429017e-05 0.034922485618461396 0 6.0944224953411467e-05 0.034962616064235653 0 -0.0004535624618077733 0.034323767421013597 0 -0.00045384696000809655 0.034326715959726931 0 -0.00045563428046339991 0.034330363130327862 0 -0.00011043702717251931 0.034673810935186657 0 -0.00022193942161980612 0.034606507324737322 0 5.3430819432647833e-06 0.034992327874692475 0 6.5089464255041021e-06 0.034989530268678792 0 5.3394520496847155e-06 0.034991103025065508 0 -0.00011043702717251931 0.034673810935186657 0 7.7991956191416552e-05 0.035027315379756806 0 5.3430819432647833e-06 0.034992327874692475 0 6.5089464255041021e-06 0.034989530268678792 0 5.2477128484399538e-06 0.034994132399079246 0 -0.00095266759340011955 0.033361831354270309 0 -0.00097963185429705097 0.033370527036026491 0 -0.00098325914247649306 0.033392180583492068 0 -0.0004535624618077733 0.034323767421013597 0 -0.00045384696000809655 0.034326715959726931 0 -0.00045180353272431927 0.034322862485835236 0 -0.00011043702717251931 0.034673810935186657 0 -0.00040969517880850372 0.033970088227367509 0 -0.00045384696000809655 0.034326715959726931 0 -0.00045180353272431927 0.034322862485835236 0 -0.00045397062454454677 0.034328707256523761 0 -0.00040969517880850372 0.033970088227367509 0 -0.00075328667807078077 0.033763782268356149 0 -0.00045397062454454677 0.034328707256523761 0 -0.00045563428046339991 0.034330363130327862 0 -0.00045508855315607642 0.034332067977563746 0 -0.00045384696000809655 0.034326715959726931 0 -0.00045397062454454677 0.034328707256523761 0 -0.00045563428046339991 0.034330363130327862 0 5.3430819432647833e-06 0.034992327874692475 0 5.2477128484399538e-06 0.034994132399079246 0 2.8241806424700972e-06 0.034997050720479296 0 -0.00045563428046339991 0.034330363130327862 0 -0.00045508855315607642 0.034332067977563746 0 -0.00045515620950905314 0.034336024565251241 0 -0.00017706572686003122 0.035000779447472145 0 -0.00072992141569496035 0.034216623124724399 0 5.2477128484399538e-06 0.034994132399079246 0 2.624997926998206e-06 0.034998768236168591 0 2.8241806424700972e-06 0.034997050720479296 0 -0.00045508855315607642 0.034332067977563746 0 -0.00045515620950905314 0.034336024565251241 0 -0.00045620475688058304 0.034331915611010698 0 -0.00022193942161980612 0.034606507324737322 0 -0.00017706572686003122 0.035000779447472145 0 -0.00075328667807078077 0.033763782268356149 0 -0.00072992141569496035 0.034216623124724399 0 -0.00045397062454454677 0.034328707256523761 0 -0.00045508855315607642 0.034332067977563746 0 -0.00045620475688058304 0.034331915611010698 0 -2.0702557073369108e-10 0.035000009802785198 0 -1.3566910277089701e-08 0.035000462796281558 0 5.6715682928151482e-10 0.03499998244959119 0 -2.0382139127032014e-08 0.034999993405052554 0 2.6001444629502122e-05 0.035008520593153437 0 -9.0989055571224989e-07 0.035000790574576106 0 -1.3566910277089701e-08 0.035000462796281558 0 1.1647616713837992e-07 0.035000741976670288 0 2.624997926998206e-06 0.034998768236168591 0 1.5687880352930385e-06 0.03499874955751734 0 2.8241806424700972e-06 0.034997050720479296 0 -0.00017706572686003122 0.035000779447472145 0 2.6001444629502122e-05 0.035008520593153437 0 5.3430819432647833e-06 0.034992327874692475 0 2.8241806424700972e-06 0.034997050720479296 0 1.9720075423231706e-06 0.034997105024985334 0 1.5687880352930385e-06 0.03499874955751734 0 2.8241806424700972e-06 0.034997050720479296 0 1.9720075423231706e-06 0.034997105024985334 0 4.9701171529918371e-09 0.034999996356014487 0 1.9720075423231706e-06 0.034997105024985334 0 -6.432740829890416e-09 0.034999996041958761 0 4.9701171529918371e-09 0.034999996356014487 0 1.5687880352930385e-06 0.03499874955751734 0 1.9720075423231706e-06 0.034997105024985334 0 1.9720075423231706e-06 0.034997105024985334 0 -6.432740829890416e-09 0.034999996041958761 0 5.3394520496847155e-06 0.034991103025065508 0 5.3430819432647833e-06 0.034992327874692475 0 1.9720075423231706e-06 0.034997105024985334 0 5.3394520496847155e-06 0.034991103025065508 0 5.3394520496847155e-06 0.034991103025065508 0 2.3861852574871305e-05 0.034929731194578865 0 -5.06918226993163e-06 0.034966517563682513 0 6.0944224953411467e-05 0.034962616064235653 0 5.3394520496847155e-06 0.034991103025065508 0 2.3861852574871305e-05 0.034929731194578865 0 -6.432740829890416e-09 0.034999996041958761 0 5.3394520496847155e-06 0.034991103025065508 0 -5.06918226993163e-06 0.034966517563682513 0 -6.432740829890416e-09 0.034999996041958761 0 -5.06918226993163e-06 0.034966517563682513 0 -3.0524390460984329e-08 0.034999877608902649 0 -5.06918226993163e-06 0.034966517563682513 0 -3.0524390460984329e-08 0.034999877608902649 0 -1.4446636932978136e-06 0.034876449306922519 0 -3.0524390460984329e-08 0.034999877608902649 0 -1.4446636932978136e-06 0.034876449306922519 0 2.3926914178109299e-08 0.034999806291956405 0 -1.4446636932978136e-06 0.034876449306922519 0 2.3926914178109299e-08 0.034999806291956405 0 1.3958654504336973e-05 0.034806439654128059 0 2.3861852574871305e-05 0.034929731194578865 0 -1.4446636932978136e-06 0.034876449306922519 0 4.1048565215461502e-05 0.034857769351902476 0 2.3861852574871305e-05 0.034929731194578865 0 -5.06918226993163e-06 0.034966517563682513 0 -1.4446636932978136e-06 0.034876449306922519 0 5.627912730521364e-05 0.034498985710496984 0 8.5226969531343515e-05 0.034630812311424286 0 4.1048565215461502e-05 0.034857769351902476 0 0.00013256719055131802 0.034913956172688984 0 5.628162386299553e-05 0.03465486346978279 0 7.6424286730429017e-05 0.034922485618461396 0 2.3861852574871305e-05 0.034929731194578865 0 4.1048565215461502e-05 0.034857769351902476 0 7.6424286730429017e-05 0.034922485618461396 0 4.1048565215461502e-05 0.034857769351902476 0 0.00013256719055131802 0.034913956172688984 0 0.00011913788170194184 0.034065794161151304 0 -5.745567937609682e-05 0.034286792540469298 0 5.628162386299553e-05 0.03465486346978279 0 -0.00019381452800310383 0.034161911465821503 0 -7.2052692525241221e-05 0.034044029298106425 0 -5.745567937609682e-05 0.034286792540469298 0 -7.2052692525241221e-05 0.034044029298106425 0 0.00011913788170194184 0.034065794161151304 0 -5.745567937609682e-05 0.034286792540469298 0 -0.00019381452800310383 0.034161911465821503 0 -5.745567937609682e-05 0.034286792540469298 0 -0.00014850521611219411 0.034453407949180274 0 -5.745567937609682e-05 0.034286792540469298 0 -0.00014850521611219411 0.034453407949180274 0 5.628162386299553e-05 0.03465486346978279 0 -0.00014850521611219411 0.034453407949180274 0 5.628162386299553e-05 0.03465486346978279 0 -0.00014616132662129323 0.034611954663197442 0 -1.4446636932978136e-06 0.034876449306922519 0 4.1048565215461502e-05 0.034857769351902476 0 5.628162386299553e-05 0.03465486346978279 0 -1.4446636932978136e-06 0.034876449306922519 0 5.628162386299553e-05 0.03465486346978279 0 1.3958654504336973e-05 0.034806439654128059 0 5.628162386299553e-05 0.03465486346978279 0 -8.1898777571438302e-05 0.034752265403487852 0 1.3958654504336973e-05 0.034806439654128059 0 -0.00028817663841465617 0.034614684356447718 0 -8.1898777571438302e-05 0.034752265403487852 0 -0.00014616132662129323 0.034611954663197442 0 5.628162386299553e-05 0.03465486346978279 0 -8.1898777571438302e-05 0.034752265403487852 0 -0.00014616132662129323 0.034611954663197442 0 -0.00010551422883045611 0.034879671565705136 0 -0.0002309817250215363 0.034790784343244514 0 -8.1898777571438302e-05 0.034752265403487852 0 -0.00010551422883045611 0.034879671565705136 0 -8.1898777571438302e-05 0.034752265403487852 0 -1.8624830515344888e-06 0.034892776942232778 0 -8.1898777571438302e-05 0.034752265403487852 0 -1.8624830515344888e-06 0.034892776942232778 0 1.3958654504336973e-05 0.034806439654128059 0 1.1804423664159418e-08 0.034999934823991476 0 -1.8624830515344888e-06 0.034892776942232778 0 2.3926914178109299e-08 0.034999806291956405 0 -1.8624830515344888e-06 0.034892776942232778 0 2.3926914178109299e-08 0.034999806291956405 0 1.3958654504336973e-05 0.034806439654128059 0 0.0001822216976178142 0.034642493252413968 0 0.00050246249171112881 0.034364971058381877 0 -0.00020729330046485511 0.034014373639424854 0 0.0001822216976178142 0.034642493252413968 0 0.00050246249171112881 0.034364971058381877 0 2.5013144333936584e-07 0.03499946681619158 0 1.6132539669141569e-07 0.034999043065750468 0 0.00050246249171112881 0.034364971058381877 0 2.5013144333936584e-07 0.03499946681619158 0 0.00020336969975945924 0.033503461131054353 0 -0.00020729330046485511 0.034014373639424854 0 0.00010189464642306423 0.032313306476425406 0 0.00050246249171112881 0.034364971058381877 0 0.00020336969975945924 0.033503461131054353 0 -0.00020729330046485511 0.034014373639424854 0 -0.00020729330046485511 0.034014373639424854 0 -0.00085449346993994612 0.033250561153878179 0 0.00010189464642306423 0.032313306476425406 0 -0.00020729330046485511 0.034014373639424854 0 -0.00078511161004829173 0.034049198422839044 0 -0.00085449346993994612 0.033250561153878179 0 -0.00020729330046485511 0.034014373639424854 0 -0.00047283410253655107 0.034305342273226513 0 -0.00078511161004829173 0.034049198422839044 0 0.0001822216976178142 0.034642493252413968 0 -0.00020729330046485511 0.034014373639424854 0 -0.0001214283693916372 0.034588396557131286 0 -0.00020729330046485511 0.034014373639424854 0 -0.0001214283693916372 0.034588396557131286 0 -0.00047283410253655107 0.034305342273226513 0 -0.0001214283693916372 0.034588396557131286 0 -0.00047283410253655107 0.034305342273226513 0 -0.00044336070752623835 0.034561147162995645 0 -0.00047283410253655107 0.034305342273226513 0 -0.00091963317344430156 0.034265176638220679 0 -0.00078511161004829173 0.034049198422839044 0 -0.00047283410253655107 0.034305342273226513 0 -0.00044336070752623835 0.034561147162995645 0 -0.00091963317344430156 0.034265176638220679 0 -0.00044336070752623835 0.034561147162995645 0 -0.00070153835446014107 0.03494041663594312 0 -0.00091963317344430156 0.034265176638220679 0 -0.0001214283693916372 0.034588396557131286 0 -0.00044336070752623835 0.034561147162995645 0 -0.00023314553284631729 0.034863350095483525 0 -0.0001214283693916372 0.034588396557131286 0 -2.3878167612688351e-05 0.034904537695770933 0 6.3256665086679461e-05 0.034818867127232755 0 -0.0001214283693916372 0.034588396557131286 0 -2.3878167612688351e-05 0.034904537695770933 0 -0.00023314553284631729 0.034863350095483525 0 0.0001822216976178142 0.034642493252413968 0 -0.0001214283693916372 0.034588396557131286 0 6.3256665086679461e-05 0.034818867127232755 0 0.0001822216976178142 0.034642493252413968 0 6.3256665086679461e-05 0.034818867127232755 0 2.5013144333936584e-07 0.03499946681619158 0 6.3256665086679461e-05 0.034818867127232755 0 2.5013144333936584e-07 0.03499946681619158 0 4.9031266447648511e-08 0.03499979976813318 0 -2.3878167612688351e-05 0.034904537695770933 0 6.3256665086679461e-05 0.034818867127232755 0 4.9031266447648511e-08 0.03499979976813318 0 4.9031266447648511e-08 0.03499979976813318 0 -4.7537383037186317e-06 0.035017788781073492 0 -2.0221776167971245e-08 0.035000087298380674 0 -2.3878167612688351e-05 0.034904537695770933 0 4.9031266447648511e-08 0.03499979976813318 0 -4.7537383037186317e-06 0.035017788781073492 0 -2.3878167612688351e-05 0.034904537695770933 0 -4.7537383037186317e-06 0.035017788781073492 0 -0.00023314553284631729 0.034863350095483525 0 -4.7537383037186317e-06 0.035017788781073492 0 -0.00010314507320022427 0.035337575307614173 0 -0.00030103988705541444 0.035138190930192638 0 -4.7537383037186317e-06 0.035017788781073492 0 -2.0221776167971245e-08 0.035000087298380674 0 -2.5501685722433565e-06 0.035004384855213462 0 -2.5501685722433565e-06 0.035004384855213462 0 9.4881801273965197e-07 0.03500174983889872 0 5.6715682928151482e-10 0.03499998244959119 0 -2.0221776167971245e-08 0.035000087298380674 0 -2.5501685722433565e-06 0.035004384855213462 0 5.6715682928151482e-10 0.03499998244959119 0 -3.3651138867706775e-06 0.035002295788700184 0 -5.2966911189145757e-05 0.035231296797329378 0 -4.7537383037186317e-06 0.035017788781073492 0 -2.5501685722433565e-06 0.035004384855213462 0 9.4881801273965197e-07 0.03500174983889872 0 -0.00017706572686003122 0.035000779447472145 0 -5.2966911189145757e-05 0.035231296797329378 0 -9.0989055571224989e-07 0.035000790574576106 0 9.4881801273965197e-07 0.03500174983889872 0 1.1647616713837992e-07 0.035000741976670288 0 -1.3566910277089701e-08 0.035000462796281558 0 1.1647616713837992e-07 0.035000741976670288 0 5.6715682928151482e-10 0.03499998244959119 0 9.4881801273965197e-07 0.03500174983889872 0 1.1647616713837992e-07 0.035000741976670288 0 5.6715682928151482e-10 0.03499998244959119 0 -0.00019964527289325371 0.035625161732657992 0 -0.00053988385752023593 0.035523318759780327 0 -0.00034703119687032558 0.035373580357811102 0 -0.00019964527289325371 0.035625161732657992 0 -0.00010314507320022427 0.035337575307614173 0 -0.00034703119687032558 0.035373580357811102 0 -0.00010314507320022427 0.035337575307614173 0 -0.00034703119687032558 0.035373580357811102 0 -0.00030103988705541444 0.035138190930192638 0 -0.00053988385752023593 0.035523318759780327 0 -0.00034703119687032558 0.035373580357811102 0 -0.00060192211143533347 0.035234069953579583 0 -0.00034703119687032558 0.035373580357811102 0 -0.00060192211143533347 0.035234069953579583 0 -0.00030103988705541444 0.035138190930192638 0 -0.00072992141569496035 0.034216623124724399 0 -0.00089263640578786591 0.034478121798277146 0 -0.00060192211143533347 0.035234069953579583 0 -0.00030103988705541444 0.035138190930192638 0 -0.00070153835446014107 0.03494041663594312 0 -4.7537383037186317e-06 0.035017788781073492 0 -0.00030103988705541444 0.035138190930192638 0 -0.00023314553284631729 0.034863350095483525 0 -0.00044336070752623835 0.034561147162995645 0 -0.00023314553284631729 0.034863350095483525 0 -0.00070153835446014107 0.03494041663594312 0 -0.00030103988705541444 0.035138190930192638 0 -0.00023314553284631729 0.034863350095483525 0 -0.00070153835446014107 0.03494041663594312 0 -0.0011160944970610301 0.03383657824258169 0 -0.0010111131690305369 0.03363743755807163 0 -0.00093414373997962566 0.033822115837294199 0 -0.0011160944970610301 0.03383657824258169 0 -0.00093414373997962566 0.033822115837294199 0 -0.00094103056624027877 0.034032575932477688 0 -0.0011642252004500184 0.033608814165209604 0 -0.0011160944970610301 0.03383657824258169 0 -0.0010111131690305369 0.03363743755807163 0 -0.00089263640578786591 0.034478121798277146 0 -0.00090776522173438979 0.034362743092628642 0 -0.0011642252004500184 0.033608814165209604 0 -0.0010111131690305369 0.03363743755807163 0 -0.0010425876896721737 0.033485112035806508 0 -0.0010111131690305369 0.03363743755807163 0 -0.0010425876896721737 0.033485112035806508 0 -0.00092801432383891153 0.033481826352281613 0 -0.0011040378078504278 0.033370108950750384 0 -0.00088446349097614238 0.033506366085890159 0 -0.0011810642408073629 0.033456190211851602 0 -0.0011642252004500184 0.033608814165209604 0 -0.0010425876896721737 0.033485112035806508 0 -0.00096532529900516487 0.033397483973042007 0 -0.00098589817435136367 0.033423896314875211 0 -0.00096809952636190018 0.033435726193513877 0 -0.00072992141569496035 0.034216623124724399 0 -0.0011040378078504278 0.033370108950750384 0 -0.00089228140394529646 0.033362489714595628 0 -0.00088088597547030781 0.033411987850188604 0 -0.00092013829255264588 0.033406034738571698 0 -0.00088088597547030781 0.033411987850188604 0 -0.00092013829255264588 0.033406034738571698 0 -0.00092801432383891153 0.033481826352281613 0 -0.00096809952636190018 0.033435726193513877 0 -0.00092013829255264588 0.033406034738571698 0 -0.00092801432383891153 0.033481826352281613 0 -0.0010111131690305369 0.03363743755807163 0 -0.00092801432383891153 0.033481826352281613 0 -0.0009116964070107898 0.033633300979981878 0 -0.00092801432383891153 0.033481826352281613 0 -0.00087108288163570381 0.033498835159673133 0 -0.0009116964070107898 0.033633300979981878 0 -0.00088088597547030781 0.033411987850188604 0 -0.00092801432383891153 0.033481826352281613 0 -0.00087108288163570381 0.033498835159673133 0 -0.00087108288163570381 0.033498835159673133 0 -0.00086363422374682343 0.033590737220979029 0 -0.0009116964070107898 0.033633300979981878 0 -0.0010111131690305369 0.03363743755807163 0 -0.0009116964070107898 0.033633300979981878 0 -0.00093414373997962566 0.033822115837294199 0 -0.0009116964070107898 0.033633300979981878 0 -0.00093414373997962566 0.033822115837294199 0 -0.00090612951598109193 0.033737165871668341 0 -0.00086363422374682343 0.033590737220979029 0 -0.00090612951598109193 0.033737165871668341 0 -0.00084263819487399806 0.033644838439121361 0 -0.00086363422374682343 0.033590737220979029 0 -0.0009116964070107898 0.033633300979981878 0 -0.00090612951598109193 0.033737165871668341 0 -0.00090612951598109193 0.033737165871668341 0 -0.00091219295719188157 0.03379093838141968 0 -0.00097672349960045615 0.033919250521074612 0 -0.00090612951598109193 0.033737165871668341 0 -0.00091219295719188157 0.03379093838141968 0 -0.00084263819487399806 0.033644838439121361 0 -0.00093069144078682532 0.033813399712157473 0 -0.00097672349960045615 0.033919250521074612 0 -0.00099090599463454361 0.033854121066305344 0 -0.00091219295719188157 0.03379093838141968 0 -0.00093069144078682532 0.033813399712157473 0 -0.00097672349960045615 0.033919250521074612 0 -0.00093414373997962566 0.033822115837294199 0 -0.00090612951598109193 0.033737165871668341 0 -0.00097672349960045615 0.033919250521074612 0 -0.00093414373997962566 0.033822115837294199 0 -0.00097672349960045615 0.033919250521074612 0 -0.00094103056624027877 0.034032575932477688 0 -0.0011160944970610301 0.03383657824258169 0 -0.00094103056624027877 0.034032575932477688 0 -0.00091963317344430156 0.034265176638220679 0 -0.00094103056624027877 0.034032575932477688 0 -0.00091963317344430156 0.034265176638220679 0 -0.00095383223586631189 0.034073798624463233 0 -0.00090776522173438979 0.034362743092628642 0 -0.00092208996142566842 0.034265306206194862 0 -0.00091963317344430156 0.034265176638220679 0 -0.00095383223586631189 0.034073798624463233 0 -0.00078511161004829173 0.034049198422839044 0 -0.00097672349960045615 0.033919250521074612 0 -0.00094103056624027877 0.034032575932477688 0 -0.00095383223586631189 0.034073798624463233 0 -0.00097672349960045615 0.033919250521074612 0 -0.00095383223586631189 0.034073798624463233 0 -0.0010099840473870693 0.033942493205504222 0 -0.0010099840473870693 0.033942493205504222 0 -0.0010814350619727301 0.03365550955325685 0 -0.0010382806293155686 0.033879490827018577 0 -0.0010099840473870693 0.033942493205504222 0 -0.00078511161004829173 0.034049198422839044 0 -0.0010814350619727301 0.03365550955325685 0 -0.00095383223586631189 0.034073798624463233 0 -0.0010099840473870693 0.033942493205504222 0 -0.00078511161004829173 0.034049198422839044 0 -0.00078511161004829173 0.034049198422839044 0 -0.0010814350619727301 0.03365550955325685 0 -0.00085449346993994612 0.033250561153878179 0 -0.00095296771372206364 0.033035392212514732 0 -0.00037770380291314652 0.032455785560387786 0 -0.00058706420470140751 0.031849429550253237 0 -0.0010046260366663295 0.031788332152372166 0 -0.000684683263747971 0.031418526667857653 0 -0.00058706420470140751 0.031849429550253237 0 -0.0010046260366663295 0.031788332152372166 0 -0.0012668551134574729 0.032097743824226005 0 -0.0010814350619727301 0.03365550955325685 0 -0.0010532958641119724 0.033838969424353708 0 -0.0010539829679852241 0.033831345317544254 0 -0.00095296771372206364 0.033035392212514732 0 -0.00093922889736003346 0.030582432898236311 0 -0.0010814350619727301 0.03365550955325685 0 -0.0010539829679852241 0.033831345317544254 0 -0.0010382806293155686 0.033879490827018577 0 -0.0010046260366663295 0.031788332152372166 0 -0.0012668551134574729 0.032097743824226005 0 -0.0012196573526610337 0.031447225584272237 0 -0.00093922889736003346 0.030582432898236311 0 -0.0008544418989325747 0.030524936521263413 0 -0.00093922889736003346 0.030582432898236311 0 -0.00082693031445208582 0.030777105330559575 0 -0.00093922889736003346 0.030582432898236311 0 -0.00095123728045137909 0.026398912135774021 0 -0.00050713028261149763 0.029790053302838633 0 -0.00063996086614920126 0.029577115405894402 0 -0.00083840943055201291 0.02968186366501336 0 -0.00068891282074450249 0.024026688259138014 0 -0.00092599254323975997 0.024055927023688719 0 -0.00091084618820161595 0.023860775442446594 0 -0.00050713028261149763 0.029790053302838633 0 -0.00063996086614920126 0.029577115405894402 0 -0.00048212359718800108 0.029464147325499609 0 -0.00099273354913876222 0.033868228953932808 0 -0.00099090599463454361 0.033854121066305344 0 -0.00089503021559083859 0.033822566215867697 0 -0.00093922889736003346 0.030582432898236311 0 -0.0011537609755330966 0.034507313359933407 0 -0.00093922889736003346 0.030582432898236311 0 -0.0008028931117930369 0.028762089597234364 0 -0.00093069144078682532 0.033813399712157473 0 -0.00099090599463454361 0.033854121066305344 0 -0.00089503021559083859 0.033822566215867697 0 -0.00097672349960045615 0.033919250521074612 0 -0.00099090599463454361 0.033854121066305344 0 -0.0010382806293155686 0.033879490827018577 0 -0.00097672349960045615 0.033919250521074612 0 -0.0010099840473870693 0.033942493205504222 0 -0.0010382806293155686 0.033879490827018577 0 -0.0010539829679852241 0.033831345317544254 0 -0.00099090599463454361 0.033854121066305344 0 -0.0010382806293155686 0.033879490827018577 0 -0.0010544195303539667 0.033829042433122923 0 -0.0010539829679852241 0.033831345317544254 0 -0.00099090599463454361 0.033854121066305344 0 -0.0008028931117930369 0.028762089597234364 0 -0.00096701042976628715 0.028907280024186764 0 -0.0011146648783960566 0.023930040954509981 0 -0.0012539380929252964 0.023979375293020581 0 -0.0011271921961005346 0.024092502547707794 0 -0.0011146648783960566 0.023930040954509981 0 -0.00092599254323975997 0.024055927023688719 0 -0.0011271921961005346 0.024092502547707794 0 -0.0011146648783960566 0.023930040954509981 0 -0.00092599254323975997 0.024055927023688719 0 -0.00091084618820161595 0.023860775442446594 0 -0.0011146648783960566 0.023930040954509981 0 -0.00091084618820161595 0.023860775442446594 0 -0.0011538853260477711 0.023692053122894092 0 -0.00095123728045137909 0.026398912135774021 0 -0.0011984105497617119 0.02664335839952774 0 -0.0013320565397993448 0.023867909887510811 0 -0.0014201235953040675 0.023723756015594774 0 -0.0011538853260477711 0.023692053122894092 0 -0.0011146648783960566 0.023930040954509981 0 -0.0013320565397993448 0.023867909887510811 0 -0.0011538853260477711 0.023692053122894092 0 -0.0013320565397993448 0.023867909887510811 0 -0.0014201235953040675 0.023723756015594774 0 -0.0015793714367611531 0.023820426592787505 0 -0.0014201235953040675 0.023723756015594774 0 -0.0015793714367611531 0.023820426592787505 0 -0.0015535473166048827 0.02363460712666645 0 -0.0021987764943942321 0.021971350283539252 0 -0.0014729030874354708 0.024052032806263612 0 -0.0024593446240007383 0.023317749669831866 0 -0.0013320565397993448 0.023867909887510811 0 -0.0015793714367611531 0.023820426592787505 0 -0.0014729030874354708 0.024052032806263612 0 -0.0017844183617605335 0.023646012657882361 0 -0.0015741216391073338 0.023668611132769971 0 -0.0011146648783960566 0.023930040954509981 0 -0.0013320565397993448 0.023867909887510811 0 -0.0012539380929252964 0.023979375293020581 0 -0.0013320565397993448 0.023867909887510811 0 -0.0012539380929252964 0.023979375293020581 0 -0.0014729030874354708 0.024052032806263612 0 -0.0012539380929252964 0.023979375293020581 0 -0.0014729030874354708 0.024052032806263612 0 -0.0011271921961005346 0.024092502547707794 0 -0.00059838380507007914 0.033852169938369557 0 -0.001303177548038318 0.029335323713653213 0 -0.001303177548038318 0.029335323713653213 0 -0.00096701042976628715 0.028907280024186764 0 -0.0014729030874354708 0.024052032806263612 0 -0.0016342143703721964 0.024405964908276245 0 -0.0011271921961005346 0.024092502547707794 0 -0.00079543086862375167 0.033687733666081583 0 -0.00072721313131010872 0.033630512717406226 0 -0.00080481293813844813 0.033735287902720131 0 -0.0020520654549571419 0.023943333787141356 0 -0.0016342143703721964 0.024405964908276245 0 -0.0033514841349155736 0.024336653181060396 0 -0.0020520654549571419 0.023943333787141356 0 -0.0014729030874354708 0.024052032806263612 0 -0.0024593446240007383 0.023317749669831866 0 -0.0020520654549571419 0.023943333787141356 0 -0.0014729030874354708 0.024052032806263612 0 -0.0016342143703721964 0.024405964908276245 0 -0.00070388530239289763 0.033495802431372665 0 -0.00068713061479190184 0.033443801520214894 0 -0.00072647453435827763 0.033511627775520365 0 -0.00070388530239289763 0.033495802431372665 0 -0.00068713061479190184 0.033443801520214894 0 -0.00065384256468742743 0.03339285536773972 0 -0.00068713061479190184 0.033443801520214894 0 -0.00072647453435827763 0.033511627775520365 0 -0.00072426826326700284 0.033475240612506042 0 -0.00075588416293025128 0.033579144607308799 0 -0.00070388530239289763 0.033495802431372665 0 -0.00072647453435827763 0.033511627775520365 0 -0.00075588416293025128 0.033579144607308799 0 -0.00072647453435827763 0.033511627775520365 0 -0.00077122678376951551 0.03354395338202041 0 -0.00075588416293025128 0.033579144607308799 0 -0.00081644156772461558 0.033672640602770178 0 -0.00077122678376951551 0.03354395338202041 0 -0.00089503021559083859 0.033822566215867697 0 -0.00080481293813844813 0.033735287902720131 0 -0.00087383659626920633 0.033738214919467172 0 -0.00079543086862375167 0.033687733666081583 0 -0.00080481293813844813 0.033735287902720131 0 -0.00087383659626920633 0.033738214919467172 0 -0.00059838380507007914 0.033852169938369557 0 -0.00088899433063095246 0.033694071802925531 0 -0.00091219295719188157 0.03379093838141968 0 -0.00093069144078682532 0.033813399712157473 0 -0.00087383659626920633 0.033738214919467172 0 -0.00093069144078682532 0.033813399712157473 0 -0.00089503021559083859 0.033822566215867697 0 -0.00087383659626920633 0.033738214919467172 0 -0.00089414988840484937 0.033768496015729246 0 -0.00088899433063095246 0.033694071802925531 0 -0.00081644156772461558 0.033672640602770178 0 -0.00084263819487399806 0.033644838439121361 0 -0.00077122678376951551 0.03354395338202041 0 -0.00091219295719188157 0.03379093838141968 0 -0.00081644156772461558 0.033672640602770178 0 -0.00084263819487399806 0.033644838439121361 0 -0.00086363422374682343 0.033590737220979029 0 -0.00084263819487399806 0.033644838439121361 0 -0.00081766019254146194 0.033547610389457749 0 -0.00077122678376951551 0.03354395338202041 0 -0.00078606497379050044 0.033472345515397947 0 -0.00081766019254146194 0.033547610389457749 0 -0.00084263819487399806 0.033644838439121361 0 -0.00077122678376951551 0.03354395338202041 0 -0.00081766019254146194 0.033547610389457749 0 -0.00078606497379050044 0.033472345515397947 0 -0.00081766019254146194 0.033547610389457749 0 -0.00083107271224484316 0.03348690704558957 0 -0.00078606497379050044 0.033472345515397947 0 -0.00083107271224484316 0.03348690704558957 0 -0.00081019316666404429 0.033434279726989549 0 -0.00087108288163570381 0.033498835159673133 0 -0.00086363422374682343 0.033590737220979029 0 -0.00083107271224484316 0.03348690704558957 0 -0.00086363422374682343 0.033590737220979029 0 -0.00081766019254146194 0.033547610389457749 0 -0.00083107271224484316 0.03348690704558957 0 -0.00088088597547030781 0.033411987850188604 0 -0.00087108288163570381 0.033498835159673133 0 -0.00084155821998439849 0.033408043304022507 0 -0.00087108288163570381 0.033498835159673133 0 -0.00083107271224484316 0.03348690704558957 0 -0.00084155821998439849 0.033408043304022507 0 -0.00084155821998439849 0.033408043304022507 0 -0.00081019316666404429 0.033434279726989549 0 -0.00078372027914645943 0.033367676196004468 0 -0.00083107271224484316 0.03348690704558957 0 -0.00084155821998439849 0.033408043304022507 0 -0.00081019316666404429 0.033434279726989549 0 -0.00078606497379050044 0.033472345515397947 0 -0.00081019316666404429 0.033434279726989549 0 -0.00078372027914645943 0.033367676196004468 0 -0.00084155821998439849 0.033408043304022507 0 -0.0008628280389692812 0.0333458811039977 0 -0.00078372027914645943 0.033367676196004468 0 -0.00085281137537137849 0.033283019210589883 0 -0.0008628280389692812 0.0333458811039977 0 -0.00078372027914645943 0.033367676196004468 0 -0.00089228140394529646 0.033362489714595628 0 -0.00088088597547030781 0.033411987850188604 0 -0.0008628280389692812 0.0333458811039977 0 -0.00088088597547030781 0.033411987850188604 0 -0.00084155821998439849 0.033408043304022507 0 -0.0008628280389692812 0.0333458811039977 0 -0.0007158847084469597 0.033311126467463696 0 -0.00067652523163033522 0.033249274923785516 0 -0.00067370250656848733 0.0333068549413413 0 -0.00044419631846218555 0.033072227660626896 0 -0.00077774990558921982 0.033227131290088932 0 -0.0007158847084469597 0.033311126467463696 0 -0.00067652523163033522 0.033249274923785516 0 -0.0007390667983583803 0.033262575908057444 0 -0.00085281137537137849 0.033283019210589883 0 -0.0007390667983583803 0.033262575908057444 0 -0.00078372027914645943 0.033367676196004468 0 -0.0007158847084469597 0.033311126467463696 0 -0.0007390667983583803 0.033262575908057444 0 -0.00078372027914645943 0.033367676196004468 0 -0.00078372027914645943 0.033367676196004468 0 -0.00071614858814169008 0.03336500216202657 0 -0.00073594711470701627 0.033436195905096749 0 -0.0007158847084469597 0.033311126467463696 0 -0.00078372027914645943 0.033367676196004468 0 -0.00071614858814169008 0.03336500216202657 0 -0.00071614858814169008 0.03336500216202657 0 -0.00068746538332679051 0.03339101105106132 0 -0.00067370250656848733 0.0333068549413413 0 -0.0007158847084469597 0.033311126467463696 0 -0.00071614858814169008 0.03336500216202657 0 -0.00067370250656848733 0.0333068549413413 0 -0.00071614858814169008 0.03336500216202657 0 -0.00068746538332679051 0.03339101105106132 0 -0.00073594711470701627 0.033436195905096749 0 -0.00068746538332679051 0.03339101105106132 0 -0.00073594711470701627 0.033436195905096749 0 -0.00072426826326700284 0.033475240612506042 0 -0.00078606497379050044 0.033472345515397947 0 -0.00078372027914645943 0.033367676196004468 0 -0.00073594711470701627 0.033436195905096749 0 -0.00077122678376951551 0.03354395338202041 0 -0.00078606497379050044 0.033472345515397947 0 -0.00073594711470701627 0.033436195905096749 0 -0.00077122678376951551 0.03354395338202041 0 -0.00073594711470701627 0.033436195905096749 0 -0.00072426826326700284 0.033475240612506042 0 -0.00072647453435827763 0.033511627775520365 0 -0.00077122678376951551 0.03354395338202041 0 -0.00072426826326700284 0.033475240612506042 0 -0.00068713061479190184 0.033443801520214894 0 -0.00068746538332679051 0.03339101105106132 0 -0.00072426826326700284 0.033475240612506042 0 -0.0012935864192312185 0.027922252258217355 0 -0.0016855498944075399 0.022372784206571274 0 -0.00068713061479190184 0.033443801520214894 0 -0.00068746538332679051 0.03339101105106132 0 -0.00064746524287606752 0.03336930975044148 0 -0.0019587991436699204 0.020705289977231096 0 -0.002726555930748067 0.020687694003133042 0 -0.002609141774323925 0.020124918798442297 0 -0.0019587991436699204 0.020705289977231096 0 -0.0024336353209014811 0.021128804004235009 0 -0.002726555930748067 0.020687694003133042 0 -0.0019587991436699204 0.020705289977231096 0 -0.0024336353209014811 0.021128804004235009 0 -0.0019911842121013512 0.021511404301626881 0 -0.00068746538332679051 0.03339101105106132 0 -0.00064746524287606752 0.03336930975044148 0 -0.00063369162481429397 0.033306935538868335 0 -0.0012935864192312185 0.027922252258217355 0 -0.0013300396060933375 0.027156108037036539 0 -0.00068746538332679051 0.03339101105106132 0 -0.00067370250656848733 0.0333068549413413 0 -0.00063369162481429397 0.033306935538868335 0 -0.00067370250656848733 0.0333068549413413 0 -0.00063369162481429397 0.033306935538868335 0 -0.00062506665488897884 0.033222578733852225 0 -0.0013300396060933375 0.027156108037036539 0 -0.0010123160318306779 0.028191200500496255 0 -0.0019911842121013512 0.021511404301626881 0 -0.0021788507915216078 0.022072474322088406 0 -0.0020194703591338609 0.022342492803864855 0 -0.0025310672454549321 0.021618227678004989 0 -0.0024510697040801967 0.021977554926329256 0 -0.0026672149948871442 0.02218780756795441 0 -0.0024336353209014811 0.021128804004235009 0 -0.0019911842121013512 0.021511404301626881 0 -0.0025310672454549321 0.021618227678004989 0 -0.0025310672454549321 0.021618227678004989 0 -0.0021788507915216078 0.022072474322088406 0 -0.0024510697040801967 0.021977554926329256 0 -0.0019911842121013512 0.021511404301626881 0 -0.0025310672454549321 0.021618227678004989 0 -0.0021788507915216078 0.022072474322088406 0 -0.0021788507915216078 0.022072474322088406 0 -0.0024510697040801967 0.021977554926329256 0 -0.0022055735677021784 0.022278975882547195 0 -0.0023632832813777556 0.022397237563901846 0 -0.0025189259993836717 0.023204408191140183 0 -0.0021788507915216078 0.022072474322088406 0 -0.0022080713022571345 0.022317020469405448 0 -0.0020194703591338609 0.022342492803864855 0 -0.0025189259993836717 0.023204408191140183 0 -0.0019182569501039457 0.014582215666904942 0 -0.0024510697040801967 0.021977554926329256 0 -0.0022055735677021784 0.022278975882547195 0 -0.0026672149948871442 0.02218780756795441 0 -0.0025189259993836717 0.023204408191140183 0 -0.0010123160318306779 0.028191200500496255 0 -0.00055201097055091722 0.033103923537510814 0 -0.00060602304411857947 0.033220137839049743 0 -0.00046226630793624548 0.033204208990051692 0 -0.00044419631846218555 0.033072227660626896 0 -0.0010123160318306779 0.028191200500496255 0 -0.00067652523163033522 0.033249274923785516 0 -0.00067370250656848733 0.0333068549413413 0 -0.00062506665488897884 0.033222578733852225 0 -0.0020792999095345529 0.010326454832276448 0 -0.0021703891213758347 0.010074839045209937 0 -0.0018825628695895045 0.010159448152582105 0 -0.0021639950916496602 0.0096526431788840489 0 -0.0019182569501039457 0.014582215666904942 0 -0.0025310672454549321 0.021618227678004989 0 -0.0026672149948871442 0.02218780756795441 0 -0.0029886195212786197 0.021280883831410861 0 -0.0020584438500933127 0.010087605345562767 0 -0.0017056711665338626 0.010197891558102398 0 -0.0018579533870623972 0.0097976810446794554 0 -0.0019182569501039457 0.014582215666904942 0 -0.002327318628444988 0.015726871599273856 0 -0.0020584438500933127 0.010087605345562767 0 -0.0020862243348120603 0.009689283253743658 0 -0.0018579533870623972 0.0097976810446794554 0 -0.0020862243348120603 0.009689283253743658 0 -0.0018579533870623972 0.0097976810446794554 0 -0.0020397776047020684 0.0095551078809728504 0 -0.0024336353209014811 0.021128804004235009 0 -0.0029886195212786197 0.021280883831410861 0 -0.002726555930748067 0.020687694003133042 0 -0.002327318628444988 0.015726871599273856 0 -0.003519088530108619 0.015749232812399448 0 -0.0024336353209014811 0.021128804004235009 0 -0.0025310672454549321 0.021618227678004989 0 -0.0029886195212786197 0.021280883831410861 0 -0.003519088530108619 0.015749232812399448 0 -0.0020099538761157738 0.014457464793061273 0 -0.0029886195212786197 0.021280883831410861 0 -0.002726555930748067 0.020687694003133042 0 -0.0033038090294483856 0.020361276832068835 0 -0.002726555930748067 0.020687694003133042 0 -0.0033038090294483856 0.020361276832068835 0 -0.002609141774323925 0.020124918798442297 0 -0.0020862243348120603 0.009689283253743658 0 -0.0020987861163684197 0.0095537217380255689 0 -0.0020397776047020684 0.0095551078809728504 0 -0.0020987861163684197 0.0095537217380255689 0 -0.0020334029090822809 0.0095473746567125133 0 -0.0021998464248586449 0.0093681123822172471 0 -0.0020987861163684197 0.0095537217380255689 0 -0.0020334029090822809 0.0095473746567125133 0 -0.0020397776047020684 0.0095551078809728504 0 -0.0020334029090822809 0.0095473746567125133 0 -0.0020305765870677881 0.0096612790959136122 0 -0.0019909635435154298 0.0097908334544496226 0 -0.0020334029090822809 0.0095473746567125133 0 -0.0020397776047020684 0.0095551078809728504 0 -0.0020305765870677881 0.0096612790959136122 0 -0.0020397776047020684 0.0095551078809728504 0 -0.0020305765870677881 0.0096612790959136122 0 -0.0020438542074691347 0.0097235746629373166 0 -0.00204379361705496 0.0095150728617667442 0 -0.0020468124963797453 0.0094624605357703055 0 -0.0020334029090822809 0.0095473746567125133 0 -0.0019909635435154298 0.0097908334544496226 0 -0.0018141844114849478 0.0098991667188176573 0 -0.0020397776047020684 0.0095551078809728504 0 -0.0021168326539710543 0.0098114854015869009 0 -0.0020438542074691347 0.0097235746629373166 0 -0.0019909635435154298 0.0097908334544496226 0 -0.0021168326539710543 0.0098114854015869009 0 -0.0020438542074691347 0.0097235746629373166 0 -0.0019909635435154298 0.0097908334544496226 0 -0.0021168326539710543 0.0098114854015869009 0 -0.0021087796774355528 0.0099908120170457068 0 -0.0020305765870677881 0.0096612790959136122 0 -0.0019909635435154298 0.0097908334544496226 0 -0.0020438542074691347 0.0097235746629373166 0 -0.0019909635435154298 0.0097908334544496226 0 -0.0021087796774355528 0.0099908120170457068 0 -0.0019893457974619177 0.009962828759980823 0 -0.0021087796774355528 0.0099908120170457068 0 -0.0019893457974619177 0.009962828759980823 0 -0.002101971798351488 0.010090069053672867 0 -0.0019893457974619177 0.009962828759980823 0 -0.002101971798351488 0.010090069053672867 0 -0.0019623409384236638 0.01009183370966534 0 -0.0021087796774355528 0.0099908120170457068 0 -0.002101971798351488 0.010090069053672867 0 -0.0021962889912088769 0.010145560902994734 0 -0.0021962889912088769 0.010145560902994734 0 -0.0021805001415725299 0.010234983725803929 0 -0.0022287222381475089 0.010220656972012711 0 -0.002101971798351488 0.010090069053672867 0 -0.0021962889912088769 0.010145560902994734 0 -0.0021805001415725299 0.010234983725803929 0 -0.002101971798351488 0.010090069053672867 0 -0.0021805001415725299 0.010234983725803929 0 -0.0019623409384236638 0.01009183370966534 0 -0.0022625281232016986 0.010152337171062309 0 -0.0023100749526262657 0.010173711216645552 0 -0.0022673660339097247 0.010208735635769692 0 -0.0021962889912088769 0.010145560902994734 0 -0.0022625281232016986 0.010152337171062309 0 -0.0022287222381475089 0.010220656972012711 0 -0.0021087796774355528 0.0099908120170457068 0 -0.0021962889912088769 0.010145560902994734 0 -0.002234154218671762 0.010024597722626637 0 -0.0021962889912088769 0.010145560902994734 0 -0.0022625281232016986 0.010152337171062309 0 -0.002234154218671762 0.010024597722626637 0 -0.0022625281232016986 0.010152337171062309 0 -0.0023052247124964943 0.010090191710703808 0 -0.002234154218671762 0.010024597722626637 0 -0.0022625281232016986 0.010152337171062309 0 -0.0023052247124964943 0.010090191710703808 0 -0.0023100749526262657 0.010173711216645552 0 -0.0020397776047020684 0.0095551078809728504 0 -0.0021168326539710543 0.0098114854015869009 0 -0.0023490509459321127 0.0099428048397944124 0 -0.0021168326539710543 0.0098114854015869009 0 -0.002234154218671762 0.010024597722626637 0 -0.0023490509459321127 0.0099428048397944124 0 -0.0023052247124964943 0.010090191710703808 0 -0.002234154218671762 0.010024597722626637 0 -0.0023490509459321127 0.0099428048397944124 0 -0.0021168326539710543 0.0098114854015869009 0 -0.0021087796774355528 0.0099908120170457068 0 -0.002234154218671762 0.010024597722626637 0 -0.0023490509459321127 0.0099428048397944124 0 -0.0023522586551782648 0.010124412686779712 0 -0.002404699261371668 0.010155294583278379 0 -0.0020099538761157738 0.014457464793061273 0 -0.0016855498944075399 0.022372784206571274 0 -0.0019587991436699204 0.020705289977231096 0 -0.002609141774323925 0.020124918798442297 0 -0.0019270945230844966 0.019893472881487264 0 -0.0023052247124964943 0.010090191710703808 0 -0.0023490509459321127 0.0099428048397944124 0 -0.0023522586551782648 0.010124412686779712 0 -0.001303177548038318 0.029335323713653213 0 -0.0016855498944075399 0.022372784206571274 0 -0.00068713061479190184 0.033443801520214894 0 -0.00064746524287606752 0.03336930975044148 0 -0.00065384256468742743 0.03339285536773972 0 -0.0018411989500029681 0.023744513344209843 0 -0.0014682651906034923 0.023536835676243147 0 -0.0014769589075974733 0.023724758204891446 0 -0.0020520654549571419 0.023943333787141356 0 -0.0033514841349155736 0.024336653181060396 0 -0.0024593446240007383 0.023317749669831866 0 -0.001303177548038318 0.029335323713653213 0 -0.0023873433063371038 0.017922840285576148 0 -0.002404699261371668 0.010155294583278379 0 -0.0023756755759067561 0.010222743917456655 0 -0.002354212716158093 0.010213103905280631 0 -0.0016855498944075399 0.022372784206571274 0 -0.0023873433063371038 0.017922840285576148 0 -0.0023873433063371038 0.017922840285576148 0 -0.0025315211892972846 0.01734428563510388 0 -0.0023052247124964943 0.010090191710703808 0 -0.0023522586551782648 0.010124412686779712 0 -0.0023100749526262657 0.010173711216645552 0 -0.0023522586551782648 0.010124412686779712 0 -0.002354212716158093 0.010213103905280631 0 -0.0023100749526262657 0.010173711216645552 0 -0.0023522586551782648 0.010124412686779712 0 -0.002404699261371668 0.010155294583278379 0 -0.002354212716158093 0.010213103905280631 0 -0.0023579222455461803 0.010224354697208265 0 -0.002354212716158093 0.010213103905280631 0 -0.0022954709156951317 0.010220987829930823 0 -0.002354212716158093 0.010213103905280631 0 -0.0023100749526262657 0.010173711216645552 0 -0.0022954709156951317 0.010220987829930823 0 -0.0023100749526262657 0.010173711216645552 0 -0.0022954709156951317 0.010220987829930823 0 -0.0022673660339097247 0.010208735635769692 0 -0.0022954709156951317 0.010220987829930823 0 -0.0022548104451831537 0.010222090883531295 0 -0.0022673660339097247 0.010208735635769692 0 -0.0022954709156951317 0.010220987829930823 0 -0.0022548104451831537 0.010222090883531295 0 -0.0022167743804552939 0.010250735849728392 0 -0.0021987764943942321 0.021971350283539252 0 -0.0024593446240007383 0.023317749669831866 0 -0.003373854916812604 0.022226013102793592 0 -0.0033514841349155736 0.024336653181060396 0 -0.0024593446240007383 0.023317749669831866 0 -0.003373854916812604 0.022226013102793592 0 -0.0023873433063371038 0.017922840285576148 0 -0.0028955800347386386 0.01546799497045703 0 -0.0023579222455461803 0.010224354697208265 0 -0.0022954709156951317 0.010220987829930823 0 -0.0022167743804552939 0.010250735849728392 0 -0.0017844183617605335 0.023646012657882361 0 -0.0021406894926092679 0.017920442897325427 0 -0.0021987764943942321 0.021971350283539252 0 -0.003373854916812604 0.022226013102793592 0 -0.0032936679332610914 0.019807556707574069 0 -0.0028955800347386386 0.01546799497045703 0 -0.0021406894926092679 0.017920442897325427 0 -0.0022167743804552939 0.010250735849728392 0 -0.0022344164686945445 0.010177339893522307 0 -0.0021933150742016933 0.010122478644270403 0 -0.0022548104451831537 0.010222090883531295 0 -0.0022167743804552939 0.010250735849728392 0 -0.0022344164686945445 0.010177339893522307 0 -0.0022344164686945445 0.010177339893522307 0 -0.0022750238825946876 0.010120355833484095 0 -0.0021933150742016933 0.010122478644270403 0 -0.0022344164686945445 0.010177339893522307 0 -0.0022620112760929033 0.010180923574321436 0 -0.002247711306430865 0.010210964210989193 0 -0.0022548104451831537 0.010222090883531295 0 -0.0022344164686945445 0.010177339893522307 0 -0.002247711306430865 0.010210964210989193 0 -0.0022344164686945445 0.010177339893522307 0 -0.0022620112760929033 0.010180923574321436 0 -0.0022750238825946876 0.010120355833484095 0 -0.0022962134714278079 0.010178600253314147 0 -0.0023946166873377132 0.010047312922302239 0 -0.0024150075410047612 0.010148110721511124 0 -0.0022750238825946876 0.010120355833484095 0 -0.0022962134714278079 0.010178600253314147 0 -0.0023946166873377132 0.010047312922302239 0 -0.0022620112760929033 0.010180923574321436 0 -0.0022750238825946876 0.010120355833484095 0 -0.0022962134714278079 0.010178600253314147 0 -0.0022962134714278079 0.010178600253314147 0 -0.0021805001415725299 0.010234983725803929 0 -0.0023769521639493418 0.010233426912183683 0 -0.0022620112760929033 0.010180923574321436 0 -0.0022962134714278079 0.010178600253314147 0 -0.0022287222381475089 0.010220656972012711 0 -0.0022962134714278079 0.010178600253314147 0 -0.0021805001415725299 0.010234983725803929 0 -0.0022287222381475089 0.010220656972012711 0 -0.0021932961848470083 0.010235344060829595 0 -0.0020747166940553044 0.010252105517579961 0 -0.0022625281232016986 0.010152337171062309 0 -0.0022287222381475089 0.010220656972012711 0 -0.0022673660339097247 0.010208735635769692 0 -0.0022287222381475089 0.010220656972012711 0 -0.0022673660339097247 0.010208735635769692 0 -0.002247711306430865 0.010210964210989193 0 -0.0022548104451831537 0.010222090883531295 0 -0.0022673660339097247 0.010208735635769692 0 -0.002247711306430865 0.010210964210989193 0 -0.0022620112760929033 0.010180923574321436 0 -0.0022287222381475089 0.010220656972012711 0 -0.002247711306430865 0.010210964210989193 0 -0.0022902205009272024 0.0099590176838600455 0 -0.0022509116113293118 0.0098065976414900644 0 -0.0022270357226135042 0.010009548838456419 0 -0.0022509116113293118 0.0098065976414900644 0 -0.0022270357226135042 0.010009548838456419 0 -0.0021979530597798854 0.0099200763853693735 0 -0.0023988004879577059 0.0098988058138013355 0 -0.0023946166873377132 0.010047312922302239 0 -0.0025859139493332028 0.0098792693999098704 0 -0.0022902205009272024 0.0099590176838600455 0 -0.0022509116113293118 0.0098065976414900644 0 -0.002336223461603669 0.0096474770883874413 0 -0.0023988004879577059 0.0098988058138013355 0 -0.002336223461603669 0.0096474770883874413 0 -0.0025859139493332028 0.0098792693999098704 0 -0.0022902205009272024 0.0099590176838600455 0 -0.0023988004879577059 0.0098988058138013355 0 -0.002336223461603669 0.0096474770883874413 0 -0.0022750238825946876 0.010120355833484095 0 -0.0022902205009272024 0.0099590176838600455 0 -0.0023946166873377132 0.010047312922302239 0 -0.0022902205009272024 0.0099590176838600455 0 -0.0023988004879577059 0.0098988058138013355 0 -0.0023946166873377132 0.010047312922302239 0 -0.0022750238825946876 0.010120355833484095 0 -0.0022270357226135042 0.010009548838456419 0 -0.0021933150742016933 0.010122478644270403 0 -0.0022750238825946876 0.010120355833484095 0 -0.0022902205009272024 0.0099590176838600455 0 -0.0022270357226135042 0.010009548838456419 0 -0.0021933150742016933 0.010122478644270403 0 -0.0021511378178666642 0.010079910688405335 0 -0.0021765860321796456 0.010032500002954763 0 -0.0021933150742016933 0.010122478644270403 0 -0.0021511378178666642 0.010079910688405335 0 -0.0021147236856173561 0.010123033062749151 0 -0.0022270357226135042 0.010009548838456419 0 -0.0021933150742016933 0.010122478644270403 0 -0.0021765860321796456 0.010032500002954763 0 -0.0022167743804552939 0.010250735849728392 0 -0.0021933150742016933 0.010122478644270403 0 -0.0021147236856173561 0.010123033062749151 0 -0.0017862538268633877 0.023463512989624045 0 -0.0017829865943615893 0.023349930674972409 0 -0.0014394773874798644 0.02352510635301534 0 -0.0015793714367611531 0.023820426592787505 0 -0.0017862538268633877 0.023463512989624045 0 -0.0015535473166048827 0.02363460712666645 0 -0.0021511378178666642 0.010079910688405335 0 -0.0021147236856173561 0.010123033062749151 0 -0.0021221467136026363 0.010043391089868155 0 -0.0021406894926092679 0.017920442897325427 0 -0.0016073580919051338 0.022275685883413325 0 -0.0023565477491004645 0.029279754001985119 0 -0.0021917785883038472 0.029027405322457425 0 -0.0023872735418248156 0.028828879466089169 0 -0.0016073580919051338 0.022275685883413325 0 -0.0028071978869427987 0.024575090190290229 0 -0.0028758337441597611 0.019656251222620557 0 -0.0029262718698679492 0.019631458582732183 0 -0.002872226221099429 0.019486710874918201 0 -0.0023565477491004645 0.029279754001985119 0 -0.0021917785883038472 0.029027405322457425 0 -0.0019525520139155349 0.029132783002120383 0 -0.0013587709277014649 0.018809080925905573 0 -0.0013401684325804616 0.018212194326610483 0 -0.0017761455273624508 0.018048016579569087 0 -0.0021406894926092679 0.017920442897325427 0 -0.0026383082976576084 0.015309086564260211 0 -0.0016073580919051338 0.022275685883413325 0 -0.0026383082976576084 0.015309086564260211 0 -0.0026383082976576084 0.015309086564260211 0 -0.0027770794952109365 0.014171807500673032 0 -0.0020749042241010409 0.010016221515524729 0 -0.0021979530597798854 0.0099200763853693735 0 -0.0021792351264583202 0.0098321243701051976 0 -0.0022270357226135042 0.010009548838456419 0 -0.0021765860321796456 0.010032500002954763 0 -0.0021979530597798854 0.0099200763853693735 0 -0.0021511378178666642 0.010079910688405335 0 -0.0021221467136026363 0.010043391089868155 0 -0.0021765860321796456 0.010032500002954763 0 -0.0021221467136026363 0.010043391089868155 0 -0.0021765860321796456 0.010032500002954763 0 -0.0021979530597798854 0.0099200763853693735 0 -0.0026383082976576084 0.015309086564260211 0 -0.0026812087636475779 0.010090923718566147 0 -0.0029262718698679492 0.019631458582732183 0 -0.0030350313259835376 0.019442031038192302 0 -0.002872226221099429 0.019486710874918201 0 -0.0021979530597798854 0.0099200763853693735 0 -0.0021792351264583202 0.0098321243701051976 0 -0.0022283917523075489 0.0098086474431931577 0 -0.0030350313259835376 0.019442031038192302 0 -0.002872226221099429 0.019486710874918201 0 -0.0028651430096713238 0.01939393496091885 0 -0.0021917785883038472 0.029027405322457425 0 -0.0023872735418248156 0.028828879466089169 0 -0.0020718586991987269 0.028867127460963 0 -0.0028071978869427987 0.024575090190290229 0 -0.0033436210456413941 0.025828812559788007 0 -0.0023872735418248156 0.028828879466089169 0 -0.0022642997491685605 0.028615295216584603 0 -0.0020718586991987269 0.028867127460963 0 -0.0023872735418248156 0.028828879466089169 0 -0.0022642997491685605 0.028615295216584603 0 -0.0024578932435351695 0.028564445940244897 0 -0.0022642997491685605 0.028615295216584603 0 -0.0024578932435351695 0.028564445940244897 0 -0.0025286114698245769 0.028204754601363919 0 -0.0022642997491685605 0.028615295216584603 0 -0.0022728659156200509 0.028403605545962315 0 -0.0025286114698245769 0.028204754601363919 0 -0.0022728659156200509 0.028403605545962315 0 -0.0022427582142734363 0.028234266117441668 0 -0.0021056006219576551 0.028433904571525542 0 -0.0022642997491685605 0.028615295216584603 0 -0.0022728659156200509 0.028403605545962315 0 -0.0021056006219576551 0.028433904571525542 0 -0.0033436210456413941 0.025828812559788007 0 -0.0029324806708631635 0.02845562071195679 0 -0.0025404088279734672 0.028720321881608907 0 -0.0025286114698245769 0.028204754601363919 0 -0.003220960756436993 0.027806974281529513 0 -0.0024188300825757005 0.02824828971977188 0 -0.0022427582142734363 0.028234266117441668 0 -0.0024659580969609105 0.027968044041264593 0 -0.0022728659156200509 0.028403605545962315 0 -0.0025286114698245769 0.028204754601363919 0 -0.0024188300825757005 0.02824828971977188 0 -0.0022728659156200509 0.028403605545962315 0 -0.0024188300825757005 0.02824828971977188 0 -0.0022427582142734363 0.028234266117441668 0 -0.0030350313259835376 0.019442031038192302 0 -0.0028651430096713238 0.01939393496091885 0 -0.0031405604267847795 0.019223987696952334 0 -0.0025404088279734672 0.028720321881608907 0 -0.003220960756436993 0.027806974281529513 0 -0.0041166466716390619 0.027965221426173775 0 -0.0027770794952109365 0.014171807500673032 0 -0.0022767615340386071 0.0167942052002511 0 -0.0033436210456413941 0.025828812559788007 0 -0.0022767615340386071 0.0167942052002511 0 -0.002238397251936349 0.0098316069434002291 0 -0.0022283917523075489 0.0098086474431931577 0 -0.0022498185840241231 0.0097850402604409952 0 -0.0022767615340386071 0.0167942052002511 0 -0.001648118300293219 0.011521305632715542 0 -0.0022767615340386071 0.0167942052002511 0 -0.0016792997470093636 0.0088237199612984114 0 -0.0025814769608638235 0.0093621473011965967 0 -0.0023380721907276351 0.0091737952625080121 0 -0.0023481775286200756 0.0091986833423709207 0 -0.0021792351264583202 0.0098321243701051976 0 -0.002238397251936349 0.0098316069434002291 0 -0.0022283917523075489 0.0098086474431931577 0 -0.0022509116113293118 0.0098065976414900644 0 -0.0022283917523075489 0.0098086474431931577 0 -0.0022498185840241231 0.0097850402604409952 0 -0.0022509116113293118 0.0098065976414900644 0 -0.0021979530597798854 0.0099200763853693735 0 -0.0022283917523075489 0.0098086474431931577 0 -0.002336223461603669 0.0096474770883874413 0 -0.0025556785852014615 0.0091440962176460791 0 -0.0025859139493332028 0.0098792693999098704 0 -0.0016792997470093636 0.0088237199612984114 0 -0.0025321061542242685 0.0098791970712971341 0 -0.0022509116113293118 0.0098065976414900644 0 -0.0022498185840241231 0.0097850402604409952 0 -0.002336223461603669 0.0096474770883874413 0 -0.0023380721907276351 0.0091737952625080121 0 -0.002336223461603669 0.0096474770883874413 0 -0.0024060177067077595 0.009209294387378995 0 -0.0024060177067077595 0.009209294387378995 0 -0.0025556785852014615 0.0091440962176460791 0 -0.0024879619214860211 0.0091596011311826427 0 -0.002336223461603669 0.0096474770883874413 0 -0.0024060177067077595 0.009209294387378995 0 -0.0025556785852014615 0.0091440962176460791 0 -0.0024060177067077595 0.009209294387378995 0 -0.0024879619214860211 0.0091596011311826427 0 -0.0023481775286200756 0.0091986833423709207 0 -0.0025814769608638235 0.0093621473011965967 0 -0.0023481775286200756 0.0091986833423709207 0 -0.0022119124688739938 0.0095686108214395067 0 -0.0023380721907276351 0.0091737952625080121 0 -0.0024060177067077595 0.009209294387378995 0 -0.0023481775286200756 0.0091986833423709207 0 -0.0024879619214860211 0.0091596011311826427 0 -0.0023481775286200756 0.0091986833423709207 0 -0.0025132775575000123 0.0091971944345597741 0 -0.0022810330018356024 0.0092801160341500436 0 -0.0024270485935415122 0.0091946659009642835 0 -0.0023481775286200756 0.0091986833423709207 0 -0.0022119124688739938 0.0095686108214395067 0 -0.0020066914922523228 0.0094830687266806001 0 -0.0016723745153243363 0.013897648744068167 0 -0.00096875349627383348 0.014153434426077801 0 -0.0010620775744321922 0.014424792196085182 0 -0.0010620775744321922 0.014424792196085182 0 -0.00078598761039321995 0.014605524183683933 0 -0.0012800222041858447 0.014606494266924477 0 -0.00096875349627383348 0.014153434426077801 0 -0.0010620775744321922 0.014424792196085182 0 -0.00071266279624592811 0.014440275404781534 0 -0.0010620775744321922 0.014424792196085182 0 -0.00078598761039321995 0.014605524183683933 0 -0.00071266279624592811 0.014440275404781534 0 -0.00039031533534720245 0.017208632996939584 0 -0.00037491614098008664 0.017416253344620252 0 -0.00024074342114497159 0.017397534093661446 0 -0.0016723745153243363 0.013897648744068167 0 -0.0010620775744321922 0.014424792196085182 0 -0.0012800222041858447 0.014606494266924477 0 -0.0022767615340386071 0.0167942052002511 0 -0.00066726778618546475 0.015834142726314473 0 -0.00037491614098008664 0.017416253344620252 0 -0.00034478791234700159 0.017639414093908921 0 -0.00052795526253974373 0.01742581320574399 0 -0.00037491614098008664 0.017416253344620252 0 -0.00024074342114497159 0.017397534093661446 0 -0.00034478791234700159 0.017639414093908921 0 -0.0012800222041858447 0.014606494266924477 0 -0.00095775525328823405 0.01537253709228237 0 -0.000646903132752261 0.014994664940088522 0 -0.00066726778618546475 0.015834142726314473 0 -0.00046511764188842178 0.016525502550706894 0 -0.00078598761039321995 0.014605524183683933 0 -0.0012800222041858447 0.014606494266924477 0 -0.000646903132752261 0.014994664940088522 0 -1.7950567207805043e-05 0.017597110400442414 0 -0.00034478791234700159 0.017639414093908921 0 -9.5404666928024729e-07 0.018085378670100412 0 -0.00024074342114497159 0.017397534093661446 0 -1.7950567207805043e-05 0.017597110400442414 0 -0.00034478791234700159 0.017639414093908921 0 -6.8496872790894573e-05 0.018229312635102805 0 2.6643461009321638e-07 0.018089929190750698 0 -0.00015570557771163812 0.02031964860002659 0 5.3888335384081446e-07 0.019677370902097556 0 -1.1409760370296838e-06 0.018091482452449258 0 -1.7950567207805043e-05 0.017597110400442414 0 -9.5404666928024729e-07 0.018085378670100412 0 -6.4559915073564208e-05 0.016970790471988961 0 5.3558957359669033e-07 0.021267819814024577 0 0.00012442585672278676 0.02072561971685118 0 -4.7011273983416915e-05 0.020957559603315884 0 5.3888335384081446e-07 0.019677370902097556 0 0.00012442585672278676 0.02072561971685118 0 9.6795175448718268e-05 0.0205785366464789 0 5.3888335384081446e-07 0.019677370902097556 0 5.3558957359669033e-07 0.021267819814024577 0 0.00012442585672278676 0.02072561971685118 0 -0.00015570557771163812 0.02031964860002659 0 5.3888335384081446e-07 0.019677370902097556 0 9.6795175448718268e-05 0.0205785366464789 0 -0.00090609157340259573 0.023249580728293209 0 -0.0011337316370275722 0.024718822280717284 0 0.00012442585672278676 0.02072561971685118 0 9.6795175448718268e-05 0.0205785366464789 0 0.00012545029558407708 0.020661159938982706 0 0.00012442585672278676 0.02072561971685118 0 0.00012545029558407708 0.020661159938982706 0 -4.7011273983416915e-05 0.020957559603315884 0 -0.00090609157340259573 0.023249580728293209 0 0.00024122754941570916 0.021603535525438755 0 -0.002795001051752696 0.02709131994355608 0 -0.0030588785488423666 0.027587582182545246 0 -0.0024158073768121811 0.027719462519886225 0 -0.002795001051752696 0.02709131994355608 0 -0.0024158073768121811 0.027719462519886225 0 -0.0020824779396919325 0.027217198568247197 0 -0.00090609157340259573 0.023249580728293209 0 -9.0734554905541292e-05 0.022324325239077698 0 9.6795175448718268e-05 0.0205785366464789 0 0.00011912631218693087 0.020716016049963488 0 4.9876286177697318e-05 0.020888180113078032 0 -0.00015570557771163812 0.02031964860002659 0 9.6795175448718268e-05 0.0205785366464789 0 4.9876286177697318e-05 0.020888180113078032 0 -6.8496872790894573e-05 0.018229312635102805 0 -0.0020077379740049473 0.023454432582650935 0 9.6795175448718268e-05 0.0205785366464789 0 0.00012545029558407708 0.020661159938982706 0 0.00011912631218693087 0.020716016049963488 0 0.00016106738916490867 0.02067340191355516 0 0.00011912631218693087 0.020716016049963488 0 4.9876286177697318e-05 0.020888180113078032 0 -0.00090609157340259573 0.023249580728293209 0 -0.0020077379740049473 0.023454432582650935 0 -0.003220960756436993 0.027806974281529513 0 -0.0041166466716390619 0.027965221426173775 0 -0.0032343326418034749 0.026803643596922225 0 -0.0022767615340386071 0.0167942052002511 0 -0.0020077379740049473 0.023454432582650935 0 -0.00039031533534720245 0.017208632996939584 0 -0.00037491614098008664 0.017416253344620252 0 -0.00052795526253974373 0.01742581320574399 0 -0.0025286114698245769 0.028204754601363919 0 -0.003220960756436993 0.027806974281529513 0 -0.0032343326418034749 0.026803643596922225 0 -0.0024188300825757005 0.02824828971977188 0 -0.0030588785488423666 0.027587582182545246 0 -0.0024659580969609105 0.027968044041264593 0 -0.0030588785488423666 0.027587582182545246 0 -0.0024158073768121811 0.027719462519886225 0 -0.0024659580969609105 0.027968044041264593 0 -0.0025286114698245769 0.028204754601363919 0 -0.0024188300825757005 0.02824828971977188 0 -0.0032343326418034749 0.026803643596922225 0 -0.0024583794264800671 0.029410293240420646 0 -0.0020077379740049473 0.023454432582650935 0 -0.0022427582142734363 0.028234266117441668 0 -0.0024659580969609105 0.027968044041264593 0 -0.0021752427949856962 0.028058795950925322 0 -0.0024158073768121811 0.027719462519886225 0 -0.0024659580969609105 0.027968044041264593 0 -0.0021752427949856962 0.028058795950925322 0 -0.0024158073768121811 0.027719462519886225 0 -0.0021752427949856962 0.028058795950925322 0 -0.0016924532722765804 0.027913787554677882 0 -0.0021752427949856962 0.028058795950925322 0 -0.0016924532722765804 0.027913787554677882 0 -0.0019227501070664783 0.028285205222357977 0 -0.0016924532722765804 0.027913787554677882 0 -0.0014682382958872918 0.0284376636434647 0 -0.0019227501070664783 0.028285205222357977 0 -0.0016924532722765804 0.027913787554677882 0 -0.00093746875894455022 0.028196635201716554 0 -0.0014682382958872918 0.0284376636434647 0 -0.0016924532722765804 0.027913787554677882 0 -0.0020824779396919325 0.027217198568247197 0 -0.00095443165654539731 0.027199247627157017 0 -0.0016924532722765804 0.027913787554677882 0 -0.00095443165654539731 0.027199247627157017 0 -0.00093746875894455022 0.028196635201716554 0 -0.0024158073768121811 0.027719462519886225 0 -0.0016924532722765804 0.027913787554677882 0 -0.0020824779396919325 0.027217198568247197 0 -2.9572308904808323e-05 0.022800152384648751 0 -1.8569270713614524e-05 0.022756866254722952 0 -1.4313846309684557e-05 0.022759979498056613 0 -0.002795001051752696 0.02709131994355608 0 -0.0020824779396919325 0.027217198568247197 0 -0.0020872744931363443 0.026076819276802197 0 -0.0020872744931363443 0.026076819276802197 0 -3.5410939371805012e-06 0.024229112561584734 0 -0.00095443165654539731 0.027199247627157017 0 -0.0020824779396919325 0.027217198568247197 0 -0.0020872744931363443 0.026076819276802197 0 -0.00095443165654539731 0.027199247627157017 0 -0.0011337316370275722 0.024718822280717284 0 2.9833220445889492e-07 0.024223713492427894 0 -1.8569270713614524e-05 0.022756866254722952 0 -2.1652019278717053e-07 0.022860624760863462 0 1.7886830513630839e-07 0.024220681410809013 0 0.00024122754941570916 0.021603535525438755 0 -2.3285214908729613e-07 0.022856776920362747 0 -1.8569270713614524e-05 0.022756866254722952 0 -1.4313846309684557e-05 0.022759979498056613 0 -2.1652019278717053e-07 0.022860624760863462 0 5.3558957359669033e-07 0.021267819814024577 0 -4.7011273983416915e-05 0.020957559603315884 0 -1.0638622560475801e-06 0.022854573127700083 0 -3.5410939371805012e-06 0.024229112561584734 0 -0.0001015359193145347 0.026675607545611834 0 -0.00095443165654539731 0.027199247627157017 0 1.0275803134967003e-06 0.026122996217418492 0 -0.0001015359193145347 0.026675607545611834 0 5.7494211428445398e-05 0.027527101315059171 0 1.0275803134967003e-06 0.026122996217418492 0 -3.5410939371805012e-06 0.024229112561584734 0 -0.0001015359193145347 0.026675607545611834 0 -0.0001015359193145347 0.026675607545611834 0 -0.00027964665246913676 0.028114878462504343 0 5.7494211428445398e-05 0.027527101315059171 0 -0.0001015359193145347 0.026675607545611834 0 -0.00027964665246913676 0.028114878462504343 0 -0.00095443165654539731 0.027199247627157017 0 -0.00027964665246913676 0.028114878462504343 0 -0.00095443165654539731 0.027199247627157017 0 -0.00093746875894455022 0.028196635201716554 0 -0.00027964665246913676 0.028114878462504343 0 -0.0007015007884560282 0.028583460585796472 0 -0.00056061081847534058 0.028814368445933405 0 -0.00027964665246913676 0.028114878462504343 0 -0.00093746875894455022 0.028196635201716554 0 -0.0007015007884560282 0.028583460585796472 0 -0.0007015007884560282 0.028583460585796472 0 -0.00074879434823575642 0.028907584781830326 0 -0.0010226490215783188 0.02869772255213885 0 -0.0007015007884560282 0.028583460585796472 0 -0.00074879434823575642 0.028907584781830326 0 -0.00056061081847534058 0.028814368445933405 0 -0.00074879434823575642 0.028907584781830326 0 -0.0010211757540490138 0.02911836844441593 0 -0.0006763422345855924 0.029113483052635052 0 -0.0010226490215783188 0.02869772255213885 0 -0.0014442388009726457 0.028811400931507369 0 -0.0010211757540490138 0.02911836844441593 0 -0.00074879434823575642 0.028907584781830326 0 -0.0010226490215783188 0.02869772255213885 0 -0.0010211757540490138 0.02911836844441593 0 -0.00093746875894455022 0.028196635201716554 0 -0.0007015007884560282 0.028583460585796472 0 -0.0010226490215783188 0.02869772255213885 0 -0.00093746875894455022 0.028196635201716554 0 -0.0010226490215783188 0.02869772255213885 0 -0.0014682382958872918 0.0284376636434647 0 -0.0010226490215783188 0.02869772255213885 0 -0.0014682382958872918 0.0284376636434647 0 -0.0014442388009726457 0.028811400931507369 0 -0.0014682382958872918 0.0284376636434647 0 -0.0018491680914011041 0.0286163116622438 0 -0.0014442388009726457 0.028811400931507369 0 -0.0022427582142734363 0.028234266117441668 0 -0.0019227501070664783 0.028285205222357977 0 -0.0021056006219576551 0.028433904571525542 0 -0.0022427582142734363 0.028234266117441668 0 -0.0021752427949856962 0.028058795950925322 0 -0.0019227501070664783 0.028285205222357977 0 -0.0014682382958872918 0.0284376636434647 0 -0.0019227501070664783 0.028285205222357977 0 -0.0018491680914011041 0.0286163116622438 0 -0.0019227501070664783 0.028285205222357977 0 -0.0018491680914011041 0.0286163116622438 0 -0.0021056006219576551 0.028433904571525542 0 -0.0022642997491685605 0.028615295216584603 0 -0.0018491680914011041 0.0286163116622438 0 -0.0021056006219576551 0.028433904571525542 0 -0.0022642997491685605 0.028615295216584603 0 -0.0018491680914011041 0.0286163116622438 0 -0.0020718586991987269 0.028867127460963 0 -0.0018491680914011041 0.0286163116622438 0 -0.001750492467858696 0.028933563933318779 0 -0.0020718586991987269 0.028867127460963 0 -0.001750492467858696 0.028933563933318779 0 -0.0020718586991987269 0.028867127460963 0 -0.0019525520139155349 0.029132783002120383 0 -0.0014442388009726457 0.028811400931507369 0 -0.0015065173072879678 0.029192910609330939 0 -0.0010211757540490138 0.02911836844441593 0 -0.001750492467858696 0.028933563933318779 0 -0.0014442388009726457 0.028811400931507369 0 -0.0015065173072879678 0.029192910609330939 0 -0.0018491680914011041 0.0286163116622438 0 -0.001750492467858696 0.028933563933318779 0 -0.0014442388009726457 0.028811400931507369 0 -0.0015065173072879678 0.029192910609330939 0 -0.0019525520139155349 0.029132783002120383 0 -0.0017628993140021145 0.029490439454209996 0 -0.0023565477491004645 0.029279754001985119 0 -0.0019525520139155349 0.029132783002120383 0 -0.0017628993140021145 0.029490439454209996 0 -0.001750492467858696 0.028933563933318779 0 -0.0015065173072879678 0.029192910609330939 0 -0.0019525520139155349 0.029132783002120383 0 -0.0021917785883038472 0.029027405322457425 0 -0.0020718586991987269 0.028867127460963 0 -0.0019525520139155349 0.029132783002120383 0 -0.0017862538268633877 0.023463512989624045 0 -0.0014394773874798644 0.02352510635301534 0 -0.0015535473166048827 0.02363460712666645 0 -0.0016073580919051338 0.022275685883413325 0 -0.0015476542948664256 0.026908961328437321 0 -0.0014201235953040675 0.023723756015594774 0 -0.0014394773874798644 0.02352510635301534 0 -0.0015535473166048827 0.02363460712666645 0 -0.0014201235953040675 0.023723756015594774 0 -0.0014394773874798644 0.02352510635301534 0 -0.0011538853260477711 0.023692053122894092 0 -0.0015476542948664256 0.026908961328437321 0 -0.0011984105497617119 0.02664335839952774 0 -0.0015065173072879678 0.029192910609330939 0 -0.0017628993140021145 0.029490439454209996 0 -0.001223475240647254 0.029604715292910821 0 -0.001223475240647254 0.029604715292910821 0 -0.0007380453027139044 0.02938019539797582 0 -0.0010211757540490138 0.02911836844441593 0 -0.00063996086614920126 0.029577115405894402 0 -0.00083840943055201291 0.02968186366501336 0 -0.0007380453027139044 0.02938019539797582 0 -0.00083840943055201291 0.02968186366501336 0 -0.001223475240647254 0.029604715292910821 0 -0.0007380453027139044 0.02938019539797582 0 -0.0007380453027139044 0.02938019539797582 0 -0.0010211757540490138 0.02911836844441593 0 -0.0006763422345855924 0.029113483052635052 0 -0.0015065173072879678 0.029192910609330939 0 -0.001223475240647254 0.029604715292910821 0 -0.0010211757540490138 0.02911836844441593 0 -0.00079319928630297196 0.029864557070782054 0 -0.0008544418989325747 0.030524936521263413 0 -0.0007380453027139044 0.02938019539797582 0 -0.00049391188477828285 0.029120308452923918 0 -0.0006763422345855924 0.029113483052635052 0 -0.0007380453027139044 0.02938019539797582 0 -0.00049391188477828285 0.029120308452923918 0 -0.00048212359718800108 0.029464147325499609 0 -0.00063996086614920126 0.029577115405894402 0 -0.0007380453027139044 0.02938019539797582 0 -0.00048212359718800108 0.029464147325499609 0 -0.0010046260366663295 0.031788332152372166 0 -0.0012196573526610337 0.031447225584272237 0 -0.000684683263747971 0.031418526667857653 0 -0.0011297690502607425 0.030628621206534864 0 -0.0012196573526610337 0.031447225584272237 0 -0.000684683263747971 0.031418526667857653 0 -0.000684683263747971 0.031418526667857653 0 -9.0931168517532652e-05 0.031746060748748292 0 -0.00036402883783727977 0.030888198744798635 0 -0.00058706420470140751 0.031849429550253237 0 -0.000684683263747971 0.031418526667857653 0 -9.0931168517532652e-05 0.031746060748748292 0 -9.0931168517532652e-05 0.031746060748748292 0 -0.00036402883783727977 0.030888198744798635 0 -5.0790713370699775e-06 0.031214586604273797 0 -0.0011297690502607425 0.030628621206534864 0 -0.00036402883783727977 0.030888198744798635 0 -0.00057913973343009769 0.030094325075422576 0 -0.0011297690502607425 0.030628621206534864 0 -0.000684683263747971 0.031418526667857653 0 -0.00036402883783727977 0.030888198744798635 0 -0.00036402883783727977 0.030888198744798635 0 -0.00057913973343009769 0.030094325075422576 0 -0.00018293746205153656 0.030003539416246047 0 -0.00057913973343009769 0.030094325075422576 0 -0.00018293746205153656 0.030003539416246047 0 -0.00063664638515934012 0.029265628580757975 0 -0.00024107122756813543 0.030029081263614647 0 3.6052524786028171e-05 0.031087926227843458 0 -0.00036402883783727977 0.030888198744798635 0 -0.00018293746205153656 0.030003539416246047 0 -5.0790713370699775e-06 0.031214586604273797 0 -0.00028644595945415038 0.029997610298212858 0 2.9842440102142965e-05 0.030241906998581404 0 -5.0790713370699775e-06 0.031214586604273797 0 -0.00028644595945415038 0.029997610298212858 0 9.0966817514331658e-05 0.029586661811288571 0 2.9842440102142965e-05 0.030241906998581404 0 -0.00028644595945415038 0.029997610298212858 0 9.0966817514331658e-05 0.029586661811288571 0 -0.00011002895976139359 0.029354645918616622 0 -0.00024107122756813543 0.030029081263614647 0 -0.00035886493289419291 0.028954044826683661 0 -0.00028644595945415038 0.029997610298212858 0 -0.0002207140106568298 0.029123001445872484 0 -0.00011002895976139359 0.029354645918616622 0 -0.00018293746205153656 0.030003539416246047 0 -0.00063664638515934012 0.029265628580757975 0 -0.00052243638006059154 0.028815558177058959 0 -0.00063664638515934012 0.029265628580757975 0 -0.00056061081847534058 0.028814368445933405 0 -0.00052243638006059154 0.028815558177058959 0 -0.00049391188477828285 0.029120308452923918 0 -0.00063664638515934012 0.029265628580757975 0 -0.00055419563072569081 0.02907279710223757 0 -0.0011297690502607425 0.030628621206534864 0 -0.00057913973343009769 0.030094325075422576 0 -0.00063664638515934012 0.029265628580757975 0 -0.00079319928630297196 0.029864557070782054 0 -0.00067365687184385114 0.029348359659343865 0 -0.00074879434823575642 0.028907584781830326 0 -0.00055419563072569081 0.02907279710223757 0 -0.00056061081847534058 0.028814368445933405 0 -0.00074879434823575642 0.028907584781830326 0 -0.0006763422345855924 0.029113483052635052 0 -0.00055419563072569081 0.02907279710223757 0 -0.00049391188477828285 0.029120308452923918 0 -0.0006763422345855924 0.029113483052635052 0 -0.00055419563072569081 0.02907279710223757 0 -0.00063664638515934012 0.029265628580757975 0 -0.00055419563072569081 0.02907279710223757 0 -0.00056061081847534058 0.028814368445933405 0 -0.00027964665246913676 0.028114878462504343 0 -0.0002207140106568298 0.029123001445872484 0 -1.937756540272402e-05 0.028386692238544179 0 -0.00033343973989067915 0.028214995995728426 0 -0.00035886493289419291 0.028954044826683661 0 -0.00027964665246913676 0.028114878462504343 0 -0.00056061081847534058 0.028814368445933405 0 -0.00052243638006059154 0.028815558177058959 0 -0.0002207140106568298 0.029123001445872484 0 -1.937756540272402e-05 0.028386692238544179 0 -3.1500766260869863e-06 0.028782969288182518 0 -1.937756540272402e-05 0.028386692238544179 0 0.00012039980492654292 0.028474437568025666 0 -3.1500766260869863e-06 0.028782969288182518 0 -0.00027964665246913676 0.028114878462504343 0 -1.937756540272402e-05 0.028386692238544179 0 5.7494211428445398e-05 0.027527101315059171 0 -1.937756540272402e-05 0.028386692238544179 0 5.7494211428445398e-05 0.027527101315059171 0 0.00012039980492654292 0.028474437568025666 0 5.7494211428445398e-05 0.027527101315059171 0 0.00012039980492654292 0.028474437568025666 0 7.8875285920731297e-08 0.028022333770584582 0 1.0275803134967003e-06 0.026122996217418492 0 5.7494211428445398e-05 0.027527101315059171 0 7.8875285920731297e-08 0.028022333770584582 0 8.4352360006706569e-05 0.029642277069295259 0 0.00012520159116212026 0.028819881418480627 0 0.00017125420823747799 0.028956779627787352 0 8.4352360006706569e-05 0.029642277069295259 0 8.6254012614599722e-07 0.029921340399687076 0 0.00012520159116212026 0.028819881418480627 0 8.4352360006706569e-05 0.029642277069295259 0 8.6254012614599722e-07 0.029921340399687076 0 2.0152769579196806e-05 0.030557057632276854 0 0.00012039980492654292 0.028474437568025666 0 7.8875285920731297e-08 0.028022333770584582 0 0.00012520159116212026 0.028819881418480627 0 7.8875285920731297e-08 0.028022333770584582 0 8.6254012614599722e-07 0.029921340399687076 0 0.00012520159116212026 0.028819881418480627 0 0.00012039980492654292 0.028474437568025666 0 0.00012520159116212026 0.028819881418480627 0 0.00017125420823747799 0.028956779627787352 0 0.00012039980492654292 0.028474437568025666 0 0.00017125420823747799 0.028956779627787352 0 0.00010433832634293231 0.028845012164033818 0 0.00017125420823747799 0.028956779627787352 0 0.00011733801770376212 0.029005450000628735 0 0.00010433832634293231 0.028845012164033818 0 8.4352360006706569e-05 0.029642277069295259 0 0.00017125420823747799 0.028956779627787352 0 0.00011733801770376212 0.029005450000628735 0 0.00011733801770376212 0.029005450000628735 0 7.9860855208960897e-05 0.029061711265537235 0 0.00015393512594252343 0.029221637364166237 0 0.00011733801770376212 0.029005450000628735 0 7.9860855208960897e-05 0.029061711265537235 0 0.00010433832634293231 0.028845012164033818 0 0.00012039980492654292 0.028474437568025666 0 0.00010433832634293231 0.028845012164033818 0 -3.1500766260869863e-06 0.028782969288182518 0 0.00010433832634293231 0.028845012164033818 0 -3.1500766260869863e-06 0.028782969288182518 0 2.3722796374983768e-05 0.029032842745853736 0 7.9860855208960897e-05 0.029061711265537235 0 0.00010433832634293231 0.028845012164033818 0 2.3722796374983768e-05 0.029032842745853736 0 -0.0002207140106568298 0.029123001445872484 0 -3.1500766260869863e-06 0.028782969288182518 0 -0.00011002895976139359 0.029354645918616622 0 -3.1500766260869863e-06 0.028782969288182518 0 2.3722796374983768e-05 0.029032842745853736 0 -0.00011002895976139359 0.029354645918616622 0 2.3722796374983768e-05 0.029032842745853736 0 -0.00011002895976139359 0.029354645918616622 0 4.1091491377305561e-05 0.029248192399414327 0 9.0966817514331658e-05 0.029586661811288571 0 -0.00011002895976139359 0.029354645918616622 0 4.1091491377305561e-05 0.029248192399414327 0 9.0966817514331658e-05 0.029586661811288571 0 4.1091491377305561e-05 0.029248192399414327 0 0.00015393512594252343 0.029221637364166237 0 7.9860855208960897e-05 0.029061711265537235 0 4.1091491377305561e-05 0.029248192399414327 0 0.00015393512594252343 0.029221637364166237 0 7.9860855208960897e-05 0.029061711265537235 0 2.3722796374983768e-05 0.029032842745853736 0 4.1091491377305561e-05 0.029248192399414327 0 9.0966817514331658e-05 0.029586661811288571 0 0.00037691255502576273 0.029338599273545998 0 0.00057687851526643517 0.029777415529219694 0 9.0966817514331658e-05 0.029586661811288571 0 0.00037691255502576273 0.029338599273545998 0 0.00015393512594252343 0.029221637364166237 0 0.00065427864538031711 0.029380260031878148 0 0.0010646983053716477 0.029681661367044674 0 0.00057687851526643517 0.029777415529219694 0 0.00037691255502576273 0.029338599273545998 0 0.00065427864538031711 0.029380260031878148 0 0.00057687851526643517 0.029777415529219694 0 0.00065427864538031711 0.029380260031878148 0 0.00044975359631693724 0.02916470443433207 0 0.00083484081944809531 0.029068383226941108 0 0.00044975359631693724 0.02916470443433207 0 0.00018736666781828058 0.029004949314925282 0 0.00083484081944809531 0.029068383226941108 0 0.00037691255502576273 0.029338599273545998 0 0.00065427864538031711 0.029380260031878148 0 0.00044975359631693724 0.02916470443433207 0 0.00011733801770376212 0.029005450000628735 0 0.00015393512594252343 0.029221637364166237 0 0.00023188055170860096 0.029114578810288574 0 0.00037691255502576273 0.029338599273545998 0 0.00015393512594252343 0.029221637364166237 0 0.00023188055170860096 0.029114578810288574 0 0.00037691255502576273 0.029338599273545998 0 0.00044975359631693724 0.02916470443433207 0 0.00023188055170860096 0.029114578810288574 0 0.00044975359631693724 0.02916470443433207 0 0.00023188055170860096 0.029114578810288574 0 0.00018736666781828058 0.029004949314925282 0 0.00018120471541861109 0.02978843241909862 0 4.8301916932880952e-05 0.029513587113446624 0 0.00011733801770376212 0.029005450000628735 0 0.00023188055170860096 0.029114578810288574 0 0.00018736666781828058 0.029004949314925282 0 8.4352360006706569e-05 0.029642277069295259 0 0.00011733801770376212 0.029005450000628735 0 0.00018736666781828058 0.029004949314925282 0 -0.0001382756176409229 0.030567550585963072 0 -0.00066760531967909411 0.030448191727598894 0 -0.00067885286724952455 0.030298056173569312 0 -0.0001382756176409229 0.030567550585963072 0 -0.00046148361606737371 0.030759523923114179 0 2.0152769579196806e-05 0.030557057632276854 0 -0.0001382756176409229 0.030567550585963072 0 -0.00046148361606737371 0.030759523923114179 0 -0.00066760531967909411 0.030448191727598894 0 4.8301916932880952e-05 0.029513587113446624 0 -0.00032006479133734917 0.031840688526203281 0 -0.00046148361606737371 0.030759523923114179 0 -1.5342128097034844e-06 0.031817190703988966 0 2.0152769579196806e-05 0.030557057632276854 0 8.1601797145758047e-05 0.032574807021440534 0 -2.501806363058928e-09 0.03182332885101153 0 -2.9013674512756237e-09 0.033000396592816006 0 -0.00029063341224378917 0.03150147234890889 0 9.5381704705729162e-08 0.031820491870788024 0 8.4352360006706569e-05 0.029642277069295259 0 -0.0001382756176409229 0.030567550585963072 0 2.0152769579196806e-05 0.030557057632276854 0 8.6254012614599722e-07 0.029921340399687076 0 -1.5342128097034844e-06 0.031817190703988966 0 2.0152769579196806e-05 0.030557057632276854 0 7.5033586618030326e-07 0.034997477799814304 0 5.3778644068782078e-05 0.03479160423346539 0 -1.8386441586662345e-07 0.035000682127262914 0 7.5033586618030326e-07 0.034997477799814304 0 -1.3165123742206656e-06 0.033007779732931702 0 6.5335789207819373e-05 0.03434238758855785 0 7.5033586618030326e-07 0.034997477799814304 0 6.5335789207819373e-05 0.03434238758855785 0 5.3778644068782078e-05 0.03479160423346539 0 -1.3165123742206656e-06 0.033007779732931702 0 6.5335789207819373e-05 0.03434238758855785 0 -0.00035244765623396738 0.034948022922933274 0 7.0825101822719634e-09 0.033005009835524408 0 -0.00035216048452747659 0.032779599789638382 0 8.1601797145758047e-05 0.032574807021440534 0 -2.9013674512756237e-09 0.033000396592816006 0 -0.00022035063956127681 0.03218011176212169 0 6.5335789207819373e-05 0.03434238758855785 0 -0.00035244765623396738 0.034948022922933274 0 5.3778644068782078e-05 0.03479160423346539 0 -0.00029063341224378917 0.03150147234890889 0 -0.00035216048452747659 0.032779599789638382 0 -0.00035244765623396738 0.034948022922933274 0 5.3778644068782078e-05 0.03479160423346539 0 -0.00012144347470420528 0.034988770873269584 0 5.3778644068782078e-05 0.03479160423346539 0 -0.00012144347470420528 0.034988770873269584 0 -1.8386441586662345e-07 0.035000682127262914 0 0.00017843166441567528 0.034299475474519434 0 1.0255025309656844e-08 0.035000275334974899 0 -7.0991916935462087e-05 0.034773315315301673 0 -2.8155043355392126e-05 0.034803699700605539 0 -4.3243125135382476e-05 0.034947782911409528 0 -0.00056523972486796723 0.032545436095979569 0 -0.0005150307686679125 0.033172742265692501 0 6.7619878218865974e-05 0.033489449657029782 0 -0.00035216048452747659 0.032779599789638382 0 -0.00032006479133734917 0.031840688526203281 0 -0.00035216048452747659 0.032779599789638382 0 0.00017843166441567528 0.034299475474519434 0 -0.00032006479133734917 0.031840688526203281 0 0.00017843166441567528 0.034299475474519434 0 0.00065427864538031711 0.029380260031878148 0 0.00083484081944809531 0.029068383226941108 0 0.0010646983053716477 0.029681661367044674 0 -2.8155043355392126e-05 0.034803699700605539 0 -4.3243125135382476e-05 0.034947782911409528 0 1.3467795660380999e-05 0.034990096551935766 0 -0.00032006479133734917 0.031840688526203281 0 0.00058567916043235444 0.032347592890121409 0 5.5630102191908955e-08 0.034999998561303869 0 1.3467795660380999e-05 0.034990096551935766 0 2.9400015337438726e-09 0.034999906735350375 0 1.5743747771920744e-05 0.034999046748555279 0 5.5630102191908955e-08 0.034999998561303869 0 1.3467795660380999e-05 0.034990096551935766 0 0.00017843166441567528 0.034299475474519434 0 3.1489327094121883e-06 0.035193559181220989 0 1.3467795660380999e-05 0.034990096551935766 0 1.1565721798950201e-05 0.034994492700270587 0 2.9400015337438726e-09 0.034999906735350375 0 1.1565721798950201e-05 0.034994492700270587 0 2.9400015337438726e-09 0.034999906735350375 0 4.46650110278125e-05 0.035011440401518275 0 -4.3243125135382476e-05 0.034947782911409528 0 1.3467795660380999e-05 0.034990096551935766 0 1.1565721798950201e-05 0.034994492700270587 0 2.9400015337438726e-09 0.034999906735350375 0 4.46650110278125e-05 0.035011440401518275 0 9.3856328510992824e-08 0.035000308615349765 0 -4.3243125135382476e-05 0.034947782911409528 0 1.1565721798950201e-05 0.034994492700270587 0 4.46650110278125e-05 0.035011440401518275 0 0.0010646983053716477 0.029681661367044674 0 0.0012537845096091858 0.030619354349935356 0 0.00057687851526643517 0.029777415529219694 0 0.00058567916043235444 0.032347592890121409 0 0.00063606807759466555 0.032813652445836609 0 0.0012537845096091858 0.030619354349935356 0 0.00057687851526643517 0.029777415529219694 0 0.00035738372497638759 0.03029787729856882 0 9.0966817514331658e-05 0.029586661811288571 0 0.00057687851526643517 0.029777415529219694 0 0.00035738372497638759 0.03029787729856882 0 9.0966817514331658e-05 0.029586661811288571 0 0.00035738372497638759 0.03029787729856882 0 2.9842440102142965e-05 0.030241906998581404 0 0.00035738372497638759 0.03029787729856882 0 0.0005184043334469482 0.031204204114343909 0 -5.0790713370699775e-06 0.031214586604273797 0 0.00035738372497638759 0.03029787729856882 0 2.9842440102142965e-05 0.030241906998581404 0 -5.0790713370699775e-06 0.031214586604273797 0 0.0012537845096091858 0.030619354349935356 0 0.00035738372497638759 0.03029787729856882 0 0.0005184043334469482 0.031204204114343909 0 0.0005184043334469482 0.031204204114343909 0 -5.0790713370699775e-06 0.031214586604273797 0 0.00010189464642306423 0.032313306476425406 0 0.0005184043334469482 0.031204204114343909 0 0.00010189464642306423 0.032313306476425406 0 0.00126063036056661 0.032124571137056503 0 -9.0931168517532652e-05 0.031746060748748292 0 -5.0790713370699775e-06 0.031214586604273797 0 0.00010189464642306423 0.032313306476425406 0 -0.00037770380291314652 0.032455785560387786 0 0.00010123774017682369 0.032304764725377411 0 0.00020336969975945924 0.033503461131054353 0 0.00010189464642306423 0.032313306476425406 0 0.00126063036056661 0.032124571137056503 0 0.00055325606078721534 0.034232659841648388 0 0.00068053858799310024 0.033534379554012991 0 0.00050246249171112881 0.034364971058381877 0 0.00020336969975945924 0.033503461131054353 0 0.00126063036056661 0.032124571137056503 0 1.6132539669141569e-07 0.034999043065750468 0 9.3856328510992824e-08 0.035000308615349765 0 0.00017001114931638483 0.034992959350011989 0 1.6132539669141569e-07 0.034999043065750468 0 0.00050246249171112881 0.034364971058381877 0 0.00017001114931638483 0.034992959350011989 0 4.46650110278125e-05 0.035011440401518275 0 9.3856328510992824e-08 0.035000308615349765 0 0.00017001114931638483 0.034992959350011989 0 0.0012537845096091858 0.030619354349935356 0 0.0005184043334469482 0.031204204114343909 0 0.00126063036056661 0.032124571137056503 0 0.00063606807759466555 0.032813652445836609 0 0.00068053858799310024 0.033534379554012991 0 -0.00046072374450644522 0.000706145538357424 0 0.00091697724174478134 0.00081079624224447287 0 -5.8060631335185251e-05 0.0025482289456857862 0 -0.00046072374450644522 0.000706145538357424 0 0.00091697724174478134 0.00081079624224447287 0 0.00066209070148075678 0.00028339712887163782 0 0.0010161693611541922 0.00085014966691809109 0 0.0020243802234735427 0.0015091027124704548 0 0.00091697724174478134 0.00081079624224447287 0 0.00066209070148075678 0.00028339712887163782 0 0.00088509776372701831 0.00041142076757025731 0 0.00066209070148075678 0.00028339712887163782 0 0.00088509776372701831 0.00041142076757025731 0 0.00079570889055612809 0.00013698239087731241 0 -4.1129284375794362e-05 0.00074388060214372511 0 0.00056846339873295253 0.00031444799650555552 0 0.00041896165374403924 0.00068081247600825249 0 0.00066209070148075678 0.00028339712887163782 0 0.00038578820856453421 0.00036460541513826176 0 0.00041896165374403924 0.00068081247600825249 0 0.00038578820856453421 0.00036460541513826176 0 0.0001456984750614124 0.00052213950350469608 0 0.00038578820856453421 0.00036460541513826176 0 0.0001456984750614124 0.00052213950350469608 0 0.00021069134822983596 0.00026640841888746149 0 -5.3146521784979796e-05 0.00053844876823960861 0 0.0001456984750614124 0.00052213950350469608 0 8.6121993441892759e-06 0.00030818981318996599 0 -5.3146521784979796e-05 0.00053844876823960861 0 0.0001456984750614124 0.00052213950350469608 0 -3.3251847199483965e-05 0.00075438513559316679 0 -3.3251847199483965e-05 0.00075438513559316679 0 0.00018790607640120798 0.00097427483347026645 0 -9.3903989776691121e-05 0.0010042744633302553 0 0.0001456984750614124 0.00052213950350469608 0 -3.3251847199483965e-05 0.00075438513559316679 0 0.00018790607640120798 0.00097427483347026645 0 -4.1129284375794362e-05 0.00074388060214372511 0 -0.0010369479531991892 0.0014271708030238824 0 0.00041896165374403924 0.00068081247600825249 0 0.0001456984750614124 0.00052213950350469608 0 0.00018790607640120798 0.00097427483347026645 0 -0.00046072374450644522 0.000706145538357424 0 -0.0022428607228483729 0.0021382345545107192 0 -5.8060631335185251e-05 0.0025482289456857862 0 -0.0022428607228483729 0.0021382345545107192 0 -0.0014946238046879084 0.0042438021959807122 0 -5.8060631335185251e-05 0.0025482289456857862 0 -0.0022428607228483729 0.0021382345545107192 0 -0.0039004939452107119 0.0035965374059672753 0 -0.0014946238046879084 0.0042438021959807122 0 -0.0010369479531991892 0.0014271708030238824 0 -0.0010078878685005508 0.0041965336794129839 0 0.00018790607640120798 0.00097427483347026645 0 -9.3903989776691121e-05 0.0010042744633302553 0 -8.6456079678602299e-05 0.0012890322462524274 0 -0.00011158972844222053 0.0052847343072038545 0 4.0254081062952552e-05 0.0056701338986624213 0 0.0006903414217978071 0.005425617299113109 0 -0.0010078878685005508 0.0041965336794129839 0 -0.00055982367026282526 0.0048185343883223077 0 4.0254081062952552e-05 0.0056701338986624213 0 0.0006903414217978071 0.005425617299113109 0 0.00022917094949979978 0.0060143202294233094 0 4.0254081062952552e-05 0.0056701338986624213 0 -0.00018131232617626887 0.0060366109985432832 0 0.00022917094949979978 0.0060143202294233094 0 0.0006903414217978071 0.005425617299113109 0 0.00069946371964044554 0.0060939080564313365 0 0.00022917094949979978 0.0060143202294233094 0 -0.0014946238046879084 0.0042438021959807122 0 -5.8060631335185251e-05 0.0025482289456857862 0 0.0013113953495891284 0.0050686450039427403 0 0.0006903414217978071 0.005425617299113109 0 0.0013113953495891284 0.0050686450039427403 0 0.001049435440817452 0.0058227134701024251 0 -0.00055982367026282526 0.0048185343883223077 0 0.0013061398682261438 0.0051030035667103289 0 -5.8060631335185251e-05 0.0025482289456857862 0 0.0017567962516098689 0.0032423801457234771 0 0.0013113953495891284 0.0050686450039427403 0 0.00091697724174478134 0.00081079624224447287 0 0.0017567962516098689 0.0032423801457234771 0 0.0034270428103187704 0.0029340451921422007 0 0.00091697724174478134 0.00081079624224447287 0 -5.8060631335185251e-05 0.0025482289456857862 0 0.0017567962516098689 0.0032423801457234771 0 0.0013113953495891284 0.0050686450039427403 0 0.0030120203910678853 0.0045367356377102111 0 0.0026774608473067833 0.005916561173645289 0 0.0017567962516098689 0.0032423801457234771 0 0.0013113953495891284 0.0050686450039427403 0 0.0030120203910678853 0.0045367356377102111 0 0.0030120203910678853 0.0045367356377102111 0 0.0050082396018419368 0.0044955324374194548 0 0.0034270428103187704 0.0029340451921422007 0 0.0030120203910678853 0.0045367356377102111 0 0.0050082396018419368 0.0044955324374194548 0 0.0039955459272432575 0.0054158350254822551 0 0.0032569618849014261 0.0026641186847504946 0 0.0020243802234735427 0.0015091027124704548 0 0.00087425270219367718 0.00017456199714282892 0 0.00085097259947884674 0.00015634669700991631 0 0.00089488944221078042 0.00024724795811575056 0 0.0017567962516098689 0.0032423801457234771 0 0.0030120203910678853 0.0045367356377102111 0 0.0034270428103187704 0.0029340451921422007 0 0.0024050827658637819 0.0011467251947336967 0 0.00067974061337615387 -0.0026072868903312301 0 0.00092287714489422521 0.000140816726492682 0 0.00094457265643417955 0.00023498932323682715 0 0.0010696474273275455 0.0001398823367132422 0 0.0032569618849014261 0.0026641186847504946 0 0.0024050827658637819 0.0011467251947336967 0 0.00087425270219367718 0.00017456199714282892 0 0.00092287714489422521 0.000140816726492682 0 0.00094457265643417955 0.00023498932323682715 0 0.00087425270219367718 0.00017456199714282892 0 0.00085097259947884674 0.00015634669700991631 0 0.00092287714489422521 0.000140816726492682 0 0.00085097259947884674 0.00015634669700991631 0 0.00092287714489422521 0.000140816726492682 0 0.00093192858255810738 1.072848532252187e-05 0 0.00092287714489422521 0.000140816726492682 0 0.00093192858255810738 1.072848532252187e-05 0 0.0010696474273275455 0.0001398823367132422 0 0.00093192858255810738 1.072848532252187e-05 0 0.000889059531920779 -0.00011404160245795607 0 0.00098946482226272927 -0.00016497668569506787 0 0.00085097259947884674 0.00015634669700991631 0 0.000889059531920779 -0.00011404160245795607 0 0.00085447927639781501 0.00012889237372648869 0 0.00085097259947884674 0.00015634669700991631 0 0.00093192858255810738 1.072848532252187e-05 0 0.000889059531920779 -0.00011404160245795607 0 0.000889059531920779 -0.00011404160245795607 0 0.00085447927639781501 0.00012889237372648869 0 0.00082890564448911345 -8.0155553099810615e-05 0 0.00091697724174478134 0.00081079624224447287 0 0.00089488944221078042 0.00024724795811575056 0 0.00088509776372701831 0.00041142076757025731 0 0.00085097259947884674 0.00015634669700991631 0 0.00089488944221078042 0.00024724795811575056 0 0.00088509776372701831 0.00041142076757025731 0 0.00085097259947884674 0.00015634669700991631 0 0.00088509776372701831 0.00041142076757025731 0 0.00085447927639781501 0.00012889237372648869 0 0.00085447927639781501 0.00012889237372648869 0 0.00079570889055612809 0.00013698239087731241 0 0.00082890564448911345 -8.0155553099810615e-05 0 0.00088509776372701831 0.00041142076757025731 0 0.00085447927639781501 0.00012889237372648869 0 0.00079570889055612809 0.00013698239087731241 0 0.00079570889055612809 0.00013698239087731241 0 0.00076444175789140494 -8.5917617773045228e-05 0 0.00065233516592098104 5.1050354900027437e-05 0 0.00079570889055612809 0.00013698239087731241 0 0.00082890564448911345 -8.0155553099810615e-05 0 0.00076444175789140494 -8.5917617773045228e-05 0 0.00082890564448911345 -8.0155553099810615e-05 0 0.00079741440133909562 -0.00020705541484600842 0 0.00076444175789140494 -8.5917617773045228e-05 0 0.00079741440133909562 -0.00020705541484600842 0 0.00076444175789140494 -8.5917617773045228e-05 0 0.00077688376350678971 -0.00028499238629529916 0 0.00079741440133909562 -0.00020705541484600842 0 0.00079854302512563722 -0.0003616014458266818 0 0.00077688376350678971 -0.00028499238629529916 0 0.00076444175789140494 -8.5917617773045228e-05 0 0.0006982948014879007 -0.00016681118793263904 0 0.00077688376350678971 -0.00028499238629529916 0 0.00076444175789140494 -8.5917617773045228e-05 0 0.0006982948014879007 -0.00016681118793263904 0 0.00065233516592098104 5.1050354900027437e-05 0 0.000889059531920779 -0.00011404160245795607 0 0.00085143107456637265 -0.00027423138445503595 0 0.00092001807200350709 -0.00044579192115442267 0 0.000889059531920779 -0.00011404160245795607 0 0.00082890564448911345 -8.0155553099810615e-05 0 0.00085143107456637265 -0.00027423138445503595 0 0.00082890564448911345 -8.0155553099810615e-05 0 0.00079741440133909562 -0.00020705541484600842 0 0.00085143107456637265 -0.00027423138445503595 0 0.00079741440133909562 -0.00020705541484600842 0 0.00085143107456637265 -0.00027423138445503595 0 0.00079854302512563722 -0.0003616014458266818 0 0.00085143107456637265 -0.00027423138445503595 0 0.00079854302512563722 -0.0003616014458266818 0 0.00082230448501528547 -0.00054823952347760995 0 0.00085143107456637265 -0.00027423138445503595 0 0.00082230448501528547 -0.00054823952347760995 0 0.00092001807200350709 -0.00044579192115442267 0 0.00079854302512563722 -0.0003616014458266818 0 0.00082230448501528547 -0.00054823952347760995 0 0.0007641371974306374 -0.00047463922610225574 0 0.00079854302512563722 -0.0003616014458266818 0 0.0007641371974306374 -0.00047463922610225574 0 0.00077688376350678971 -0.00028499238629529916 0 0.00094951587205193029 -0.00039443152776698598 0 0.00084216588707194094 -0.00040024223164125927 0 0.0007641371974306374 -0.00047463922610225574 0 0.00084216588707194094 -0.00040024223164125927 0 0.0007641371974306374 -0.00047463922610225574 0 0.00079539565721725236 -0.00036823036963965611 0 0.00083008452135845351 -0.00077453837236491274 0 0.00077334480791173732 -0.00052281362934136614 0 0.0006748990304895413 -0.0011282885402515059 0 0.00082230448501528547 -0.00054823952347760995 0 0.0007641371974306374 -0.00047463922610225574 0 0.0006982948014879007 -0.00016681118793263904 0 0.00079539565721725236 -0.00036823036963965611 0 0.00063258269477756894 -0.00026639337213642776 0 0.0007641371974306374 -0.00047463922610225574 0 0.00077688376350678971 -0.00028499238629529916 0 0.00079539565721725236 -0.00036823036963965611 0 0.0006982948014879007 -0.00016681118793263904 0 0.00077688376350678971 -0.00028499238629529916 0 0.00079539565721725236 -0.00036823036963965611 0 0.00075927396561403196 -0.00036423808962897342 0 0.00084216588707194094 -0.00040024223164125927 0 0.00079539565721725236 -0.00036823036963965611 0 0.00078514051571836757 -0.00034553844727105504 0 0.00063132384788896459 -0.00023699056358532505 0 0.00075927396561403196 -0.00036423808962897342 0 0.00079539565721725236 -0.00036823036963965611 0 0.00063559042442415761 -0.00019969517122527946 0 0.00067714659311207941 -0.00036291204184446074 0 0.00075927396561403196 -0.00036423808962897342 0 0.00063559042442415761 -0.00019969517122527946 0 0.00049025481503209235 -0.00025129777188880238 0 0.00067714659311207941 -0.00036291204184446074 0 0.00063559042442415761 -0.00019969517122527946 0 0.00063132384788896459 -0.00023699056358532505 0 0.00034218203847730095 -7.5388022020303201e-05 0 0.00049025481503209235 -0.00025129777188880238 0 0.00063559042442415761 -0.00019969517122527946 0 0.00036049662697996244 -4.5065658183866949e-05 0 0.00029009545272119021 -0.0003054307560396471 0 0.00049025481503209235 -0.00025129777188880238 0 0.00036049662697996244 -4.5065658183866949e-05 0 0.00033060011099575844 -0.0001319090610268492 0 0.00051481975951688744 -3.4034217980138442e-05 0 0.00030898177438446362 9.4474628041041784e-05 0 0.0006982948014879007 -0.00016681118793263904 0 0.00063258269477756894 -0.00026639337213642776 0 0.00051481975951688744 -3.4034217980138442e-05 0 0.00063258269477756894 -0.00026639337213642776 0 0.00033060011099575844 -0.0001319090610268492 0 0.00051481975951688744 -3.4034217980138442e-05 0 0.00051481975951688744 -3.4034217980138442e-05 0 0.00046353426443549399 0.0001617132700742554 0 0.00065233516592098104 5.1050354900027437e-05 0 0.0006982948014879007 -0.00016681118793263904 0 0.00051481975951688744 -3.4034217980138442e-05 0 0.00065233516592098104 5.1050354900027437e-05 0 0.00051481975951688744 -3.4034217980138442e-05 0 0.00046353426443549399 0.0001617132700742554 0 0.00030898177438446362 9.4474628041041784e-05 0 0.00066209070148075678 0.00028339712887163782 0 0.00038578820856453421 0.00036460541513826176 0 0.00046353426443549399 0.0001617132700742554 0 0.00066209070148075678 0.00028339712887163782 0 0.00046353426443549399 0.0001617132700742554 0 0.00065233516592098104 5.1050354900027437e-05 0 0.00066209070148075678 0.00028339712887163782 0 0.00079570889055612809 0.00013698239087731241 0 0.00065233516592098104 5.1050354900027437e-05 0 0.0001456984750614124 0.00052213950350469608 0 8.6121993441892759e-06 0.00030818981318996599 0 0.00021069134822983596 0.00026640841888746149 0 0.00038578820856453421 0.00036460541513826176 0 0.00046353426443549399 0.0001617132700742554 0 0.00021069134822983596 0.00026640841888746149 0 0.00046353426443549399 0.0001617132700742554 0 0.00021069134822983596 0.00026640841888746149 0 0.00030898177438446362 9.4474628041041784e-05 0 0.00021069134822983596 0.00026640841888746149 0 0.00030898177438446362 9.4474628041041784e-05 0 5.8155417407324445e-05 0.00018555998944424457 0 8.6121993441892759e-06 0.00030818981318996599 0 5.8155417407324445e-05 0.00018555998944424457 0 -7.7855741402313639e-05 0.00022903970770100912 0 8.6121993441892759e-06 0.00030818981318996599 0 0.00021069134822983596 0.00026640841888746149 0 5.8155417407324445e-05 0.00018555998944424457 0 5.8155417407324445e-05 0.00018555998944424457 0 1.0278955005473632e-06 0.00014743432361180686 0 -7.050263041013067e-05 0.00026653750227443657 0 0.00033060011099575844 -0.0001319090610268492 0 0.00030898177438446362 9.4474628041041784e-05 0 5.8155417407324445e-05 0.00018555998944424457 0 0.00033060011099575844 -0.0001319090610268492 0 5.8155417407324445e-05 0.00018555998944424457 0 1.0278955005473632e-06 0.00014743432361180686 0 0.00034218203847730095 -7.5388022020303201e-05 0 2.3541121444349149e-05 0.00010643630988203894 0 0.00010967449833751805 -0.00014729598118158634 0 0.00029009545272119021 -0.0003054307560396471 0 0.00036049662697996244 -4.5065658183866949e-05 0 0.00010967449833751805 -0.00014729598118158634 0 0.00036049662697996244 -4.5065658183866949e-05 0 1.0278955005473632e-06 0.00014743432361180686 0 -0.00014071380629621926 -6.8227391270687476e-05 0 0.00010967449833751805 -0.00014729598118158634 0 1.0278955005473632e-06 0.00014743432361180686 0 -0.00014071380629621926 -6.8227391270687476e-05 0 1.0278955005473632e-06 0.00014743432361180686 0 -0.00016830534409513492 0.0004685590232483953 0 -0.00014071380629621926 -6.8227391270687476e-05 0 -0.00050583820120354329 3.2835643264317477e-05 0 -0.00016830534409513492 0.0004685590232483953 0 5.8155417407324445e-05 0.00018555998944424457 0 -7.050263041013067e-05 0.00026653750227443657 0 -7.7855741402313639e-05 0.00022903970770100912 0 -0.00010522738938445833 0.00056506463216071071 0 8.095593942021943e-05 0.0015733025008331427 0 -0.00016830534409513492 0.0004685590232483953 0 -7.050263041013067e-05 0.00026653750227443657 0 -7.7855741402313639e-05 0.00022903970770100912 0 -0.00016830534409513492 0.0004685590232483953 0 -0.00071810353789883094 0.0017438258608971596 0 0.00030071609258414383 0.0029218281790684454 0 1.0278955005473632e-06 0.00014743432361180686 0 -0.00016830534409513492 0.0004685590232483953 0 -7.050263041013067e-05 0.00026653750227443657 0 -0.00016830534409513492 0.0004685590232483953 0 -0.00071810353789883094 0.0017438258608971596 0 -0.0010069196071673674 0.00054712283937153304 0 -0.00071810353789883094 0.0017438258608971596 0 -0.0010069196071673674 0.00054712283937153304 0 -0.0019129311773335548 0.0013264031117945919 0 -0.0010069196071673674 0.00054712283937153304 0 -0.0017910691093842627 0.00045372107206592086 0 -0.0019129311773335548 0.0013264031117945919 0 -0.00050583820120354329 3.2835643264317477e-05 0 -0.00016830534409513492 0.0004685590232483953 0 -0.0010069196071673674 0.00054712283937153304 0 -0.0011215382044452882 -0.00015579289000597452 0 -0.00050583820120354329 3.2835643264317477e-05 0 -0.0010069196071673674 0.00054712283937153304 0 -0.0011215382044452882 -0.00015579289000597452 0 -0.0010069196071673674 0.00054712283937153304 0 -0.0017910691093842627 0.00045372107206592086 0 -0.0028897120040496183 0.0099519757620581666 0 -0.0020798328944190451 0.0098865391036089753 0 -0.002931019467129036 0.010620626140991072 0 -0.0019838875774248507 0.0045868517841811604 0 -0.0026742413213440663 0.006750613484974478 0 -0.0017739534098543065 -0.00034185501681007727 0 -0.0017910691093842627 0.00045372107206592086 0 -0.003502348212102489 0.0011993510797729959 0 -0.0017739534098543065 -0.00034185501681007727 0 -0.0011215382044452882 -0.00015579289000597452 0 -0.0017910691093842627 0.00045372107206592086 0 -0.0017910691093842627 0.00045372107206592086 0 -0.003502348212102489 0.0011993510797729959 0 -0.0019129311773335548 0.0013264031117945919 0 -0.0028897120040496183 0.0099519757620581666 0 -0.0030014503727568012 0.01009640469125297 0 -0.002931019467129036 0.010620626140991072 0 -0.0030014503727568012 0.01009640469125297 0 -0.0031220947783039063 0.009874143421050554 0 -0.0029546548214113748 0.0099364433419821506 0 -0.0026006490521648315 0.011071433832812809 0 -0.0026742413213440663 0.006750613484974478 0 -0.0031220947783039063 0.009874143421050554 0 -0.0029546548214113748 0.0099364433419821506 0 -0.0029913949170688155 0.009658187779920795 0 -0.0016554383429835157 0.0072864044307652176 0 -0.0013826238077330841 0.0078271248493763657 0 -0.0019625640022567416 0.0077083054006650371 0 -0.0026742413213440663 0.006750613484974478 0 -0.0025693482690642526 0.0089255989862116955 0 -0.0026742413213440663 0.006750613484974478 0 -0.0022111560432253965 0.0050489705790476421 0 -0.00071810353789883094 0.0017438258608971596 0 -0.0019129311773335548 0.0013264031117945919 0 -0.0028395302427608603 0.0031843498696014585 0 -0.003502348212102489 0.0011993510797729959 0 -0.0019129311773335548 0.0013264031117945919 0 -0.0028395302427608603 0.0031843498696014585 0 -0.0013826238077330841 0.0078271248493763657 0 -0.0017749752399958084 0.0081677085975665319 0 -0.0019625640022567416 0.0077083054006650371 0 -0.0017749752399958084 0.0081677085975665319 0 -0.0014623240633050288 0.0082758705269138245 0 -0.0017128524725148308 0.0085924612497070597 0 -0.0013826238077330841 0.0078271248493763657 0 -0.0017749752399958084 0.0081677085975665319 0 -0.0014623240633050288 0.0082758705269138245 0 -0.0022111560432253965 0.0050489705790476421 0 -0.0014957247194397323 0.0071059934930340282 0 -0.0028395302427608603 0.0031843498696014585 0 -0.0020031883703904409 0.0056638396615234883 0 -0.0011911975957306946 0.003781058767379851 0 -0.0013826238077330841 0.0078271248493763657 0 -0.0014623240633050288 0.0082758705269138245 0 -0.0011502802328750593 0.0082960724552349104 0 -0.0020031883703904409 0.0056638396615234883 0 0.00046295349341869956 0.0055558166054258352 0 -0.0011911975957306946 0.003781058767379851 0 -5.3146521784979796e-05 0.00053844876823960861 0 8.6121993441892759e-06 0.00030818981318996599 0 -0.00016017005864745991 0.00041104235317970252 0 0.00046295349341869956 0.0055558166054258352 0 0.00030071609258414383 0.0029218281790684454 0 -0.0011911975957306946 0.003781058767379851 0 8.6121993441892759e-06 0.00030818981318996599 0 -0.00016017005864745991 0.00041104235317970252 0 -7.7855741402313639e-05 0.00022903970770100912 0 0.00013194117115520243 0.0030432598553088285 0 8.095593942021943e-05 0.0015733025008331427 0 -0.00071810353789883094 0.0017438258608971596 0 -0.0028395302427608603 0.0031843498696014585 0 -0.0011911975957306946 0.003781058767379851 0 -0.00071810353789883094 0.0017438258608971596 0 0.00030071609258414383 0.0029218281790684454 0 -0.0011911975957306946 0.003781058767379851 0 -0.0020584438500933127 0.010087605345562767 0 -0.0022842290146143835 0.0097996318089201145 0 -0.0024135087990814386 0.0099868271475262727 0 -0.0020584438500933127 0.010087605345562767 0 -0.0020862243348120603 0.009689283253743658 0 -0.0022842290146143835 0.0097996318089201145 0 -0.0021639950916496602 0.0096526431788840489 0 -0.0023637202804023486 0.010083738573813086 0 -0.0022854601932617413 0.010264819234229589 0 -0.0021703891213758347 0.010074839045209937 0 -0.0024135087990814386 0.0099868271475262727 0 -0.0024931556388461148 0.010196195115920223 0 -0.0022854601932617413 0.010264819234229589 0 -0.0024135087990814386 0.0099868271475262727 0 -0.0024931556388461148 0.010196195115920223 0 -0.0024135087990814386 0.0099868271475262727 0 -0.0026000563198122937 0.010026895947479299 0 -0.0026741014795591037 0.010162218282249027 0 -0.0024931556388461148 0.010196195115920223 0 -0.0026000563198122937 0.010026895947479299 0 -0.0022842290146143835 0.0097996318089201145 0 -0.0024135087990814386 0.0099868271475262727 0 -0.0025974202057577997 0.009726016709065418 0 -0.0024135087990814386 0.0099868271475262727 0 -0.0026000563198122937 0.010026895947479299 0 -0.0025974202057577997 0.009726016709065418 0 -0.0027867060023092729 0.0099319138301199456 0 -0.0029913949170688155 0.009658187779920795 0 -0.0025974202057577997 0.009726016709065418 0 -0.0027867060023092729 0.0099319138301199456 0 -0.0026000563198122937 0.010026895947479299 0 -0.0025974202057577997 0.009726016709065418 0 -0.0026741014795591037 0.010162218282249027 0 -0.0027867060023092729 0.0099319138301199456 0 -0.0026000563198122937 0.010026895947479299 0 -0.0028450316156549923 0.010126363098966725 0 -0.0026741014795591037 0.010162218282249027 0 -0.0027867060023092729 0.0099319138301199456 0 -0.0028450316156549923 0.010126363098966725 0 -0.0027867060023092729 0.0099319138301199456 0 -0.0029546548214113748 0.0099364433419821506 0 -0.0028450316156549923 0.010126363098966725 0 -0.0030014503727568012 0.01009640469125297 0 -0.0029546548214113748 0.0099364433419821506 0 -0.0027867060023092729 0.0099319138301199456 0 -0.0029546548214113748 0.0099364433419821506 0 -0.0029913949170688155 0.009658187779920795 0 -0.0017749752399958084 0.0081677085975665319 0 -0.0019625640022567416 0.0077083054006650371 0 -0.002292827315942457 0.0081876540099647521 0 -0.0025693482690642526 0.0089255989862116955 0 -0.0025344849110133 0.0087353964922977853 0 -0.0017749752399958084 0.0081677085975665319 0 -0.002292827315942457 0.0081876540099647521 0 -0.0022563812674592154 0.0087990688662675041 0 -0.0025344849110133 0.0087353964922977853 0 -0.0026045160651404749 0.0088634773650041378 0 -0.0028593893144904532 0.0093808956333356966 0 -0.0025417578764228171 0.0093329325639872427 0 -0.002600715174985252 0.0088740568530229873 0 -0.0029913949170688155 0.009658187779920795 0 -0.0028593893144904532 0.0093808956333356966 0 -0.0025974202057577997 0.009726016709065418 0 -0.0028593893144904532 0.0093808956333356966 0 -0.0025974202057577997 0.009726016709065418 0 -0.0025417578764228171 0.0093329325639872427 0 -0.0025974202057577997 0.009726016709065418 0 -0.0025417578764228171 0.0093329325639872427 0 -0.0022981048271794782 0.0095144557886563171 0 -0.0022842290146143835 0.0097996318089201145 0 -0.0025974202057577997 0.009726016709065418 0 -0.0022981048271794782 0.0095144557886563171 0 -0.0025417578764228171 0.0093329325639872427 0 -0.0022981048271794782 0.0095144557886563171 0 -0.0024113595239982893 0.0090729361912265574 0 -0.0025417578764228171 0.0093329325639872427 0 -0.0024113595239982893 0.0090729361912265574 0 -0.002600715174985252 0.0088740568530229873 0 -0.0021998464248586449 0.0093681123822172471 0 -0.0022981048271794782 0.0095144557886563171 0 -0.0024113595239982893 0.0090729361912265574 0 -0.0020334029090822809 0.0095473746567125133 0 -0.0021998464248586449 0.0093681123822172471 0 -0.0022276171893527682 0.0090217033301980606 0 -0.0020987861163684197 0.0095537217380255689 0 -0.0021998464248586449 0.0093681123822172471 0 -0.0022981048271794782 0.0095144557886563171 0 -0.0020862243348120603 0.009689283253743658 0 -0.0020987861163684197 0.0095537217380255689 0 -0.0022981048271794782 0.0095144557886563171 0 -0.0020862243348120603 0.009689283253743658 0 -0.0022842290146143835 0.0097996318089201145 0 -0.0022981048271794782 0.0095144557886563171 0 -0.001776010334037623 0.010163242352941 0 -0.0019623409384236638 0.01009183370966534 0 -0.0018141844114849478 0.0098991667188176573 0 -0.001776010334037623 0.010163242352941 0 -0.0019623409384236638 0.01009183370966534 0 -0.0018793628885184128 0.010339935424275339 0 -0.0021805001415725299 0.010234983725803929 0 -0.0019623409384236638 0.01009183370966534 0 -0.0018793628885184128 0.010339935424275339 0 -0.0019893457974619177 0.009962828759980823 0 -0.0019623409384236638 0.01009183370966534 0 -0.0018141844114849478 0.0098991667188176573 0 -0.0019909635435154298 0.0097908334544496226 0 -0.0019893457974619177 0.009962828759980823 0 -0.0018141844114849478 0.0098991667188176573 0 -0.0021998464248586449 0.0093681123822172471 0 -0.0022276171893527682 0.0090217033301980606 0 -0.0024113595239982893 0.0090729361912265574 0 -0.0022276171893527682 0.0090217033301980606 0 -0.0025192907921062829 0.0087277628599885491 0 -0.0025867021849651601 0.0089003217285549656 0 -0.0022276171893527682 0.0090217033301980606 0 -0.0024113595239982893 0.0090729361912265574 0 -0.0025867021849651601 0.0089003217285549656 0 -0.0024113595239982893 0.0090729361912265574 0 -0.0025867021849651601 0.0089003217285549656 0 -0.002600715174985252 0.0088740568530229873 0 -0.0020468124963797453 0.0094624605357703055 0 -0.0019470796700476443 0.0093493663162441953 0 -0.001776010334037623 0.010163242352941 0 -0.0018141844114849478 0.0098991667188176573 0 -0.0015559087385200348 0.010107079504981109 0 -0.0019470796700476443 0.0093493663162441953 0 -0.0021588311370390641 0.0088152541429465693 0 -0.0019134026514195227 0.0089765445967363387 0 -0.0019666501811643486 0.0088981736481125711 0 -0.0018187117923990108 0.0089728066464004799 0 -0.0019923345094258562 0.008974393198842287 0 -0.0019134026514195227 0.0089765445967363387 0 -0.0018758890360792225 0.0090603313314740787 0 -0.0019470796700476443 0.0093493663162441953 0 -0.001877068600616811 0.0089293872000843644 0 -0.0021588311370390641 0.0088152541429465693 0 -0.0019932546263051487 0.008996655105172835 0 -0.0019134026514195227 0.0089765445967363387 0 -0.0018187117923990108 0.0089728066464004799 0 -0.0018758890360792225 0.0090603313314740787 0 -0.0019923345094258562 0.008974393198842287 0 -0.0019134026514195227 0.0089765445967363387 0 -0.0019666501811643486 0.0088981736481125711 0 -0.0025867021849651601 0.0089003217285549656 0 -0.0022563812674592154 0.0087990688662675041 0 -0.0020850754415846014 0.0089984677715363049 0 -0.0025867021849651601 0.0089003217285549656 0 -0.002600715174985252 0.0088740568530229873 0 -0.0022563812674592154 0.0087990688662675041 0 -0.002292827315942457 0.0081876540099647521 0 -0.002600715174985252 0.0088740568530229873 0 -0.0022563812674592154 0.0087990688662675041 0 -0.0022563812674592154 0.0087990688662675041 0 -0.0020850754415846014 0.0089984677715363049 0 -0.0017128524725148308 0.0085924612497070597 0 -0.0017749752399958084 0.0081677085975665319 0 -0.0022563812674592154 0.0087990688662675041 0 -0.0017128524725148308 0.0085924612497070597 0 -0.001877068600616811 0.0089293872000843644 0 -0.0016024337262425781 0.0089192218949059321 0 -0.0018222211723114819 0.0088350607195765898 0 -0.0018035324779850121 0.0088899819597275508 0 -0.0018742718766623469 0.0088278416912351658 0 -0.001781627677396216 0.0090583552347128019 0 -0.0018758890360792225 0.0090603313314740787 0 -0.0017577067685908174 0.0091478941087066723 0 -0.0018187117923990108 0.0089728066464004799 0 -0.001781627677396216 0.0090583552347128019 0 -0.0018758890360792225 0.0090603313314740787 0 -0.001420819620919519 0.008084816261141204 0 -0.001784852914579513 0.0080819665884804392 0 -0.0018424015838434339 0.0087905293099906565 0 -0.0018222211723114819 0.0088350607195765898 0 -0.0018742718766623469 0.0088278416912351658 0 -0.0018424015838434339 0.0087905293099906565 0 -0.0018222211723114819 0.0088350607195765898 0 -0.0017715404678334686 0.0088259373837594555 0 -0.001420819620919519 0.008084816261141204 0 -0.0016024337262425781 0.0089192218949059321 0 -0.0017276159477738003 0.0089558216081432312 0 -0.0017490196581976944 0.0088804807907164121 0 -0.0018035324779850121 0.0088899819597275508 0 -0.0017715404678334686 0.0088259373837594555 0 -0.0017490196581976944 0.0088804807907164121 0 -0.0018035324779850121 0.0088899819597275508 0 -0.0018222211723114819 0.0088350607195765898 0 -0.0017715404678334686 0.0088259373837594555 0 -0.0018035324779850121 0.0088899819597275508 0 -0.0019470796700476443 0.0093493663162441953 0 -0.0019033324093110056 0.0092250160698982252 0 -0.0017276159477738003 0.0089558216081432312 0 -0.0017490196581976944 0.0088804807907164121 0 -0.0016955278770645805 0.0088641413038202874 0 -0.0017715404678334686 0.0088259373837594555 0 -0.0017490196581976944 0.0088804807907164121 0 -0.0016955278770645805 0.0088641413038202874 0 -0.001776010334037623 0.010163242352941 0 -0.0015559087385200348 0.010107079504981109 0 -0.001659948388079206 0.010418991748801757 0 -0.0019033324093110056 0.0092250160698982252 0 -0.0023900833283747773 0.0088343339821282708 0 -0.0020603009704074087 0.0072938403114147145 0 -0.0019227162569604166 0.0076964241027272819 0 -0.0022502570830363424 0.0077599129620921376 0 -0.0016537197348990777 0.0074676707736371865 0 -0.0020603009704074087 0.0072938403114147145 0 -0.0019227162569604166 0.0076964241027272819 0 -0.001784852914579513 0.0080819665884804392 0 -0.0019033324093110056 0.0092250160698982252 0 -0.0024881575852550909 0.010192694099533021 0 -0.0024150075410047612 0.010148110721511124 0 -0.0024918274932871714 0.010066188653056838 0 -0.0023946166873377132 0.010047312922302239 0 -0.0024150075410047612 0.010148110721511124 0 -0.0024918274932871714 0.010066188653056838 0 -0.0022962134714278079 0.010178600253314147 0 -0.0024150075410047612 0.010148110721511124 0 -0.0023769521639493418 0.010233426912183683 0 -0.001776010334037623 0.010163242352941 0 -0.001659948388079206 0.010418991748801757 0 -0.0018793628885184128 0.010339935424275339 0 -0.0024881575852550909 0.010192694099533021 0 -0.0024150075410047612 0.010148110721511124 0 -0.0023769521639493418 0.010233426912183683 0 -0.0019033324093110056 0.0092250160698982252 0 -0.0020747166940553044 0.010252105517579961 0 -0.00078220024385830718 0.0084020392845942996 0 -0.00046911277234622559 0.0088203309458536761 0 0.00028357659071444937 0.0083237552327214866 0 -0.00078220024385830718 0.0084020392845942996 0 0.00028357659071444937 0.0083237552327214866 0 -0.00072237886779939894 0.0066833377174287181 0 -0.00078220024385830718 0.0084020392845942996 0 -0.0010569270478903582 0.0085020192432309939 0 -0.0010596760831299856 0.0087911317540414428 0 -0.0010596760831299856 0.0087911317540414428 0 -0.0007480417459083304 0.0087898169953136689 0 -0.00065908971331406457 0.0091245805794509631 0 -0.00078220024385830718 0.0084020392845942996 0 -0.0010596760831299856 0.0087911317540414428 0 -0.0007480417459083304 0.0087898169953136689 0 -0.00078220024385830718 0.0084020392845942996 0 -0.0007480417459083304 0.0087898169953136689 0 -0.00046911277234622559 0.0088203309458536761 0 -0.0007480417459083304 0.0087898169953136689 0 -0.00046911277234622559 0.0088203309458536761 0 -0.00065908971331406457 0.0091245805794509631 0 -0.00046911277234622559 0.0088203309458536761 0 0.00028357659071444937 0.0083237552327214866 0 -0.00025845924971430495 0.0089923730200285393 0 -3.3251847199483965e-05 0.00075438513559316679 0 -9.3903989776691121e-05 0.0010042744633302553 0 -0.0002536405373261551 0.00077542871290007327 0 -5.3146521784979796e-05 0.00053844876823960861 0 -3.3251847199483965e-05 0.00075438513559316679 0 -0.0002536405373261551 0.00077542871290007327 0 0.00013194117115520243 0.0030432598553088285 0 5.2623768164256224e-05 0.004289959515506446 0 0.00046295349341869956 0.0055558166054258352 0 0.00028357659071444937 0.0083237552327214866 0 -0.00072237886779939894 0.0066833377174287181 0 -5.3146521784979796e-05 0.00053844876823960861 0 -0.00016017005864745991 0.00041104235317970252 0 -0.0002536405373261551 0.00077542871290007327 0 -0.0014957247194397323 0.0071059934930340282 0 -0.00085727899857629549 0.008295229289983469 0 -0.0020031883703904409 0.0056638396615234883 0 -0.00078220024385830718 0.0084020392845942996 0 -0.00072237886779939894 0.0066833377174287181 0 -0.0020031883703904409 0.0056638396615234883 0 0.00046295349341869956 0.0055558166054258352 0 -0.00072237886779939894 0.0066833377174287181 0 -0.0011502802328750593 0.0082960724552349104 0 -0.00078220024385830718 0.0084020392845942996 0 -0.0010569270478903582 0.0085020192432309939 0 -0.0011502802328750593 0.0082960724552349104 0 -0.0010569270478903582 0.0085020192432309939 0 -0.0013425477113052713 0.0084833470664627507 0 -0.0010569270478903582 0.0085020192432309939 0 -0.0013425477113052713 0.0084833470664627507 0 -0.0015001598350085129 0.0087698940709632252 0 -0.0014623240633050288 0.0082758705269138245 0 -0.0011502802328750593 0.0082960724552349104 0 -0.0013425477113052713 0.0084833470664627507 0 -0.0014623240633050288 0.0082758705269138245 0 -0.0013425477113052713 0.0084833470664627507 0 -0.0017128524725148308 0.0085924612497070597 0 -0.0013425477113052713 0.0084833470664627507 0 -0.0017128524725148308 0.0085924612497070597 0 -0.0015001598350085129 0.0087698940709632252 0 -0.0019932546263051487 0.008996655105172835 0 -0.0014798522564631264 0.0090749086205388976 0 -0.0020850754415846014 0.0089984677715363049 0 -0.0017128524725148308 0.0085924612497070597 0 -0.0015001598350085129 0.0087698940709632252 0 -0.0020850754415846014 0.0089984677715363049 0 -0.0015001598350085129 0.0087698940709632252 0 -0.0014922289535085457 0.0092282140631542112 0 -0.0010900824100947824 0.0085738909803845867 0 -0.0014798522564631264 0.0090749086205388976 0 -0.0010569270478903582 0.0085020192432309939 0 -0.0015001598350085129 0.0087698940709632252 0 -0.0014922289535085457 0.0092282140631542112 0 -0.0010569270478903582 0.0085020192432309939 0 -0.0010596760831299856 0.0087911317540414428 0 -0.001507091709855786 0.009047680884648579 0 -0.0014798522564631264 0.0090749086205388976 0 -0.001047439823336127 0.0091512232544177022 0 -0.0013128443728026721 0.009037902289767169 0 -0.001507091709855786 0.009047680884648579 0 -0.0010495581641943449 0.0091608167173286032 0 -0.0010596760831299856 0.0087911317540414428 0 -0.0013128443728026721 0.009037902289767169 0 -0.001507091709855786 0.009047680884648579 0 -0.0012977929833233191 0.0090251771448018395 0 -0.001237776445173264 0.0091852041465987719 0 -0.0010495581641943449 0.0091608167173286032 0 -0.0018187117923990108 0.0089728066464004799 0 -0.001781627677396216 0.0090583552347128019 0 -0.0016683071942315165 0.0090486619042151276 0 -0.0012977929833233191 0.0090251771448018395 0 -0.001435017376107722 0.00917759652205964 0 -0.001237776445173264 0.0091852041465987719 0 -0.001781627677396216 0.0090583552347128019 0 -0.0016683071942315165 0.0090486619042151276 0 -0.0017577067685908174 0.0091478941087066723 0 -0.0014798522564631264 0.0090749086205388976 0 -0.0016024337262425781 0.0089192218949059321 0 -0.001298440233605669 0.0082581890811489408 0 -0.0010409001130684853 0.0084502031473957621 0 -0.0011200343099659119 0.0085345810822028204 0 -0.001426522221010621 0.0084008958608034617 0 -0.001298440233605669 0.0082581890811489408 0 -0.0011200343099659119 0.0085345810822028204 0 -0.001435017376107722 0.00917759652205964 0 -0.001237776445173264 0.0091852041465987719 0 -0.0012829971835115689 0.0092933295479512307 0 -0.0016024337262425781 0.0089192218949059321 0 -0.0011406352553735609 0.0088966971996836813 0 -0.001237776445173264 0.0091852041465987719 0 -0.0011204844562210825 0.0092517751101393979 0 -0.0012829971835115689 0.0092933295479512307 0 -0.001237776445173264 0.0091852041465987719 0 -0.0011204844562210825 0.0092517751101393979 0 -0.0010495581641943449 0.0091608167173286032 0 -0.0011204844562210825 0.0092517751101393979 0 -0.0010495581641943449 0.0091608167173286032 0 -0.00087124120241865587 0.009211549045867887 0 -0.0011204844562210825 0.0092517751101393979 0 -0.00087124120241865587 0.009211549045867887 0 -0.0011308070737163247 0.009411234981311677 0 -0.0010596760831299856 0.0087911317540414428 0 -0.0013128443728026721 0.009037902289767169 0 -0.00065908971331406457 0.0091245805794509631 0 -0.0010578464557957938 0.0099221775099845519 0 -0.00069410361214745182 0.0064714672408958058 0 -0.0013128443728026721 0.009037902289767169 0 -0.0010495581641943449 0.0091608167173286032 0 -0.00085225508195167115 0.0090668842202688421 0 -0.0013128443728026721 0.009037902289767169 0 -0.00065908971331406457 0.0091245805794509631 0 -6.9186066881055772e-05 0.009615651874001839 0 -0.00046911277234622559 0.0088203309458536761 0 -0.00065908971331406457 0.0091245805794509631 0 -0.00025845924971430495 0.0089923730200285393 0 -9.3903989776691121e-05 0.0010042744633302553 0 -0.0002536405373261551 0.00077542871290007327 0 -0.00028775072524692548 0.001249820325714795 0 5.2623768164256224e-05 0.004289959515506446 0 -0.00069410361214745182 0.0064714672408958058 0 0.00028357659071444937 0.0083237552327214866 0 -0.00025845924971430495 0.0089923730200285393 0 -6.9186066881055772e-05 0.009615651874001839 0 -0.00065908971331406457 0.0091245805794509631 0 -0.00025845924971430495 0.0089923730200285393 0 -6.9186066881055772e-05 0.009615651874001839 0 -9.3903989776691121e-05 0.0010042744633302553 0 -8.6456079678602299e-05 0.0012890322462524274 0 -0.00028775072524692548 0.001249820325714795 0 -0.0010078878685005508 0.0041965336794129839 0 -0.00069410361214745182 0.0064714672408958058 0 -0.00011158972844222053 0.0052847343072038545 0 4.0254081062952552e-05 0.0056701338986624213 0 -0.00050646527322696969 0.0055989742180060113 0 -0.00052467857331454828 0.0058190095059025186 0 -0.0010053702699796938 0.0057046842444298182 0 -0.00099362055894989718 0.006229980791494524 0 -0.0010078878685005508 0.0041965336794129839 0 -0.00069730544398103667 0.0073139798193637869 0 -0.00069410361214745182 0.0064714672408958058 0 -0.00069730544398103667 0.0073139798193637869 0 -0.0010495581641943449 0.0091608167173286032 0 -0.00085225508195167115 0.0090668842202688421 0 -0.00087124120241865587 0.009211549045867887 0 4.0254081062952552e-05 0.0056701338986624213 0 -0.00050646527322696969 0.0055989742180060113 0 -0.00018131232617626887 0.0060366109985432832 0 -9.7003602907928761e-05 0.0077525096310906141 0 -9.6967272258440993e-05 0.0077640363848628883 0 -9.6323302026041241e-05 0.0077628239589247611 0 -0.00050646527322696969 0.0055989742180060113 0 -0.00018131232617626887 0.0060366109985432832 0 -0.00047666375842300186 0.0065240614697910024 0 -0.00069730544398103667 0.0073139798193637869 0 -0.00023918546085157871 0.0070172663666922723 0 -9.6967272258440993e-05 0.0077640363848628883 0 -8.4193108753756948e-05 0.0077600486180245971 0 -9.6323302026041241e-05 0.0077628239589247611 0 -0.00018131232617626887 0.0060366109985432832 0 -0.00047666375842300186 0.0065240614697910024 0 -3.1742199646299047e-05 0.0064142165728468476 0 -0.00047666375842300186 0.0065240614697910024 0 -3.1742199646299047e-05 0.0064142165728468476 0 0.00010803475260084924 0.0070506880716317243 0 -0.00023918546085157871 0.0070172663666922723 0 -0.00013946543782427517 0.0076841204888520075 0 -9.6967272258440993e-05 0.0077640363848628883 0 -8.4193108753756948e-05 0.0077600486180245971 0 -8.4518176283296994e-05 0.0077092642516844315 0 -0.00047666375842300186 0.0065240614697910024 0 -8.4518176283296994e-05 0.0077092642516844315 0 0.00010803475260084924 0.0070506880716317243 0 -8.4193108753756948e-05 0.0077600486180245971 0 -8.4518176283296994e-05 0.0077092642516844315 0 -0.00010281944106994007 0.0078539996944417441 0 -8.4193108753756948e-05 0.0077600486180245971 0 -0.00010158736109721815 0.0077657535709003559 0 -0.00010878440677452034 0.0077690784166892773 0 -0.00017814492122937881 0.0077961852782409682 0 -8.4193108753756948e-05 0.0077600486180245971 0 -0.00028054142100745176 0.0076234052249177552 0 -0.00017814492122937881 0.0077961852782409682 0 -0.00028054142100745176 0.0076234052249177552 0 -0.00028427652157780284 0.0079085333837675981 0 -6.5633954314346513e-05 0.0077657612660358144 0 -0.00050722980293706297 0.0081070086238374823 0 -0.00017814492122937881 0.0077961852782409682 0 -0.00028427652157780284 0.0079085333837675981 0 -0.00010281944106994007 0.0078539996944417441 0 -0.00017814492122937881 0.0077961852782409682 0 -8.4193108753756948e-05 0.0077600486180245971 0 -0.00010281944106994007 0.0078539996944417441 0 -0.00010158736109721815 0.0077657535709003559 0 -9.6323302026041241e-05 0.0077628239589247611 0 -0.00010345605258418975 0.0077660262810988687 0 -9.7003602907928761e-05 0.0077525096310906141 0 -9.6323302026041241e-05 0.0077628239589247611 0 -0.00010345605258418975 0.0077660262810988687 0 -0.00069730544398103667 0.0073139798193637869 0 -0.00071221270239243495 0.0085255553902282601 0 -0.00010158736109721815 0.0077657535709003559 0 -0.00010878440677452034 0.0077690784166892773 0 -0.00010673684732912687 0.0077663586252573634 0 -0.00062876193073850106 0.0084321077730244425 0 -0.00071221270239243495 0.0085255553902282601 0 -8.4193108753756948e-05 0.0077600486180245971 0 -0.00010158736109721815 0.0077657535709003559 0 -9.6323302026041241e-05 0.0077628239589247611 0 -0.00050722980293706297 0.0081070086238374823 0 -0.0010105773876640457 0.0081710776322412131 0 -0.0010409001130684853 0.0084502031473957621 0 -0.00080915660624466331 0.0086671664753133117 0 -0.0011200343099659119 0.0085345810822028204 0 -0.0005651173294691712 0.0079470663025700584 0 -0.0008843891102761481 0.0078031231221013225 0 -0.00082762565052192975 0.0081682544507919574 0 -0.0011406352553735609 0.0088966971996836813 0 -0.00071221270239243495 0.0085255553902282601 0 -0.0011204844562210825 0.0092517751101393979 0 -0.0012829971835115689 0.0092933295479512307 0 -0.0011308070737163247 0.009411234981311677 0 -0.0010409001130684853 0.0084502031473957621 0 -0.00080915660624466331 0.0086671664753133117 0 -0.00078013061264605625 0.0086424154182901981 0 -0.00050722980293706297 0.0081070086238374823 0 -0.00071221270239243495 0.0085255553902282601 0 -0.001420819620919519 0.008084816261141204 0 -0.0010105773876640457 0.0081710776322412131 0 -0.0012335113724815778 0.0076349240016938416 0 -0.0008843891102761481 0.0078031231221013225 0 -0.0011400389907985007 0.0080745053351707254 0 -0.00082762565052192975 0.0081682544507919574 0 -0.0010300517019532877 0.0083396316624483359 0 -0.0011400389907985007 0.0080745053351707254 0 -0.0008843891102761481 0.0078031231221013225 0 -0.00082762565052192975 0.0081682544507919574 0 -0.0011400389907985007 0.0080745053351707254 0 -0.00028054142100745176 0.0076234052249177552 0 -0.0005839207904214924 0.0078426828667113209 0 -0.00028427652157780284 0.0079085333837675981 0 -0.00050722980293706297 0.0081070086238374823 0 -0.00067302868375736322 0.0079818938311958573 0 -0.0005839207904214924 0.0078426828667113209 0 -0.00028427652157780284 0.0079085333837675981 0 -0.00051329952449704762 0.0081863566904080316 0 -0.00028427652157780284 0.0079085333837675981 0 -0.00051329952449704762 0.0081863566904080316 0 -0.00021723363315941731 0.0083043468682359959 0 -0.00051329952449704762 0.0081863566904080316 0 -0.00059744043396443261 0.0085214694652989646 0 -0.00021723363315941731 0.0083043468682359959 0 -0.00051329952449704762 0.0081863566904080316 0 -0.0010300517019532877 0.0083396316624483359 0 -0.00059744043396443261 0.0085214694652989646 0 -0.0005839207904214924 0.0078426828667113209 0 -0.00051329952449704762 0.0081863566904080316 0 -0.0010300517019532877 0.0083396316624483359 0 -0.00067302868375736322 0.0079818938311958573 0 -0.0010102158344402409 0.0083058712683964381 0 -0.00059744043396443261 0.0085214694652989646 0 -0.0008658900059147095 0.0089357238530529681 0 -0.00036424591463216657 0.0087904721414683237 0 -0.0010300517019532877 0.0083396316624483359 0 -0.00059744043396443261 0.0085214694652989646 0 -0.0008658900059147095 0.0089357238530529681 0 -0.00059744043396443261 0.0085214694652989646 0 -0.00036424591463216657 0.0087904721414683237 0 -0.00021723363315941731 0.0083043468682359959 0 -0.00036424591463216657 0.0087904721414683237 0 -0.00021723363315941731 0.0083043468682359959 0 6.6111269000403174e-05 0.0088340817577317616 0 -0.00021723363315941731 0.0083043468682359959 0 3.5277546380388776e-05 0.0081652346687775598 0 6.6111269000403174e-05 0.0088340817577317616 0 3.5277546380388776e-05 0.0081652346687775598 0 0.00026525586397969681 0.0083789351223467097 0 0.0002651710949793354 0.0080144656585068291 0 3.5277546380388776e-05 0.0081652346687775598 0 -8.4518176283296994e-05 0.0077092642516844315 0 -0.00010281944106994007 0.0078539996944417441 0 3.5277546380388776e-05 0.0081652346687775598 0 -8.4518176283296994e-05 0.0077092642516844315 0 0.0002651710949793354 0.0080144656585068291 0 -0.00028427652157780284 0.0079085333837675981 0 -0.00021723363315941731 0.0083043468682359959 0 -0.00010281944106994007 0.0078539996944417441 0 -0.00021723363315941731 0.0083043468682359959 0 3.5277546380388776e-05 0.0081652346687775598 0 -0.00010281944106994007 0.0078539996944417441 0 -0.0024750998674103082 0.0083045614551444588 0 -0.0020119987718120284 0.0081943742058854761 0 -0.0021893401468670143 0.0086247008067423941 0 -0.002515610494165656 0.0090894940420968746 0 -0.0023900833283747773 0.0088343339821282708 0 -0.0023946166873377132 0.010047312922302239 0 -0.0025859139493332028 0.0098792693999098704 0 -0.0024918274932871714 0.010066188653056838 0 -0.0024750998674103082 0.0083045614551444588 0 -0.0022502570830363424 0.0077599129620921376 0 -0.0020119987718120284 0.0081943742058854761 0 -0.0019227162569604166 0.0076964241027272819 0 -0.0022502570830363424 0.0077599129620921376 0 -0.0020119987718120284 0.0081943742058854761 0 -0.0019227162569604166 0.0076964241027272819 0 -0.0020119987718120284 0.0081943742058854761 0 -0.0015898534852162441 0.0080212689259463541 0 -0.0020119987718120284 0.0081943742058854761 0 -0.0017301663069396428 0.0083962700444535181 0 -0.0019785635701982094 0.0086788708503535809 0 -0.0020119987718120284 0.0081943742058854761 0 -0.0017301663069396428 0.0083962700444535181 0 -0.0015898534852162441 0.0080212689259463541 0 -0.0017301663069396428 0.0083962700444535181 0 -0.0015898534852162441 0.0080212689259463541 0 -0.0013876447551598406 0.0084145491068104341 0 -0.0016537197348990777 0.0074676707736371865 0 -0.0019227162569604166 0.0076964241027272819 0 -0.0015898534852162441 0.0080212689259463541 0 -0.0012619940228617993 0.0076412155154307907 0 -0.0016537197348990777 0.0074676707736371865 0 -0.0015898534852162441 0.0080212689259463541 0 -0.001420819620919519 0.008084816261141204 0 -0.0014704135393390711 0.0078425453708884686 0 -0.0012335113724815778 0.0076349240016938416 0 -0.0015898534852162441 0.0080212689259463541 0 -0.0011400389907985007 0.0080745053351707254 0 -0.0010300517019532877 0.0083396316624483359 0 -0.0011400389907985007 0.0080745053351707254 0 -0.0013876447551598406 0.0084145491068104341 0 -0.0015898534852162441 0.0080212689259463541 0 -0.0011400389907985007 0.0080745053351707254 0 -0.0013876447551598406 0.0084145491068104341 0 -0.0010300517019532877 0.0083396316624483359 0 -0.0013876447551598406 0.0084145491068104341 0 -0.001397150635580977 0.0088366777473575259 0 -0.0010300517019532877 0.0083396316624483359 0 -0.0008658900059147095 0.0089357238530529681 0 -0.001397150635580977 0.0088366777473575259 0 -0.0008658900059147095 0.0089357238530529681 0 -0.001397150635580977 0.0088366777473575259 0 -0.0012833861563337817 0.0092987097640536039 0 -0.001397150635580977 0.0088366777473575259 0 -0.0018399979609042872 0.0090712961127304287 0 -0.0017333075886692049 0.0087214637353287012 0 -0.001397150635580977 0.0088366777473575259 0 -0.0018399979609042872 0.0090712961127304287 0 -0.0016752737911710116 0.0092724384200322339 0 -0.0018399979609042872 0.0090712961127304287 0 -0.0017333075886692049 0.0087214637353287012 0 -0.0020485146561129075 0.0089647404832220948 0 -0.0013876447551598406 0.0084145491068104341 0 -0.001397150635580977 0.0088366777473575259 0 -0.0017333075886692049 0.0087214637353287012 0 -0.0017301663069396428 0.0083962700444535181 0 -0.0013876447551598406 0.0084145491068104341 0 -0.0017333075886692049 0.0087214637353287012 0 -0.0017301663069396428 0.0083962700444535181 0 -0.0017333075886692049 0.0087214637353287012 0 -0.0019785635701982094 0.0086788708503535809 0 -0.0020119987718120284 0.0081943742058854761 0 -0.0021893401468670143 0.0086247008067423941 0 -0.0019785635701982094 0.0086788708503535809 0 -0.0022175929867478922 0.0089048590471143135 0 -0.0019785635701982094 0.0086788708503535809 0 -0.0020485146561129075 0.0089647404832220948 0 -0.0021893401468670143 0.0086247008067423941 0 -0.0022175929867478922 0.0089048590471143135 0 -0.0019785635701982094 0.0086788708503535809 0 -0.0017333075886692049 0.0087214637353287012 0 -0.0019785635701982094 0.0086788708503535809 0 -0.0020485146561129075 0.0089647404832220948 0 -0.0018399979609042872 0.0090712961127304287 0 -0.0020485146561129075 0.0089647404832220948 0 -0.0021836374294330716 0.0092684332512174977 0 -0.0020485146561129075 0.0089647404832220948 0 -0.0022847319315850607 0.0091120418160490699 0 -0.0021836374294330716 0.0092684332512174977 0 -0.0022847319315850607 0.0091120418160490699 0 -0.0023635183784242886 0.0092714882591482667 0 -0.0021836374294330716 0.0092684332512174977 0 -0.0022175929867478922 0.0089048590471143135 0 -0.0020485146561129075 0.0089647404832220948 0 -0.0022847319315850607 0.0091120418160490699 0 -0.0022175929867478922 0.0089048590471143135 0 -0.0022847319315850607 0.0091120418160490699 0 -0.0024018066264288765 0.0090859373115475903 0 -0.0022847319315850607 0.0091120418160490699 0 -0.0024018066264288765 0.0090859373115475903 0 -0.0024355190331696998 0.0091678820790005028 0 -0.0022847319315850607 0.0091120418160490699 0 -0.0024355190331696998 0.0091678820790005028 0 -0.0023635183784242886 0.0092714882591482667 0 -0.0024355190331696998 0.0091678820790005028 0 -0.0025132775575000123 0.0091971944345597741 0 -0.0023635183784242886 0.0092714882591482667 0 -0.0024879619214860211 0.0091596011311826427 0 -0.0024355190331696998 0.0091678820790005028 0 -0.0025132775575000123 0.0091971944345597741 0 -0.0024879619214860211 0.0091596011311826427 0 -0.0024018066264288765 0.0090859373115475903 0 -0.0024355190331696998 0.0091678820790005028 0 -0.0025556785852014615 0.0091440962176460791 0 -0.0024879619214860211 0.0091596011311826427 0 -0.0024018066264288765 0.0090859373115475903 0 -0.0024750998674103082 0.0083045614551444588 0 -0.0021893401468670143 0.0086247008067423941 0 -0.0023566839809508115 0.0088856184370094057 0 -0.0025556785852014615 0.0091440962176460791 0 -0.0024750998674103082 0.0083045614551444588 0 -0.0023566839809508115 0.0088856184370094057 0 -0.0025556785852014615 0.0091440962176460791 0 -0.0024018066264288765 0.0090859373115475903 0 -0.0023566839809508115 0.0088856184370094057 0 -0.0025445596028020518 0.0091113986999349292 0 -0.002515610494165656 0.0090894940420968746 0 -0.0021893401468670143 0.0086247008067423941 0 -0.0022175929867478922 0.0089048590471143135 0 -0.0023566839809508115 0.0088856184370094057 0 -0.0022175929867478922 0.0089048590471143135 0 -0.0024018066264288765 0.0090859373115475903 0 -0.0023566839809508115 0.0088856184370094057 0 -0.000646903132752261 0.014994664940088522 0 -0.00032071289127174138 0.014790168049827182 0 -0.00012372455650842845 0.015190798890845248 0 -0.00032071289127174138 0.014790168049827182 0 -0.00052561923193430581 0.014555693747831904 0 -0.00022204973470031053 0.014465472439580615 0 -0.00078598761039321995 0.014605524183683933 0 -0.000646903132752261 0.014994664940088522 0 -0.00032071289127174138 0.014790168049827182 0 -0.00078598761039321995 0.014605524183683933 0 -0.00032071289127174138 0.014790168049827182 0 -0.00052561923193430581 0.014555693747831904 0 -0.00096875349627383348 0.014153434426077801 0 -0.00071266279624592811 0.014440275404781534 0 -0.00022204973470031053 0.014465472439580615 0 -0.0022119124688739938 0.0095686108214395067 0 -0.0020066914922523228 0.0094830687266806001 0 -0.0016325877051097842 0.0098595671939748601 0 -0.00071266279624592811 0.014440275404781534 0 -0.00052561923193430581 0.014555693747831904 0 -0.00022204973470031053 0.014465472439580615 0 -0.001648118300293219 0.011521305632715542 0 -0.0014027919533207579 0.011056289905776713 0 -0.00078598761039321995 0.014605524183683933 0 -0.00071266279624592811 0.014440275404781534 0 -0.00052561923193430581 0.014555693747831904 0 -0.0024270485935415122 0.0091946659009642835 0 -0.0014027919533207579 0.011056289905776713 0 -0.0025132775575000123 0.0091971944345597741 0 -0.0023924829453166336 0.0093496964061310743 0 -0.0023904151133223132 0.0095196606224859162 0 -0.0025132775575000123 0.0091971944345597741 0 -0.0023635183784242886 0.0092714882591482667 0 -0.0023924829453166336 0.0093496964061310743 0 -0.0023635183784242886 0.0092714882591482667 0 -0.0023924829453166336 0.0093496964061310743 0 -0.0022825281594582919 0.0094057284068541705 0 -0.0023924829453166336 0.0093496964061310743 0 -0.0023904151133223132 0.0095196606224859162 0 -0.0022825281594582919 0.0094057284068541705 0 -0.0014027919533207579 0.011056289905776713 0 -0.002182519501113582 0.010471206722483662 0 -0.0023345935716321997 0.0096065725785407768 0 -0.0022825281594582919 0.0094057284068541705 0 -0.0021894318071218836 0.00948871200427754 0 -0.0023904151133223132 0.0095196606224859162 0 -0.0023345935716321997 0.0096065725785407768 0 -0.0022825281594582919 0.0094057284068541705 0 -0.0022825281594582919 0.0094057284068541705 0 -0.0021836374294330716 0.0092684332512174977 0 -0.0021894318071218836 0.00948871200427754 0 -0.0023635183784242886 0.0092714882591482667 0 -0.0022825281594582919 0.0094057284068541705 0 -0.0021836374294330716 0.0092684332512174977 0 -0.0018399979609042872 0.0090712961127304287 0 -0.0021836374294330716 0.0092684332512174977 0 -0.0019806622407769364 0.0094427457275751414 0 -0.0021836374294330716 0.0092684332512174977 0 -0.0021894318071218836 0.00948871200427754 0 -0.0019806622407769364 0.0094427457275751414 0 -0.0021894318071218836 0.00948871200427754 0 -0.0021235987921115721 0.0097156457335317702 0 -0.0019806622407769364 0.0094427457275751414 0 -0.0023345935716321997 0.0096065725785407768 0 -0.0021894318071218836 0.00948871200427754 0 -0.0021235987921115721 0.0097156457335317702 0 -0.00032071289127174138 0.014790168049827182 0 0.00019820746946589606 0.015029471803459836 0 -0.00012372455650842845 0.015190798890845248 0 -0.0023345935716321997 0.0096065725785407768 0 -0.0021235987921115721 0.0097156457335317702 0 -0.0022155775203902806 0.010110501561203475 0 -0.00032071289127174138 0.014790168049827182 0 -0.00022204973470031053 0.014465472439580615 0 0.00019820746946589606 0.015029471803459836 0 -0.0014027919533207579 0.011056289905776713 0 -0.00093288426235398623 0.012685330132216704 0 -0.0024232528994302346 0.0094992891589518753 0 -0.0023345935716321997 0.0096065725785407768 0 -0.0022155775203902806 0.010110501561203475 0 -0.0022155775203902806 0.010110501561203475 0 -0.0017598280324877267 0.0097489246438513168 0 -0.0018663207498868231 0.011000865237380931 0 -0.0021235987921115721 0.0097156457335317702 0 -0.0022155775203902806 0.010110501561203475 0 -0.0017598280324877267 0.0097489246438513168 0 -0.0021235987921115721 0.0097156457335317702 0 -0.0017598280324877267 0.0097489246438513168 0 -0.0019806622407769364 0.0094427457275751414 0 -0.0017598280324877267 0.0097489246438513168 0 -0.0019806622407769364 0.0094427457275751414 0 -0.0016752737911710116 0.0092724384200322339 0 -0.0018399979609042872 0.0090712961127304287 0 -0.0019806622407769364 0.0094427457275751414 0 -0.0016752737911710116 0.0092724384200322339 0 -0.0017598280324877267 0.0097489246438513168 0 -0.0016752737911710116 0.0092724384200322339 0 -0.0012833861563337817 0.0092987097640536039 0 -0.001397150635580977 0.0088366777473575259 0 -0.0016752737911710116 0.0092724384200322339 0 -0.0012833861563337817 0.0092987097640536039 0 -0.0008658900059147095 0.0089357238530529681 0 -0.0012833861563337817 0.0092987097640536039 0 -0.00095502120305787652 0.0097991605827033434 0 -0.0017598280324877267 0.0097489246438513168 0 -0.0012833861563337817 0.0092987097640536039 0 -0.00095502120305787652 0.0097991605827033434 0 -0.0017598280324877267 0.0097489246438513168 0 -0.00095502120305787652 0.0097991605827033434 0 -0.0018663207498868231 0.011000865237380931 0 -0.00061458877514210871 0.010900866854456761 0 -0.00038524549356090893 0.01307013437685204 0 -0.0018663207498868231 0.011000865237380931 0 -0.00095502120305787652 0.0097991605827033434 0 -0.00061458877514210871 0.010900866854456761 0 -0.0018663207498868231 0.011000865237380931 0 -0.00038524549356090893 0.01307013437685204 0 -6.754731858123792e-07 0.014194749377767699 0 9.1626390267091504e-05 0.014925105273827953 0 -0.00038524549356090893 0.01307013437685204 0 -6.754731858123792e-07 0.014194749377767699 0 -4.0242081182157633e-07 0.012248732848341248 0 -0.00037909802395584482 0.013178674511095112 0 -0.00080621260324802082 0.012945564488462206 0 -6.754731858123792e-07 0.014194749377767699 0 9.1626390267091504e-05 0.014925105273827953 0 0.00015002700792863836 0.015301278470922854 0 -6.754731858123792e-07 0.014194749377767699 0 0.00015002700792863836 0.015301278470922854 0 5.1702750407878795e-07 0.016142802351535073 0 9.1626390267091504e-05 0.014925105273827953 0 0.00014689311731253874 0.015378917897701324 0 0.00015002700792863836 0.015301278470922854 0 0.00019820746946589606 0.015029471803459836 0 9.1626390267091504e-05 0.014925105273827953 0 0.00014689311731253874 0.015378917897701324 0 -0.00093288426235398623 0.012685330132216704 0 -0.00080621260324802082 0.012945564488462206 0 0.00019820746946589606 0.015029471803459836 0 0.00014689311731253874 0.015378917897701324 0 -0.00012372455650842845 0.015190798890845248 0 0.00014689311731253874 0.015378917897701324 0 -0.00019367777948623997 0.01559280169148158 0 -0.00012372455650842845 0.015190798890845248 0 0.00014689311731253874 0.015378917897701324 0 7.3343816060480888e-05 0.015908515527814037 0 -0.00019367777948623997 0.01559280169148158 0 0.00014689311731253874 0.015378917897701324 0 0.00015002700792863836 0.015301278470922854 0 7.3343816060480888e-05 0.015908515527814037 0 0.00015002700792863836 0.015301278470922854 0 5.1702750407878795e-07 0.016142802351535073 0 7.3343816060480888e-05 0.015908515527814037 0 7.3343816060480888e-05 0.015908515527814037 0 -6.4559915073564208e-05 0.016970790471988961 0 -0.00019367777948623997 0.01559280169148158 0 -0.00046511764188842178 0.016525502550706894 0 -0.00010989715778426467 0.016948788774342926 0 -9.5404666928024729e-07 0.018085378670100412 0 5.1702750407878795e-07 0.016142802351535073 0 -6.4559915073564208e-05 0.016970790471988961 0 5.1702750407878795e-07 0.016142802351535073 0 7.3343816060480888e-05 0.015908515527814037 0 -6.4559915073564208e-05 0.016970790471988961 0 -0.00095775525328823405 0.01537253709228237 0 -6.4559915073564208e-05 0.016970790471988961 0 -0.00019367777948623997 0.01559280169148158 0 -0.000646903132752261 0.014994664940088522 0 -0.00019367777948623997 0.01559280169148158 0 -0.00012372455650842845 0.015190798890845248 0 -0.00095775525328823405 0.01537253709228237 0 -0.000646903132752261 0.014994664940088522 0 -0.00019367777948623997 0.01559280169148158 0 6.6111269000403174e-05 0.0088340817577317616 0 -1.6337233019944516e-05 0.0097904078552135607 0 0.0002038977361302053 0.0093707523754467323 0 0.00032969004926883781 0.0085663578466545036 0 6.6111269000403174e-05 0.0088340817577317616 0 0.0002038977361302053 0.0093707523754467323 0 3.5277546380388776e-05 0.0081652346687775598 0 0.00026525586397969681 0.0083789351223467097 0 6.6111269000403174e-05 0.0088340817577317616 0 0.00032969004926883781 0.0085663578466545036 0 0.00026525586397969681 0.0083789351223467097 0 6.6111269000403174e-05 0.0088340817577317616 0 -0.00036424591463216657 0.0087904721414683237 0 6.6111269000403174e-05 0.0088340817577317616 0 -0.00036263454390248601 0.0093876539675066695 0 -0.0008658900059147095 0.0089357238530529681 0 -0.00095502120305787652 0.0097991605827033434 0 -0.00036263454390248601 0.0093876539675066695 0 -0.0008658900059147095 0.0089357238530529681 0 -0.00036424591463216657 0.0087904721414683237 0 -0.00036263454390248601 0.0093876539675066695 0 -0.00095502120305787652 0.0097991605827033434 0 -0.00036263454390248601 0.0093876539675066695 0 -0.00036411708153985691 0.010099274900534711 0 -0.00095502120305787652 0.0097991605827033434 0 -0.00061458877514210871 0.010900866854456761 0 -0.00036411708153985691 0.010099274900534711 0 6.6111269000403174e-05 0.0088340817577317616 0 -0.00036263454390248601 0.0093876539675066695 0 -1.6337233019944516e-05 0.0097904078552135607 0 -0.00036263454390248601 0.0093876539675066695 0 -0.00036411708153985691 0.010099274900534711 0 -1.6337233019944516e-05 0.0097904078552135607 0 -1.6337233019944516e-05 0.0097904078552135607 0 -9.9927830939102079e-05 0.010693089111688337 0 7.6317646009166497e-05 0.010758565039424593 0 -1.6337233019944516e-05 0.0097904078552135607 0 7.6317646009166497e-05 0.010758565039424593 0 0.0002038977361302053 0.0093707523754467323 0 -9.9927830939102079e-05 0.010693089111688337 0 -0.00010207067270473494 0.011774527299474955 0 7.6317646009166497e-05 0.010758565039424593 0 -0.00036411708153985691 0.010099274900534711 0 -1.6337233019944516e-05 0.0097904078552135607 0 -9.9927830939102079e-05 0.010693089111688337 0 -0.00061458877514210871 0.010900866854456761 0 -0.00036411708153985691 0.010099274900534711 0 -9.9927830939102079e-05 0.010693089111688337 0 -0.00061458877514210871 0.010900866854456761 0 -9.9927830939102079e-05 0.010693089111688337 0 -0.00010207067270473494 0.011774527299474955 0 -4.0242081182157633e-07 0.012248732848341248 0 -0.00010207067270473494 0.011774527299474955 0 7.6317646009166497e-05 0.010758565039424593 0 -0.00038524549356090893 0.01307013437685204 0 -4.0242081182157633e-07 0.012248732848341248 0 -0.00010207067270473494 0.011774527299474955 0 -0.00061458877514210871 0.010900866854456761 0 -0.00038524549356090893 0.01307013437685204 0 -0.00010207067270473494 0.011774527299474955 0 -4.0242081182157633e-07 0.012248732848341248 0 7.6317646009166497e-05 0.010758565039424593 0 5.2737280492599436e-07 0.010302384907549684 0 7.6317646009166497e-05 0.010758565039424593 0 5.2737280492599436e-07 0.010302384907549684 0 0.0002038977361302053 0.0093707523754467323 0 5.2737280492599436e-07 0.010302384907549684 0 0.0002038977361302053 0.0093707523754467323 0 0.00021408109996279916 0.0089010071288801659 0 0.00032969004926883781 0.0085663578466545036 0 0.0002038977361302053 0.0093707523754467323 0 0.00021408109996279916 0.0089010071288801659 0 5.2737280492599436e-07 0.010302384907549684 0 0.00021408109996279916 0.0089010071288801659 0 3.9916930251584349e-07 0.0083562386420241996 0 0.00021408109996279916 0.0089010071288801659 0 3.9916930251584349e-07 0.0083562386420241996 0 0.00032810746071665646 0.0078472294623995412 0 3.9916930251584349e-07 0.0083562386420241996 0 0.00032810746071665646 0.0078472294623995412 0 5.4403498012849251e-07 0.006410308020881432 0 0.00032810746071665646 0.0078472294623995412 0 5.4403498012849251e-07 0.006410308020881432 0 0.00025404504905277426 0.0068504422343271905 0 0.00032969004926883781 0.0085663578466545036 0 0.00021408109996279916 0.0089010071288801659 0 0.00032810746071665646 0.0078472294623995412 0 -1.9268237653893153e-07 0.0044637602466887907 0 5.4403498012849251e-07 0.006410308020881432 0 8.0200652319244178e-05 0.0055402288645663008 0 5.4403498012849251e-07 0.006410308020881432 0 0.00025404504905277426 0.0068504422343271905 0 8.0200652319244178e-05 0.0055402288645663008 0 8.0200652319244178e-05 0.0055402288645663008 0 4.8756707129942931e-05 0.0066820507977655335 0 -0.0004824367383661622 0.0062542831427640768 0 0.00025404504905277426 0.0068504422343271905 0 8.0200652319244178e-05 0.0055402288645663008 0 4.8756707129942931e-05 0.0066820507977655335 0 4.8756707129942931e-05 0.0066820507977655335 0 -0.00018514827031672058 0.0073653242217664103 0 -0.0004824367383661622 0.0062542831427640768 0 0.00025404504905277426 0.0068504422343271905 0 4.8756707129942931e-05 0.0066820507977655335 0 0.00023500499325420477 0.0072956262918329731 0 0.00025404504905277426 0.0068504422343271905 0 0.00023500499325420477 0.0072956262918329731 0 0.00035596742588278932 0.0075503246257102195 0 0.00023500499325420477 0.0072956262918329731 0 0.00035596742588278932 0.0075503246257102195 0 0.00035961428484311119 0.0075821980815155071 0 0.00013662033566410361 0.0075091440980306736 0 0.00023500499325420477 0.0072956262918329731 0 0.00035961428484311119 0.0075821980815155071 0 0.00013662033566410361 0.0075091440980306736 0 0.00023500499325420477 0.0072956262918329731 0 -0.00018514827031672058 0.0073653242217664103 0 4.8756707129942931e-05 0.0066820507977655335 0 0.00023500499325420477 0.0072956262918329731 0 -0.00018514827031672058 0.0073653242217664103 0 0.00032969004926883781 0.0085663578466545036 0 0.00032810746071665646 0.0078472294623995412 0 0.00035452221728491041 0.0080672317018069158 0 0.00032810746071665646 0.0078472294623995412 0 0.00025404504905277426 0.0068504422343271905 0 0.00035596742588278932 0.0075503246257102195 0 0.00032810746071665646 0.0078472294623995412 0 0.00035596742588278932 0.0075503246257102195 0 0.00035452221728491041 0.0080672317018069158 0 0.00035596742588278932 0.0075503246257102195 0 0.00035961428484311119 0.0075821980815155071 0 0.00035452221728491041 0.0080672317018069158 0 0.00021901759084546468 0.0081332581322434983 0 0.00043284373430040079 0.007927916372890937 0 0.00031744100746069662 0.0080996588416422707 0 0.00035452221728491041 0.0080672317018069158 0 0.00032825905781633756 0.0081249621599130979 0 0.00032969004926883781 0.0085663578466545036 0 0.00026525586397969681 0.0083789351223467097 0 0.00035452221728491041 0.0080672317018069158 0 0.00026525586397969681 0.0083789351223467097 0 0.00035452221728491041 0.0080672317018069158 0 0.00032825905781633756 0.0081249621599130979 0 0.00027103896860256087 0.0083530284130665777 0 0.00043743386176856985 0.0080603067146674118 0 0.00026525586397969681 0.0083789351223467097 0 0.0002651710949793354 0.0080144656585068291 0 0.0005737984175629246 0.0080505236200837903 0 0.0002651710949793354 0.0080144656585068291 0 0.00049578071839314123 0.0077391931840537914 0 0.0005737984175629246 0.0080505236200837903 0 -8.4518176283296994e-05 0.0077092642516844315 0 0.0002651710949793354 0.0080144656585068291 0 0.00027618010339819718 0.0076366336341574855 0 0.0002651710949793354 0.0080144656585068291 0 0.00049578071839314123 0.0077391931840537914 0 0.00027618010339819718 0.0076366336341574855 0 0.00049578071839314123 0.0077391931840537914 0 0.00027618010339819718 0.0076366336341574855 0 0.00053354550773146209 0.0073663768956334008 0 -8.4518176283296994e-05 0.0077092642516844315 0 0.00027618010339819718 0.0076366336341574855 0 0.00010803475260084924 0.0070506880716317243 0 0.00080491438062179287 0.007523348060353722 0 0.00091725885638206694 0.0078382348299754941 0 0.0014050745548260671 0.0075492734681435218 0 0.00080491438062179287 0.007523348060353722 0 0.00053354550773146209 0.0073663768956334008 0 0.00076825175062857521 0.007091633565364644 0 0.00049578071839314123 0.0077391931840537914 0 0.00080491438062179287 0.007523348060353722 0 0.00053354550773146209 0.0073663768956334008 0 0.00049578071839314123 0.0077391931840537914 0 0.00080491438062179287 0.007523348060353722 0 0.0005737984175629246 0.0080505236200837903 0 0.00080491438062179287 0.007523348060353722 0 0.00091725885638206694 0.0078382348299754941 0 0.0005737984175629246 0.0080505236200837903 0 0.00031744100746069662 0.0080996588416422707 0 0.00032414236987677989 0.008094983362194004 0 0.00032825905781633756 0.0081249621599130979 0 0.00046240660055568239 0.0076389357392756896 0 0.00043743386176856985 0.0080603067146674118 0 0.00031744100746069662 0.0080996588416422707 0 0.00032897083898754788 0.0080847163907629572 0 0.00034191584582397172 0.008075629996909927 0 0.00013662033566410361 0.0075091440980306736 0 0.00035961428484311119 0.0075821980815155071 0 6.9555464563375989e-05 0.0077681999774360661 0 0.00031744100746069662 0.0080996588416422707 0 0.00032414236987677989 0.008094983362194004 0 0.00032897083898754788 0.0080847163907629572 0 0.00021901759084546468 0.0081332581322434983 0 -1.7769187966313869e-05 0.0053717678075777412 0 0.00032897083898754788 0.0080847163907629572 0 0.00034191584582397172 0.008075629996909927 0 0.00033601061442735511 0.0080629754142180592 0 -0.00090404732797349781 0.002291786886403393 0 -0.0011526449976784422 0.0018028069346874239 0 -0.00064924049594850539 0.0018935678464150846 0 0.00013662033566410361 0.0075091440980306736 0 -0.00018514827031672058 0.0073653242217664103 0 6.9555464563375989e-05 0.0077681999774360661 0 -0.0011526449976784422 0.0018028069346874239 0 -0.00055644365497884904 0.001374179135141918 0 -0.00064924049594850539 0.0018935678464150846 0 -0.00062073276171445001 0.004686649554718151 0 -1.7769187966313869e-05 0.0053717678075777412 0 0.00068243831349988659 0.0058164127420584364 0 0.0016032111346066676 0.0051033456646118226 0 0.0018982393914958656 0.0052904393495706737 0 0.00068243831349988659 0.0058164127420584364 0 0.00061960714122305787 0.0056965490754368985 0 0.0016032111346066676 0.0051033456646118226 0 0.00010572032518621354 0.0050630922131935235 0 -0.00017805129351947872 0.0045186700299172334 0 0.0010571166906764419 0.003983857036822175 0 0.0010258611045221694 0.006579190825726341 0 0.0019353937406284421 0.0060584251211650009 0 0.00010572032518621354 0.0050630922131935235 0 0.0010571166906764419 0.003983857036822175 0 0.0012331100461879024 0.0042736004269782833 0 -1.7769187966313869e-05 0.0053717678075777412 0 0.00017004802260858859 0.0025489140271111157 0 0.0006888376560561793 0.0062202381436876697 0 0.0014991413089740127 0.0046978400416488155 0 0.00080491438062179287 0.007523348060353722 0 0.0014050745548260671 0.0075492734681435218 0 0.0011048060010668678 0.0070688684736174012 0 0.00032414236987677989 0.008094983362194004 0 0.00032897083898754788 0.0080847163907629572 0 0.00033601061442735511 0.0080629754142180592 0 0.00046240660055568239 0.0076389357392756896 0 0.0010258611045221694 0.006579190825726341 0 0.00046240660055568239 0.0076389357392756896 0 0.0006888376560561793 0.0062202381436876697 0 0.00025803696447452109 0.007179019160356943 0 0.0011448190228461321 0.0068398364451535201 0 0.0010698733938138978 0.0066965225046371002 0 -1.7769187966313869e-05 0.0053717678075777412 0 0.0006888376560561793 0.0062202381436876697 0 0.0006888376560561793 0.0062202381436876697 0 0.0010258611045221694 0.006579190825726341 0 0.0014050745548260671 0.0075492734681435218 0 0.0011048060010668678 0.0070688684736174012 0 0.0015999825758904783 0.006908675410112807 0 0.0015999825758904783 0.006908675410112807 0 0.0012872989921887529 0.0064509972031737183 0 0.0017657405670871592 0.0062654754525863681 0 0.0011048060010668678 0.0070688684736174012 0 0.0015999825758904783 0.006908675410112807 0 0.0012872989921887529 0.0064509972031737183 0 0.0011048060010668678 0.0070688684736174012 0 0.0012872989921887529 0.0064509972031737183 0 0.00086993194999540808 0.0065919636170264466 0 0.0024079463233210724 0.0070651747790929816 0 0.0017657405670871592 0.0062654754525863681 0 0.0026774608473067833 0.005916561173645289 0 0.0014050745548260671 0.0075492734681435218 0 0.0015999825758904783 0.006908675410112807 0 0.0024079463233210724 0.0070651747790929816 0 0.0015999825758904783 0.006908675410112807 0 0.0024079463233210724 0.0070651747790929816 0 0.0017657405670871592 0.0062654754525863681 0 0.0013113953495891284 0.0050686450039427403 0 0.0017657405670871592 0.0062654754525863681 0 0.0026774608473067833 0.005916561173645289 0 0.0013113953495891284 0.0050686450039427403 0 0.0017657405670871592 0.0062654754525863681 0 0.001049435440817452 0.0058227134701024251 0 0.0012872989921887529 0.0064509972031737183 0 0.001049435440817452 0.0058227134701024251 0 0.00086993194999540808 0.0065919636170264466 0 0.0012872989921887529 0.0064509972031737183 0 0.0017657405670871592 0.0062654754525863681 0 0.001049435440817452 0.0058227134701024251 0 0.0006903414217978071 0.005425617299113109 0 0.001049435440817452 0.0058227134701024251 0 0.00069946371964044554 0.0060939080564313365 0 0.001049435440817452 0.0058227134701024251 0 0.00069946371964044554 0.0060939080564313365 0 0.00086993194999540808 0.0065919636170264466 0 0.00069946371964044554 0.0060939080564313365 0 0.00029234640031168649 0.0065088764251646945 0 0.00055380700529630877 0.0068658512288223899 0 -0.00018131232617626887 0.0060366109985432832 0 0.00022917094949979978 0.0060143202294233094 0 -3.1742199646299047e-05 0.0064142165728468476 0 0.00022917094949979978 0.0060143202294233094 0 -3.1742199646299047e-05 0.0064142165728468476 0 0.00029234640031168649 0.0065088764251646945 0 0.00069946371964044554 0.0060939080564313365 0 0.00022917094949979978 0.0060143202294233094 0 0.00029234640031168649 0.0065088764251646945 0 0.00029234640031168649 0.0065088764251646945 0 0.00010803475260084924 0.0070506880716317243 0 0.00055380700529630877 0.0068658512288223899 0 -3.1742199646299047e-05 0.0064142165728468476 0 0.00029234640031168649 0.0065088764251646945 0 0.00010803475260084924 0.0070506880716317243 0 0.00053354550773146209 0.0073663768956334008 0 0.00010803475260084924 0.0070506880716317243 0 0.00055380700529630877 0.0068658512288223899 0 0.00027618010339819718 0.0076366336341574855 0 0.00053354550773146209 0.0073663768956334008 0 0.00010803475260084924 0.0070506880716317243 0 0.00053354550773146209 0.0073663768956334008 0 0.00076825175062857521 0.007091633565364644 0 0.00055380700529630877 0.0068658512288223899 0 0.0011048060010668678 0.0070688684736174012 0 0.00076825175062857521 0.007091633565364644 0 0.00086993194999540808 0.0065919636170264466 0 0.00080491438062179287 0.007523348060353722 0 0.0011048060010668678 0.0070688684736174012 0 0.00076825175062857521 0.007091633565364644 0 0.00069946371964044554 0.0060939080564313365 0 0.00086993194999540808 0.0065919636170264466 0 0.00055380700529630877 0.0068658512288223899 0 0.00076825175062857521 0.007091633565364644 0 0.00086993194999540808 0.0065919636170264466 0 0.00055380700529630877 0.0068658512288223899 0 0.0021958683564367483 -0.00026582489841676607 0 0.0032242149476037038 8.2990019242443498e-06 0 0.0035957130303671107 -0.00023721632015847354 0 0.0021958683564367483 -0.00026582489841676607 0 0.0032242149476037038 8.2990019242443498e-06 0 0.0016535148281494217 0.00064441672724166866 0 0.0021958683564367483 -0.00026582489841676607 0 0.0035957130303671107 -0.00023721632015847354 0 0.0013310167391232222 -0.0014080547629518067 0 0.0022362485336090729 0.0027310408596221223 0 0.00071942927619078948 -0.00012587479772970016 0 7.6348282429755901e-05 0.0010707593987893068 0 0.00020542154605593209 0.0012342508184451321 0 0.00028016252430424843 0.0012237444165528065 0 0.0011700819437553108 -0.00033509281049671894 0 0.0016535148281494217 0.00064441672724166866 0 8.7629329631268459e-05 -0.00028046256823223426 0 0.0021958683564367483 -0.00026582489841676607 0 0.0011700819437553108 -0.00033509281049671894 0 0.0013310167391232222 -0.0014080547629518067 0 0.0011700819437553108 -0.00033509281049671894 0 0.0013310167391232222 -0.0014080547629518067 0 8.7629329631268459e-05 -0.00028046256823223426 0 0.0021958683564367483 -0.00026582489841676607 0 0.0011700819437553108 -0.00033509281049671894 0 0.0016535148281494217 0.00064441672724166866 0 0.0024050827658637819 0.0011467251947336967 0 0.00025145443517351942 -0.0021802892698720515 0 0.0017443470834306097 0.001008519579746176 0 0.0016535148281494217 0.00064441672724166866 0 8.7629329631268459e-05 -0.00028046256823223426 0 0.0050082396018419368 0.0044955324374194548 0 0.0063305828620181552 0.0056391355244573144 0 0.0051374721862597877 0.0056793254712307695 0 0.0035568849354382483 0.0020362788139928717 0 0.0024050827658637819 0.0011467251947336967 0 0.0035568849354382483 0.0020362788139928717 0 0.001898454503749923 0.00040205282152041075 0 0.0032343149135673223 4.7461203134899626e-05 0 0.0017443470834306097 0.001008519579746176 0 0.0016535148281494217 0.00064441672724166866 0 0.0052160457639756188 0.0063860969164543967 0 0.0063305828620181552 0.0056391355244573144 0 0.0051374721862597877 0.0056793254712307695 0 0.0050082396018419368 0.0044955324374194548 0 0.0051374721862597877 0.0056793254712307695 0 0.0039955459272432575 0.0054158350254822551 0 0.0051374721862597877 0.0056793254712307695 0 0.0039955459272432575 0.0054158350254822551 0 0.0040146247030570983 0.0064626756345025713 0 0.0050518416865873378 0.0057337909303539717 0 0.0037039931277604294 0.0059791168663576181 0 0.0051374721862597877 0.0056793254712307695 0 0.0049423888922279771 0.0065649919191049936 0 0.0042024534186258086 0.0062011821211552347 0 0.0039955459272432575 0.0054158350254822551 0 0.0026774608473067833 0.005916561173645289 0 0.0040146247030570983 0.0064626756345025713 0 0.0030120203910678853 0.0045367356377102111 0 0.0039955459272432575 0.0054158350254822551 0 0.0026774608473067833 0.005916561173645289 0 0.0028861529340770539 0.0060049449712423156 0 0.0037039931277604294 0.0059791168663576181 0 0.0016032111346066676 0.0051033456646118226 0 0.0018982393914958656 0.0052904393495706737 0 0.0025752331861249073 0.0045243597884439615 0 0.0019353937406284421 0.0060584251211650009 0 0.0037039931277604294 0.0059791168663576181 0 0.0010571166906764419 0.003983857036822175 0 0.0023714267545817112 0.0034657741247220587 0 0.0012331100461879024 0.0042736004269782833 0 0.0024079463233210724 0.0070651747790929816 0 0.0026774608473067833 0.005916561173645289 0 0.0036213680081594534 0.0063863936141869762 0 0.0014991413089740127 0.0046978400416488155 0 0.0022362485336090729 0.0027310408596221223 0 0.0018982393914958656 0.0052904393495706737 0 0.0031554640591314837 0.0048020578644350524 0 0.0025752331861249073 0.0045243597884439615 0 0.0022362485336090729 0.0027310408596221223 0 0.00017004802260858859 0.0025489140271111157 0 0.0052160457639756188 0.0063860969164543967 0 0.0051374721862597877 0.0056793254712307695 0 0.0049423888922279771 0.0065649919191049936 0 0.0035568849354382483 0.0020362788139928717 0 0.0022362485336090729 0.0027310408596221223 0 0.0022362485336090729 0.0027310408596221223 0 0.0037039931277604294 0.0059791168663576181 0 7.6348282429755901e-05 0.0010707593987893068 0 -0.00013018869658506331 0.0013600687565103562 0 0.00020542154605593209 0.0012342508184451321 0 7.6348282429755901e-05 0.0010707593987893068 0 -0.00013018869658506331 0.0013600687565103562 0 -0.00055644365497884904 0.001374179135141918 0 -0.00013018869658506331 0.0013600687565103562 0 -0.00055644365497884904 0.001374179135141918 0 -0.00013560644274271459 0.0017296113250494765 0 -0.00013018869658506331 0.0013600687565103562 0 -0.00013560644274271459 0.0017296113250494765 0 0.00020542154605593209 0.0012342508184451321 0 -0.00064924049594850539 0.0018935678464150846 0 -0.00013560644274271459 0.0017296113250494765 0 -0.00039545937545164701 0.002326707876956941 0 -0.00055644365497884904 0.001374179135141918 0 -0.00064924049594850539 0.0018935678464150846 0 -0.00013560644274271459 0.0017296113250494765 0 -0.00013560644274271459 0.0017296113250494765 0 0.00013046664851231211 0.0020847326138724348 0 -0.00039545937545164701 0.002326707876956941 0 -0.00013560644274271459 0.0017296113250494765 0 0.00047415450406616344 0.001750790602191967 0 0.00013046664851231211 0.0020847326138724348 0 0.00047415450406616344 0.001750790602191967 0 0.00058649362189400265 0.0021875438610156942 0 0.00013046664851231211 0.0020847326138724348 0 -0.00013560644274271459 0.0017296113250494765 0 0.00047415450406616344 0.001750790602191967 0 0.00020542154605593209 0.0012342508184451321 0 0.00030854662293065859 0.0010883427513056489 0 0.00020542154605593209 0.0012342508184451321 0 0.00028016252430424843 0.0012237444165528065 0 0.00043259606580471605 0.0015479340819667556 0 0.00021206824028926409 0.0011882997022952969 0 0.00030854662293065859 0.0010883427513056489 0 0.00028016252430424843 0.0012237444165528065 0 0.00019305798629081156 0.0010809778444639403 0 0.00030854662293065859 0.0010883427513056489 0 0.00018512224341606686 0.00095779759225999574 0 0.00024745037158655983 0.00083617410069666354 0 0.00030854662293065859 0.0010883427513056489 0 0.00019305798629081156 0.0010809778444639403 0 0.00018512224341606686 0.00095779759225999574 0 0.00043259606580471605 0.0015479340819667556 0 0.00039487269654853543 0.0007237704511468292 0 0.00047415450406616344 0.001750790602191967 0 0.00071485846565028425 0.0022310971559988142 0 0.00058649362189400265 0.0021875438610156942 0 0.00018512224341606686 0.00095779759225999574 0 0.00021267546390551543 0.00082066819981177757 0 9.9241364480565908e-05 0.00084175602372939934 0 0.00018512224341606686 0.00095779759225999574 0 0.00021267546390551543 0.00082066819981177757 0 0.00024745037158655983 0.00083617410069666354 0 0.00019353145379907521 -5.6399609531334714e-05 0 0.00018801643526223418 -5.7226064540627851e-05 0 0.00018931628478095053 -5.4299524686723779e-05 0 -6.4860637111482128e-05 -0.00038679511524976199 0 0.00039487269654853543 0.0007237704511468292 0 0.00039487269654853543 0.0007237704511468292 0 0.00013944503542976609 0.00052199322859097265 0 -0.00063783595953175462 -0.0012203200208368236 0 -0.000720418017865173 -0.0015550227102157639 0 -0.00087251118386390974 -0.0013092664736709049 0 -0.0001024733740244684 0.0025979407322656517 0 -0.00013399213973610063 0.0025457831153982069 0 -9.9951710209769865e-05 0.0025555088141379916 0 0.00013944503542976609 0.00052199322859097265 0 -0.00073640548376057433 -0.00068637710920193835 0 -6.4860637111482128e-05 -0.00038679511524976199 0 -0.0011503114833928908 -0.0036139444576719724 0 -0.00063783595953175462 -0.0012203200208368236 0 -0.00056405198827119598 -0.0012375460447886766 0 -0.000720418017865173 -0.0015550227102157639 0 -6.4860637111482128e-05 -0.00038679511524976199 0 0.00013944503542976609 0.00052199322859097265 0 -0.00073640548376057433 -0.00068637710920193835 0 -0.0011503114833928908 -0.0036139444576719724 0 -0.0001024733740244684 0.0025979407322656517 0 -4.5376598946421086e-05 0.0025557893941270198 0 -9.9951710209769865e-05 0.0025555088141379916 0 0.00039487269654853543 0.0007237704511468292 0 0.00070146565571711826 0.0011239168331210506 0 0.0007160672366889147 0.0022293172443724682 0 0.00073753094961198054 0.002272297013078098 0 0.00058649362189400265 0.0021875438610156942 0 0.00058649362189400265 0.0021875438610156942 0 0.00013046664851231211 0.0020847326138724348 0 1.7128049489989459e-06 0.0025003099272502814 0 0.00013944503542976609 0.00052199322859097265 0 1.0569524748307796e-06 0.0029814591114307029 0 0.00073753094961198054 0.002272297013078098 0 0.00058649362189400265 0.0021875438610156942 0 1.7128049489989459e-06 0.0025003099272502814 0 -0.0001024733740244684 0.0025979407322656517 0 -4.5376598946421086e-05 0.0025557893941270198 0 1.7128049489989459e-06 0.0025003099272502814 0 -4.5376598946421086e-05 0.0025557893941270198 0 1.7128049489989459e-06 0.0025003099272502814 0 7.7847494615272176e-05 0.0026094203857089091 0 -4.5376598946421086e-05 0.0025557893941270198 0 -0.00016730669506170962 0.0024837145599150875 0 7.7847494615272176e-05 0.0026094203857089091 0 -6.5427646385931049e-05 0.0015088370481317836 0 0.00011699619099962013 0.0012507666463174596 0 -0.00026875403037470444 0.0010181974849899332 0 -0.00073640548376057433 -0.00068637710920193835 0 -0.00018902344405288235 0.0021724934331410393 0 -0.00013399213973610063 0.0025457831153982069 0 -9.9951710209769865e-05 0.0025555088141379916 0 -0.00016730669506170962 0.0024837145599150875 0 -4.5376598946421086e-05 0.0025557893941270198 0 -9.9951710209769865e-05 0.0025555088141379916 0 -0.00016730669506170962 0.0024837145599150875 0 -0.00090404732797349781 0.002291786886403393 0 -0.00039545937545164701 0.002326707876956941 0 -0.00071203517855191487 0.0027811083731919374 0 -0.00090404732797349781 0.002291786886403393 0 -0.00064924049594850539 0.0018935678464150846 0 -0.00039545937545164701 0.002326707876956941 0 0.00013046664851231211 0.0020847326138724348 0 -0.00039545937545164701 0.002326707876956941 0 1.7128049489989459e-06 0.0025003099272502814 0 -0.00039545937545164701 0.002326707876956941 0 1.7128049489989459e-06 0.0025003099272502814 0 -0.00020710601521281981 0.0027090966775562397 0 1.7128049489989459e-06 0.0025003099272502814 0 -0.00020710601521281981 0.0027090966775562397 0 7.7847494615272176e-05 0.0026094203857089091 0 -0.00039545937545164701 0.002326707876956941 0 -0.00020710601521281981 0.0027090966775562397 0 -0.00071203517855191487 0.0027811083731919374 0 -0.00062073276171445001 0.004686649554718151 0 -0.00049814427503678117 0.0045412878953528264 0 8.0200652319244178e-05 0.0055402288645663008 0 -0.0004824367383661622 0.0062542831427640768 0 -0.00028934305925907428 0.0037524977659024422 0 -0.00049814427503678117 0.0045412878953528264 0 -0.0003765965052011327 0.0039454477026918825 0 -0.00020710601521281981 0.0027090966775562397 0 -0.00071203517855191487 0.0027811083731919374 0 -0.00028934305925907428 0.0037524977659024422 0 -0.00020710601521281981 0.0027090966775562397 0 -0.00028934305925907428 0.0037524977659024422 0 7.7847494615272176e-05 0.0026094203857089091 0 -0.00028934305925907428 0.0037524977659024422 0 7.7847494615272176e-05 0.0026094203857089091 0 2.6517571130886566e-05 0.0018978855826296129 0 -0.00028934305925907428 0.0037524977659024422 0 -4.6704256380477311e-07 0.0025177494976321526 0 2.6517571130886566e-05 0.0018978855826296129 0 -1.9268237653893153e-07 0.0044637602466887907 0 8.0200652319244178e-05 0.0055402288645663008 0 -0.00028934305925907428 0.0037524977659024422 0 -1.9268237653893153e-07 0.0044637602466887907 0 -0.00028934305925907428 0.0037524977659024422 0 -4.6704256380477311e-07 0.0025177494976321526 0 0.00011699619099962013 0.0012507666463174596 0 2.6517571130886566e-05 0.0018978855826296129 0 5.7603487324080067e-05 0.00090136733050497346 0 0.00011699619099962013 0.0012507666463174596 0 5.7603487324080067e-05 0.00090136733050497346 0 -0.00026875403037470444 0.0010181974849899332 0 -0.00016730669506170962 0.0024837145599150875 0 7.7847494615272176e-05 0.0026094203857089091 0 2.6517571130886566e-05 0.0018978855826296129 0 -0.00018902344405288235 0.0021724934331410393 0 8.9925028847708175e-05 0.0017557826439927042 0 -4.6704256380477311e-07 0.0025177494976321526 0 2.6517571130886566e-05 0.0018978855826296129 0 7.4603149558676782e-07 0.00057072673920454775 0 2.6517571130886566e-05 0.0018978855826296129 0 7.4603149558676782e-07 0.00057072673920454775 0 5.7603487324080067e-05 0.00090136733050497346 0 7.4603149558676782e-07 0.00057072673920454775 0 5.7603487324080067e-05 0.00090136733050497346 0 -1.6145384979472553e-06 -0.0013728481987417571 0 5.7603487324080067e-05 0.00090136733050497346 0 -0.00026875403037470444 0.0010181974849899332 0 -1.6145384979472553e-06 -0.0013728481987417571 0 -0.00075846764009666109 -0.0014579853518723804 0 -1.2051388888040401e-07 -0.001375170228083011 0 -0.0012968432450386992 -0.0035816243113266366 0 -5.5574878014486197e-05 -0.0037829207326032415 0 -0.0010647487283092772 -0.0044814341695167438 0 -0.0012968432450386992 -0.0035816243113266366 0 -5.5574878014486197e-05 -0.0037829207326032415 0 -2.7361990842817535e-06 -0.0013797761820472925 0 -5.5574878014486197e-05 -0.0037829207326032415 0 -2.7361990842817535e-06 -0.0013797761820472925 0 9.6821409650978e-07 -0.0032818446906156262 0 -5.5574878014486197e-05 -0.0037829207326032415 0 9.6821409650978e-07 -0.0032818446906156262 0 6.06891534868145e-05 -0.0046236006303796715 0 9.6821409650978e-07 -0.0032818446906156262 0 6.06891534868145e-05 -0.0046236006303796715 0 -5.728540702455982e-08 -0.0051889181983708543 0 6.06891534868145e-05 -0.0046236006303796715 0 0.00013879187851061162 -0.0045181825349783506 0 -3.2327258300411642e-05 -0.0059344999293269793 0 -5.5574878014486197e-05 -0.0037829207326032415 0 6.06891534868145e-05 -0.0046236006303796715 0 0.00013879187851061162 -0.0045181825349783506 0 -0.00018194840487936273 -0.0054980024216959873 0 -0.0009249862628638774 -0.0059356056005850019 0 -0.00069269809729006625 -0.0064584441395461444 0 -0.00084740408549465623 -0.0068374319650396469 0 -0.001092117758822854 -0.0066604826877866459 0 -5.5574878014486197e-05 -0.0037829207326032415 0 0.00013879187851061162 -0.0045181825349783506 0 -0.00040177182857170174 -0.0046589839165042807 0 -0.00069269809729006625 -0.0064584441395461444 0 -0.00058231186270452182 -0.0068833510628152888 0 -0.00020755367659911424 -0.0067605423731135561 0 -0.00018194840487936273 -0.0054980024216959873 0 -2.2575845181874943e-06 -0.0058083071044277472 0 -0.00069269809729006625 -0.0064584441395461444 0 -3.2327258300411642e-05 -0.0059344999293269793 0 -0.00020755367659911424 -0.0067605423731135561 0 -0.00058231186270452182 -0.0068833510628152888 0 -0.00020755367659911424 -0.0067605423731135561 0 -0.00036391367236777408 -0.0071888526872199224 0 -0.00058231186270452182 -0.0068833510628152888 0 -0.00073326665997184464 -0.0071294608119360468 0 -0.00036391367236777408 -0.0071888526872199224 0 -0.00069269809729006625 -0.0064584441395461444 0 -0.00058231186270452182 -0.0068833510628152888 0 -0.00084740408549465623 -0.0068374319650396469 0 -0.00084740408549465623 -0.0068374319650396469 0 -0.001129296365093337 -0.0070072217715346713 0 -0.00073326665997184464 -0.0071294608119360468 0 -0.00058231186270452182 -0.0068833510628152888 0 -0.00084740408549465623 -0.0068374319650396469 0 -0.00073326665997184464 -0.0071294608119360468 0 -0.00084740408549465623 -0.0068374319650396469 0 -0.001129296365093337 -0.0070072217715346713 0 -0.001092117758822854 -0.0066604826877866459 0 -0.001129296365093337 -0.0070072217715346713 0 -0.0014748540540304208 -0.0068871847254116329 0 -0.001092117758822854 -0.0066604826877866459 0 -0.0011503114833928908 -0.0036139444576719724 0 -0.0009249862628638774 -0.0059356056005850019 0 -0.0010426031308459923 -0.0070833572210613326 0 -0.00096535366318128036 -0.0037087937456717849 0 -0.0014748540540304208 -0.0068871847254116329 0 -0.0015300832500560046 -0.0067899859680733299 0 -0.001092117758822854 -0.0066604826877866459 0 -0.00064445213010304336 -0.0022380802395286599 0 -0.00067955579287374819 -0.0022400297304532293 0 -0.00066912259001268733 -0.0022532303350284197 0 -6.4860637111482128e-05 -0.00038679511524976199 0 -0.00096535366318128036 -0.0037087937456717849 0 -0.00096535366318128036 -0.0037087937456717849 0 -0.0011503114833928908 -0.0036139444576719724 0 -0.00073640548376057433 -0.00068637710920193835 0 -0.00075846764009666109 -0.0014579853518723804 0 -0.0015454886105727168 -0.0050646672248986589 0 -0.0010647487283092772 -0.0044814341695167438 0 -0.00040177182857170174 -0.0046589839165042807 0 -0.0017616965184217722 -0.0047088795368230392 0 -0.0012968432450386992 -0.0035816243113266366 0 -0.0010647487283092772 -0.0044814341695167438 0 -0.0017616965184217722 -0.0047088795368230392 0 -0.0015454886105727168 -0.0050646672248986589 0 -0.0010647487283092772 -0.0044814341695167438 0 -5.5574878014486197e-05 -0.0037829207326032415 0 -0.0010647487283092772 -0.0044814341695167438 0 -0.00040177182857170174 -0.0046589839165042807 0 0.00013607372753563513 -0.007893404425280505 0 3.9705668556819158e-07 -0.00709479632550761 0 1.3327495264259349e-07 -0.0090005678212638548 0 0.00013607372753563513 -0.007893404425280505 0 3.9705668556819158e-07 -0.00709479632550761 0 0.00013033025747798856 -0.0066720548890994739 0 0.00013607372753563513 -0.007893404425280505 0 0.00013033025747798856 -0.0066720548890994739 0 0.00022121596842285293 -0.0072915251187431083 0 0.00013033025747798856 -0.0066720548890994739 0 -3.2327258300411642e-05 -0.0059344999293269793 0 0.00022121596842285293 -0.0072915251187431083 0 3.9705668556819158e-07 -0.00709479632550761 0 0.00013033025747798856 -0.0066720548890994739 0 -5.728540702455982e-08 -0.0051889181983708543 0 0.00013033025747798856 -0.0066720548890994739 0 -5.728540702455982e-08 -0.0051889181983708543 0 -3.2327258300411642e-05 -0.0059344999293269793 0 6.06891534868145e-05 -0.0046236006303796715 0 -5.728540702455982e-08 -0.0051889181983708543 0 -3.2327258300411642e-05 -0.0059344999293269793 0 -0.00020755367659911424 -0.0067605423731135561 0 6.8926707994938708e-06 -0.0071600838291088391 0 -0.00036391367236777408 -0.0071888526872199224 0 -0.00020755367659911424 -0.0067605423731135561 0 6.8926707994938708e-06 -0.0071600838291088391 0 0.00022121596842285293 -0.0072915251187431083 0 6.8926707994938708e-06 -0.0071600838291088391 0 0.00022121596842285293 -0.0072915251187431083 0 0.00018082614622384868 -0.0073291925521083564 0 6.8926707994938708e-06 -0.0071600838291088391 0 0.00018082614622384868 -0.0073291925521083564 0 7.4843557336494232e-05 -0.0073111370833792337 0 -3.2327258300411642e-05 -0.0059344999293269793 0 -0.00020755367659911424 -0.0067605423731135561 0 0.00022121596842285293 -0.0072915251187431083 0 0.00022121596842285293 -0.0072915251187431083 0 0.00018082614622384868 -0.0073291925521083564 0 -4.7486342335375202e-05 -0.0082952793220040476 0 0.00018082614622384868 -0.0073291925521083564 0 9.7906857645368184e-05 -0.0073245923937847127 0 7.4843557336494232e-05 -0.0073111370833792337 0 0.00018082614622384868 -0.0073291925521083564 0 -4.7486342335375202e-05 -0.0082952793220040476 0 9.7906857645368184e-05 -0.0073245923937847127 0 -0.00011157885539062818 -0.0082569681262007911 0 -0.00053664877666227196 -0.0083701388275910643 0 -4.7486342335375202e-05 -0.0082952793220040476 0 -0.0012883830501140277 -0.0094103350210536108 0 -0.00026021178942810507 -0.0093056634291585148 0 0.00013607372753563513 -0.007893404425280505 0 0.00022121596842285293 -0.0072915251187431083 0 -4.7486342335375202e-05 -0.0082952793220040476 0 -0.00074232414320869018 -0.010291724580184496 0 -0.0013927769271327166 -0.010686936230023408 0 -0.00086686220852638749 -0.011274469753229294 0 -0.00074232414320869018 -0.010291724580184496 0 -0.0014408706090575716 -0.0096988456680142301 0 -0.0013927769271327166 -0.010686936230023408 0 -0.00059356524965415108 -0.010121060073106829 0 -0.00140161027321649 -0.0097185333514181373 0 -0.00036766796059804334 -0.0099775558937947751 0 -0.0012883830501140277 -0.0094103350210536108 0 -0.0014408706090575716 -0.0096988456680142301 0 -0.00036766796059804334 -0.0099775558937947751 0 -0.0012883830501140277 -0.0094103350210536108 0 -0.00026021178942810507 -0.0093056634291585148 0 -0.00053664877666227196 -0.0083701388275910643 0 -0.0011621740568843583 -0.0090034747029974407 0 9.7906857645368184e-05 -0.0073245923937847127 0 4.0746066572751678e-05 -0.0074658068238893953 0 7.4843557336494232e-05 -0.0073111370833792337 0 -0.0012883830501140277 -0.0094103350210536108 0 -0.0014408706090575716 -0.0096988456680142301 0 -0.0021264223478290475 -0.010358692039337753 0 -0.0014408706090575716 -0.0096988456680142301 0 -0.0013927769271327166 -0.010686936230023408 0 -0.0021264223478290475 -0.010358692039337753 0 4.0746066572751678e-05 -0.0074658068238893953 0 7.4843557336494232e-05 -0.0073111370833792337 0 -8.4836021304742637e-05 -0.0073184396873045617 0 6.8926707994938708e-06 -0.0071600838291088391 0 7.4843557336494232e-05 -0.0073111370833792337 0 -8.4836021304742637e-05 -0.0073184396873045617 0 6.8926707994938708e-06 -0.0071600838291088391 0 -8.4836021304742637e-05 -0.0073184396873045617 0 -0.00036391367236777408 -0.0071888526872199224 0 -8.4836021304742637e-05 -0.0073184396873045617 0 -0.0002570472908691642 -0.0074302749243290358 0 -0.00036391367236777408 -0.0071888526872199224 0 4.0746066572751678e-05 -0.0074658068238893953 0 -0.0002570472908691642 -0.0074302749243290358 0 -0.00021175972460926102 -0.007585347533578075 0 4.0746066572751678e-05 -0.0074658068238893953 0 -8.4836021304742637e-05 -0.0073184396873045617 0 -0.0002570472908691642 -0.0074302749243290358 0 -0.0002570472908691642 -0.0074302749243290358 0 -0.00021175972460926102 -0.007585347533578075 0 -0.00038207738220047145 -0.0075545151036828118 0 4.0746066572751678e-05 -0.0074658068238893953 0 -0.00021175972460926102 -0.007585347533578075 0 -0.00026023383553072448 -0.0077500223022138829 0 -0.00021175972460926102 -0.007585347533578075 0 -0.00034532657868930911 -0.0076589244219056061 0 -0.00028507298308052967 -0.0077203292531977507 0 -0.00021175972460926102 -0.007585347533578075 0 -0.00026023383553072448 -0.0077500223022138829 0 -0.00028507298308052967 -0.0077203292531977507 0 -0.00021175972460926102 -0.007585347533578075 0 -0.00034532657868930911 -0.0076589244219056061 0 -0.00038207738220047145 -0.0075545151036828118 0 -0.00028055794263310278 -0.0077391812759411019 0 -0.00032935400266233424 -0.007740201629241418 0 -0.00037606499818772742 -0.0077533983379297223 0 -0.00028055794263310278 -0.0077391812759411019 0 -0.00028507298308052967 -0.0077203292531977507 0 -0.00032935400266233424 -0.007740201629241418 0 -0.00095084051076335522 -0.0090635946689473466 0 -0.00096779937619686477 -0.0089345286786224731 0 -0.00033402144311323924 -0.0077101806556870035 0 -0.00032935400266233424 -0.007740201629241418 0 -0.00037819920857573081 -0.0077112761322966385 0 -0.00034532657868930911 -0.0076589244219056061 0 -0.00033402144311323924 -0.0077101806556870035 0 -0.00037819920857573081 -0.0077112761322966385 0 -0.00034532657868930911 -0.0076589244219056061 0 -0.00028507298308052967 -0.0077203292531977507 0 -0.00033402144311323924 -0.0077101806556870035 0 -0.00028507298308052967 -0.0077203292531977507 0 -0.00033402144311323924 -0.0077101806556870035 0 -0.00032935400266233424 -0.007740201629241418 0 -0.00032935400266233424 -0.007740201629241418 0 -0.00037819920857573081 -0.0077112761322966385 0 -0.00037606499818772742 -0.0077533983379297223 0 -0.00058433554684139124 -0.0079419858118341922 0 -0.00058238669184016746 -0.0078511413018197869 0 -0.00065124252341619429 -0.0078505638992594409 0 -0.00058433554684139124 -0.0079419858118341922 0 -0.00058238669184016746 -0.0078511413018197869 0 -0.00049832197332152399 -0.0078175520965307367 0 -0.00095084051076335522 -0.0090635946689473466 0 -0.0015968376755282972 -0.0097447372884418501 0 -0.0027708280534094755 -0.011131826562447352 0 -0.0021529997287882173 -0.011866422933153851 0 -0.0019646482039507749 -0.011153504631149232 0 -0.0011621740568843583 -0.0090034747029974407 0 -0.00095084051076335522 -0.0090635946689473466 0 -0.0021264223478290475 -0.010358692039337753 0 -0.0027708280534094755 -0.011131826562447352 0 -0.0019646482039507749 -0.011153504631149232 0 -0.0013912541308803243 -0.011826145141892104 0 -0.00086686220852638749 -0.011274469753229294 0 -0.00089738890318404952 -0.012439373273496875 0 -0.0013927769271327166 -0.010686936230023408 0 -0.0021264223478290475 -0.010358692039337753 0 -0.0019646482039507749 -0.011153504631149232 0 -0.0013927769271327166 -0.010686936230023408 0 -0.0019646482039507749 -0.011153504631149232 0 -0.0013798742843110781 -0.011234235976583896 0 -0.0021529997287882173 -0.011866422933153851 0 -0.0019646482039507749 -0.011153504631149232 0 -0.0013912541308803243 -0.011826145141892104 0 -0.0019646482039507749 -0.011153504631149232 0 -0.0013798742843110781 -0.011234235976583896 0 -0.0013912541308803243 -0.011826145141892104 0 -0.0013798742843110781 -0.011234235976583896 0 -0.0013912541308803243 -0.011826145141892104 0 -0.00086686220852638749 -0.011274469753229294 0 -0.0013927769271327166 -0.010686936230023408 0 -0.0013798742843110781 -0.011234235976583896 0 -0.00086686220852638749 -0.011274469753229294 0 -0.0010140660541222272 -0.0074643717612341755 0 -0.001051012072865977 -0.0072236881178493802 0 -0.001138647378047428 -0.0072587504446248244 0 -0.00068731725728693547 -0.0050037155171293798 0 -0.00052422921883393857 -0.0029743170160349179 0 -0.0015671055773133484 -0.0015796138128320208 0 -0.00027475810751580328 -0.0014625154554094597 0 -0.00095122787794210391 -0.0025815993098389457 0 -0.0010140660541222272 -0.0074643717612341755 0 -0.001051012072865977 -0.0072236881178493802 0 -0.00082883896004961883 -0.0073556165636868426 0 -0.00068731725728693547 -0.0050037155171293798 0 -0.001403421876830022 -0.0073118213377254323 0 0.0013310167391232222 -0.0014080547629518067 0 -0.00027475810751580328 -0.0014625154554094597 0 -0.00095122787794210391 -0.0025815993098389457 0 0.00028016252430424843 0.0012237444165528065 0 0.00019305798629081156 0.0010809778444639403 0 -3.6018500228201092e-05 0.001059501951765122 0 0.00071942927619078948 -0.00012587479772970016 0 -0.00052422921883393857 -0.0029743170160349179 0 0.00019305798629081156 0.0010809778444639403 0 0.00018512224341606686 0.00095779759225999574 0 -3.6018500228201092e-05 0.001059501951765122 0 -0.00096535366318128036 -0.0037087937456717849 0 -0.00052422921883393857 -0.0029743170160349179 0 0.00018512224341606686 0.00095779759225999574 0 9.9241364480565908e-05 0.00084175602372939934 0 -3.6018500228201092e-05 0.001059501951765122 0 -0.0010390921637033459 -0.0069669008025371243 0 -0.0014131603280595705 -0.0068319049131918604 0 -0.0011563042484398702 -0.0072668382152702967 0 -0.0010390921637033459 -0.0069669008025371243 0 -0.001051012072865977 -0.0072236881178493802 0 -0.0011563042484398702 -0.0072668382152702967 0 -0.001607056491460044 -0.0046003545831969335 0 -0.00052422921883393857 -0.0029743170160349179 0 -0.001051012072865977 -0.0072236881178493802 0 -0.00091015876038657521 -0.0071699597142916779 0 -0.00082883896004961883 -0.0073556165636868426 0 -0.0010390921637033459 -0.0069669008025371243 0 -0.001051012072865977 -0.0072236881178493802 0 -0.00091015876038657521 -0.0071699597142916779 0 -0.0010390921637033459 -0.0069669008025371243 0 -0.00091015876038657521 -0.0071699597142916779 0 -0.00073326665997184464 -0.0071294608119360468 0 -0.00073326665997184464 -0.0071294608119360468 0 -0.0005128968470782335 -0.0073780018976340933 0 -0.00082883896004961883 -0.0073556165636868426 0 -0.0010426031308459923 -0.0070833572210613326 0 -0.00079101089110156686 -0.0070945662507330464 0 -0.00091015876038657521 -0.0071699597142916779 0 -0.00073326665997184464 -0.0071294608119360468 0 -0.00082883896004961883 -0.0073556165636868426 0 -0.00073326665997184464 -0.0071294608119360468 0 -0.00036391367236777408 -0.0071888526872199224 0 -0.0005128968470782335 -0.0073780018976340933 0 -0.0002570472908691642 -0.0074302749243290358 0 -0.00036391367236777408 -0.0071888526872199224 0 -0.0005128968470782335 -0.0073780018976340933 0 -0.0002570472908691642 -0.0074302749243290358 0 -0.0005128968470782335 -0.0073780018976340933 0 -0.00038207738220047145 -0.0075545151036828118 0 -0.0005128968470782335 -0.0073780018976340933 0 -0.00053974723177436666 -0.0075539318366728515 0 -0.00038207738220047145 -0.0075545151036828118 0 -0.0005128968470782335 -0.0073780018976340933 0 -0.00053974723177436666 -0.0075539318366728515 0 -0.00082883896004961883 -0.0073556165636868426 0 -0.00053974723177436666 -0.0075539318366728515 0 -0.00082883896004961883 -0.0073556165636868426 0 -0.00079376837337491164 -0.0075790128878405576 0 -0.00100732818952598 -0.0074921049483898019 0 -0.00082883896004961883 -0.0073556165636868426 0 -0.00079376837337491164 -0.0075790128878405576 0 -0.00100732818952598 -0.0074921049483898019 0 -0.00079376837337491164 -0.0075790128878405576 0 -0.00081383721856102299 -0.0078107363768327659 0 -0.00053974723177436666 -0.0075539318366728515 0 -0.00060588501480490612 -0.0077076557120104496 0 -0.00050341678211381807 -0.0077306769578823842 0 -0.00053974723177436666 -0.0075539318366728515 0 -0.00079376837337491164 -0.0075790128878405576 0 -0.00081383721856102299 -0.0078107363768327659 0 -0.00072152526219456965 -0.0078846985162730112 0 -0.0006475050697337737 -0.0065581511484851902 0 -0.00053974723177436666 -0.0075539318366728515 0 -0.00043919946645032604 -0.0076659935740662219 0 -0.00050341678211381807 -0.0077306769578823842 0 -0.00034532657868930911 -0.0076589244219056061 0 -0.00038207738220047145 -0.0075545151036828118 0 -0.00043919946645032604 -0.0076659935740662219 0 -0.00053974723177436666 -0.0075539318366728515 0 -0.00038207738220047145 -0.0075545151036828118 0 -0.00043919946645032604 -0.0076659935740662219 0 -0.00034532657868930911 -0.0076589244219056061 0 -0.00043919946645032604 -0.0076659935740662219 0 -0.00037819920857573081 -0.0077112761322966385 0 -0.00043919946645032604 -0.0076659935740662219 0 -0.00050341678211381807 -0.0077306769578823842 0 -0.00043758108316562856 -0.0077389283760685625 0 -0.00043919946645032604 -0.0076659935740662219 0 -0.00043758108316562856 -0.0077389283760685625 0 -0.00037819920857573081 -0.0077112761322966385 0 -0.00043758108316562856 -0.0077389283760685625 0 -0.00037819920857573081 -0.0077112761322966385 0 -0.00037606499818772742 -0.0077533983379297223 0 -0.00058238669184016746 -0.0078511413018197869 0 -0.00049832197332152399 -0.0078175520965307367 0 -0.00055267806258768744 -0.0078062825245048323 0 -0.00028055794263310278 -0.0077391812759411019 0 -0.00037606499818772742 -0.0077533983379297223 0 -0.00049832197332152399 -0.0078175520965307367 0 -0.00095084051076335522 -0.0090635946689473466 0 -0.00020306580738957883 -0.0073741881025584845 0 -0.00037606499818772742 -0.0077533983379297223 0 -0.00044683334487297317 -0.0077717840139047084 0 -0.00049832197332152399 -0.0078175520965307367 0 -0.00043758108316562856 -0.0077389283760685625 0 -0.00037606499818772742 -0.0077533983379297223 0 -0.00044683334487297317 -0.0077717840139047084 0 -0.00050341678211381807 -0.0077306769578823842 0 -0.00048172324854077063 -0.0077755189171511245 0 -0.00050570707874351896 -0.0077936622334399998 0 -0.00043758108316562856 -0.0077389283760685625 0 -0.00044683334487297317 -0.0077717840139047084 0 -0.00048172324854077063 -0.0077755189171511245 0 -0.00050341678211381807 -0.0077306769578823842 0 -0.00043758108316562856 -0.0077389283760685625 0 -0.00048172324854077063 -0.0077755189171511245 0 -0.00048172324854077063 -0.0077755189171511245 0 -0.00049832197332152399 -0.0078175520965307367 0 -0.00050570707874351896 -0.0077936622334399998 0 -0.00044683334487297317 -0.0077717840139047084 0 -0.00048172324854077063 -0.0077755189171511245 0 -0.00049832197332152399 -0.0078175520965307367 0 -0.00050570707874351896 -0.0077936622334399998 0 -0.00042183200143342881 -0.0077689475435401781 0 -0.00044861818333512537 -0.0077379458982734456 0 -0.00047277258528707753 -0.0078218060982919828 0 -0.00050570707874351896 -0.0077936622334399998 0 -0.00042183200143342881 -0.0077689475435401781 0 -0.0006475050697337737 -0.0065581511484851902 0 -0.00031592615383030116 -0.0080556119397050558 0 -0.00060588501480490612 -0.0077076557120104496 0 -0.00050341678211381807 -0.0077306769578823842 0 -0.00050570707874351896 -0.0077936622334399998 0 -0.00046042588754564926 -0.0027434468493530168 0 -0.00029978305009897518 -0.0037728235164958047 0 0.00055319336621747269 -0.0029182758542296021 0 -0.0006475050697337737 -0.0065581511484851902 0 -0.00062720131396543609 -0.0054639771862584749 0 -0.0013397271357961395 -0.0037178317845290212 0 -0.00046042588754564926 -0.0027434468493530168 0 -0.00029978305009897518 -0.0037728235164958047 0 -0.00059295769300080395 -0.0049343214851360253 0 -0.0013397271357961395 -0.0037178317845290212 0 -0.00029978305009897518 -0.0037728235164958047 0 -0.00059295769300080395 -0.0049343214851360253 0 -0.00029978305009897518 -0.0037728235164958047 0 0.00073616522299312505 -0.003898800081383384 0 -0.00068731725728693547 -0.0050037155171293798 0 -0.0006475050697337737 -0.0065581511484851902 0 -0.0015671055773133484 -0.0015796138128320208 0 -0.00027475810751580328 -0.0014625154554094597 0 8.7629329631268459e-05 -0.00028046256823223426 0 0.0013310167391232222 -0.0014080547629518067 0 -0.00027475810751580328 -0.0014625154554094597 0 8.7629329631268459e-05 -0.00028046256823223426 0 -0.00068731725728693547 -0.0050037155171293798 0 0.00025145443517351942 -0.0021802892698720515 0 -0.00029978305009897518 -0.0037728235164958047 0 0.00073616522299312505 -0.003898800081383384 0 0.00055319336621747269 -0.0029182758542296021 0 0.0020671595802705897 -0.0028519981083499806 0 0.00073616522299312505 -0.003898800081383384 0 0.00055319336621747269 -0.0029182758542296021 0 -0.00046042588754564926 -0.0027434468493530168 0 0.00055319336621747269 -0.0029182758542296021 0 0.00042351955957293987 -0.0017709240324574852 0 0.0020671595802705897 -0.0028519981083499806 0 0.00055319336621747269 -0.0029182758542296021 0 0.00042351955957293987 -0.0017709240324574852 0 0.00067974061337615387 -0.0026072868903312301 0 0.00026827391102741624 -0.0037385429553649465 0 -0.00042183200143342881 -0.0077689475435401781 0 -0.00037110613956178081 -0.007690708831632846 0 -0.00044861818333512537 -0.0077379458982734456 0 -0.00037110613956178081 -0.007690708831632846 0 -0.00044861818333512537 -0.0077379458982734456 0 -0.00044153637116634627 -0.0076884749520675479 0 -0.00062720131396543609 -0.0054639771862584749 0 0.00067974061337615387 -0.0026072868903312301 0 0.0010837652307258516 -8.0064639007731939e-05 0 0.0010068338345464915 -8.0875814014172055e-05 0 0.0011014685142012504 -0.00017725083334506941 0 0.00099881734621576844 -4.5815401040816774e-05 0 0.0010837652307258516 -8.0064639007731939e-05 0 0.0010068338345464915 -8.0875814014172055e-05 0 0.0012687859848237492 0.00100989604658546 0 0.00067974061337615387 -0.0026072868903312301 0 0.00093192858255810738 1.072848532252187e-05 0 0.00099881734621576844 -4.5815401040816774e-05 0 0.0010068338345464915 -8.0875814014172055e-05 0 0.00093192858255810738 1.072848532252187e-05 0 0.0010068338345464915 -8.0875814014172055e-05 0 0.00098946482226272927 -0.00016497668569506787 0 0.00098946482226272927 -0.00016497668569506787 0 0.0011014685142012504 -0.00017725083334506941 0 0.0010893422649907866 -0.00030197751196905118 0 0.0010068338345464915 -8.0875814014172055e-05 0 0.00098946482226272927 -0.00016497668569506787 0 0.0011014685142012504 -0.00017725083334506941 0 0.0011014685142012504 -0.00017725083334506941 0 0.0010893422649907866 -0.00030197751196905118 0 0.001157346698466294 -0.00023983935343212723 0 0.0010893422649907866 -0.00030197751196905118 0 0.001000737025990697 -0.00036633521535946905 0 0.0011323911305880408 -0.00053294632061477428 0 0.00098946482226272927 -0.00016497668569506787 0 0.0010893422649907866 -0.00030197751196905118 0 0.001000737025990697 -0.00036633521535946905 0 0.000889059531920779 -0.00011404160245795607 0 0.00098946482226272927 -0.00016497668569506787 0 0.001000737025990697 -0.00036633521535946905 0 0.0010893422649907866 -0.00030197751196905118 0 0.0012063842762996386 -0.00031241746383554994 0 0.0011323911305880408 -0.00053294632061477428 0 0.0013146011631057534 -0.00045921080282714389 0 0.0012063842762996386 -0.00031241746383554994 0 0.0011323911305880408 -0.00053294632061477428 0 0.0013146011631057534 -0.00045921080282714389 0 0.0012063842762996386 -0.00031241746383554994 0 0.0012615809573878424 -0.00017095039757413297 0 0.0010893422649907866 -0.00030197751196905118 0 0.0012063842762996386 -0.00031241746383554994 0 0.001157346698466294 -0.00023983935343212723 0 0.0011014685142012504 -0.00017725083334506941 0 0.001157346698466294 -0.00023983935343212723 0 0.0012279170719718894 -0.0001837033105379803 0 0.0012063842762996386 -0.00031241746383554994 0 0.001157346698466294 -0.00023983935343212723 0 0.0012279170719718894 -0.0001837033105379803 0 0.0012063842762996386 -0.00031241746383554994 0 0.0012279170719718894 -0.0001837033105379803 0 0.0012615809573878424 -0.00017095039757413297 0 0.00049031769925931461 -0.0060006637861255655 0 -0.00015613540674628377 -0.0066348762198493814 0 0.0013146011631057534 -0.00045921080282714389 0 0.0012615809573878424 -0.00017095039757413297 0 0.0016785971267641263 -0.00037602441437861663 0 -0.00015613540674628377 -0.0066348762198493814 0 0.00066329422768740857 -0.0065491133931958592 0 -0.00049399067185555202 -0.0076774887783503006 0 -0.0005386236263508192 -0.0077635407801602647 0 -0.00060189571212788441 -0.0077433249222756849 0 -0.00049399067185555202 -0.0076774887783503006 0 -0.00048939397316307461 -0.0077520436583143493 0 -0.0005386236263508192 -0.0077635407801602647 0 -0.00015613540674628377 -0.0066348762198493814 0 -0.00066271318305925904 -0.010594079905247298 0 0.0010837652307258516 -8.0064639007731939e-05 0 0.0012279170719718894 -0.0001837033105379803 0 0.0012513277096706855 -0.00018323759934734196 0 0.00026827391102741624 -0.0037385429553649465 0 -0.00015613540674628377 -0.0066348762198493814 0 -0.00044153637116634627 -0.0076884749520675479 0 -0.00049399067185555202 -0.0076774887783503006 0 -0.00048939397316307461 -0.0077520436583143493 0 0.0010837652307258516 -8.0064639007731939e-05 0 0.0011014685142012504 -0.00017725083334506941 0 0.0012279170719718894 -0.0001837033105379803 0 -0.00044861818333512537 -0.0077379458982734456 0 -0.00044153637116634627 -0.0076884749520675479 0 -0.00048939397316307461 -0.0077520436583143493 0 -0.00050570707874351896 -0.0077936622334399998 0 -0.00044861818333512537 -0.0077379458982734456 0 -0.00048939397316307461 -0.0077520436583143493 0 -0.00049832197332152399 -0.0078175520965307367 0 -0.00050570707874351896 -0.0077936622334399998 0 -0.00048939397316307461 -0.0077520436583143493 0 -0.00049832197332152399 -0.0078175520965307367 0 -0.00048939397316307461 -0.0077520436583143493 0 -0.0005386236263508192 -0.0077635407801602647 0 -0.00049832197332152399 -0.0078175520965307367 0 -0.0005386236263508192 -0.0077635407801602647 0 -0.00055267806258768744 -0.0078062825245048323 0 -0.00058238669184016746 -0.0078511413018197869 0 -0.00055267806258768744 -0.0078062825245048323 0 -0.00060670999157090197 -0.0077999827640163541 0 -0.0005386236263508192 -0.0077635407801602647 0 -0.00055267806258768744 -0.0078062825245048323 0 -0.00060670999157090197 -0.0077999827640163541 0 -0.00058238669184016746 -0.0078511413018197869 0 -0.00065124252341619429 -0.0078505638992594409 0 -0.00060670999157090197 -0.0077999827640163541 0 -0.00065124252341619429 -0.0078505638992594409 0 -0.00060670999157090197 -0.0077999827640163541 0 -0.0007077747339099249 -0.0078103538735164414 0 -0.00060670999157090197 -0.0077999827640163541 0 -0.00060189571212788441 -0.0077433249222756849 0 -0.0007077747339099249 -0.0078103538735164414 0 -0.00050299051956990894 -0.012655277689855577 0 -0.0003687249968594599 -0.012686410261694491 0 -0.00041239896887696484 -0.012776349333558623 0 -0.00066271318305925904 -0.010594079905247298 0 -0.00068370465632709211 -0.011007264664249857 0 -0.0005386236263508192 -0.0077635407801602647 0 -0.00060670999157090197 -0.0077999827640163541 0 -0.00060189571212788441 -0.0077433249222756849 0 -0.0013912541308803243 -0.011826145141892104 0 -0.00089738890318404952 -0.012439373273496875 0 -0.0015500930434133552 -0.012576634119207486 0 -0.0021529997287882173 -0.011866422933153851 0 -0.0013912541308803243 -0.011826145141892104 0 -0.0015500930434133552 -0.012576634119207486 0 -0.0015968376755282972 -0.0097447372884418501 0 -0.00068370465632709211 -0.011007264664249857 0 -0.0003687249968594599 -0.012686410261694491 0 -0.00032070327691964833 -0.012800210812481219 0 -0.00041239896887696484 -0.012776349333558623 0 -0.00068370465632709211 -0.011007264664249857 0 -0.00031023025172941454 -0.012995503857604337 0 -0.00084671875290544534 -0.012574462183297525 0 -0.00068370465632709211 -0.011007264664249857 0 -0.00052842567655736537 -0.012550943854575435 0 -0.00079106944251332995 -0.012624959084842289 0 -0.00059451770712150905 -0.012848009497022689 0 -0.00052842567655736537 -0.012550943854575435 0 -0.00059451770712150905 -0.012848009497022689 0 -0.00034271327038999178 -0.012844675489594849 0 -0.00032070327691964833 -0.012800210812481219 0 -0.00033949298859711064 -0.012877285996598783 0 -0.00033789490845979669 -0.012989490811463722 0 -0.00059451770712150905 -0.012848009497022689 0 -0.00033789490845979669 -0.012989490811463722 0 -0.00034271327038999178 -0.012844675489594849 0 -0.00031023025172941454 -0.012995503857604337 0 -0.00041227418677982139 -0.012893939636905778 0 -0.00032070327691964833 -0.012800210812481219 0 -0.00033949298859711064 -0.012877285996598783 0 -0.00041239896887696484 -0.012776349333558623 0 -0.00033949298859711064 -0.012877285996598783 0 -0.00041239896887696484 -0.012776349333558623 0 -0.00039638942291738577 -0.012880738254646041 0 -0.00033949298859711064 -0.012877285996598783 0 -0.00031196632674354065 -0.012918898558880641 0 -0.00039638942291738577 -0.012880738254646041 0 -0.00031196632674354065 -0.012918898558880641 0 -0.00027799656874522602 -0.012974525347960252 0 -0.00033789490845979669 -0.012989490811463722 0 -0.00033949298859711064 -0.012877285996598783 0 -0.00031196632674354065 -0.012918898558880641 0 -0.00033789490845979669 -0.012989490811463722 0 -0.00064433936774578766 -0.012597848584804224 0 -0.00050299051956990894 -0.012655277689855577 0 -0.00053048209954801825 -0.012749815603189862 0 -0.00050299051956990894 -0.012655277689855577 0 -0.00041239896887696484 -0.012776349333558623 0 -0.00053048209954801825 -0.012749815603189862 0 -0.00041239896887696484 -0.012776349333558623 0 -0.00053048209954801825 -0.012749815603189862 0 -0.00039638942291738577 -0.012880738254646041 0 0.00066329422768740857 -0.0065491133931958592 0 0.0009902521193477828 -0.0068308167958595033 0 0.0016785971267641263 -0.00037602441437861663 0 0.0016758425281626678 -0.0010104599974088281 0 0.0024015268894527703 -0.00077423822868130914 0 0.0013146011631057534 -0.00045921080282714389 0 0.0016785971267641263 -0.00037602441437861663 0 0.0016758425281626678 -0.0010104599974088281 0 0.0016758425281626678 -0.0010104599974088281 0 0.0024015268894527703 -0.00077423822868130914 0 0.0023743168826248053 -0.0019651267895868596 0 0.0016758425281626678 -0.0010104599974088281 0 0.0023743168826248053 -0.0019651267895868596 0 0.0014712591810759025 -0.0023894864235811074 0 0.0016758425281626678 -0.0010104599974088281 0 0.0014712591810759025 -0.0023894864235811074 0 0.0012270008364120739 -0.00095823316284383256 0 -0.00031196632674354065 -0.012918898558880641 0 -0.00028268517229863713 -0.012920640485786694 0 -0.00027799656874522602 -0.012974525347960252 0 0.0024015268894527703 -0.00077423822868130914 0 0.0023743168826248053 -0.0019651267895868596 0 0.0033986864198570638 -0.0014952532572857864 0 -0.00031196632674354065 -0.012918898558880641 0 -0.00039638942291738577 -0.012880738254646041 0 -0.00028268517229863713 -0.012920640485786694 0 0.0009902521193477828 -0.0068308167958595033 0 0.0015563573771759185 -0.0072074574093605641 0 0.0023743168826248053 -0.0019651267895868596 0 0.0033986864198570638 -0.0014952532572857864 0 0.003273694086182184 -0.0028641111370691086 0 0.0033986864198570638 -0.0014952532572857864 0 0.003273694086182184 -0.0028641111370691086 0 0.0044811680427325543 -0.002345397817180358 0 0.0023743168826248053 -0.0019651267895868596 0 0.003273694086182184 -0.0028641111370691086 0 0.0021174815311693629 -0.0038032907370521424 0 0.003273694086182184 -0.0028641111370691086 0 0.0021174815311693629 -0.0038032907370521424 0 0.003374711469903046 -0.0040127616340898051 0 0.003273694086182184 -0.0028641111370691086 0 0.0041730538921885309 -0.0033325671235456596 0 0.003374711469903046 -0.0040127616340898051 0 0.0016129395417448231 -0.00098313191383543998 0 0.0014124376370427912 -0.0012777661365141267 0 0.0021446331578547531 -0.0013736189654295547 0 0.0023743168826248053 -0.0019651267895868596 0 0.0014712591810759025 -0.0023894864235811074 0 0.0021174815311693629 -0.0038032907370521424 0 0.0015702164092069599 -0.001702470345478197 0 0.0021515255381205109 -0.0026055310597933893 0 0.0016129395417448231 -0.00098313191383543998 0 0.0014124376370427912 -0.0012777661365141267 0 0.0012074733017108305 -0.00094327427009323762 0 0.0016129395417448231 -0.00098313191383543998 0 0.0012074733017108305 -0.00094327427009323762 0 0.0012270008364120739 -0.00095823316284383256 0 0.0014124376370427912 -0.0012777661365141267 0 0.0012074733017108305 -0.00094327427009323762 0 0.0010334372766318642 -0.0012131412198630326 0 0.0006748990304895413 -0.0011282885402515059 0 0.0010334372766318642 -0.0012131412198630326 0 0.00096368965965711766 -0.00076855978440489307 0 0.0006748990304895413 -0.0011282885402515059 0 0.00082230448501528547 -0.00054823952347760995 0 0.00096368965965711766 -0.00076855978440489307 0 0.0012074733017108305 -0.00094327427009323762 0 0.0010334372766318642 -0.0012131412198630326 0 0.00096368965965711766 -0.00076855978440489307 0 0.0012074733017108305 -0.00094327427009323762 0 0.00096368965965711766 -0.00076855978440489307 0 0.001079170061052237 -0.00067489758422601548 0 0.00082230448501528547 -0.00054823952347760995 0 0.00096368965965711766 -0.00076855978440489307 0 0.00092001807200350709 -0.00044579192115442267 0 0.00096368965965711766 -0.00076855978440489307 0 0.001079170061052237 -0.00067489758422601548 0 0.00092001807200350709 -0.00044579192115442267 0 0.001000737025990697 -0.00036633521535946905 0 0.001079170061052237 -0.00067489758422601548 0 0.00092001807200350709 -0.00044579192115442267 0 0.000889059531920779 -0.00011404160245795607 0 0.001000737025990697 -0.00036633521535946905 0 0.00092001807200350709 -0.00044579192115442267 0 0.001000737025990697 -0.00036633521535946905 0 0.001079170061052237 -0.00067489758422601548 0 0.0011323911305880408 -0.00053294632061477428 0 0.001079170061052237 -0.00067489758422601548 0 0.0011323911305880408 -0.00053294632061477428 0 0.0012270008364120739 -0.00095823316284383256 0 0.0013146011631057534 -0.00045921080282714389 0 0.0011323911305880408 -0.00053294632061477428 0 0.0012270008364120739 -0.00095823316284383256 0 0.0013146011631057534 -0.00045921080282714389 0 0.0016758425281626678 -0.0010104599974088281 0 0.0012270008364120739 -0.00095823316284383256 0 0.0015702164092069599 -0.001702470345478197 0 0.0012494235325015979 -0.001039947979947923 0 0.0012074733017108305 -0.00094327427009323762 0 0.001079170061052237 -0.00067489758422601548 0 0.0012270008364120739 -0.00095823316284383256 0 -0.00033879038504321579 -0.012912610715266101 0 -0.00033253157470345893 -0.012953828249557776 0 -0.00036551321240686714 -0.012964031448736108 0 -0.00033879038504321579 -0.012912610715266101 0 -0.00036551321240686714 -0.012964031448736108 0 -0.00039021884575986065 -0.012936704595146549 0 -0.00033879038504321579 -0.012912610715266101 0 -0.00031037405368592596 -0.012930587591427215 0 -0.00033253157470345893 -0.012953828249557776 0 -0.00033879038504321579 -0.012912610715266101 0 -0.00031037405368592596 -0.012930587591427215 0 -0.00029531117939968747 -0.012896418811486276 0 -0.00030538251657027704 -0.012959903044428095 0 -0.00030346513981621703 -0.012986162603253288 0 -0.00034186050011706428 -0.01299180253908727 0 -0.00033253157470345893 -0.012953828249557776 0 -0.00030538251657027704 -0.012959903044428095 0 -0.00034186050011706428 -0.01299180253908727 0 -0.00031037405368592596 -0.012930587591427215 0 -0.00033253157470345893 -0.012953828249557776 0 -0.00030538251657027704 -0.012959903044428095 0 -0.0002976570283849739 -0.013891864430427732 0 0.00049593103745114344 -0.013658894268190402 0 -0.00033253157470345893 -0.012953828249557776 0 -0.00036551321240686714 -0.012964031448736108 0 -0.00034186050011706428 -0.01299180253908727 0 -0.00036551321240686714 -0.012964031448736108 0 -0.00040214269633232993 -0.012992272102242701 0 -0.00034186050011706428 -0.01299180253908727 0 -0.0002976570283849739 -0.013891864430427732 0 -0.00061128793173088967 -0.014007229322289056 0 -0.00062009587646047958 -0.014572408169647539 0 -0.00054981587506269694 -0.014881868555682225 0 -0.0008273488754343267 -0.015136728829664615 0 -0.00036551321240686714 -0.012964031448736108 0 -0.00040214269633232993 -0.012992272102242701 0 -0.00039021884575986065 -0.012936704595146549 0 0.0002847353173284157 -0.01434826649808711 0 0.00027021088783505933 -0.014545521576210634 0 0.00040977151033296238 -0.014532554219502253 0 0.0002847353173284157 -0.01434826649808711 0 -0.00028844533983090004 -0.014622805581434591 0 8.2401718074873325e-05 -0.014598623713268461 0 -0.0002976570283849739 -0.013891864430427732 0 -0.00011777998417055393 -0.014265341541263353 0 0.0002847353173284157 -0.01434826649808711 0 8.2401718074873325e-05 -0.014598623713268461 0 0.00027021088783505933 -0.014545521576210634 0 -0.00062009587646047958 -0.014572408169647539 0 -0.00054981587506269694 -0.014881868555682225 0 -0.00028844533983090004 -0.014622805581434591 0 -0.00029699997522119242 -0.014773321372032008 0 -0.00025767966656220763 -0.014728900620945996 0 -0.00032589259686222402 -0.014824260543752344 0 -0.00029699997522119242 -0.014773321372032008 0 -0.00025767966656220763 -0.014728900620945996 0 -0.00028844533983090004 -0.014622805581434591 0 -0.00025767966656220763 -0.014728900620945996 0 -0.00028844533983090004 -0.014622805581434591 0 -6.8149714916045838e-05 -0.014721691351660111 0 -0.00028844533983090004 -0.014622805581434591 0 -6.8149714916045838e-05 -0.014721691351660111 0 8.2401718074873325e-05 -0.014598623713268461 0 -0.00029699997522119242 -0.014773321372032008 0 -0.00028844533983090004 -0.014622805581434591 0 -0.00038697829390613907 -0.014943996520673528 0 -0.00054981587506269694 -0.014881868555682225 0 -0.00028844533983090004 -0.014622805581434591 0 -0.00038697829390613907 -0.014943996520673528 0 -0.00029699997522119242 -0.014773321372032008 0 -0.00038697829390613907 -0.014943996520673528 0 -0.0002929458018776137 -0.014921266082785083 0 -0.00038697829390613907 -0.014943996520673528 0 -0.00034198272052710766 -0.015185972794422469 0 -0.0002929458018776137 -0.014921266082785083 0 -0.00054981587506269694 -0.014881868555682225 0 -0.00038697829390613907 -0.014943996520673528 0 -0.00057289955827453899 -0.015095974866019355 0 -0.00038697829390613907 -0.014943996520673528 0 -0.00046725403135452733 -0.015190495294139034 0 -0.00057289955827453899 -0.015095974866019355 0 -0.00046725403135452733 -0.015190495294139034 0 -0.00057289955827453899 -0.015095974866019355 0 -0.00061643124062432393 -0.015368669862566348 0 -0.00046725403135452733 -0.015190495294139034 0 -0.00034198272052710766 -0.015185972794422469 0 -0.00041410176088353169 -0.015374907647171143 0 -0.00038697829390613907 -0.014943996520673528 0 -0.00046725403135452733 -0.015190495294139034 0 -0.00034198272052710766 -0.015185972794422469 0 -0.00054981587506269694 -0.014881868555682225 0 -0.00057289955827453899 -0.015095974866019355 0 -0.0008273488754343267 -0.015136728829664615 0 -0.00057289955827453899 -0.015095974866019355 0 -0.0008273488754343267 -0.015136728829664615 0 -0.00061643124062432393 -0.015368669862566348 0 -0.00061128793173088967 -0.014007229322289056 0 -0.00075813743138316322 -0.014277101189248432 0 -0.00061643124062432393 -0.015368669862566348 0 -0.00063586636913398685 -0.015615262948766856 0 -0.00097113742440346003 -0.015548054195380372 0 -0.0008273488754343267 -0.015136728829664615 0 -0.00061643124062432393 -0.015368669862566348 0 -0.00097113742440346003 -0.015548054195380372 0 -0.00034198272052710766 -0.015185972794422469 0 -0.00041410176088353169 -0.015374907647171143 0 -0.0002687843732892786 -0.015459198089247365 0 -0.00046725403135452733 -0.015190495294139034 0 -0.00061643124062432393 -0.015368669862566348 0 -0.00041410176088353169 -0.015374907647171143 0 -0.00061643124062432393 -0.015368669862566348 0 -0.00041410176088353169 -0.015374907647171143 0 -0.00041913666689136496 -0.015602753541398503 0 -0.00061643124062432393 -0.015368669862566348 0 -0.00041913666689136496 -0.015602753541398503 0 -0.00063586636913398685 -0.015615262948766856 0 -0.00041410176088353169 -0.015374907647171143 0 -0.00041913666689136496 -0.015602753541398503 0 -0.0002687843732892786 -0.015459198089247365 0 -0.00041913666689136496 -0.015602753541398503 0 -0.00047903326205120129 -0.015801995421295133 0 -0.00031758023490015004 -0.015786487251412466 0 -0.00041913666689136496 -0.015602753541398503 0 -0.00047903326205120129 -0.015801995421295133 0 -0.00063586636913398685 -0.015615262948766856 0 -0.00047903326205120129 -0.015801995421295133 0 -0.00063586636913398685 -0.015615262948766856 0 -0.00066430753807725663 -0.015861395911874115 0 -0.00047903326205120129 -0.015801995421295133 0 -0.00066430753807725663 -0.015861395911874115 0 -0.00053201683220697657 -0.015981789093028581 0 -0.00047903326205120129 -0.015801995421295133 0 -0.00031758023490015004 -0.015786487251412466 0 -0.00036379513994976427 -0.015952033748886173 0 -0.00078683549335411488 -0.015735131816124952 0 -0.00097113742440346003 -0.015548054195380372 0 -0.00087578506611598944 -0.015918366616698095 0 -0.00078683549335411488 -0.015735131816124952 0 -0.00063586636913398685 -0.015615262948766856 0 -0.00097113742440346003 -0.015548054195380372 0 -0.00078683549335411488 -0.015735131816124952 0 -0.00063586636913398685 -0.015615262948766856 0 -0.00066430753807725663 -0.015861395911874115 0 -0.00078683549335411488 -0.015735131816124952 0 -0.00066430753807725663 -0.015861395911874115 0 -0.00087578506611598944 -0.015918366616698095 0 -0.00097113742440346003 -0.015548054195380372 0 -0.0010997303096165689 -0.015938727488557531 0 -0.00087578506611598944 -0.015918366616698095 0 -0.00075813743138316322 -0.014277101189248432 0 0.00023249496607779933 -0.014244231273916363 0 -0.00037559230542562794 -0.012875811247227286 0 -0.00033198557213763813 -0.012850419320586311 0 -0.00035104571646526149 -0.012810846233331575 0 -0.00033879038504321579 -0.012912610715266101 0 -0.00039021884575986065 -0.012936704595146549 0 -0.00037559230542562794 -0.012875811247227286 0 -0.00033879038504321579 -0.012912610715266101 0 -0.00037559230542562794 -0.012875811247227286 0 -0.00033198557213763813 -0.012850419320586311 0 -0.00033879038504321579 -0.012912610715266101 0 -0.00030786371210286736 -0.012874078771184988 0 -0.00033198557213763813 -0.012850419320586311 0 -0.00033879038504321579 -0.012912610715266101 0 -0.00030786371210286736 -0.012874078771184988 0 -0.00029531117939968747 -0.012896418811486276 0 -0.00030786371210286736 -0.012874078771184988 0 -0.00029229900166587701 -0.012843616503962129 0 -0.00027656932886866998 -0.012862309708598784 0 -0.00030786371210286736 -0.012874078771184988 0 -0.00029531117939968747 -0.012896418811486276 0 -0.00027656932886866998 -0.012862309708598784 0 -0.00030786371210286736 -0.012874078771184988 0 -0.00029229900166587701 -0.012843616503962129 0 -0.00033198557213763813 -0.012850419320586311 0 -0.00029229900166587701 -0.012843616503962129 0 -0.00033198557213763813 -0.012850419320586311 0 -0.00030845150482252808 -0.012813584504268607 0 -0.00033198557213763813 -0.012850419320586311 0 -0.00030845150482252808 -0.012813584504268607 0 -0.00035104571646526149 -0.012810846233331575 0 -0.00029229900166587701 -0.012843616503962129 0 -0.00030845150482252808 -0.012813584504268607 0 -0.00023072558547737216 -0.012813240917516677 0 -0.00028630224157537396 -0.012804825746078998 0 -0.00017360385907076725 -0.012823032567288459 0 -1.2316065084328811e-05 -0.012774710053714309 0 -0.00023072558547737216 -0.012813240917516677 0 -0.00020499253221551458 -0.012819373757034009 0 -0.00023072558547737216 -0.012813240917516677 0 -0.00024171152025062806 -0.012836239045650176 0 -0.00020499253221551458 -0.012819373757034009 0 -0.00029229900166587701 -0.012843616503962129 0 -0.00023072558547737216 -0.012813240917516677 0 -0.00027656932886866998 -0.012862309708598784 0 0.0026896616123926447 -0.0080522543804346664 0 0.0031874886408485722 -0.0083710153444825457 0 0.0055944341532040412 -0.0032346824434049339 0 0.0057225266897462128 -0.0048098318680057268 0 0.0067297007679820598 -0.004139567709094248 0 -0.00024171152025062806 -0.012836239045650176 0 -0.00026162151477435413 -0.012869770816405059 0 -0.00026317415383361883 -0.012900999597479154 0 -0.00023072558547737216 -0.012813240917516677 0 -0.00024171152025062806 -0.012836239045650176 0 -0.00026162151477435413 -0.012869770816405059 0 -0.00026162151477435413 -0.012869770816405059 0 -0.00029531117939968747 -0.012896418811486276 0 -0.00028470662605727321 -0.012920495574161269 0 -0.00026162151477435413 -0.012869770816405059 0 -0.00029531117939968747 -0.012896418811486276 0 -0.00027656932886866998 -0.012862309708598784 0 -0.00023072558547737216 -0.012813240917516677 0 -0.00026162151477435413 -0.012869770816405059 0 -0.00027656932886866998 -0.012862309708598784 0 0.0055944341532040412 -0.0032346824434049339 0 0.0041730538921885309 -0.0033325671235456596 0 0.0044302483088315909 -0.0044309486363820136 0 -0.00024171152025062806 -0.012836239045650176 0 -0.00024590198232090949 -0.012887246780112558 0 -0.00026317415383361883 -0.012900999597479154 0 0.0026896616123926447 -0.0080522543804346664 0 0.00210650657589665 -0.0076086460225064951 0 0.0055944341532040412 -0.0032346824434049339 0 0.0041730538921885309 -0.0033325671235456596 0 0.0044811680427325543 -0.002345397817180358 0 0.003273694086182184 -0.0028641111370691086 0 0.0041730538921885309 -0.0033325671235456596 0 0.0044811680427325543 -0.002345397817180358 0 -0.00028268517229863713 -0.012920640485786694 0 -0.00024590198232090949 -0.012887246780112558 0 -0.00026650889952784158 -0.012936920972757931 0 0.0015563573771759185 -0.0072074574093605641 0 0.00210650657589665 -0.0076086460225064951 0 -0.00024590198232090949 -0.012887246780112558 0 -0.00026650889952784158 -0.012936920972757931 0 -0.00026317415383361883 -0.012900999597479154 0 -0.00026650889952784158 -0.012936920972757931 0 -0.00026317415383361883 -0.012900999597479154 0 -0.00028614390576538299 -0.012951132010032704 0 -0.00026650889952784158 -0.012936920972757931 0 -0.00027799656874522602 -0.012974525347960252 0 -0.00028649692823827744 -0.012988550461651538 0 -0.00026650889952784158 -0.012936920972757931 0 -0.00028614390576538299 -0.012951132010032704 0 -0.00028649692823827744 -0.012988550461651538 0 -0.00028268517229863713 -0.012920640485786694 0 -0.00026650889952784158 -0.012936920972757931 0 -0.00027799656874522602 -0.012974525347960252 0 -0.00031037405368592596 -0.012930587591427215 0 -0.00028470662605727321 -0.012920495574161269 0 -0.00030538251657027704 -0.012959903044428095 0 -0.00031037405368592596 -0.012930587591427215 0 -0.00029531117939968747 -0.012896418811486276 0 -0.00028470662605727321 -0.012920495574161269 0 -0.00028470662605727321 -0.012920495574161269 0 -0.00026317415383361883 -0.012900999597479154 0 -0.00028614390576538299 -0.012951132010032704 0 -0.00026162151477435413 -0.012869770816405059 0 -0.00028470662605727321 -0.012920495574161269 0 -0.00026317415383361883 -0.012900999597479154 0 -0.00028614390576538299 -0.012951132010032704 0 -0.00029910478405152294 -0.012973582408110066 0 -0.00030331155256242096 -0.013003030265047694 0 -0.00028614390576538299 -0.012951132010032704 0 -0.00029910478405152294 -0.012973582408110066 0 -0.00030538251657027704 -0.012959903044428095 0 -0.00029910478405152294 -0.012973582408110066 0 -0.00030538251657027704 -0.012959903044428095 0 -0.00030346513981621703 -0.012986162603253288 0 -0.00028470662605727321 -0.012920495574161269 0 -0.00028614390576538299 -0.012951132010032704 0 -0.00030538251657027704 -0.012959903044428095 0 0.001015189993831589 -0.01420283851160419 0 0.00028716565265616482 -0.01374341111911611 0 0.00075180820581653457 -0.013673148919343819 0 -0.00029910478405152294 -0.012973582408110066 0 -0.00030346513981621703 -0.012986162603253288 0 -0.00030331155256242096 -0.013003030265047694 0 0.00035128093063168184 -0.013586150082921231 0 2.0512717579615695e-05 -0.013369190338157085 0 -0.00028614390576538299 -0.012951132010032704 0 -0.00030331155256242096 -0.013003030265047694 0 -0.00028649692823827744 -0.012988550461651538 0 0.00028716565265616482 -0.01374341111911611 0 0.00046877662151034033 -0.013254363260560908 0 0.00012328254364017327 -0.012966052586225227 0 0.00028716565265616482 -0.01374341111911611 0 0.00046877662151034033 -0.013254363260560908 0 0.00075180820581653457 -0.013673148919343819 0 0.001015189993831589 -0.01420283851160419 0 0.00075180820581653457 -0.013673148919343819 0 0.0012157657076003634 -0.013841753180701386 0 0.00075180820581653457 -0.013673148919343819 0 0.00080413137183719334 -0.013055172872983415 0 0.0012157657076003634 -0.013841753180701386 0 0.00046877662151034033 -0.013254363260560908 0 0.00075180820581653457 -0.013673148919343819 0 0.00080413137183719334 -0.013055172872983415 0 -0.00027799656874522602 -0.012974525347960252 0 -0.00028649692823827744 -0.012988550461651538 0 -0.00026846399259296104 -0.013109574087863 0 -0.00027799656874522602 -0.012974525347960252 0 -0.00026846399259296104 -0.013109574087863 0 -0.00033789490845979669 -0.012989490811463722 0 -0.00030331155256242096 -0.013003030265047694 0 -0.00028649692823827744 -0.012988550461651538 0 -0.00026846399259296104 -0.013109574087863 0 2.0512717579615695e-05 -0.013369190338157085 0 -0.0002261907525442686 -0.013164987442912878 0 0.00028716565265616482 -0.01374341111911611 0 -0.00015866615847496331 -0.013006657517496792 0 0.00012328254364017327 -0.012966052586225227 0 0.00028716565265616482 -0.01374341111911611 0 -0.00015866615847496331 -0.013006657517496792 0 -0.00026846399259296104 -0.013109574087863 0 -0.00026846399259296104 -0.013109574087863 0 -0.00033789490845979669 -0.012989490811463722 0 -0.00034271327038999178 -0.012844675489594849 0 -0.00015866615847496331 -0.013006657517496792 0 -0.00026846399259296104 -0.013109574087863 0 -0.00034271327038999178 -0.012844675489594849 0 -0.00052842567655736537 -0.012550943854575435 0 -0.00034271327038999178 -0.012844675489594849 0 -0.00025125205624454541 -0.012349032159376319 0 -0.00034271327038999178 -0.012844675489594849 0 -0.0001141022889911218 -0.012746983020239683 0 -0.00025125205624454541 -0.012349032159376319 0 -0.00015866615847496331 -0.013006657517496792 0 -0.00034271327038999178 -0.012844675489594849 0 -0.0001141022889911218 -0.012746983020239683 0 -0.00015866615847496331 -0.013006657517496792 0 -0.0001141022889911218 -0.012746983020239683 0 0.00012328254364017327 -0.012966052586225227 0 -0.0001141022889911218 -0.012746983020239683 0 0.00012328254364017327 -0.012966052586225227 0 0.00014735580084775717 -0.012494931323182943 0 0.00014735580084775717 -0.012494931323182943 0 -0.00025125205624454541 -0.012349032159376319 0 0.000209818680957542 -0.01175535476199748 0 -0.0001141022889911218 -0.012746983020239683 0 0.00014735580084775717 -0.012494931323182943 0 -0.00025125205624454541 -0.012349032159376319 0 -0.00084671875290544534 -0.012574462183297525 0 -0.00022317979285976 -0.012348654121469852 0 -0.00089738890318404952 -0.012439373273496875 0 -0.00025125205624454541 -0.012349032159376319 0 -0.00036017109686644624 -0.011715914085293402 0 0.00080413137183719334 -0.013055172872983415 0 0.00062632670941691775 -0.012306875857507449 0 0.0011174937344011382 -0.012561285618648669 0 0.00080413137183719334 -0.013055172872983415 0 0.0011174937344011382 -0.012561285618648669 0 0.0015777278181162168 -0.012860803601977486 0 0.00080413137183719334 -0.013055172872983415 0 0.00043022728977210511 -0.012785148499841626 0 0.00062632670941691775 -0.012306875857507449 0 0.00046877662151034033 -0.013254363260560908 0 0.00080413137183719334 -0.013055172872983415 0 0.00043022728977210511 -0.012785148499841626 0 0.00046877662151034033 -0.013254363260560908 0 0.00012328254364017327 -0.012966052586225227 0 0.00043022728977210511 -0.012785148499841626 0 0.00012328254364017327 -0.012966052586225227 0 0.00014735580084775717 -0.012494931323182943 0 0.00043022728977210511 -0.012785148499841626 0 0.00014735580084775717 -0.012494931323182943 0 0.00062632670941691775 -0.012306875857507449 0 0.000209818680957542 -0.01175535476199748 0 0.00014735580084775717 -0.012494931323182943 0 0.00043022728977210511 -0.012785148499841626 0 0.00062632670941691775 -0.012306875857507449 0 0.00062632670941691775 -0.012306875857507449 0 0.00110052381272564 -0.012040461697686217 0 0.00078993564843628651 -0.011578719296884157 0 0.00062632670941691775 -0.012306875857507449 0 0.0011174937344011382 -0.012561285618648669 0 0.00110052381272564 -0.012040461697686217 0 0.0011174937344011382 -0.012561285618648669 0 0.001771616347513344 -0.012092582607351113 0 0.0015777278181162168 -0.012860803601977486 0 0.0015867806155286524 -0.014187650615494223 0 0.0014532604498306923 -0.013144014603348918 0 0.0015867806155286524 -0.014187650615494223 0 0.0014965363853983104 -0.015436979601586459 0 0.0011174937344011382 -0.012561285618648669 0 0.00110052381272564 -0.012040461697686217 0 0.001771616347513344 -0.012092582607351113 0 0.0017327799134219499 -0.017719495946336275 0 0.0011235283669927183 -0.01728126722299041 0 0.00086908836977467351 -0.017954093997799472 0 0.0017327799134219499 -0.017719495946336275 0 0.0011235283669927183 -0.01728126722299041 0 0.0016566666350217481 -0.016395983531202182 0 0.0011235283669927183 -0.01728126722299041 0 0.0016566666350217481 -0.016395983531202182 0 0.00071952969155330713 -0.016558234539047912 0 0.0016566666350217481 -0.016395983531202182 0 0.00091759841692022409 -0.015719549447534661 0 0.00071952969155330713 -0.016558234539047912 0 0.0013180267209462195 -0.013862400943751326 0 0.0012771345129845113 -0.013839960911841637 0 0.0012157657076003634 -0.013841753180701386 0 0.0012892975035692666 -0.013792400487487805 0 0.0013180267209462195 -0.013862400943751326 0 0.0012771345129845113 -0.013839960911841637 0 0.0014532604498306923 -0.013144014603348918 0 0.0012477493580892 -0.013855398386640353 0 0.00080413137183719334 -0.013055172872983415 0 0.0015777278181162168 -0.012860803601977486 0 0.0012157657076003634 -0.013841753180701386 0 0.0012157657076003634 -0.013841753180701386 0 0.0012472573095879548 -0.01413980308626475 0 0.0012429445980580655 -0.01422620250422665 0 0.0013180267209462195 -0.013862400943751326 0 0.0012157657076003634 -0.013841753180701386 0 0.0012472573095879548 -0.01413980308626475 0 0.0014965363853983104 -0.015436979601586459 0 0.0011981728253962105 -0.014473268752659247 0 0.0013180267209462195 -0.013862400943751326 0 0.0012472573095879548 -0.01413980308626475 0 0.0011966217775011615 -0.014597750924975514 0 0.0016566666350217481 -0.016395983531202182 0 0.00091759841692022409 -0.015719549447534661 0 0.0011966217775011615 -0.014597750924975514 0 0.00091759841692022409 -0.015719549447534661 0 0.0011966217775011615 -0.014597750924975514 0 0.00065498785093815652 -0.015168978958536975 0 0.0012472573095879548 -0.01413980308626475 0 0.0011966217775011615 -0.014597750924975514 0 0.0012429445980580655 -0.01422620250422665 0 0.0011966217775011615 -0.014597750924975514 0 0.0012710591218572712 -0.014344122327966644 0 0.0012429445980580655 -0.01422620250422665 0 0.0011966217775011615 -0.014597750924975514 0 0.0012710591218572712 -0.014344122327966644 0 0.00070747715751376047 -0.014473874219822328 0 0.00035128093063168184 -0.013586150082921231 0 0.00049593103745114344 -0.013658894268190402 0 0.001015189993831589 -0.01420283851160419 0 0.0012157657076003634 -0.013841753180701386 0 0.0012429445980580655 -0.01422620250422665 0 0.001015189993831589 -0.01420283851160419 0 0.0012710591218572712 -0.014344122327966644 0 0.0012429445980580655 -0.01422620250422665 0 -0.00010735856069286308 -0.01498803914625298 0 -6.8149714916045838e-05 -0.014721691351660111 0 0.00015414306084884794 -0.014834410327980467 0 -0.00010735856069286308 -0.01498803914625298 0 0.00015414306084884794 -0.014834410327980467 0 0.00026647945405974328 -0.015127276737885468 0 -0.00010735856069286308 -0.01498803914625298 0 -0.00036459881316413021 -0.014959927456621142 0 -0.00034920967451920331 -0.015336064733377749 0 -0.00010735856069286308 -0.01498803914625298 0 -0.00036459881316413021 -0.014959927456621142 0 -0.00024528316058516057 -0.014828897818825961 0 -0.00036459881316413021 -0.014959927456621142 0 -0.00024528316058516057 -0.014828897818825961 0 -0.00032589259686222402 -0.014824260543752344 0 -0.00025767966656220763 -0.014728900620945996 0 -0.00024528316058516057 -0.014828897818825961 0 -0.00032589259686222402 -0.014824260543752344 0 -0.00025767966656220763 -0.014728900620945996 0 -0.00024528316058516057 -0.014828897818825961 0 -6.8149714916045838e-05 -0.014721691351660111 0 -0.00010735856069286308 -0.01498803914625298 0 -0.00024528316058516057 -0.014828897818825961 0 -6.8149714916045838e-05 -0.014721691351660111 0 0.0002847353173284157 -0.01434826649808711 0 0.0012710591218572712 -0.014344122327966644 0 0.00070747715751376047 -0.014473874219822328 0 -6.8149714916045838e-05 -0.014721691351660111 0 8.2401718074873325e-05 -0.014598623713268461 0 0.00023837136805016524 -0.01465178127826155 0 8.2401718074873325e-05 -0.014598623713268461 0 0.00027021088783505933 -0.014545521576210634 0 0.00023837136805016524 -0.01465178127826155 0 0.00027021088783505933 -0.014545521576210634 0 0.00040977151033296238 -0.014532554219502253 0 0.00023837136805016524 -0.01465178127826155 0 0.00023837136805016524 -0.01465178127826155 0 0.00051376803373373104 -0.014739322217363257 0 0.00015414306084884794 -0.014834410327980467 0 0.00040977151033296238 -0.014532554219502253 0 0.00023837136805016524 -0.01465178127826155 0 0.00051376803373373104 -0.014739322217363257 0 -6.8149714916045838e-05 -0.014721691351660111 0 0.00023837136805016524 -0.01465178127826155 0 0.00015414306084884794 -0.014834410327980467 0 0.0002847353173284157 -0.01434826649808711 0 0.00040977151033296238 -0.014532554219502253 0 0.00070747715751376047 -0.014473874219822328 0 0.00040977151033296238 -0.014532554219502253 0 0.00070747715751376047 -0.014473874219822328 0 0.00051376803373373104 -0.014739322217363257 0 0.0011966217775011615 -0.014597750924975514 0 0.00051376803373373104 -0.014739322217363257 0 0.00065498785093815652 -0.015168978958536975 0 0.0011966217775011615 -0.014597750924975514 0 0.00070747715751376047 -0.014473874219822328 0 0.00051376803373373104 -0.014739322217363257 0 0.00051376803373373104 -0.014739322217363257 0 0.00026647945405974328 -0.015127276737885468 0 0.00065498785093815652 -0.015168978958536975 0 0.00051376803373373104 -0.014739322217363257 0 0.00015414306084884794 -0.014834410327980467 0 0.00026647945405974328 -0.015127276737885468 0 0.00026647945405974328 -0.015127276737885468 0 0.00065498785093815652 -0.015168978958536975 0 0.0004729435368446464 -0.015796990338233664 0 0.00026647945405974328 -0.015127276737885468 0 0.0004729435368446464 -0.015796990338233664 0 1.8950920423528396e-05 -0.015448030366835376 0 0.00091759841692022409 -0.015719549447534661 0 0.00065498785093815652 -0.015168978958536975 0 0.0004729435368446464 -0.015796990338233664 0 -0.00034920967451920331 -0.015336064733377749 0 -0.00038773880101358369 -0.016348903024886216 0 -0.00065290075580015856 -0.015490933717179746 0 0.0004729435368446464 -0.015796990338233664 0 1.8950920423528396e-05 -0.015448030366835376 0 -0.00038773880101358369 -0.016348903024886216 0 1.8950920423528396e-05 -0.015448030366835376 0 -0.00034920967451920331 -0.015336064733377749 0 -0.00038773880101358369 -0.016348903024886216 0 -0.00010735856069286308 -0.01498803914625298 0 1.8950920423528396e-05 -0.015448030366835376 0 -0.00034920967451920331 -0.015336064733377749 0 -0.00010735856069286308 -0.01498803914625298 0 0.00026647945405974328 -0.015127276737885468 0 1.8950920423528396e-05 -0.015448030366835376 0 0.0004729435368446464 -0.015796990338233664 0 -0.00038773880101358369 -0.016348903024886216 0 0.00071952969155330713 -0.016558234539047912 0 -0.00038773880101358369 -0.016348903024886216 0 0.00071952969155330713 -0.016558234539047912 0 0.00039300030569206222 -0.017629003089473922 0 0.00091759841692022409 -0.015719549447534661 0 0.0004729435368446464 -0.015796990338233664 0 0.00071952969155330713 -0.016558234539047912 0 0.0011235283669927183 -0.01728126722299041 0 0.00071952969155330713 -0.016558234539047912 0 0.00039300030569206222 -0.017629003089473922 0 0.0011235283669927183 -0.01728126722299041 0 0.00039300030569206222 -0.017629003089473922 0 0.00086908836977467351 -0.017954093997799472 0 0.00039300030569206222 -0.017629003089473922 0 0.00044083802703287386 -0.018194482395230277 0 0.00086908836977467351 -0.017954093997799472 0 0.00011230063988051615 -0.01786150664456386 0 0.00039300030569206222 -0.017629003089473922 0 8.3911286407746644e-05 -0.01800793815880767 0 0.00011230063988051615 -0.01786150664456386 0 8.3911286407746644e-05 -0.01800793815880767 0 -1.9238826113476554e-05 -0.018005017109634716 0 0.00039300030569206222 -0.017629003089473922 0 8.3911286407746644e-05 -0.01800793815880767 0 0.00019240615624748606 -0.018168394915520667 0 -7.1877336038904253e-05 -0.017142801920075935 0 0.00037398097328868548 -0.017610342607917107 0 0.00019240615624748606 -0.018168394915520667 0 0.00011999341031814199 -0.018397795420482647 0 2.4758457566800969e-05 -0.018283652189894639 0 8.3911286407746644e-05 -0.01800793815880767 0 0.00019240615624748606 -0.018168394915520667 0 2.4758457566800969e-05 -0.018283652189894639 0 0.00019240615624748606 -0.018168394915520667 0 0.00025989945447657981 -0.018422932194438281 0 0.00011999341031814199 -0.018397795420482647 0 0.00019240615624748606 -0.018168394915520667 0 0.00025989945447657981 -0.018422932194438281 0 0.00044083802703287386 -0.018194482395230277 0 0.00025989945447657981 -0.018422932194438281 0 0.00011999341031814199 -0.018397795420482647 0 0.00014519239733584927 -0.018601233902255803 0 0.00011999341031814199 -0.018397795420482647 0 0.00014519239733584927 -0.018601233902255803 0 3.5377525478735547e-05 -0.018506983010380635 0 0.00025989945447657981 -0.018422932194438281 0 0.00014519239733584927 -0.018601233902255803 0 0.0002802973416709882 -0.018623856435381555 0 0.00025989945447657981 -0.018422932194438281 0 0.0002802973416709882 -0.018623856435381555 0 0.00045441371771406616 -0.018511803178619054 0 0.0002802973416709882 -0.018623856435381555 0 0.00017967608936639306 -0.018831889508230754 0 0.00030286193859365123 -0.018847267019402515 0 0.00014519239733584927 -0.018601233902255803 0 0.00017967608936639306 -0.018831889508230754 0 4.6264477160841963e-05 -0.018719012493116603 0 0.00014519239733584927 -0.018601233902255803 0 0.0002802973416709882 -0.018623856435381555 0 0.00017967608936639306 -0.018831889508230754 0 0.00061808495528539893 -0.018770912779765666 0 0.00045437664556108965 -0.018756648520752792 0 0.00066621371969680576 -0.018607334900576023 0 0.0002802973416709882 -0.018623856435381555 0 0.00045437664556108965 -0.018756648520752792 0 0.00030286193859365123 -0.018847267019402515 0 0.0002802973416709882 -0.018623856435381555 0 0.00045437664556108965 -0.018756648520752792 0 0.00045441371771406616 -0.018511803178619054 0 0.00045437664556108965 -0.018756648520752792 0 0.00045441371771406616 -0.018511803178619054 0 0.00066621371969680576 -0.018607334900576023 0 0.00045441371771406616 -0.018511803178619054 0 0.00066621371969680576 -0.018607334900576023 0 0.00072689938089158957 -0.018362159872276101 0 0.00045441371771406616 -0.018511803178619054 0 0.00072689938089158957 -0.018362159872276101 0 0.00044083802703287386 -0.018194482395230277 0 0.00025989945447657981 -0.018422932194438281 0 0.00045441371771406616 -0.018511803178619054 0 0.00044083802703287386 -0.018194482395230277 0 0.00039300030569206222 -0.017629003089473922 0 0.00019240615624748606 -0.018168394915520667 0 0.00044083802703287386 -0.018194482395230277 0 0.00072689938089158957 -0.018362159872276101 0 0.00044083802703287386 -0.018194482395230277 0 0.00086908836977467351 -0.017954093997799472 0 0.0017327799134219499 -0.017719495946336275 0 0.00086908836977467351 -0.017954093997799472 0 0.0010799323256137632 -0.018229081997745058 0 0.0017327799134219499 -0.017719495946336275 0 0.0010799323256137632 -0.018229081997745058 0 0.0012655425734513944 -0.018462709068345018 0 0.0010799323256137632 -0.018229081997745058 0 0.00089953861989487552 -0.018532423182738365 0 0.0012655425734513944 -0.018462709068345018 0 0.00072689938089158957 -0.018362159872276101 0 0.0010799323256137632 -0.018229081997745058 0 0.00089953861989487552 -0.018532423182738365 0 0.00072689938089158957 -0.018362159872276101 0 0.00086908836977467351 -0.017954093997799472 0 0.0010799323256137632 -0.018229081997745058 0 0.001771616347513344 -0.012092582607351113 0 0.0013727261021972714 -0.011710349542601407 0 0.0014513395994379336 -0.011142780560126844 0 0.0015867806155286524 -0.014187650615494223 0 0.0015968092504008516 -0.015107911855553068 0 0.00110052381272564 -0.012040461697686217 0 0.001771616347513344 -0.012092582607351113 0 0.0013727261021972714 -0.011710349542601407 0 0.0015867806155286524 -0.014187650615494223 0 0.0012933586969553585 -0.010945987710698999 0 0.001650883661315968 -0.012741562570406113 0 0.0012562081557857831 -0.011431859409972135 0 0.0018986531772205231 -0.011480511555201368 0 0.0013727261021972714 -0.011710349542601407 0 0.0013068059386230177 -0.011373267972266171 0 0.0014513395994379336 -0.011142780560126844 0 0.0013727261021972714 -0.011710349542601407 0 0.0013068059386230177 -0.011373267972266171 0 0.0011260915407405013 -0.011690092660961503 0 0.0012562081557857831 -0.011431859409972135 0 0.001417413260527869 -0.010596490931691873 0 0.0010782227452705367 -0.010273958168002646 0 0.0012933586969553585 -0.010945987710698999 0 0.0011332246703614421 -0.010503535687950835 0 0.0012562081557857831 -0.011431859409972135 0 0.0016706196603116835 -0.010850827319746082 0 0.0018986531772205231 -0.011480511555201368 0 0.0012562081557857831 -0.011431859409972135 0 0.0016706196603116835 -0.010850827319746082 0 0.001417413260527869 -0.010596490931691873 0 0.0012655425734513944 -0.018462709068345018 0 0.00088871902870113722 -0.018698703268619568 0 0.00082111845453226103 -0.018902611850230698 0 0.0016706196603116835 -0.010850827319746082 0 0.0018986531772205231 -0.011480511555201368 0 0.002044020751004402 -0.010404943238958011 0 0.0015968092504008516 -0.015107911855553068 0 0.00063457924755405042 -0.014646638480137393 0 0.00066621371969680576 -0.018607334900576023 0 0.00072689938089158957 -0.018362159872276101 0 0.00089953861989487552 -0.018532423182738365 0 0.00066621371969680576 -0.018607334900576023 0 0.00089953861989487552 -0.018532423182738365 0 0.00075597359345757774 -0.018714675115394576 0 0.00089953861989487552 -0.018532423182738365 0 0.0012655425734513944 -0.018462709068345018 0 0.00088871902870113722 -0.018698703268619568 0 0.00088871902870113722 -0.018698703268619568 0 0.00075597359345757774 -0.018714675115394576 0 0.00069481642694928258 -0.01886470354573894 0 0.00089953861989487552 -0.018532423182738365 0 0.00088871902870113722 -0.018698703268619568 0 0.00075597359345757774 -0.018714675115394576 0 0.00061808495528539893 -0.018770912779765666 0 0.00066621371969680576 -0.018607334900576023 0 0.00075597359345757774 -0.018714675115394576 0 0.00061808495528539893 -0.018770912779765666 0 0.00075597359345757774 -0.018714675115394576 0 0.00069481642694928258 -0.01886470354573894 0 0.00069481642694928258 -0.01886470354573894 0 0.00049426073994691033 -0.019012493256746317 0 0.00052231601472868267 -0.018892307463471869 0 0.00061808495528539893 -0.018770912779765666 0 0.00069481642694928258 -0.01886470354573894 0 0.00052231601472868267 -0.018892307463471869 0 0.00069481642694928258 -0.01886470354573894 0 0.00082111845453226103 -0.018902611850230698 0 0.00049426073994691033 -0.019012493256746317 0 0.00082111845453226103 -0.018902611850230698 0 0.00049426073994691033 -0.019012493256746317 0 0.00035002921387232726 -0.01918275600028593 0 0.00088871902870113722 -0.018698703268619568 0 0.00069481642694928258 -0.01886470354573894 0 0.00082111845453226103 -0.018902611850230698 0 0.00063457924755405042 -0.014646638480137393 0 0.00041156691852615627 -0.010694231038143199 0 0.0013936359467146666 -0.010170843204860837 0 0.0010782227452705367 -0.010273958168002646 0 0.0010483501766839749 -0.0097195960052801379 0 0.001417413260527869 -0.010596490931691873 0 0.0013936359467146666 -0.010170843204860837 0 0.0010782227452705367 -0.010273958168002646 0 0.0016706196603116835 -0.010850827319746082 0 0.001417413260527869 -0.010596490931691873 0 0.0017454310920446529 -0.010435076028028688 0 0.0016706196603116835 -0.010850827319746082 0 0.002044020751004402 -0.010404943238958011 0 0.0017454310920446529 -0.010435076028028688 0 0.001417413260527869 -0.010596490931691873 0 0.0017454310920446529 -0.010435076028028688 0 0.0013936359467146666 -0.010170843204860837 0 0.001425932222635494 -0.010259556247321326 0 0.00041156691852615627 -0.010694231038143199 0 0.002044020751004402 -0.010404943238958011 0 0.0017454310920446529 -0.010435076028028688 0 0.0015941860479893363 -0.0098295628060353912 0 0.0017454310920446529 -0.010435076028028688 0 0.0013936359467146666 -0.010170843204860837 0 0.0015275938367838226 -0.0098758246659575964 0 0.00041156691852615627 -0.010694231038143199 0 -3.6255233878962662e-05 -0.0089387499103823608 0 4.4756821829226406e-05 -0.014182063649069087 0 -2.3992940884964157e-07 -0.014232128001644067 0 4.4064737249844131e-05 -0.014272459134236032 0 0.00041156691852615627 -0.010694231038143199 0 -0.00059426383731133142 -0.011860601291430151 0 0.0015275938367838226 -0.0098758246659575964 0 0.0010483501766839749 -0.0097195960052801379 0 0.0009007721037305286 -0.0093592813918760842 0 0.0013936359467146666 -0.010170843204860837 0 0.0015275938367838226 -0.0098758246659575964 0 0.0010483501766839749 -0.0097195960052801379 0 0.00063457924755405042 -0.014646638480137393 0 0.00011011985286760844 -0.017057645923212739 0 2.1676531542491466e-05 -0.014144850403390098 0 4.4756821829226406e-05 -0.014182063649069087 0 -2.3992940884964157e-07 -0.014232128001644067 0 0.00049426073994691033 -0.019012493256746317 0 0.00035002921387232726 -0.01918275600028593 0 0.000294909320037145 -0.019136158163403246 0 0.00035002921387232726 -0.01918275600028593 0 0.000294909320037145 -0.019136158163403246 0 0.00014467617613200915 -0.019198410257932518 0 0.000294909320037145 -0.019136158163403246 0 0.0001965792080637576 -0.019184745485322747 0 0.00035393316432675897 -0.019003992684033827 0 0.000294909320037145 -0.019136158163403246 0 0.0001965792080637576 -0.019184745485322747 0 0.00014467617613200915 -0.019198410257932518 0 0.0001965792080637576 -0.019184745485322747 0 0.0001649488865929412 -0.019256696854475609 0 0.00014917202020873544 -0.019190362711705253 0 0.0001965792080637576 -0.019184745485322747 0 0.00014026560975894669 -0.0190499939646002 0 0.00014917202020873544 -0.019190362711705253 0 0.0001965792080637576 -0.019184745485322747 0 0.0002341434843378563 -0.0189955002282279 0 0.00014026560975894669 -0.0190499939646002 0 0.0001965792080637576 -0.019184745485322747 0 0.0002341434843378563 -0.0189955002282279 0 0.00035393316432675897 -0.019003992684033827 0 0.0002341434843378563 -0.0189955002282279 0 0.00017967608936639306 -0.018831889508230754 0 0.00014026560975894669 -0.0190499939646002 0 0.0002341434843378563 -0.0189955002282279 0 0.00017967608936639306 -0.018831889508230754 0 0.00030286193859365123 -0.018847267019402515 0 0.0002341434843378563 -0.0189955002282279 0 0.00030286193859365123 -0.018847267019402515 0 0.00035393316432675897 -0.019003992684033827 0 0.00045437664556108965 -0.018756648520752792 0 0.00030286193859365123 -0.018847267019402515 0 0.00035393316432675897 -0.019003992684033827 0 0.00061808495528539893 -0.018770912779765666 0 0.00045437664556108965 -0.018756648520752792 0 0.00052231601472868267 -0.018892307463471869 0 0.00045437664556108965 -0.018756648520752792 0 0.00052231601472868267 -0.018892307463471869 0 0.00035393316432675897 -0.019003992684033827 0 0.00049426073994691033 -0.019012493256746317 0 0.000294909320037145 -0.019136158163403246 0 0.00035393316432675897 -0.019003992684033827 0 0.00049426073994691033 -0.019012493256746317 0 0.00052231601472868267 -0.018892307463471869 0 0.00035393316432675897 -0.019003992684033827 0 -0.00086686220852638749 -0.011274469753229294 0 -0.00089738890318404952 -0.012439373273496875 0 -0.00036017109686644624 -0.011715914085293402 0 -0.00086686220852638749 -0.011274469753229294 0 -0.00036017109686644624 -0.011715914085293402 0 -6.6991171281600824e-05 -0.0107589540198883 0 -0.00036017109686644624 -0.011715914085293402 0 0.000209818680957542 -0.01175535476199748 0 -6.6991171281600824e-05 -0.0107589540198883 0 -0.00025125205624454541 -0.012349032159376319 0 -0.00036017109686644624 -0.011715914085293402 0 0.000209818680957542 -0.01175535476199748 0 0.00057675944951698032 -0.010926004952695561 0 1.0785761296416001e-05 -0.010489677580121403 0 0.000209818680957542 -0.01175535476199748 0 0.00058148621742266276 -0.01115190621340462 0 -6.6991171281600824e-05 -0.0107589540198883 0 0.000209818680957542 -0.01175535476199748 0 0.00058148621742266276 -0.01115190621340462 0 0.00078993564843628651 -0.011578719296884157 0 0.00062632670941691775 -0.012306875857507449 0 0.000209818680957542 -0.01175535476199748 0 0.00078993564843628651 -0.011578719296884157 0 0.0013068059386230177 -0.011373267972266171 0 0.00058148621742266276 -0.01115190621340462 0 0.00078993564843628651 -0.011578719296884157 0 0.00110052381272564 -0.012040461697686217 0 0.0013727261021972714 -0.011710349542601407 0 0.0011260915407405013 -0.011690092660961503 0 0.00110052381272564 -0.012040461697686217 0 0.00078993564843628651 -0.011578719296884157 0 0.0011260915407405013 -0.011690092660961503 0 0.0013068059386230177 -0.011373267972266171 0 0.00078993564843628651 -0.011578719296884157 0 0.0011260915407405013 -0.011690092660961503 0 0.0012768213497168083 -0.011343290088073762 0 0.00057675944951698032 -0.010926004952695561 0 0.0013068059386230177 -0.011373267972266171 0 0.0014513395994379336 -0.011142780560126844 0 0.00050094568885445919 -0.010685864357495101 0 0.0014513395994379336 -0.011142780560126844 0 0.00050094568885445919 -0.010685864357495101 0 0.0010782227452705367 -0.010273958168002646 0 0.0010782227452705367 -0.010273958168002646 0 0.00069106710093994311 -0.0097490730464558032 0 0.00040758777497427133 -0.010065859119182998 0 0.00050094568885445919 -0.010685864357495101 0 0.0010782227452705367 -0.010273958168002646 0 0.00040758777497427133 -0.010065859119182998 0 0.0010782227452705367 -0.010273958168002646 0 0.0010483501766839749 -0.0097195960052801379 0 0.00069106710093994311 -0.0097490730464558032 0 0.0010483501766839749 -0.0097195960052801379 0 0.00069106710093994311 -0.0097490730464558032 0 0.0009007721037305286 -0.0093592813918760842 0 0.00069106710093994311 -0.0097490730464558032 0 0.00033124903342659709 -0.0094642980079868815 0 0.00040758777497427133 -0.010065859119182998 0 0.00069106710093994311 -0.0097490730464558032 0 0.00033124903342659709 -0.0094642980079868815 0 0.0004470411764294235 -0.0093288265710436656 0 0.00050094568885445919 -0.010685864357495101 0 0.00040758777497427133 -0.010065859119182998 0 9.1787038064576997e-05 -0.01019718994629179 0 0.00040758777497427133 -0.010065859119182998 0 9.1787038064576997e-05 -0.01019718994629179 0 6.996590346430055e-05 -0.009685538638959771 0 0.00033124903342659709 -0.0094642980079868815 0 0.00040758777497427133 -0.010065859119182998 0 6.996590346430055e-05 -0.009685538638959771 0 0.00033124903342659709 -0.0094642980079868815 0 6.996590346430055e-05 -0.009685538638959771 0 0.00013839893988194105 -0.0091668476606581676 0 -0.00036766796059804334 -0.0099775558937947751 0 6.996590346430055e-05 -0.009685538638959771 0 -0.00026021178942810507 -0.0093056634291585148 0 6.996590346430055e-05 -0.009685538638959771 0 -0.00026021178942810507 -0.0093056634291585148 0 0.00013839893988194105 -0.0091668476606581676 0 -0.00074232414320869018 -0.010291724580184496 0 -0.00086686220852638749 -0.011274469753229294 0 -6.6991171281600824e-05 -0.0107589540198883 0 -0.00059356524965415108 -0.010121060073106829 0 1.0785761296416001e-05 -0.010489677580121403 0 -0.00036766796059804334 -0.0099775558937947751 0 9.1787038064576997e-05 -0.01019718994629179 0 6.996590346430055e-05 -0.009685538638959771 0 -4.7486342335375202e-05 -0.0082952793220040476 0 0.00027927154502559203 -0.0090840649592782464 0 0.00019270812043782954 -0.0090606043181556475 0 -4.7486342335375202e-05 -0.0082952793220040476 0 0.00013839893988194105 -0.0091668476606581676 0 0.00027927154502559203 -0.0090840649592782464 0 -4.7486342335375202e-05 -0.0082952793220040476 0 -0.00026021178942810507 -0.0093056634291585148 0 0.00013839893988194105 -0.0091668476606581676 0 0.00033124903342659709 -0.0094642980079868815 0 0.00013839893988194105 -0.0091668476606581676 0 0.00027927154502559203 -0.0090840649592782464 0 0.00027927154502559203 -0.0090840649592782464 0 0.00028884450359016757 -0.0092366640529191382 0 0.0001415827952132455 -0.0099908720152201182 0 0.00027927154502559203 -0.0090840649592782464 0 0.0004470411764294235 -0.0093288265710436656 0 0.00028884450359016757 -0.0092366640529191382 0 0.00033124903342659709 -0.0094642980079868815 0 0.00027927154502559203 -0.0090840649592782464 0 0.0004470411764294235 -0.0093288265710436656 0 -0.00078051295744849833 -0.0089654253075288452 0 -0.00023702111682156736 -0.0095239026289689974 0 -0.0010153251704502089 -0.0091722983069390564 0 0.00069106710093994311 -0.0097490730464558032 0 0.0004470411764294235 -0.0093288265710436656 0 0.0009007721037305286 -0.0093592813918760842 0 -3.6255233878962662e-05 -0.0089387499103823608 0 7.4810293877185442e-05 -0.0094857066097664405 0 0.0004470411764294235 -0.0093288265710436656 0 0.0009007721037305286 -0.0093592813918760842 0 0.00028884450359016757 -0.0092366640529191382 0 -0.00023702111682156736 -0.0095239026289689974 0 -0.0010153251704502089 -0.0091722983069390564 0 -0.00097865436276345147 -0.010221653858621995 0 -0.00023702111682156736 -0.0095239026289689974 0 -5.8759051315065848e-05 -0.010903628695167252 0 -0.00097865436276345147 -0.010221653858621995 0 -2.7557610696139177e-06 -0.012809731322339099 0 -5.8759051315065848e-05 -0.010903628695167252 0 -0.00097865436276345147 -0.010221653858621995 0 -2.0800982407148812e-07 -0.012813522823003664 0 -0.00047118641514345375 -0.012217755723628794 0 -2.7557610696139177e-06 -0.012809731322339099 0 -5.8759051315065848e-05 -0.010903628695167252 0 1.2608923715825349e-06 -0.010907205907432873 0 -5.8759051315065848e-05 -0.010903628695167252 0 0.0001415827952132455 -0.0099908720152201182 0 1.2608923715825349e-06 -0.010907205907432873 0 7.4810293877185442e-05 -0.0094857066097664405 0 0.00017099662654604706 -0.0099234743522331036 0 -0.00023702111682156736 -0.0095239026289689974 0 -5.8759051315065848e-05 -0.010903628695167252 0 0.0001415827952132455 -0.0099908720152201182 0 0.00027927154502559203 -0.0090840649592782464 0 0.0001415827952132455 -0.0099908720152201182 0 0.00019270812043782954 -0.0090606043181556475 0 1.2608923715825349e-06 -0.010907205907432873 0 1.3327495264259349e-07 -0.0090005678212638548 0 0.00019270812043782954 -0.0090606043181556475 0 0.0001415827952132455 -0.0099908720152201182 0 1.2608923715825349e-06 -0.010907205907432873 0 0.00019270812043782954 -0.0090606043181556475 0 0.00013607372753563513 -0.007893404425280505 0 1.3327495264259349e-07 -0.0090005678212638548 0 0.00019270812043782954 -0.0090606043181556475 0 0.00013607372753563513 -0.007893404425280505 0 -4.7486342335375202e-05 -0.0082952793220040476 0 0.00019270812043782954 -0.0090606043181556475 0 -0.00014233971213198097 -0.018855428469856002 0 -0.00018160154629462167 -0.019121926289705993 0 -0.00065164993573506216 -0.018274279291311462 0 -0.00014233971213198097 -0.018855428469856002 0 8.1694329105486469e-05 -0.019178790469531314 0 -0.00018160154629462167 -0.019121926289705993 0 -8.5186729633104051e-05 -0.016572801164958521 0 -0.00031469485646343893 -0.016339635712657088 0 -0.00014233971213198097 -0.018855428469856002 0 0.00013515479798986715 -0.018923863080074637 0 8.1694329105486469e-05 -0.019178790469531314 0 0.00013515479798986715 -0.018923863080074637 0 8.1694329105486469e-05 -0.019178790469531314 0 0.0001986130843617706 -0.019220994134817322 0 0.0001965792080637576 -0.019184745485322747 0 8.1694329105486469e-05 -0.019178790469531314 0 0.0001649488865929412 -0.019256696854475609 0 8.1694329105486469e-05 -0.019178790469531314 0 0.0001986130843617706 -0.019220994134817322 0 0.0001649488865929412 -0.019256696854475609 0 0.0001965792080637576 -0.019184745485322747 0 8.1694329105486469e-05 -0.019178790469531314 0 0.00014467617613200915 -0.019198410257932518 0 8.1694329105486469e-05 -0.019178790469531314 0 0.00014467617613200915 -0.019198410257932518 0 -0.00018160154629462167 -0.019121926289705993 0 -2.3992940884964157e-07 -0.014232128001644067 0 4.4064737249844131e-05 -0.014272459134236032 0 -3.1518232267307152e-06 -0.014265932572774413 0 0.00011011985286760844 -0.017057645923212739 0 -8.5186729633104051e-05 -0.016572801164958521 0 0.00035002921387232726 -0.01918275600028593 0 0.00014467617613200915 -0.019198410257932518 0 -0.00018160154629462167 -0.019121926289705993 0 -0.0010504092830236644 -0.008562469915780628 0 -0.00078051295744849833 -0.0089654253075288452 0 -0.0010153251704502089 -0.0091722983069390564 0 -0.00059426383731133142 -0.011860601291430151 0 -0.00047118641514345375 -0.012217755723628794 0 4.4064737249844131e-05 -0.014272459134236032 0 7.1701973454609357e-05 -0.014298375872002748 0 -8.3838011080921627e-05 -0.014279480293464949 0 7.1701973454609357e-05 -0.014298375872002748 0 -3.1518232267307152e-06 -0.014265932572774413 0 -0.00012953404654362027 -0.014408110848554513 0 4.4064737249844131e-05 -0.014272459134236032 0 7.1701973454609357e-05 -0.014298375872002748 0 -3.1518232267307152e-06 -0.014265932572774413 0 7.1701973454609357e-05 -0.014298375872002748 0 0.00019588954634975093 -0.014283931739390238 0 -0.00012953404654362027 -0.014408110848554513 0 7.1701973454609357e-05 -0.014298375872002748 0 0.00019588954634975093 -0.014283931739390238 0 -8.3838011080921627e-05 -0.014279480293464949 0 -7.0759695595901481e-07 -0.012816217317043709 0 0.00019588954634975093 -0.014283931739390238 0 7.2604560813717854e-07 -0.014332562096910138 0 -7.0759695595901481e-07 -0.012816217317043709 0 0.00019588954634975093 -0.014283931739390238 0 -8.3838011080921627e-05 -0.014279480293464949 0 0.00019588954634975093 -0.014283931739390238 0 -7.7478030142695298e-07 -0.015849070456458256 0 -0.00012953404654362027 -0.014408110848554513 0 0.00019588954634975093 -0.014283931739390238 0 7.2604560813717854e-07 -0.014332562096910138 0 -7.7478030142695298e-07 -0.015849070456458256 0 -1.6123618952085962e-07 -0.015851664738812467 0 -0.00031469485646343893 -0.016339635712657088 0 -2.2677664491888315e-06 -0.015855625612574694 0 -0.00065164993573506216 -0.018274279291311462 0 0.0001818555673215776 -0.018312553516828672 0 -0.00014233971213198097 -0.018855428469856002 0 -0.00065164993573506216 -0.018274279291311462 0 0.0001818555673215776 -0.018312553516828672 0 0.00013515479798986715 -0.018923863080074637 0 0.0001818555673215776 -0.018312553516828672 0 0.00023455800504051442 -0.019121323485393239 0 -0.00014233971213198097 -0.018855428469856002 0 0.00013515479798986715 -0.018923863080074637 0 0.0001818555673215776 -0.018312553516828672 0 -2.2677664491888315e-06 -0.015855625612574694 0 0.0001818555673215776 -0.018312553516828672 0 1.2876062241736778e-06 -0.017878141519406244 0 0.0001818555673215776 -0.018312553516828672 0 1.2876062241736778e-06 -0.017878141519406244 0 0.00019258472993565268 -0.019120817473684153 0 1.2876062241736778e-06 -0.017878141519406244 0 0.00015495203339648653 -0.019705505309160348 0 8.2612447666361514e-08 -0.019905312128401069 0 1.2876062241736778e-06 -0.017878141519406244 0 0.00015495203339648653 -0.019705505309160348 0 0.00019258472993565268 -0.019120817473684153 0 0.00020216738289012955 -0.019591948761248444 0 0.00019258472993565268 -0.019120817473684153 0 0.00023455800504051442 -0.019121323485393239 0 0.00015495203339648653 -0.019705505309160348 0 0.00020216738289012955 -0.019591948761248444 0 9.7525335636663806e-05 -0.020130575992346161 0 0.00015495203339648653 -0.019705505309160348 0 0.00020216738289012955 -0.019591948761248444 0 0.00019258472993565268 -0.019120817473684153 0 0.0001818555673215776 -0.018312553516828672 0 0.00019258472993565268 -0.019120817473684153 0 0.00023455800504051442 -0.019121323485393239 0 0.00013515479798986715 -0.018923863080074637 0 0.00023455800504051442 -0.019121323485393239 0 0.0001986130843617706 -0.019220994134817322 0 0.0001986130843617706 -0.019220994134817322 0 0.00020470558759241286 -0.019438561551997541 0 0.00016557219371094879 -0.019352433946077538 0 0.00023455800504051442 -0.019121323485393239 0 0.0001986130843617706 -0.019220994134817322 0 0.00020470558759241286 -0.019438561551997541 0 0.00020216738289012955 -0.019591948761248444 0 0.00023455800504051442 -0.019121323485393239 0 0.00020470558759241286 -0.019438561551997541 0 0.00020216738289012955 -0.019591948761248444 0 0.00020470558759241286 -0.019438561551997541 0 9.6738013836721856e-05 -0.019775876582236812 0 0.00020470558759241286 -0.019438561551997541 0 0.00010850182449498679 -0.019504607369538147 0 9.6738013836721856e-05 -0.019775876582236812 0 0.00010850182449498679 -0.019504607369538147 0 6.9897048106075979e-05 -0.019343301409955663 0 0.00016557219371094879 -0.019352433946077538 0 0.00020470558759241286 -0.019438561551997541 0 0.00010850182449498679 -0.019504607369538147 0 0.00016557219371094879 -0.019352433946077538 0 0.00010850182449498679 -0.019504607369538147 0 6.9897048106075979e-05 -0.019343301409955663 0 -3.1406608568120909e-05 -0.019435900976192383 0 6.9897048106075979e-05 -0.019343301409955663 0 0.00016557219371094879 -0.019352433946077538 0 0.00011995724246978324 -0.01925994000062024 0 0.0001649488865929412 -0.019256696854475609 0 0.00016557219371094879 -0.019352433946077538 0 0.00011995724246978324 -0.01925994000062024 0 0.0001986130843617706 -0.019220994134817322 0 0.0001649488865929412 -0.019256696854475609 0 0.00016557219371094879 -0.019352433946077538 0 -0.00034165362746664465 -0.019943534080938425 0 -0.00025236413026132249 -0.019613812863275799 0 -0.00011271589057604284 -0.019859472847772303 0 -0.00034165362746664465 -0.019943534080938425 0 -0.00059015591972310841 -0.019581778925477557 0 -0.00080301028050154739 -0.020007655280735139 0 -0.00059015591972310841 -0.019581778925477557 0 -0.00025236413026132249 -0.019613812863275799 0 -0.00040566793166371917 -0.019467316374706712 0 -0.00034165362746664465 -0.019943534080938425 0 -0.00059015591972310841 -0.019581778925477557 0 -0.00025236413026132249 -0.019613812863275799 0 -0.00025236413026132249 -0.019613812863275799 0 -0.00019994938846618594 -0.01940023889599999 0 -0.00040566793166371917 -0.019467316374706712 0 -0.00012813608959926236 -0.019525038409827437 0 -0.00025236413026132249 -0.019613812863275799 0 -4.0858357939247118e-05 -0.019649312145740481 0 -0.00012813608959926236 -0.019525038409827437 0 -0.00025236413026132249 -0.019613812863275799 0 -0.00019994938846618594 -0.01940023889599999 0 -0.00012813608959926236 -0.019525038409827437 0 -3.1406608568120909e-05 -0.019435900976192383 0 -4.0858357939247118e-05 -0.019649312145740481 0 -0.00012813608959926236 -0.019525038409827437 0 -3.1406608568120909e-05 -0.019435900976192383 0 -0.00019994938846618594 -0.01940023889599999 0 0.00010850182449498679 -0.019504607369538147 0 -4.0858357939247118e-05 -0.019649312145740481 0 9.6738013836721856e-05 -0.019775876582236812 0 0.00010850182449498679 -0.019504607369538147 0 -3.1406608568120909e-05 -0.019435900976192383 0 -4.0858357939247118e-05 -0.019649312145740481 0 -0.00025236413026132249 -0.019613812863275799 0 -4.0858357939247118e-05 -0.019649312145740481 0 -0.00011271589057604284 -0.019859472847772303 0 -0.00011271589057604284 -0.019859472847772303 0 9.6738013836721856e-05 -0.019775876582236812 0 -5.3484553577130091e-05 -0.020114152062776752 0 -4.0858357939247118e-05 -0.019649312145740481 0 -0.00011271589057604284 -0.019859472847772303 0 9.6738013836721856e-05 -0.019775876582236812 0 9.6738013836721856e-05 -0.019775876582236812 0 -5.3484553577130091e-05 -0.020114152062776752 0 9.7525335636663806e-05 -0.020130575992346161 0 -5.3484553577130091e-05 -0.020114152062776752 0 -0.0004145673736098758 -0.020485299666858966 0 -0.0001265177648375678 -0.020543435594994757 0 -0.00034165362746664465 -0.019943534080938425 0 -5.3484553577130091e-05 -0.020114152062776752 0 -0.0004145673736098758 -0.020485299666858966 0 -0.00034165362746664465 -0.019943534080938425 0 -0.00011271589057604284 -0.019859472847772303 0 -5.3484553577130091e-05 -0.020114152062776752 0 -0.00034165362746664465 -0.019943534080938425 0 -0.0004145673736098758 -0.020485299666858966 0 -0.00080301028050154739 -0.020007655280735139 0 -0.0004145673736098758 -0.020485299666858966 0 -0.00036977220376104811 -0.02118089967760205 0 -0.0001265177648375678 -0.020543435594994757 0 -0.00036977220376104811 -0.02118089967760205 0 -0.0001265177648375678 -0.020543435594994757 0 -5.6761437299368037e-05 -0.02080171385391499 0 -0.00036977220376104811 -0.02118089967760205 0 -5.6761437299368037e-05 -0.02080171385391499 0 -9.9195882041958191e-05 -0.021470171297250276 0 -5.6761437299368037e-05 -0.02080171385391499 0 9.7525335636663806e-05 -0.020130575992346161 0 4.8602135895179119e-07 -0.020584514374931279 0 0.00015495203339648653 -0.019705505309160348 0 9.7525335636663806e-05 -0.020130575992346161 0 4.8602135895179119e-07 -0.020584514374931279 0 0.00020216738289012955 -0.019591948761248444 0 9.6738013836721856e-05 -0.019775876582236812 0 9.7525335636663806e-05 -0.020130575992346161 0 -5.3484553577130091e-05 -0.020114152062776752 0 -0.0001265177648375678 -0.020543435594994757 0 9.7525335636663806e-05 -0.020130575992346161 0 -0.0001265177648375678 -0.020543435594994757 0 -5.6761437299368037e-05 -0.02080171385391499 0 9.7525335636663806e-05 -0.020130575992346161 0 0.00015495203339648653 -0.019705505309160348 0 4.8602135895179119e-07 -0.020584514374931279 0 8.2612447666361514e-08 -0.019905312128401069 0 4.8602135895179119e-07 -0.020584514374931279 0 -9.9195882041958191e-05 -0.021470171297250276 0 -3.7352221317951662e-07 -0.021931701115242185 0 4.8602135895179119e-07 -0.020584514374931279 0 8.2612447666361514e-08 -0.019905312128401069 0 -3.7352221317951662e-07 -0.021931701115242185 0 -5.6761437299368037e-05 -0.02080171385391499 0 4.8602135895179119e-07 -0.020584514374931279 0 -9.9195882041958191e-05 -0.021470171297250276 0 -9.9195882041958191e-05 -0.021470171297250276 0 -3.7352221317951662e-07 -0.021931701115242185 0 1.3450479507363994e-05 -0.023440399504054202 0 -9.9195882041958191e-05 -0.021470171297250276 0 -0.0014497475508841826 -0.023609788036403175 0 -0.0012837826759025024 -0.022672650968943067 0 -0.00014180673055660172 -0.021778196580728361 0 -0.00067820916717222575 -0.023470927946917082 0 -3.7352221317951662e-07 -0.021931701115242185 0 1.9267176259085199e-07 -0.023958269921835539 0 1.3450479507363994e-05 -0.023440399504054202 0 -0.0014497475508841826 -0.023609788036403175 0 -0.0012219379534831247 -0.024176880384103615 0 -0.00078243671081741682 -0.024706083192284956 0 -0.0014497475508841826 -0.023609788036403175 0 -0.0012219379534831247 -0.024176880384103615 0 -0.0012837826759025024 -0.022672650968943067 0 -0.0012219379534831247 -0.024176880384103615 0 -0.0012837826759025024 -0.022672650968943067 0 -0.0011888758572015006 -0.026245728212696315 0 -0.0012837826759025024 -0.022672650968943067 0 -0.0021096888959054082 -0.020449302757453564 0 -0.0010384845790856654 -0.021067947605891896 0 -0.0012693168664268139 -0.022886896824967549 0 -0.0015349655982782771 -0.023362052204521758 0 -0.00036977220376104811 -0.02118089967760205 0 -9.9195882041958191e-05 -0.021470171297250276 0 -0.0012837826759025024 -0.022672650968943067 0 -0.0004145673736098758 -0.020485299666858966 0 -0.00036977220376104811 -0.02118089967760205 0 -0.0010384845790856654 -0.021067947605891896 0 -0.00036977220376104811 -0.02118089967760205 0 -0.0012837826759025024 -0.022672650968943067 0 -0.0010384845790856654 -0.021067947605891896 0 1.9267176259085199e-07 -0.023958269921835539 0 -1.6961269532583756e-07 -0.025984716635682244 0 -1.8296815725058039e-06 -0.025536967774732914 0 -0.00018290231673548374 -0.025303995124975227 0 -7.5713000153014657e-05 -0.025876041276453866 0 0.00022888232744527781 -0.026403977896594179 0 -0.00018290231673548374 -0.025303995124975227 0 -0.00078243671081741682 -0.024706083192284956 0 -0.00031260994606953829 -0.025460065951136271 0 -0.00018290231673548374 -0.025303995124975227 0 -0.00031260994606953829 -0.025460065951136271 0 -7.5713000153014657e-05 -0.025876041276453866 0 -0.0014497475508841826 -0.023609788036403175 0 -0.00018290231673548374 -0.025303995124975227 0 -0.00078243671081741682 -0.024706083192284956 0 1.9267176259085199e-07 -0.023958269921835539 0 1.3450479507363994e-05 -0.023440399504054202 0 -1.8296815725058039e-06 -0.025536967774732914 0 -0.00067820916717222575 -0.023470927946917082 0 -8.2241353521895745e-05 -0.025425397018585455 0 -0.0012219379534831247 -0.024176880384103615 0 -0.00078243671081741682 -0.024706083192284956 0 -0.0011888758572015006 -0.026245728212696315 0 -0.00078243671081741682 -0.024706083192284956 0 -0.00023527120405717478 -0.026031556672913434 0 -0.0011888758572015006 -0.026245728212696315 0 -0.00078243671081741682 -0.024706083192284956 0 -0.00031260994606953829 -0.025460065951136271 0 -0.00023527120405717478 -0.026031556672913434 0 -0.00031260994606953829 -0.025460065951136271 0 -0.00023527120405717478 -0.026031556672913434 0 -7.5713000153014657e-05 -0.025876041276453866 0 -0.00023527120405717478 -0.026031556672913434 0 0.00010315741636667698 -0.026394842793863286 0 0.00016741855935878871 -0.026831719777957772 0 -0.00023527120405717478 -0.026031556672913434 0 -7.5713000153014657e-05 -0.025876041276453866 0 0.00010315741636667698 -0.026394842793863286 0 -0.00023527120405717478 -0.026031556672913434 0 -0.00022475444999862232 -0.026850218494445435 0 0.00016741855935878871 -0.026831719777957772 0 -0.00023527120405717478 -0.026031556672913434 0 -0.00022475444999862232 -0.026850218494445435 0 -0.0011888758572015006 -0.026245728212696315 0 -0.0021096888959054082 -0.020449302757453564 0 -0.0022876010910519102 -0.019740277123427703 0 -0.0017659126012524401 -0.019661490547435267 0 -0.00022475444999862232 -0.026850218494445435 0 -0.0011888758572015006 -0.026245728212696315 0 -0.0003423835415128912 -0.027634608278494434 0 -0.0015349655982782771 -0.023362052204521758 0 -0.0013254779692662767 -0.023687912474746099 0 -0.00022475444999862232 -0.026850218494445435 0 -0.0003423835415128912 -0.027634608278494434 0 0.00017803527673633957 -0.027317042311949813 0 -0.0004145673736098758 -0.020485299666858966 0 -0.0012366924325241044 -0.020386960299473997 0 -0.0010384845790856654 -0.021067947605891896 0 -0.0004145673736098758 -0.020485299666858966 0 -0.0012366924325241044 -0.020386960299473997 0 -0.00080301028050154739 -0.020007655280735139 0 -0.0021096888959054082 -0.020449302757453564 0 -0.0012366924325241044 -0.020386960299473997 0 -0.0013347552773581262 -0.019876158852642302 0 -0.0021096888959054082 -0.020449302757453564 0 -0.0012366924325241044 -0.020386960299473997 0 -0.0010384845790856654 -0.021067947605891896 0 -0.0021096888959054082 -0.020449302757453564 0 -0.0013347552773581262 -0.019876158852642302 0 -0.0017659126012524401 -0.019661490547435267 0 -0.0013347552773581262 -0.019876158852642302 0 -0.0012388431803489297 -0.019504333621147129 0 -0.0017659126012524401 -0.019661490547435267 0 -0.0013347552773581262 -0.019876158852642302 0 -0.00093793832095771031 -0.019677725968530339 0 -0.0012388431803489297 -0.019504333621147129 0 -0.0013347552773581262 -0.019876158852642302 0 -0.00080301028050154739 -0.020007655280735139 0 -0.00093793832095771031 -0.019677725968530339 0 -0.0012366924325241044 -0.020386960299473997 0 -0.0013347552773581262 -0.019876158852642302 0 -0.00080301028050154739 -0.020007655280735139 0 -0.00059015591972310841 -0.019581778925477557 0 -0.00080301028050154739 -0.020007655280735139 0 -0.00093793832095771031 -0.019677725968530339 0 -0.00059015591972310841 -0.019581778925477557 0 -0.00093793832095771031 -0.019677725968530339 0 -0.0008790241656452672 -0.019414333117251725 0 -0.0008790241656452672 -0.019414333117251725 0 -0.00083586820794608258 -0.019164137745303386 0 -0.0011352907454413332 -0.019217732356778081 0 -0.0008790241656452672 -0.019414333117251725 0 -0.00083586820794608258 -0.019164137745303386 0 -0.00060840395117606888 -0.019311512685087517 0 -0.0008790241656452672 -0.019414333117251725 0 -0.0011352907454413332 -0.019217732356778081 0 -0.0012388431803489297 -0.019504333621147129 0 -0.00093793832095771031 -0.019677725968530339 0 -0.0008790241656452672 -0.019414333117251725 0 -0.0012388431803489297 -0.019504333621147129 0 -0.0017659126012524401 -0.019661490547435267 0 -0.0014150992296058553 -0.019210659141869015 0 -0.0020106481347322508 -0.019339018448299581 0 -0.0012388431803489297 -0.019504333621147129 0 -0.0017659126012524401 -0.019661490547435267 0 -0.0014150992296058553 -0.019210659141869015 0 -0.0011352907454413332 -0.019217732356778081 0 -0.0012388431803489297 -0.019504333621147129 0 -0.0014150992296058553 -0.019210659141869015 0 -0.0011352907454413332 -0.019217732356778081 0 -0.0014150992296058553 -0.019210659141869015 0 -0.0016905940084406218 -0.018858617533637229 0 -0.0014150992296058553 -0.019210659141869015 0 -0.001855598678483399 -0.018916349648727796 0 -0.0016905940084406218 -0.018858617533637229 0 -0.0011086664966282057 -0.01931010666955988 0 -0.0014760802630144226 -0.018567777662930104 0 -0.0011352907454413332 -0.019217732356778081 0 -0.0011009907468526405 -0.018810689550406948 0 -0.0012338906378690578 -0.018757795367785775 0 -0.0013906767389306495 -0.019356718599326132 0 -0.0019797459114939656 -0.018540895769607348 0 -0.0011352907454413332 -0.019217732356778081 0 -0.0010026106304812923 -0.018882680121057437 0 -0.0011009907468526405 -0.018810689550406948 0 -0.0011352907454413332 -0.019217732356778081 0 -0.0010026106304812923 -0.018882680121057437 0 -0.00091474463156613586 -0.019001193846543283 0 -0.0010026106304812923 -0.018882680121057437 0 -0.00091474463156613586 -0.019001193846543283 0 -0.00085572964896561438 -0.018817100530832822 0 -0.00091474463156613586 -0.019001193846543283 0 -0.00085572964896561438 -0.018817100530832822 0 -0.00075408397540674855 -0.01897375488791991 0 -0.00083586820794608258 -0.019164137745303386 0 -0.0011352907454413332 -0.019217732356778081 0 -0.00091474463156613586 -0.019001193846543283 0 -0.00083586820794608258 -0.019164137745303386 0 -0.00091474463156613586 -0.019001193846543283 0 -0.00075408397540674855 -0.01897375488791991 0 -0.0013254779692662767 -0.023687912474746099 0 -0.0012339918706959804 -0.023707217625353542 0 -0.0022876010910519102 -0.019740277123427703 0 -0.0022691675836357251 -0.019319379104508885 0 -0.0025154038228531218 -0.019313823958315449 0 -0.0022876010910519102 -0.019740277123427703 0 -0.0020106481347322508 -0.019339018448299581 0 -0.0022691675836357251 -0.019319379104508885 0 -0.0022876010910519102 -0.019740277123427703 0 -0.0017659126012524401 -0.019661490547435267 0 -0.0020106481347322508 -0.019339018448299581 0 -0.0014150992296058553 -0.019210659141869015 0 -0.0020106481347322508 -0.019339018448299581 0 -0.0020244570980033892 -0.019020886528544761 0 -0.0020106481347322508 -0.019339018448299581 0 -0.0021694650639615758 -0.019175897312657633 0 -0.0020244570980033892 -0.019020886528544761 0 -0.0021694650639615758 -0.019175897312657633 0 -0.0023238303775161102 -0.019095556417549338 0 -0.0020244570980033892 -0.019020886528544761 0 -0.0022691675836357251 -0.019319379104508885 0 -0.0023238303775161102 -0.019095556417549338 0 -0.0025154038228531218 -0.019313823958315449 0 -0.0020106481347322508 -0.019339018448299581 0 -0.0022691675836357251 -0.019319379104508885 0 -0.0021694650639615758 -0.019175897312657633 0 -0.0022691675836357251 -0.019319379104508885 0 -0.0021694650639615758 -0.019175897312657633 0 -0.0023238303775161102 -0.019095556417549338 0 -0.0019797459114939656 -0.018540895769607348 0 -0.0027385925958831139 -0.021599922169677634 0 -0.0023238303775161102 -0.019095556417549338 0 -0.0023705438677369337 -0.018868358768451738 0 -0.002450960272567017 -0.019039402816519273 0 -0.0023238303775161102 -0.019095556417549338 0 -0.0020244570980033892 -0.019020886528544761 0 -0.0023705438677369337 -0.018868358768451738 0 -0.001855598678483399 -0.018916349648727796 0 -0.0019590310925256104 -0.018632516755982393 0 -0.0016905940084406218 -0.018858617533637229 0 -0.0014463508691521516 -0.018473379954415822 0 -0.0012183300857665381 -0.018563615119550604 0 -0.0011700295869345552 -0.01843348953091006 0 -0.0019273289703518881 -0.019891090151816792 0 -0.0014760802630144226 -0.018567777662930104 0 -0.0014463508691521516 -0.018473379954415822 0 -0.0012338906378690578 -0.018757795367785775 0 -0.0012183300857665381 -0.018563615119550604 0 -0.001855598678483399 -0.018916349648727796 0 -0.0019590310925256104 -0.018632516755982393 0 -0.0021031456786591899 -0.018745855524579566 0 -0.0019273289703518881 -0.019891090151816792 0 -0.0027385925958831139 -0.021599922169677634 0 -0.0026396185746027107 -0.024055123873382701 0 -0.00245308859020493 -0.024081034344701852 0 -0.0024325153310664998 -0.023915629731425116 0 -0.00097368787892453991 -0.018680777145418184 0 -0.00085572964896561438 -0.018817100530832822 0 -0.00077193583664415431 -0.018664650158002651 0 -0.00097368787892453991 -0.018680777145418184 0 -0.00085591334532699825 -0.018508970474071591 0 -0.00077193583664415431 -0.018664650158002651 0 -0.0010026106304812923 -0.018882680121057437 0 -0.00097368787892453991 -0.018680777145418184 0 -0.0011009907468526405 -0.018810689550406948 0 -0.0010026106304812923 -0.018882680121057437 0 -0.00097368787892453991 -0.018680777145418184 0 -0.00085572964896561438 -0.018817100530832822 0 -0.0011009907468526405 -0.018810689550406948 0 -0.0012338906378690578 -0.018757795367785775 0 -0.0011260935319497021 -0.018656254465667609 0 -0.0012338906378690578 -0.018757795367785775 0 -0.0011260935319497021 -0.018656254465667609 0 -0.0012183300857665381 -0.018563615119550604 0 -0.00097368787892453991 -0.018680777145418184 0 -0.0011009907468526405 -0.018810689550406948 0 -0.0011260935319497021 -0.018656254465667609 0 -0.00097368787892453991 -0.018680777145418184 0 -0.0011260935319497021 -0.018656254465667609 0 -0.0010417241834541641 -0.018506829880634297 0 -0.0011260935319497021 -0.018656254465667609 0 -0.0012183300857665381 -0.018563615119550604 0 -0.0010417241834541641 -0.018506829880634297 0 -0.0012183300857665381 -0.018563615119550604 0 -0.0011700295869345552 -0.01843348953091006 0 -0.0010417241834541641 -0.018506829880634297 0 -0.0011700295869345552 -0.01843348953091006 0 -0.0010417241834541641 -0.018506829880634297 0 -0.0010278133077407127 -0.018338248959889072 0 -0.0010417241834541641 -0.018506829880634297 0 -0.00085591334532699825 -0.018508970474071591 0 -0.00087831036575493435 -0.018329541369982039 0 -0.00097368787892453991 -0.018680777145418184 0 -0.0010417241834541641 -0.018506829880634297 0 -0.00085591334532699825 -0.018508970474071591 0 -0.00085591334532699825 -0.018508970474071591 0 -0.00070683743256997266 -0.018528594309785852 0 -0.00077193583664415431 -0.018664650158002651 0 -0.00085591334532699825 -0.018508970474071591 0 -0.00071562185654673767 -0.018353956267748054 0 -0.00087831036575493435 -0.018329541369982039 0 -0.00057553856343922443 -0.018464725761802563 0 -0.00070683743256997266 -0.018528594309785852 0 -0.00071562185654673767 -0.018353956267748054 0 -0.00085591334532699825 -0.018508970474071591 0 -0.00070683743256997266 -0.018528594309785852 0 -0.00071562185654673767 -0.018353956267748054 0 -0.00057553856343922443 -0.018464725761802563 0 -0.00054187833766058675 -0.018319536280590319 0 -0.00071562185654673767 -0.018353956267748054 0 -0.00057553856343922443 -0.018464725761802563 0 -0.00070683743256997266 -0.018528594309785852 0 -0.00054944868226817264 -0.018666169348562852 0 -0.00070683743256997266 -0.018528594309785852 0 -0.00077193583664415431 -0.018664650158002651 0 -0.00054944868226817264 -0.018666169348562852 0 -0.00077193583664415431 -0.018664650158002651 0 -0.00054944868226817264 -0.018666169348562852 0 -0.00066833069982361157 -0.018808683098245644 0 -0.00054944868226817264 -0.018666169348562852 0 -0.00066833069982361157 -0.018808683098245644 0 -0.00049740603311100682 -0.018857362590650576 0 -0.00085572964896561438 -0.018817100530832822 0 -0.00077193583664415431 -0.018664650158002651 0 -0.00066833069982361157 -0.018808683098245644 0 -0.00024853958292073294 -0.018823875547982635 0 -0.00035905525588054754 -0.018836790183218211 0 -0.00036888998538500911 -0.018686400361221149 0 -0.00024853958292073294 -0.018823875547982635 0 -0.00036888998538500911 -0.018686400361221149 0 -0.00023821058694468788 -0.018708674563547033 0 -0.00035905525588054754 -0.018836790183218211 0 -0.00044386886240397889 -0.018760627861561328 0 -0.00049740603311100682 -0.018857362590650576 0 -0.00035905525588054754 -0.018836790183218211 0 -0.00044386886240397889 -0.018760627861561328 0 -0.00036888998538500911 -0.018686400361221149 0 -0.00054944868226817264 -0.018666169348562852 0 -0.00044386886240397889 -0.018760627861561328 0 -0.00049740603311100682 -0.018857362590650576 0 -0.00054944868226817264 -0.018666169348562852 0 -0.00044386886240397889 -0.018760627861561328 0 -0.00036888998538500911 -0.018686400361221149 0 -0.00054944868226817264 -0.018666169348562852 0 -0.00036888998538500911 -0.018686400361221149 0 -0.0004276513972243498 -0.018535533976270842 0 -0.00036888998538500911 -0.018686400361221149 0 -0.00028251561286941597 -0.018580266288915563 0 -0.00023821058694468788 -0.018708674563547033 0 -0.00036888998538500911 -0.018686400361221149 0 -0.0004276513972243498 -0.018535533976270842 0 -0.00028251561286941597 -0.018580266288915563 0 -0.0004276513972243498 -0.018535533976270842 0 -0.00032471055354360876 -0.018425877479069631 0 -0.00028251561286941597 -0.018580266288915563 0 -0.0004276513972243498 -0.018535533976270842 0 -0.00045882739844442343 -0.018405459543291702 0 -0.00032471055354360876 -0.018425877479069631 0 -0.00057553856343922443 -0.018464725761802563 0 -0.00054944868226817264 -0.018666169348562852 0 -0.0004276513972243498 -0.018535533976270842 0 -0.00057553856343922443 -0.018464725761802563 0 -0.0004276513972243498 -0.018535533976270842 0 -0.00045882739844442343 -0.018405459543291702 0 -0.00057553856343922443 -0.018464725761802563 0 -0.00045882739844442343 -0.018405459543291702 0 -0.00054187833766058675 -0.018319536280590319 0 -0.00045882739844442343 -0.018405459543291702 0 -0.00032471055354360876 -0.018425877479069631 0 -0.00038800155334564498 -0.018298664762680206 0 -0.00032471055354360876 -0.018425877479069631 0 -0.00021467844842914922 -0.018289009117152949 0 -0.00038800155334564498 -0.018298664762680206 0 -0.00032471055354360876 -0.018425877479069631 0 -0.00021467844842914922 -0.018289009117152949 0 -0.00018731618750540211 -0.018466428533301629 0 -0.00021467844842914922 -0.018289009117152949 0 -0.00018731618750540211 -0.018466428533301629 0 -7.3589998180086319e-05 -0.018401553048864056 0 -0.00032471055354360876 -0.018425877479069631 0 -0.00018731618750540211 -0.018466428533301629 0 -0.00028251561286941597 -0.018580266288915563 0 2.4758457566800969e-05 -0.018283652189894639 0 -7.3589998180086319e-05 -0.018401553048864056 0 -6.3388961069020059e-05 -0.018176432333010667 0 -0.00021467844842914922 -0.018289009117152949 0 -7.3589998180086319e-05 -0.018401553048864056 0 -6.3388961069020059e-05 -0.018176432333010667 0 -7.3589998180086319e-05 -0.018401553048864056 0 3.5377525478735547e-05 -0.018506983010380635 0 -5.2179930208618137e-05 -0.018576854019000732 0 -0.00018731618750540211 -0.018466428533301629 0 -7.3589998180086319e-05 -0.018401553048864056 0 -5.2179930208618137e-05 -0.018576854019000732 0 0.00011999341031814199 -0.018397795420482647 0 2.4758457566800969e-05 -0.018283652189894639 0 3.5377525478735547e-05 -0.018506983010380635 0 2.4758457566800969e-05 -0.018283652189894639 0 -7.3589998180086319e-05 -0.018401553048864056 0 3.5377525478735547e-05 -0.018506983010380635 0 0.00014519239733584927 -0.018601233902255803 0 3.5377525478735547e-05 -0.018506983010380635 0 4.6264477160841963e-05 -0.018719012493116603 0 3.5377525478735547e-05 -0.018506983010380635 0 -5.2179930208618137e-05 -0.018576854019000732 0 4.6264477160841963e-05 -0.018719012493116603 0 -5.2179930208618137e-05 -0.018576854019000732 0 -4.9014879774957491e-05 -0.018721348999623279 0 -0.00015126472091099531 -0.018665502853528495 0 -5.2179930208618137e-05 -0.018576854019000732 0 -4.9014879774957491e-05 -0.018721348999623279 0 4.6264477160841963e-05 -0.018719012493116603 0 -4.9014879774957491e-05 -0.018721348999623279 0 4.6264477160841963e-05 -0.018719012493116603 0 -3.2111485259789192e-06 -0.018842550878761841 0 -4.9014879774957491e-05 -0.018721348999623279 0 -9.221547357763911e-05 -0.018810593972550162 0 -3.2111485259789192e-06 -0.018842550878761841 0 0.00017967608936639306 -0.018831889508230754 0 4.6264477160841963e-05 -0.018719012493116603 0 7.9115143679521288e-05 -0.018893571241031592 0 -0.00028251561286941597 -0.018580266288915563 0 -0.00015126472091099531 -0.018665502853528495 0 -0.00023821058694468788 -0.018708674563547033 0 -0.00018731618750540211 -0.018466428533301629 0 -0.00028251561286941597 -0.018580266288915563 0 -0.00015126472091099531 -0.018665502853528495 0 -0.00018731618750540211 -0.018466428533301629 0 -5.2179930208618137e-05 -0.018576854019000732 0 -0.00015126472091099531 -0.018665502853528495 0 -0.00015126472091099531 -0.018665502853528495 0 -9.221547357763911e-05 -0.018810593972550162 0 -0.00017242634260973306 -0.018794242321012285 0 -4.9014879774957491e-05 -0.018721348999623279 0 -0.00015126472091099531 -0.018665502853528495 0 -9.221547357763911e-05 -0.018810593972550162 0 -0.00015126472091099531 -0.018665502853528495 0 -0.00017242634260973306 -0.018794242321012285 0 -0.00023821058694468788 -0.018708674563547033 0 -0.00024853958292073294 -0.018823875547982635 0 -0.00017242634260973306 -0.018794242321012285 0 -0.00023821058694468788 -0.018708674563547033 0 -0.00012764951525497082 -0.018932074424280482 0 -0.00016339803775363776 -0.019034918398757979 0 -0.00024359547768605604 -0.018939315283312042 0 -0.00024853958292073294 -0.018823875547982635 0 -0.00012764951525497082 -0.018932074424280482 0 -0.00024359547768605604 -0.018939315283312042 0 -0.00024853958292073294 -0.018823875547982635 0 -0.00017242634260973306 -0.018794242321012285 0 -0.00012764951525497082 -0.018932074424280482 0 -9.221547357763911e-05 -0.018810593972550162 0 -0.00012764951525497082 -0.018932074424280482 0 -4.228629881548966e-05 -0.018918996323395137 0 -9.221547357763911e-05 -0.018810593972550162 0 -0.00017242634260973306 -0.018794242321012285 0 -0.00012764951525497082 -0.018932074424280482 0 -9.221547357763911e-05 -0.018810593972550162 0 -4.228629881548966e-05 -0.018918996323395137 0 -3.2111485259789192e-06 -0.018842550878761841 0 -0.00012764951525497082 -0.018932074424280482 0 -4.228629881548966e-05 -0.018918996323395137 0 -1.9220310290558996e-05 -0.019035910403505739 0 -1.9220310290558996e-05 -0.019035910403505739 0 -7.7208819750218129e-05 -0.019072864475504166 0 1.0999417351060393e-05 -0.019180435269887827 0 -0.00012764951525497082 -0.018932074424280482 0 -1.9220310290558996e-05 -0.019035910403505739 0 -7.7208819750218129e-05 -0.019072864475504166 0 -7.7208819750218129e-05 -0.019072864475504166 0 -0.00016339803775363776 -0.019034918398757979 0 -8.5533167093680671e-05 -0.019173190011859565 0 -0.00012764951525497082 -0.018932074424280482 0 -7.7208819750218129e-05 -0.019072864475504166 0 -0.00016339803775363776 -0.019034918398757979 0 4.6264477160841963e-05 -0.018719012493116603 0 7.9115143679521288e-05 -0.018893571241031592 0 -3.2111485259789192e-06 -0.018842550878761841 0 0.00017967608936639306 -0.018831889508230754 0 7.9115143679521288e-05 -0.018893571241031592 0 0.00014026560975894669 -0.0190499939646002 0 -4.228629881548966e-05 -0.018918996323395137 0 -3.2111485259789192e-06 -0.018842550878761841 0 3.7884089712361589e-05 -0.018991509963425069 0 7.9115143679521288e-05 -0.018893571241031592 0 -3.2111485259789192e-06 -0.018842550878761841 0 3.7884089712361589e-05 -0.018991509963425069 0 -1.9220310290558996e-05 -0.019035910403505739 0 3.7884089712361589e-05 -0.018991509963425069 0 7.5291955022010741e-05 -0.019129831142529159 0 -4.228629881548966e-05 -0.018918996323395137 0 -1.9220310290558996e-05 -0.019035910403505739 0 3.7884089712361589e-05 -0.018991509963425069 0 3.7884089712361589e-05 -0.018991509963425069 0 0.00014026560975894669 -0.0190499939646002 0 7.5291955022010741e-05 -0.019129831142529159 0 7.9115143679521288e-05 -0.018893571241031592 0 3.7884089712361589e-05 -0.018991509963425069 0 0.00014026560975894669 -0.0190499939646002 0 0.00014026560975894669 -0.0190499939646002 0 7.5291955022010741e-05 -0.019129831142529159 0 0.00014917202020873544 -0.019190362711705253 0 7.5291955022010741e-05 -0.019129831142529159 0 0.00011995724246978324 -0.01925994000062024 0 1.0999417351060393e-05 -0.019180435269887827 0 7.5291955022010741e-05 -0.019129831142529159 0 0.00011995724246978324 -0.01925994000062024 0 0.00014917202020873544 -0.019190362711705253 0 0.0001649488865929412 -0.019256696854475609 0 0.00011995724246978324 -0.01925994000062024 0 0.00014917202020873544 -0.019190362711705253 0 -7.7208819750218129e-05 -0.019072864475504166 0 -8.5533167093680671e-05 -0.019173190011859565 0 1.0999417351060393e-05 -0.019180435269887827 0 -0.00016339803775363776 -0.019034918398757979 0 -8.5533167093680671e-05 -0.019173190011859565 0 -0.00017953163172386609 -0.019176312267302653 0 -8.5533167093680671e-05 -0.019173190011859565 0 1.0999417351060393e-05 -0.019180435269887827 0 -2.364888752553603e-05 -0.01928380347549603 0 -1.9220310290558996e-05 -0.019035910403505739 0 7.5291955022010741e-05 -0.019129831142529159 0 1.0999417351060393e-05 -0.019180435269887827 0 6.9897048106075979e-05 -0.019343301409955663 0 1.0999417351060393e-05 -0.019180435269887827 0 -2.364888752553603e-05 -0.01928380347549603 0 6.9897048106075979e-05 -0.019343301409955663 0 0.00011995724246978324 -0.01925994000062024 0 1.0999417351060393e-05 -0.019180435269887827 0 -3.1406608568120909e-05 -0.019435900976192383 0 -2.364888752553603e-05 -0.01928380347549603 0 -0.00012584196571015251 -0.019285163580007997 0 6.9897048106075979e-05 -0.019343301409955663 0 -3.1406608568120909e-05 -0.019435900976192383 0 -2.364888752553603e-05 -0.01928380347549603 0 -8.5533167093680671e-05 -0.019173190011859565 0 -2.364888752553603e-05 -0.01928380347549603 0 -0.00012584196571015251 -0.019285163580007997 0 -3.1406608568120909e-05 -0.019435900976192383 0 -0.00012584196571015251 -0.019285163580007997 0 -0.00019994938846618594 -0.01940023889599999 0 -0.00012584196571015251 -0.019285163580007997 0 -0.00026886026262387864 -0.019239104285002358 0 -0.00019994938846618594 -0.01940023889599999 0 -0.00017953163172386609 -0.019176312267302653 0 -0.00026886026262387864 -0.019239104285002358 0 -0.00026362885688471712 -0.019076063139383877 0 -8.5533167093680671e-05 -0.019173190011859565 0 -0.00012584196571015251 -0.019285163580007997 0 -0.00017953163172386609 -0.019176312267302653 0 -0.00012584196571015251 -0.019285163580007997 0 -0.00017953163172386609 -0.019176312267302653 0 -0.00026886026262387864 -0.019239104285002358 0 -0.00026886026262387864 -0.019239104285002358 0 -0.00026362885688471712 -0.019076063139383877 0 -0.00038329972674138802 -0.019116270810220451 0 -0.00026886026262387864 -0.019239104285002358 0 -0.00039766590722036389 -0.019306479228703176 0 -0.00038329972674138802 -0.019116270810220451 0 -0.00026886026262387864 -0.019239104285002358 0 -0.00019994938846618594 -0.01940023889599999 0 -0.00039766590722036389 -0.019306479228703176 0 -0.00019994938846618594 -0.01940023889599999 0 -0.00040566793166371917 -0.019467316374706712 0 -0.00039766590722036389 -0.019306479228703176 0 -0.00040566793166371917 -0.019467316374706712 0 -0.00060840395117606888 -0.019311512685087517 0 -0.00039766590722036389 -0.019306479228703176 0 -0.00059015591972310841 -0.019581778925477557 0 -0.00040566793166371917 -0.019467316374706712 0 -0.00060840395117606888 -0.019311512685087517 0 -0.00059015591972310841 -0.019581778925477557 0 -0.0008790241656452672 -0.019414333117251725 0 -0.00060840395117606888 -0.019311512685087517 0 -0.00083586820794608258 -0.019164137745303386 0 -0.00060840395117606888 -0.019311512685087517 0 -0.00065698996915317879 -0.019085633867509996 0 -0.00060840395117606888 -0.019311512685087517 0 -0.00051571275892618523 -0.019161577228101564 0 -0.00065698996915317879 -0.019085633867509996 0 -0.00060840395117606888 -0.019311512685087517 0 -0.00039766590722036389 -0.019306479228703176 0 -0.00051571275892618523 -0.019161577228101564 0 -0.00039766590722036389 -0.019306479228703176 0 -0.00051571275892618523 -0.019161577228101564 0 -0.00038329972674138802 -0.019116270810220451 0 -0.00051571275892618523 -0.019161577228101564 0 -0.0005457734190491548 -0.019002845948178904 0 -0.00038329972674138802 -0.019116270810220451 0 -0.00051571275892618523 -0.019161577228101564 0 -0.0005457734190491548 -0.019002845948178904 0 -0.00065698996915317879 -0.019085633867509996 0 -0.00083586820794608258 -0.019164137745303386 0 -0.00065698996915317879 -0.019085633867509996 0 -0.00075408397540674855 -0.01897375488791991 0 -0.0005457734190491548 -0.019002845948178904 0 -0.00065698996915317879 -0.019085633867509996 0 -0.00075408397540674855 -0.01897375488791991 0 -0.00085572964896561438 -0.018817100530832822 0 -0.00066833069982361157 -0.018808683098245644 0 -0.00075408397540674855 -0.01897375488791991 0 -0.00066833069982361157 -0.018808683098245644 0 -0.0005457734190491548 -0.019002845948178904 0 -0.00075408397540674855 -0.01897375488791991 0 -0.0005457734190491548 -0.019002845948178904 0 -0.00049740603311100682 -0.018857362590650576 0 -0.00036419132228435836 -0.018962428130579901 0 -0.00066833069982361157 -0.018808683098245644 0 -0.0005457734190491548 -0.019002845948178904 0 -0.00049740603311100682 -0.018857362590650576 0 -0.00035905525588054754 -0.018836790183218211 0 -0.00049740603311100682 -0.018857362590650576 0 -0.00036419132228435836 -0.018962428130579901 0 -0.00035905525588054754 -0.018836790183218211 0 -0.00036419132228435836 -0.018962428130579901 0 -0.00024359547768605604 -0.018939315283312042 0 -0.00024853958292073294 -0.018823875547982635 0 -0.00035905525588054754 -0.018836790183218211 0 -0.00024359547768605604 -0.018939315283312042 0 -0.00036419132228435836 -0.018962428130579901 0 -0.00024359547768605604 -0.018939315283312042 0 -0.00026362885688471712 -0.019076063139383877 0 -0.00016339803775363776 -0.019034918398757979 0 -0.00024359547768605604 -0.018939315283312042 0 -0.00026362885688471712 -0.019076063139383877 0 -0.00016339803775363776 -0.019034918398757979 0 -0.00017953163172386609 -0.019176312267302653 0 -0.00026362885688471712 -0.019076063139383877 0 -0.0005457734190491548 -0.019002845948178904 0 -0.00036419132228435836 -0.018962428130579901 0 -0.00038329972674138802 -0.019116270810220451 0 -0.00036419132228435836 -0.018962428130579901 0 -0.00026362885688471712 -0.019076063139383877 0 -0.00038329972674138802 -0.019116270810220451 0 -0.00010507950800916823 -0.035011901243264074 0 8.2227313561285624e-08 -0.034999549807606438 0 -8.7829455344233018e-06 -0.034998808346463614 0 -0.0015299208765938131 -0.030789330827532015 0 -0.00065798907128349017 -0.029542623807581974 0 -0.0013584649140911983 -0.028433629247269217 0 -0.0015299208765938131 -0.030789330827532015 0 -0.00065798907128349017 -0.029542623807581974 0 -0.00055556700541078302 -0.030414703313559336 0 -0.00065798907128349017 -0.029542623807581974 0 0.00020806754722568855 -0.029423031006210056 0 -0.00055556700541078302 -0.030414703313559336 0 -0.0015299208765938131 -0.030789330827532015 0 -0.00055556700541078302 -0.030414703313559336 0 -2.1081034671693387e-05 -0.031631820801117268 0 0.00020806754722568855 -0.029423031006210056 0 -0.00055556700541078302 -0.030414703313559336 0 -2.1081034671693387e-05 -0.031631820801117268 0 -0.00010507950800916823 -0.035011901243264074 0 8.2227313561285624e-08 -0.034999549807606438 0 -0.00022324816786298686 -0.034219352824140785 0 -0.0015299208765938131 -0.030789330827532015 0 -2.1081034671693387e-05 -0.031631820801117268 0 -0.00022324816786298686 -0.034219352824140785 0 -0.00072741197202966332 -0.033017784726306829 0 -0.00032975413353058917 -0.034058189454709689 0 8.2227313561285624e-08 -0.034999549807606438 0 -7.7932195364501539e-07 -0.034997593751119584 0 -0.00022324816786298686 -0.034219352824140785 0 -7.7932195364501539e-07 -0.034997593751119584 0 -0.00022324816786298686 -0.034219352824140785 0 1.4306289058912667e-06 -0.032155674070152733 0 -0.00022324816786298686 -0.034219352824140785 0 0.00034692501039400916 -0.032736815821072789 0 1.4306289058912667e-06 -0.032155674070152733 0 -2.1081034671693387e-05 -0.031631820801117268 0 -0.00022324816786298686 -0.034219352824140785 0 0.00034692501039400916 -0.032736815821072789 0 0.00034692501039400916 -0.032736815821072789 0 0.00016239446195807659 -0.032167903737880761 0 0.00083462575097818087 -0.032024983076524405 0 0.00034692501039400916 -0.032736815821072789 0 1.4306289058912667e-06 -0.032155674070152733 0 0.00016239446195807659 -0.032167903737880761 0 1.4306289058912667e-06 -0.032155674070152733 0 0.00016239446195807659 -0.032167903737880761 0 -1.3683082540444203e-06 -0.030040657929029442 0 5.1536591514542157e-05 -0.030215839221480488 0 0.00043406908482112948 -0.030085033371370192 0 -0.0002760425335692928 -0.028190880187072102 0 5.5363061288625642e-05 -0.02815832808007945 0 0.00023201778359620311 -0.028294839434725189 0 5.5363061288625642e-05 -0.02815832808007945 0 0.00023201778359620311 -0.028294839434725189 0 0.00015804645527325015 -0.028390282801143529 0 5.5363061288625642e-05 -0.02815832808007945 0 0.00015804645527325015 -0.028390282801143529 0 0.00017745519473517097 -0.028113101151924402 0 -2.1081034671693387e-05 -0.031631820801117268 0 0.00034692501039400916 -0.032736815821072789 0 0.00083462575097818087 -0.032024983076524405 0 0.00020806754722568855 -0.029423031006210056 0 -2.1081034671693387e-05 -0.031631820801117268 0 0.00083462575097818087 -0.032024983076524405 0 0.00017009153350155289 -0.029416690783747628 0 0.00043406908482112948 -0.030085033371370192 0 0.00020806754722568855 -0.029423031006210056 0 0.00023201778359620311 -0.028294839434725189 0 0.00022917948589484157 -0.028760229493781868 0 0.00020806754722568855 -0.029423031006210056 0 0.00022917948589484157 -0.028760229493781868 0 0.00026500280534832825 -0.02876289677709162 0 0.00023201778359620311 -0.028294839434725189 0 0.00022917948589484157 -0.028760229493781868 0 0.00015804645527325015 -0.028390282801143529 0 0.00022917948589484157 -0.028760229493781868 0 0.00015804645527325015 -0.028390282801143529 0 0.00026924333320983593 -0.028466290105285053 0 0.00015804645527325015 -0.028390282801143529 0 0.00024004899771635523 -0.028177930805278268 0 0.00026924333320983593 -0.028466290105285053 0 0.00017745519473517097 -0.028113101151924402 0 0.00024004899771635523 -0.028177930805278268 0 0.00028359785043714509 -0.027919999268723825 0 0.00015804645527325015 -0.028390282801143529 0 0.00017745519473517097 -0.028113101151924402 0 0.00024004899771635523 -0.028177930805278268 0 0.00024004899771635523 -0.028177930805278268 0 0.00028359785043714509 -0.027919999268723825 0 0.00028863609379447299 -0.028009578053235978 0 0.00028359785043714509 -0.027919999268723825 0 0.00032815510079509211 -0.027731727493483224 0 0.00028863609379447299 -0.028009578053235978 0 0.00032815510079509211 -0.027731727493483224 0 0.00026186505008766732 -0.027942138442058808 0 0.00028863609379447299 -0.028009578053235978 0 0.00028359785043714509 -0.027919999268723825 0 0.00035242045015215187 -0.027733188602041863 0 0.00032815510079509211 -0.027731727493483224 0 0.00028359785043714509 -0.027919999268723825 0 0.00035242045015215187 -0.027733188602041863 0 0.00018300455683560796 -0.027958099084035622 0 0.00035242045015215187 -0.027733188602041863 0 0.00034524352972156567 -0.027802746926316371 0 0.00043550766170048435 -0.02753265127874148 0 0.00035242045015215187 -0.027733188602041863 0 0.00018300455683560796 -0.027958099084035622 0 0.00034524352972156567 -0.027802746926316371 0 0.00017745519473517097 -0.028113101151924402 0 0.00028359785043714509 -0.027919999268723825 0 0.00018300455683560796 -0.027958099084035622 0 5.5363061288625642e-05 -0.02815832808007945 0 0.00017745519473517097 -0.028113101151924402 0 0.00018300455683560796 -0.027958099084035622 0 -0.0002760425335692928 -0.028190880187072102 0 5.5363061288625642e-05 -0.02815832808007945 0 0.00018300455683560796 -0.027958099084035622 0 -0.0002760425335692928 -0.028190880187072102 0 0.00018300455683560796 -0.027958099084035622 0 0.00012689283721383968 -0.028240667437776021 0 0.00018300455683560796 -0.027958099084035622 0 0.00012689283721383968 -0.028240667437776021 0 0.00029883952292734326 -0.028008405215432144 0 -0.0002760425335692928 -0.028190880187072102 0 -3.1701435297749213e-07 -0.030034307929639976 0 0.00012283045767545546 -0.029403169409608493 0 -0.0002760425335692928 -0.028190880187072102 0 0.00012689283721383968 -0.028240667437776021 0 0.00012283045767545546 -0.029403169409608493 0 5.1536591514542157e-05 -0.030215839221480488 0 1.5532394542307944e-07 -0.030038689163806018 0 0.00012689283721383968 -0.028240667437776021 0 0.00012283045767545546 -0.029403169409608493 0 0.00030242834853393195 -0.028405398288574281 0 -3.1701435297749213e-07 -0.030034307929639976 0 0.00012283045767545546 -0.029403169409608493 0 3.7253144787589625e-07 -0.028012441781651961 0 0.00012283045767545546 -0.029403169409608493 0 3.7253144787589625e-07 -0.028012441781651961 0 -6.6632869379539172e-06 -0.027664928774701562 0 0.00012283045767545546 -0.029403169409608493 0 0.00043096084509264726 -0.028027583710062164 0 0.0006119027618150531 -0.027099044895858453 0 9.7513305715946441e-05 -0.029102344802080963 0 0.00028651972352734367 -0.027427636751884955 0 0.00012283045767545546 -0.029403169409608493 0 0.00030242834853393195 -0.028405398288574281 0 0.00043096084509264726 -0.028027583710062164 0 0.00030242834853393195 -0.028405398288574281 0 0.00043096084509264726 -0.028027583710062164 0 0.0004386405538312548 -0.027800453247630651 0 0.00043096084509264726 -0.028027583710062164 0 0.0004386405538312548 -0.027800453247630651 0 0.000521816294013012 -0.027499161597097938 0 0.00012689283721383968 -0.028240667437776021 0 0.00030242834853393195 -0.028405398288574281 0 0.00029883952292734326 -0.028008405215432144 0 0.00030242834853393195 -0.028405398288574281 0 0.0004386405538312548 -0.027800453247630651 0 0.00029883952292734326 -0.028008405215432144 0 0.0004386405538312548 -0.027800453247630651 0 0.00029883952292734326 -0.028008405215432144 0 0.00034524352972156567 -0.027802746926316371 0 0.00018300455683560796 -0.027958099084035622 0 0.00029883952292734326 -0.028008405215432144 0 0.00034524352972156567 -0.027802746926316371 0 0.0004386405538312548 -0.027800453247630651 0 0.00034524352972156567 -0.027802746926316371 0 0.00043550766170048435 -0.02753265127874148 0 0.00043550766170048435 -0.02753265127874148 0 0.00046574854639096165 -0.027215208448584851 0 0.00046810771108747021 -0.027511704596378802 0 0.00043550766170048435 -0.02753265127874148 0 0.00046574854639096165 -0.027215208448584851 0 0.00038451922401087408 -0.02733254663826017 0 0.00046574854639096165 -0.027215208448584851 0 0.00033130833163796307 -0.026859163733908297 0 0.00038451922401087408 -0.02733254663826017 0 0.00046574854639096165 -0.027215208448584851 0 0.00044413264383047355 -0.026926690119141141 0 0.00033130833163796307 -0.026859163733908297 0 0.00046574854639096165 -0.027215208448584851 0 0.000521816294013012 -0.027499161597097938 0 0.00053325793009414773 -0.027180785352993401 0 0.00046574854639096165 -0.027215208448584851 0 0.00053325793009414773 -0.027180785352993401 0 0.00044413264383047355 -0.026926690119141141 0 0.0004386405538312548 -0.027800453247630651 0 0.00043550766170048435 -0.02753265127874148 0 0.00046810771108747021 -0.027511704596378802 0 0.0004386405538312548 -0.027800453247630651 0 0.00046810771108747021 -0.027511704596378802 0 0.000521816294013012 -0.027499161597097938 0 0.00046574854639096165 -0.027215208448584851 0 0.00046810771108747021 -0.027511704596378802 0 0.000521816294013012 -0.027499161597097938 0 0.00043096084509264726 -0.028027583710062164 0 0.000521816294013012 -0.027499161597097938 0 0.0006119027618150531 -0.027099044895858453 0 0.000521816294013012 -0.027499161597097938 0 0.00053325793009414773 -0.027180785352993401 0 0.0006119027618150531 -0.027099044895858453 0 0.00053325793009414773 -0.027180785352993401 0 0.0006119027618150531 -0.027099044895858453 0 0.00044413264383047355 -0.026926690119141141 0 -1.6961269532583756e-07 -0.025984716635682244 0 -1.8296815725058039e-06 -0.025536967774732914 0 -6.6632869379539172e-06 -0.027664928774701562 0 -0.00018290231673548374 -0.025303995124975227 0 0.0006119027618150531 -0.027099044895858453 0 0.00022888232744527781 -0.026403977896594179 0 -1.6961269532583756e-07 -0.025984716635682244 0 3.7253144787589625e-07 -0.028012441781651961 0 -6.6632869379539172e-06 -0.027664928774701562 0 -8.2241353521895745e-05 -0.025425397018585455 0 0.00028651972352734367 -0.027427636751884955 0 0.0006119027618150531 -0.027099044895858453 0 0.00044413264383047355 -0.026926690119141141 0 0.00022888232744527781 -0.026403977896594179 0 -7.5713000153014657e-05 -0.025876041276453866 0 0.00022888232744527781 -0.026403977896594179 0 0.00010315741636667698 -0.026394842793863286 0 0.00033130833163796307 -0.026859163733908297 0 0.00016741855935878871 -0.026831719777957772 0 0.00038451922401087408 -0.02733254663826017 0 0.00022888232744527781 -0.026403977896594179 0 0.00010315741636667698 -0.026394842793863286 0 0.00033130833163796307 -0.026859163733908297 0 0.00044413264383047355 -0.026926690119141141 0 0.00022888232744527781 -0.026403977896594179 0 0.00033130833163796307 -0.026859163733908297 0 0.00010315741636667698 -0.026394842793863286 0 0.00033130833163796307 -0.026859163733908297 0 0.00016741855935878871 -0.026831719777957772 0 -0.00022475444999862232 -0.026850218494445435 0 0.00017803527673633957 -0.027317042311949813 0 0.00016741855935878871 -0.026831719777957772 0 0.00017803527673633957 -0.027317042311949813 0 0.00016741855935878871 -0.026831719777957772 0 0.00038451922401087408 -0.02733254663826017 0 0.00035242045015215187 -0.027733188602041863 0 0.00043550766170048435 -0.02753265127874148 0 0.00038451922401087408 -0.02733254663826017 0 0.00017803527673633957 -0.027317042311949813 0 0.00038451922401087408 -0.02733254663826017 0 0.00032815510079509211 -0.027731727493483224 0 0.00035242045015215187 -0.027733188602041863 0 0.00038451922401087408 -0.02733254663826017 0 0.00032815510079509211 -0.027731727493483224 0 0.00017803527673633957 -0.027317042311949813 0 0.00032815510079509211 -0.027731727493483224 0 0.00023427324012608166 -0.02768035009733608 0 0.00032815510079509211 -0.027731727493483224 0 0.00023427324012608166 -0.02768035009733608 0 0.00026186505008766732 -0.027942138442058808 0 -0.0003423835415128912 -0.027634608278494434 0 0.00017803527673633957 -0.027317042311949813 0 0.00023427324012608166 -0.02768035009733608 0 -0.0003423835415128912 -0.027634608278494434 0 0.00013062397033404333 -0.027913338564984028 0 3.7875634371725681e-05 -0.028084378542263463 0 -0.0003423835415128912 -0.027634608278494434 0 0.00023427324012608166 -0.02768035009733608 0 0.00013062397033404333 -0.027913338564984028 0 0.00023427324012608166 -0.02768035009733608 0 0.00013062397033404333 -0.027913338564984028 0 0.00026186505008766732 -0.027942138442058808 0 0.00013062397033404333 -0.027913338564984028 0 0.00026186505008766732 -0.027942138442058808 0 0.00022509426159876488 -0.028136157831485254 0 0.00022509426159876488 -0.028136157831485254 0 3.7875634371725681e-05 -0.028084378542263463 0 0.00016518000475576963 -0.02817204329673767 0 0.00013062397033404333 -0.027913338564984028 0 0.00022509426159876488 -0.028136157831485254 0 3.7875634371725681e-05 -0.028084378542263463 0 -0.0025154038228531218 -0.019313823958315449 0 -0.0024838697035956983 -0.019132359927455669 0 -0.0026704457447932323 -0.019124200445273888 0 -0.0012339918706959804 -0.023707217625353542 0 -0.0012221686016534541 -0.023553377846448172 0 -0.0023238303775161102 -0.019095556417549338 0 -0.0025154038228531218 -0.019313823958315449 0 -0.0024838697035956983 -0.019132359927455669 0 -0.0023705438677369337 -0.018868358768451738 0 -0.002450960272567017 -0.019039402816519273 0 -0.0026704457447932323 -0.019124200445273888 0 -0.0026092700678537286 -0.025536078486979939 0 -0.0018639948427810762 -0.025378603083999519 0 -0.0015674118936709622 -0.024809753226832314 0 -0.0023238303775161102 -0.019095556417549338 0 -0.0024838697035956983 -0.019132359927455669 0 -0.002450960272567017 -0.019039402816519273 0 -0.0027385925958831139 -0.021599922169677634 0 -0.0012221686016534541 -0.023553377846448172 0 -0.0024838697035956983 -0.019132359927455669 0 -0.002450960272567017 -0.019039402816519273 0 -0.0026704457447932323 -0.019124200445273888 0 -0.0026092700678537286 -0.025536078486979939 0 -0.0018639948427810762 -0.025378603083999519 0 -0.0021288403813372173 -0.025953561368460637 0 -0.0027385925958831139 -0.021599922169677634 0 -0.0026746149395223732 -0.028778752401275153 0 -0.0026746149395223732 -0.028778752401275153 0 -0.0015832101605977025 -0.032247787230528242 0 -0.00245308859020493 -0.024081034344701852 0 -0.0024325153310664998 -0.023915629731425116 0 -0.0022588233719686096 -0.024081769165424521 0 -0.0028808333361942558 -0.032309291227249196 0 -0.0016813879381522199 -0.032365023173837028 0 -0.0022681150167758878 -0.032829303986403623 0 -0.0016813879381522199 -0.032365023173837028 0 -0.0015941422655351618 -0.031137037933050248 0 -0.00062686865015557482 -0.03228651265603516 0 -0.0026746149395223732 -0.028778752401275153 0 -0.00055754981381703932 -0.02815816864607068 0 -0.0018639948427810762 -0.025378603083999519 0 -0.0021288403813372173 -0.025953561368460637 0 -0.0012527177917360092 -0.025174884224416119 0 -0.0028808333361942558 -0.032309291227249196 0 -0.0016813879381522199 -0.032365023173837028 0 -0.0015941422655351618 -0.031137037933050248 0 0.00022509426159876488 -0.028136157831485254 0 0.00020025857037591887 -0.028188630625310424 0 0.00016518000475576963 -0.02817204329673767 0 -0.0018639948427810762 -0.025378603083999519 0 -0.0012527177917360092 -0.025174884224416119 0 -0.0015674118936709622 -0.024809753226832314 0 -0.00055754981381703932 -0.02815816864607068 0 -0.0012221686016534541 -0.023553377846448172 0 -0.00055754981381703932 -0.02815816864607068 0 0.00037994887395723234 -0.028293664297824976 0 -0.00036268167058675898 -0.028640276725615088 0 4.2919863716828968e-05 -0.028680323551416639 0 0.00025074430945085189 -0.028241775674470438 0 -0.00036268167058675898 -0.028640276725615088 0 4.2919863716828968e-05 -0.028680323551416639 0 -2.6176427138234902e-05 -0.029124361672014855 0 -0.00055754981381703932 -0.02815816864607068 0 -0.00033209202684955375 -0.03073850259088726 0 4.2919863716828968e-05 -0.028680323551416639 0 -2.6176427138234902e-05 -0.029124361672014855 0 0.0003220629031871013 -0.028973725759789969 0 -0.0016813879381522199 -0.032365023173837028 0 -0.00062686865015557482 -0.03228651265603516 0 -0.0013702838334014166 -0.033270765144256101 0 0.0003220629031871013 -0.028973725759789969 0 0.00030482443181117203 -0.028524459071754694 0 0.00073022595586873544 -0.029126330995366257 0 0.0003220629031871013 -0.028973725759789969 0 0.00073022595586873544 -0.029126330995366257 0 0.00038533927766547081 -0.029662145936311411 0 -2.6176427138234902e-05 -0.029124361672014855 0 0.0003220629031871013 -0.028973725759789969 0 0.00038533927766547081 -0.029662145936311411 0 4.2919863716828968e-05 -0.028680323551416639 0 0.00030482443181117203 -0.028524459071754694 0 0.00025074430945085189 -0.028241775674470438 0 4.2919863716828968e-05 -0.028680323551416639 0 0.0003220629031871013 -0.028973725759789969 0 0.00030482443181117203 -0.028524459071754694 0 0.00030482443181117203 -0.028524459071754694 0 0.00025074430945085189 -0.028241775674470438 0 0.00033793641809139847 -0.028408299507374956 0 0.00025074430945085189 -0.028241775674470438 0 0.00027605306240132462 -0.028231991597552814 0 0.00033793641809139847 -0.028408299507374956 0 0.00022509426159876488 -0.028136157831485254 0 0.00020025857037591887 -0.028188630625310424 0 0.00025074430945085189 -0.028241775674470438 0 0.00022509426159876488 -0.028136157831485254 0 0.00025074430945085189 -0.028241775674470438 0 0.00027022601597941786 -0.028114912571476865 0 0.00026186505008766732 -0.027942138442058808 0 0.00022509426159876488 -0.028136157831485254 0 0.00027022601597941786 -0.028114912571476865 0 0.00025074430945085189 -0.028241775674470438 0 0.00027022601597941786 -0.028114912571476865 0 0.00027605306240132462 -0.028231991597552814 0 0.00026186505008766732 -0.027942138442058808 0 0.00027022601597941786 -0.028114912571476865 0 0.00028863609379447299 -0.028009578053235978 0 0.00027022601597941786 -0.028114912571476865 0 0.00028863609379447299 -0.028009578053235978 0 0.00027605306240132462 -0.028231991597552814 0 0.00024004899771635523 -0.028177930805278268 0 0.00028863609379447299 -0.028009578053235978 0 0.00027605306240132462 -0.028231991597552814 0 0.00024004899771635523 -0.028177930805278268 0 0.00027605306240132462 -0.028231991597552814 0 0.00026924333320983593 -0.028466290105285053 0 0.00027605306240132462 -0.028231991597552814 0 0.00026924333320983593 -0.028466290105285053 0 0.00033793641809139847 -0.028408299507374956 0 0.00030127622425312573 -0.028531521689036561 0 0.00026924333320983593 -0.028466290105285053 0 0.00033793641809139847 -0.028408299507374956 0 0.00030127622425312573 -0.028531521689036561 0 0.00026924333320983593 -0.028466290105285053 0 0.00026500280534832825 -0.02876289677709162 0 0.00030127622425312573 -0.028531521689036561 0 0.00026500280534832825 -0.02876289677709162 0 0.0002119612682662066 -0.028422148729763931 0 0.00022917948589484157 -0.028760229493781868 0 0.00026924333320983593 -0.028466290105285053 0 0.00026500280534832825 -0.02876289677709162 0 0.00026500280534832825 -0.02876289677709162 0 0.0002119612682662066 -0.028422148729763931 0 -0.00010081236302663411 -0.028834172848981057 0 0.00030127622425312573 -0.028531521689036561 0 0.0002119612682662066 -0.028422148729763931 0 0.00033793641809139847 -0.028408299507374956 0 0.0002119612682662066 -0.028422148729763931 0 0.00033793641809139847 -0.028408299507374956 0 0.00031142686775929856 -0.028411970748866852 0 0.00048421394429505686 -0.028290100684215322 0 0.00024613848799566831 -0.029652487003326976 0 0.00030482443181117203 -0.028524459071754694 0 0.0010739431620972511 -0.028605686610868097 0 0.00073022595586873544 -0.029126330995366257 0 0.00030482443181117203 -0.028524459071754694 0 0.00033793641809139847 -0.028408299507374956 0 0.00031142686775929856 -0.028411970748866852 0 0.0001732599748951841 -0.034862123883051335 0 9.4739131039628816e-05 -0.034885523945240186 0 0.00015017978979101534 -0.034782598239662621 0 0.00024613848799566831 -0.029652487003326976 0 0.00040508805158731662 -0.032151002340157227 0 0.00012082700769329938 -0.034914971113360761 0 0.0001732599748951841 -0.034862123883051335 0 9.4739131039628816e-05 -0.034885523945240186 0 0.00031251517002426737 -0.028013107875306979 0 0.00081057673292987047 -0.027273083933600364 0 -0.0002790689009511501 -0.027174853159218488 0 0.00041480312368908891 -0.02796599248526449 0 0.00024613848799566831 -0.029652487003326976 0 0.00024613848799566831 -0.029652487003326976 0 -0.00020898158162746487 -0.031005723257701599 0 0.00012082700769329938 -0.034914971113360761 0 9.4739131039628816e-05 -0.034885523945240186 0 4.3904373981114663e-05 -0.034945071121106813 0 -0.0002790689009511501 -0.027174853159218488 0 -0.00086412889460747808 -0.027674641568701797 0 -0.00051576826129361185 -0.028009400151672144 0 4.3904373981114663e-05 -0.034945071121106813 0 4.5213470105851405e-05 -0.034926547625333336 0 1.72098352943373e-05 -0.034968060111651385 0 9.4739131039628816e-05 -0.034885523945240186 0 4.3904373981114663e-05 -0.034945071121106813 0 4.5213470105851405e-05 -0.034926547625333336 0 2.8551651367562941e-06 -0.034994826972444396 0 1.5506274815193549e-08 -0.034999967634224749 0 1.3173911032007182e-08 -0.034999915765952273 0 1.72098352943373e-05 -0.034968060111651385 0 2.8551651367562941e-06 -0.034994826972444396 0 1.3173911032007182e-08 -0.034999915765952273 0 1.72098352943373e-05 -0.034968060111651385 0 2.8551651367562941e-06 -0.034994826972444396 0 3.5428524692944391e-06 -0.034985876958185946 0 -0.00020898158162746487 -0.031005723257701599 0 -2.5292471294292276e-05 -0.033164161303339247 0 -8.20875058440069e-08 -0.035000177801501636 0 -2.6457932115515968e-07 -0.034997940762789843 0 -8.7829455344233018e-06 -0.034998808346463614 0 4.3904373981114663e-05 -0.034945071121106813 0 1.72098352943373e-05 -0.034968060111651385 0 3.5428524692944391e-06 -0.034985876958185946 0 8.31659319755522e-05 -0.034704247886483679 0 -2.5292471294292276e-05 -0.033164161303339247 0 -0.0002790689009511501 -0.027174853159218488 0 -0.0013402978051692874 -0.027123852361479357 0 -0.00086412889460747808 -0.027674641568701797 0 2.8551651367562941e-06 -0.034994826972444396 0 1.5506274815193549e-08 -0.034999967634224749 0 2.4434849280988436e-06 -0.034998774300219158 0 2.5467987384031197e-07 -0.03499208770864061 0 -2.5292471294292276e-05 -0.033164161303339247 0 -0.0013402978051692874 -0.027123852361479357 0 -0.00086412889460747808 -0.027674641568701797 0 -0.0013584649140911983 -0.028433629247269217 0 -2.5292471294292276e-05 -0.033164161303339247 0 -0.00081550521665598916 -0.031255244682385025 0 8.2227313561285624e-08 -0.034999549807606438 0 -8.20875058440069e-08 -0.035000177801501636 0 -8.7829455344233018e-06 -0.034998808346463614 0 -0.00086412889460747808 -0.027674641568701797 0 -0.00051576826129361185 -0.028009400151672144 0 -0.0013584649140911983 -0.028433629247269217 0 0.00041480312368908891 -0.02796599248526449 0 -0.00014133893720795888 -0.02887292479682009 0 0.00031251517002426737 -0.028013107875306979 0 -0.0002790689009511501 -0.027174853159218488 0 -0.00051576826129361185 -0.028009400151672144 0 0.00031251517002426737 -0.028013107875306979 0 -0.00051576826129361185 -0.028009400151672144 0 -0.00010081236302663411 -0.028834172848981057 0 -0.00065798907128349017 -0.029542623807581974 0 -0.00010081236302663411 -0.028834172848981057 0 -0.0013584649140911983 -0.028433629247269217 0 -0.00051576826129361185 -0.028009400151672144 0 -0.00010081236302663411 -0.028834172848981057 0 -0.0013584649140911983 -0.028433629247269217 0 -0.00065798907128349017 -0.029542623807581974 0 0.00020806754722568855 -0.029423031006210056 0 -0.00010081236302663411 -0.028834172848981057 0 0.00020806754722568855 -0.029423031006210056 0 0.00026500280534832825 -0.02876289677709162 0 -0.00010081236302663411 -0.028834172848981057 0 -0.00072741197202966332 -0.033017784726306829 0 -0.00081550521665598916 -0.031255244682385025 0 4.3811891653705278e-06 -0.034990891817570799 0 1.5211100634773961e-09 -0.035000000765372137 0 1.2657389645225464e-09 -0.034999986187865005 0 7.8880494235669619e-05 -0.034809120706764583 0 4.5528941380817633e-05 -0.034902567103075689 0 0.00011478834408313866 -0.03480700582830315 0 7.8880494235669619e-05 -0.034809120706764583 0 6.1825963884228602e-10 -0.034999748799407322 0 4.5528941380817633e-05 -0.034902567103075689 0 -2.0407928842736564e-05 -0.035063716103090767 0 1.8534567998922826e-07 -0.034999837338364766 0 2.1088367206450147e-08 -0.03499995055966118 0 2.5032406031607655e-05 -0.034946505403807927 0 4.5528941380817633e-05 -0.034902567103075689 0 6.1825963884228602e-10 -0.034999748799407322 0 2.1088367206450147e-08 -0.03499995055966118 0 4.5528941380817633e-05 -0.034902567103075689 0 1.72098352943373e-05 -0.034968060111651385 0 2.5032406031607655e-05 -0.034946505403807927 0 1.3173911032007182e-08 -0.034999915765952273 0 2.1088367206450147e-08 -0.03499995055966118 0 2.5032406031607655e-05 -0.034946505403807927 0 1.3173911032007182e-08 -0.034999915765952273 0 4.5213470105851405e-05 -0.034926547625333336 0 2.5032406031607655e-05 -0.034946505403807927 0 8.4148149311355565e-05 -0.034852615602135317 0 4.5213470105851405e-05 -0.034926547625333336 0 1.72098352943373e-05 -0.034968060111651385 0 2.5032406031607655e-05 -0.034946505403807927 0 2.5032406031607655e-05 -0.034946505403807927 0 4.5528941380817633e-05 -0.034902567103075689 0 8.4148149311355565e-05 -0.034852615602135317 0 0.00011478834408313866 -0.03480700582830315 0 8.4148149311355565e-05 -0.034852615602135317 0 0.00013941908757265838 -0.034760755954477682 0 4.5528941380817633e-05 -0.034902567103075689 0 0.00011478834408313866 -0.03480700582830315 0 8.4148149311355565e-05 -0.034852615602135317 0 9.4739131039628816e-05 -0.034885523945240186 0 4.5213470105851405e-05 -0.034926547625333336 0 8.4148149311355565e-05 -0.034852615602135317 0 8.4148149311355565e-05 -0.034852615602135317 0 0.00015017978979101534 -0.034782598239662621 0 0.00013941908757265838 -0.034760755954477682 0 9.4739131039628816e-05 -0.034885523945240186 0 8.4148149311355565e-05 -0.034852615602135317 0 0.00015017978979101534 -0.034782598239662621 0 0.0001732599748951841 -0.034862123883051335 0 0.00015017978979101534 -0.034782598239662621 0 0.00026482560812557079 -0.034707258682999356 0 0.00015017978979101534 -0.034782598239662621 0 0.00016757442642173078 -0.034707156422810831 0 0.00013941908757265838 -0.034760755954477682 0 0.00015017978979101534 -0.034782598239662621 0 0.00016757442642173078 -0.034707156422810831 0 0.00019891625218133163 -0.034618643648720908 0 0.00011478834408313866 -0.03480700582830315 0 0.00013941908757265838 -0.034760755954477682 0 0.00016312899503569776 -0.034749050988660601 0 0.00016757442642173078 -0.034707156422810831 0 0.00013941908757265838 -0.034760755954477682 0 0.00017779012345954737 -0.034696591738771994 0 0.00016757442642173078 -0.034707156422810831 0 0.00017779012345954737 -0.034696591738771994 0 0.00019891625218133163 -0.034618643648720908 0 0.00013941908757265838 -0.034760755954477682 0 0.00017779012345954737 -0.034696591738771994 0 0.00016312899503569776 -0.034749050988660601 0 0.00017779012345954737 -0.034696591738771994 0 0.00016312899503569776 -0.034749050988660601 0 0.00014433036659574133 -0.034731978741597828 0 0.00016312899503569776 -0.034749050988660601 0 0.00012859241366793719 -0.034776396487576314 0 0.00015272467720969945 -0.034740842769061822 0 0.00031077288801297767 -0.033716801843073081 0 0.00022555977372052519 -0.03407658817463502 0 0.00011478834408313866 -0.03480700582830315 0 0.00016312899503569776 -0.034749050988660601 0 0.00012859241366793719 -0.034776396487576314 0 0.00016312899503569776 -0.034749050988660601 0 0.00015272467720969945 -0.034740842769061822 0 0.00016831207482887194 -0.034745670189302344 0 7.8880494235669619e-05 -0.034809120706764583 0 0.00011478834408313866 -0.03480700582830315 0 0.00012859241366793719 -0.034776396487576314 0 7.8880494235669619e-05 -0.034809120706764583 0 0.00012859241366793719 -0.034776396487576314 0 0.00015272467720969945 -0.034740842769061822 0 -2.0407928842736564e-05 -0.035063716103090767 0 0.00031077288801297767 -0.033716801843073081 0 4.3811891653705278e-06 -0.034990891817570799 0 6.6094793314314765e-06 -0.034983799367358792 0 1.0725601707593452e-05 -0.034975259515869113 0 0.00072677592665878999 -0.032396352962049499 0 0.00080282939242962733 -0.032382128395702967 0 0.00072570221954829529 -0.032507136224584704 0 0.00075845206740571464 -0.033247172811547022 0 0.00031077288801297767 -0.033716801843073081 0 0.00060687097167950218 -0.032378377666372367 0 0.00046953170007683898 -0.032324590224298864 0 0.00062429690386160404 -0.03227602640255034 0 0.00072677592665878999 -0.032396352962049499 0 0.00060687097167950218 -0.032378377666372367 0 0.00062429690386160404 -0.03227602640255034 0 0.00072677592665878999 -0.032396352962049499 0 0.00079569710766375123 -0.032384304985071763 0 0.00062429690386160404 -0.03227602640255034 0 0.00060687097167950218 -0.032378377666372367 0 0.00057471704789557713 -0.0325078969577186 0 0.00072570221954829529 -0.032507136224584704 0 0.00072677592665878999 -0.032396352962049499 0 0.00060687097167950218 -0.032378377666372367 0 0.00072570221954829529 -0.032507136224584704 0 0.00060687097167950218 -0.032378377666372367 0 0.00046953170007683898 -0.032324590224298864 0 0.00057471704789557713 -0.0325078969577186 0 0.00079402216040827121 -0.029573733690883366 0 0.00058480145257770733 -0.030543222486741371 0 0.00089397993276912337 -0.027766103206391803 0 0.00098907769301964134 -0.027080146587728022 0 0.00043926699569979589 -0.02738934841291708 0 0.00079402216040827121 -0.029573733690883366 0 2.373015318100926e-05 -0.031922065221892025 0 0.00046953170007683898 -0.032324590224298864 0 0.00062429690386160404 -0.03227602640255034 0 0.00051308738225107299 -0.032072551413048503 0 0.00062429690386160404 -0.03227602640255034 0 0.00063729835180344012 -0.032104679639836826 0 0.00051308738225107299 -0.032072551413048503 0 0.00079569710766375123 -0.032384304985071763 0 0.00062429690386160404 -0.03227602640255034 0 0.00063729835180344012 -0.032104679639836826 0 0.00021716797961355601 -0.034562190192030148 0 0.00022555977372052519 -0.03407658817463502 0 0.00017779012345954737 -0.034696591738771994 0 0.00014433036659574133 -0.034731978741597828 0 0.00016228296382431368 -0.034613838944634996 0 4.3229657865985688e-05 -0.034502741159061386 0 -0.00015449217431461547 -0.033667342814593916 0 -0.00050359721501239216 -0.035608731846217642 0 0.00014433036659574133 -0.034731978741597828 0 4.3229657865985688e-05 -0.034502741159061386 0 0.00016228296382431368 -0.034613838944634996 0 0.00079376842221044817 -0.035882375383064227 0 4.3229657865985688e-05 -0.034502741159061386 0 -0.00050359721501239216 -0.035608731846217642 0 0.00022555977372052519 -0.03407658817463502 0 0.00031552239393440435 -0.03485836344116084 0 0.00022555977372052519 -0.03407658817463502 0 2.373015318100926e-05 -0.031922065221892025 0 0.00010468427196642119 -0.034392505376750149 0 0.00015623913705332677 -0.034490792256925029 0 4.3229657865985688e-05 -0.034502741159061386 0 0.00015623913705332677 -0.034490792256925029 0 4.3229657865985688e-05 -0.034502741159061386 0 0.00016228296382431368 -0.034613838944634996 0 0.00010468427196642119 -0.034392505376750149 0 4.3229657865985688e-05 -0.034502741159061386 0 -0.00015449217431461547 -0.033667342814593916 0 0.00017779012345954737 -0.034696591738771994 0 0.00016228296382431368 -0.034613838944634996 0 0.00019891625218133163 -0.034618643648720908 0 0.00015623913705332677 -0.034490792256925029 0 0.00016228296382431368 -0.034613838944634996 0 0.00019891625218133163 -0.034618643648720908 0 -0.00033209202684955375 -0.03073850259088726 0 0.00029182345014722226 -0.033017737311818757 0 0.00040508805158731662 -0.032151002340157227 0 0.00029182345014722226 -0.033017737311818757 0 -0.00062686865015557482 -0.03228651265603516 0 0.00048159546215751281 -0.033593287628467056 0 -0.00015449217431461547 -0.033667342814593916 0 0.00015017978979101534 -0.034782598239662621 0 0.00019891625218133163 -0.034618643648720908 0 0.00026482560812557079 -0.034707258682999356 0 0.00061523548546468668 -0.034106166621703793 0 0.00029182345014722226 -0.033017737311818757 0 0.00015623913705332677 -0.034490792256925029 0 0.00019891625218133163 -0.034618643648720908 0 0.00016213626606012912 -0.034449137389505523 0 -7.5161941870087329e-05 -0.033998095376807765 0 0.00029182345014722226 -0.033017737311818757 0 0.00010468427196642119 -0.034392505376750149 0 0.00015623913705332677 -0.034490792256925029 0 0.00016213626606012912 -0.034449137389505523 0 0.00010468427196642119 -0.034392505376750149 0 0.00048159546215751281 -0.033593287628467056 0 -0.00015449217431461547 -0.033667342814593916 0 -0.00062686865015557482 -0.03228651265603516 0 -0.00015449217431461547 -0.033667342814593916 0 -0.00070888252226056095 -0.033410233467419857 0 -0.00062686865015557482 -0.03228651265603516 0 -0.00070888252226056095 -0.033410233467419857 0 -0.0013702838334014166 -0.033270765144256101 0 -0.00015449217431461547 -0.033667342814593916 0 -0.00070888252226056095 -0.033410233467419857 0 -0.00052746842705815773 -0.033903327564976313 0 -0.00070888252226056095 -0.033410233467419857 0 -0.0009139913065506236 -0.033899997965792003 0 -0.00052746842705815773 -0.033903327564976313 0 -0.00070888252226056095 -0.033410233467419857 0 -0.0009139913065506236 -0.033899997965792003 0 -0.0013702838334014166 -0.033270765144256101 0 -0.00036657627359577144 -0.034823881339906999 0 2.373015318100926e-05 -0.031922065221892025 0 0.00098907769301964134 -0.027080146587728022 0 0.00035762033848204448 -0.026907365306225291 0 0.00043926699569979589 -0.02738934841291708 0 2.373015318100926e-05 -0.031922065221892025 0 -0.00078305689430621271 -0.03065681744422669 0 -0.00015449217431461547 -0.033667342814593916 0 -0.00052746842705815773 -0.033903327564976313 0 -0.00035324367534191086 -0.034583794988256505 0 -0.0009139913065506236 -0.033899997965792003 0 -0.00035324367534191086 -0.034583794988256505 0 -0.0017201219819416712 -0.034262170726934812 0 -0.0009139913065506236 -0.033899997965792003 0 -0.00052746842705815773 -0.033903327564976313 0 -0.00035324367534191086 -0.034583794988256505 0 0.00035762033848204448 -0.026907365306225291 0 3.7548392355701423e-05 -0.02709258531150769 0 0.00043926699569979589 -0.02738934841291708 0 -0.0009139913065506236 -0.033899997965792003 0 -0.0017201219819416712 -0.034262170726934812 0 -0.0013702838334014166 -0.033270765144256101 0 -0.0017201219819416712 -0.034262170726934812 0 -0.0013702838334014166 -0.033270765144256101 0 -0.0022538913818059446 -0.033469353308426708 0 -0.0013702838334014166 -0.033270765144256101 0 -0.0022538913818059446 -0.033469353308426708 0 -0.0022681150167758878 -0.032829303986403623 0 -0.0016813879381522199 -0.032365023173837028 0 -0.0013702838334014166 -0.033270765144256101 0 -0.0022681150167758878 -0.032829303986403623 0 -0.0028533587606478163 -0.032300652783844599 0 -0.0027827832668278034 -0.033119423908030299 0 -0.003741573565324635 -0.033083142450978542 0 -0.0026746149395223732 -0.028778752401275153 0 -0.0023835638716660141 -0.02521870351405792 0 -0.00245308859020493 -0.024081034344701852 0 -0.0022588233719686096 -0.024081769165424521 0 -0.0024810206855384203 -0.024270862813998751 0 -0.0028533587606478163 -0.032300652783844599 0 -0.0022681150167758878 -0.032829303986403623 0 -0.0027827832668278034 -0.033119423908030299 0 -0.0022538913818059446 -0.033469353308426708 0 -0.0022681150167758878 -0.032829303986403623 0 -0.0027827832668278034 -0.033119423908030299 0 -0.0022538913818059446 -0.033469353308426708 0 -0.0027827832668278034 -0.033119423908030299 0 -0.0031344047313509133 -0.033868170381621161 0 -0.0027827832668278034 -0.033119423908030299 0 -0.0031344047313509133 -0.033868170381621161 0 -0.003741573565324635 -0.033083142450978542 0 -0.0017201219819416712 -0.034262170726934812 0 -0.0022538913818059446 -0.033469353308426708 0 -0.0031344047313509133 -0.033868170381621161 0 0.00035762033848204448 -0.026907365306225291 0 -0.00023385635962140769 -0.026777699926265216 0 3.7548392355701423e-05 -0.02709258531150769 0 -0.00028612078533289041 -0.026651538222792689 0 3.7548392355701423e-05 -0.02709258531150769 0 -0.00053890690803233771 -0.027397518187292125 0 -0.00078305689430621271 -0.03065681744422669 0 -0.00060438264829469949 -0.027774711141729011 0 -0.00060438264829469949 -0.027774711141729011 0 -0.00018275733595546489 -0.02695296150327961 0 3.7548392355701423e-05 -0.02709258531150769 0 -0.00010209770926650675 -0.02750791551906728 0 -0.00053890690803233771 -0.027397518187292125 0 -0.00010209770926650675 -0.02750791551906728 0 0.00043926699569979589 -0.02738934841291708 0 0.00015655508778660005 -0.02784525983533491 0 3.7548392355701423e-05 -0.02709258531150769 0 -0.00010209770926650675 -0.02750791551906728 0 0.00043926699569979589 -0.02738934841291708 0 0.00089397993276912337 -0.027766103206391803 0 0.00043926699569979589 -0.02738934841291708 0 0.00015655508778660005 -0.02784525983533491 0 0.00089397993276912337 -0.027766103206391803 0 0.00015655508778660005 -0.02784525983533491 0 0.00042618791566172571 -0.028220956241698191 0 -0.00010209770926650675 -0.02750791551906728 0 0.00015655508778660005 -0.02784525983533491 0 -0.00046332790473174436 -0.028193383411406456 0 -0.00010209770926650675 -0.02750791551906728 0 -0.00053890690803233771 -0.027397518187292125 0 -0.00046332790473174436 -0.028193383411406456 0 5.445390819537895e-05 -0.028526771518055768 0 -0.00038474686264706548 -0.028993336583373018 0 -0.00046332790473174436 -0.028193383411406456 0 0.00015655508778660005 -0.02784525983533491 0 5.445390819537895e-05 -0.028526771518055768 0 -0.00046332790473174436 -0.028193383411406456 0 0.00015655508778660005 -0.02784525983533491 0 5.445390819537895e-05 -0.028526771518055768 0 0.00042618791566172571 -0.028220956241698191 0 5.445390819537895e-05 -0.028526771518055768 0 0.00042618791566172571 -0.028220956241698191 0 0.00044062723753509161 -0.028790420148384906 0 0.00042618791566172571 -0.028220956241698191 0 0.00044062723753509161 -0.028790420148384906 0 0.00080632375878406451 -0.028520915354401277 0 5.445390819537895e-05 -0.028526771518055768 0 0.00044062723753509161 -0.028790420148384906 0 0.00034184613548395113 -0.02927607456887981 0 -0.00015182767794734396 -0.027800522189967675 0 0.00045933625475888182 -0.031431261751710772 0 0.00044062723753509161 -0.028790420148384906 0 0.00034184613548395113 -0.02927607456887981 0 0.00069420821129897688 -0.029354060228017339 0 0.00082760520314056364 -0.027405872716781063 0 0.00045933625475888182 -0.031431261751710772 0 5.445390819537895e-05 -0.028526771518055768 0 -0.00038474686264706548 -0.028993336583373018 0 0.00034448047694058233 -0.029172922441782732 0 0.00082760520314056364 -0.027405872716781063 0 0.00088921438608370444 -0.0319793739776814 0 0.00057655219799004822 -0.033195650976228529 0 0.00062614641726884237 -0.033550378476860002 0 0.00081538363564158769 -0.033527098444717886 0 0.00057655219799004822 -0.033195650976228529 0 0.00081538363564158769 -0.033527098444717886 0 0.00090346412341242642 -0.033310045884283337 0 0.00062614641726884237 -0.033550378476860002 0 0.00081458469506815953 -0.033734421905596036 0 0.00078587592886493582 -0.033821642159028671 0 0.00088921438608370444 -0.0319793739776814 0 0.00095967534091150075 -0.032508236693940457 0 0.00062614641726884237 -0.033550378476860002 0 0.00081458469506815953 -0.033734421905596036 0 0.00081538363564158769 -0.033527098444717886 0 0.00081458469506815953 -0.033734421905596036 0 0.00096906254564367122 -0.033635951112169431 0 0.00087900459152686857 -0.033812130896686117 0 0.00081458469506815953 -0.033734421905596036 0 0.00081538363564158769 -0.033527098444717886 0 0.00096906254564367122 -0.033635951112169431 0 0.00020181135779540418 -0.032894864729938064 0 0.00032733671636110429 -0.033025314180163599 0 0.00032977375139430089 -0.033195459068248223 0 0.00081538363564158769 -0.033527098444717886 0 0.00090346412341242642 -0.033310045884283337 0 0.00096906254564367122 -0.033635951112169431 0 0.00045933625475888182 -0.031431261751710772 0 0.00072117919525840359 -0.033675820701236828 0 0.00020181135779540418 -0.032894864729938064 0 0.00033644868854114309 -0.032929721949205855 0 0.00032733671636110429 -0.033025314180163599 0 0.00045933625475888182 -0.031431261751710772 0 0.00072091685780351425 -0.031746044423314995 0 0.00072091685780351425 -0.031746044423314995 0 0.00063468416290236949 -0.033153444477309897 0 0.00033644868854114309 -0.032929721949205855 0 0.00044104996589478277 -0.033066960941230801 0 0.00068721104814032708 -0.033022730518639243 0 0.00036452851875790526 -0.03289525584468278 0 0.00069148144370728898 -0.032990726087651238 0 0.00052502864656802587 -0.032782441799112466 0 0.00033644868854114309 -0.032929721949205855 0 0.00044104996589478277 -0.033066960941230801 0 0.00032733671636110429 -0.033025314180163599 0 0.00044104996589478277 -0.033066960941230801 0 0.00032733671636110429 -0.033025314180163599 0 0.00032977375139430089 -0.033195459068248223 0 0.00044104996589478277 -0.033066960941230801 0 0.00032977375139430089 -0.033195459068248223 0 0.00059026837825131571 -0.033238318524581201 0 0.00032977375139430089 -0.033195459068248223 0 0.00059026837825131571 -0.033238318524581201 0 0.00045425035697562122 -0.033477269020020461 0 0.00059026837825131571 -0.033238318524581201 0 0.00068721104814032708 -0.033022730518639243 0 0.00083264298680036535 -0.033181454668070764 0 0.00044104996589478277 -0.033066960941230801 0 0.00059026837825131571 -0.033238318524581201 0 0.00068721104814032708 -0.033022730518639243 0 0.00068434618420203769 -0.03270838623435187 0 0.00052502864656802587 -0.032782441799112466 0 0.00041512320560308495 -0.032605161593721163 0 0.00069148144370728898 -0.032990726087651238 0 0.00068434618420203769 -0.03270838623435187 0 0.00052502864656802587 -0.032782441799112466 0 0.00044062723753509161 -0.028790420148384906 0 0.00069420821129897688 -0.029354060228017339 0 0.00080632375878406451 -0.028520915354401277 0 0.00036452851875790526 -0.03289525584468278 0 0.00052502864656802587 -0.032782441799112466 0 0.00041512320560308495 -0.032605161593721163 0 0.00072091685780351425 -0.031746044423314995 0 0.00058480145257770733 -0.030543222486741371 0 0.00089397993276912337 -0.027766103206391803 0 0.00042618791566172571 -0.028220956241698191 0 0.00080632375878406451 -0.028520915354401277 0 0.00046953170007683898 -0.032324590224298864 0 0.00041512320560308495 -0.032605161593721163 0 0.00057471704789557713 -0.0325078969577186 0 0.00068434618420203769 -0.03270838623435187 0 0.00057471704789557713 -0.0325078969577186 0 0.00072570221954829529 -0.032507136224584704 0 0.00068434618420203769 -0.03270838623435187 0 0.00041512320560308495 -0.032605161593721163 0 0.00057471704789557713 -0.0325078969577186 0 0.00080282939242962733 -0.032382128395702967 0 0.00072570221954829529 -0.032507136224584704 0 0.00096788397529217688 -0.032675519273228176 0 0.00068434618420203769 -0.03270838623435187 0 0.00072570221954829529 -0.032507136224584704 0 0.00096788397529217688 -0.032675519273228176 0 0.00031077288801297767 -0.033716801843073081 0 0.00049612694113708455 -0.033826878522185938 0 6.6094793314314765e-06 -0.034983799367358792 0 1.0725601707593452e-05 -0.034975259515869113 0 6.5690147204889025e-06 -0.034981073635844448 0 6.6094793314314765e-06 -0.034983799367358792 0 6.5690147204889025e-06 -0.034981073635844448 0 3.7789559407333768e-06 -0.034990419516513681 0 0.00096788397529217688 -0.032675519273228176 0 0.00092404011593183824 -0.032890075394489737 0 0.0011347590792952151 -0.032989803590807651 0 0.00049612694113708455 -0.033826878522185938 0 0.00059407414764988677 -0.033976912320803493 0 6.5690147204889025e-06 -0.034981073635844448 0 5.311188465648613e-06 -0.034987729326680039 0 3.7789559407333768e-06 -0.034990419516513681 0 0.00069148144370728898 -0.032990726087651238 0 0.00068434618420203769 -0.03270838623435187 0 0.00092404011593183824 -0.032890075394489737 0 0.00068434618420203769 -0.03270838623435187 0 0.00096788397529217688 -0.032675519273228176 0 0.00092404011593183824 -0.032890075394489737 0 0.00063468416290236949 -0.033153444477309897 0 0.0010340993744667199 -0.033055825565447332 0 0.00069148144370728898 -0.032990726087651238 0 0.00092404011593183824 -0.032890075394489737 0 0.0010306173307322948 -0.033097050587964263 0 0.00068721104814032708 -0.033022730518639243 0 0.00083264298680036535 -0.033181454668070764 0 0.0010306173307322948 -0.033097050587964263 0 0.00059026837825131571 -0.033238318524581201 0 0.00083264298680036535 -0.033181454668070764 0 0.00081290360872277999 -0.033400251497438173 0 0.00083264298680036535 -0.033181454668070764 0 0.0011688233454907704 -0.033331353961022873 0 0.00081290360872277999 -0.033400251497438173 0 0.00083264298680036535 -0.033181454668070764 0 0.0010306173307322948 -0.033097050587964263 0 0.0011688233454907704 -0.033331353961022873 0 0.0010306173307322948 -0.033097050587964263 0 0.0011347590792952151 -0.032989803590807651 0 0.0011688233454907704 -0.033331353961022873 0 0.00092404011593183824 -0.032890075394489737 0 0.0010306173307322948 -0.033097050587964263 0 0.0011347590792952151 -0.032989803590807651 0 3.1416942352660436e-06 -0.034992855734897743 0 5.311188465648613e-06 -0.034987729326680039 0 2.7389699984396416e-06 -0.034994270790542743 0 0.0011347590792952151 -0.032989803590807651 0 0.0012948555635431075 -0.033308925050697775 0 0.0011688233454907704 -0.033331353961022873 0 0.00059407414764988677 -0.033976912320803493 0 0.00043225709382726558 -0.034255730675467888 0 5.311188465648613e-06 -0.034987729326680039 0 5.2209088939889476e-06 -0.034990062536809259 0 2.7389699984396416e-06 -0.034994270790542743 0 0.00043225709382726558 -0.034255730675467888 0 0.00068387710969614545 -0.034162053799909733 0 5.2209088939889476e-06 -0.034990062536809259 0 4.3602374107938238e-09 -0.03499997868558298 0 2.7389699984396416e-06 -0.034994270790542743 0 0.00043225709382726558 -0.034255730675467888 0 -4.4182265160554963e-07 -0.035000133642330129 0 3.1416942352660436e-06 -0.034992855734897743 0 2.4258155339901827e-09 -0.034999992624800448 0 2.7389699984396416e-06 -0.034994270790542743 0 4.3602374107938238e-09 -0.03499997868558298 0 2.4258155339901827e-09 -0.034999992624800448 0 2.7389699984396416e-06 -0.034994270790542743 0 3.1416942352660436e-06 -0.034992855734897743 0 2.4258155339901827e-09 -0.034999992624800448 0 3.7789559407333768e-06 -0.034990419516513681 0 2.4258155339901827e-09 -0.034999992624800448 0 3.7789559407333768e-06 -0.034990419516513681 0 1.2657389645225464e-09 -0.034999986187865005 0 3.1416942352660436e-06 -0.034992855734897743 0 5.311188465648613e-06 -0.034987729326680039 0 3.7789559407333768e-06 -0.034990419516513681 0 4.3811891653705278e-06 -0.034990891817570799 0 3.7789559407333768e-06 -0.034990419516513681 0 1.2657389645225464e-09 -0.034999986187865005 0 4.3811891653705278e-06 -0.034990891817570799 0 6.6094793314314765e-06 -0.034983799367358792 0 3.7789559407333768e-06 -0.034990419516513681 0 -0.00041820839998066994 -0.017894768819156075 0 -0.00034977080397802793 -0.01802036194034299 0 -0.00050890488389065947 -0.018056474270900305 0 -0.00041820839998066994 -0.017894768819156075 0 -0.00057376415454961241 -0.017962271382415275 0 -0.00050890488389065947 -0.018056474270900305 0 -0.00057376415454961241 -0.017962271382415275 0 -0.00050890488389065947 -0.018056474270900305 0 -0.00066033812804108642 -0.018081949724773401 0 -0.0007174523530353536 -0.017971711340915398 0 -0.00057376415454961241 -0.017962271382415275 0 -0.00066033812804108642 -0.018081949724773401 0 -0.00077788835096448687 -0.018092678888011551 0 -0.0007174523530353536 -0.017971711340915398 0 -0.00066033812804108642 -0.018081949724773401 0 -0.00077788835096448687 -0.018092678888011551 0 -0.0007174523530353536 -0.017971711340915398 0 -0.00083885875235035763 -0.01805186559830577 0 -0.0007174523530353536 -0.017971711340915398 0 -0.00056036682645454583 -0.017775730624728675 0 -0.00083677548208588943 -0.017904201203622207 0 -0.0007174523530353536 -0.017971711340915398 0 -0.00057376415454961241 -0.017962271382415275 0 -0.00056036682645454583 -0.017775730624728675 0 -0.00056036682645454583 -0.017775730624728675 0 -0.00083677548208588943 -0.017904201203622207 0 -0.00097534232656857126 -0.017673284159291879 0 -0.00092669865778215274 -0.018080261411626664 0 -0.0012431814288864954 -0.018536255042782127 0 -0.0013386974381114974 -0.018200784893314909 0 -0.001402549761034839 -0.018205539040568958 0 -0.0014487798275139043 -0.018136040933076296 0 -0.00041820839998066994 -0.017894768819156075 0 -0.00057376415454961241 -0.017962271382415275 0 -0.00056036682645454583 -0.017775730624728675 0 -0.00041820839998066994 -0.017894768819156075 0 -0.00056036682645454583 -0.017775730624728675 0 -0.00027302175370972834 -0.017775538718120727 0 -0.00092669865778215274 -0.018080261411626664 0 -0.00074528265440377932 -0.016593406383067902 0 -0.00031515115196132623 -0.014908254958700294 0 -0.00039300262886861451 -0.014909046967468883 0 -0.00022647252037445216 -0.014916580282340388 0 -0.00086490146634535128 -0.016537449905750252 0 -0.00074528265440377932 -0.016593406383067902 0 -0.00025276917580905451 -0.014931788978783233 0 -0.00031515115196132623 -0.014908254958700294 0 -0.00022647252037445216 -0.014916580282340388 0 -0.00036459881316413021 -0.014959927456621142 0 -0.00032589259686222402 -0.014824260543752344 0 -0.00039300262886861451 -0.014909046967468883 0 -0.00032589259686222402 -0.014824260543752344 0 -0.00039300262886861451 -0.014909046967468883 0 -0.00031191529949354223 -0.014874942932937204 0 -0.00031515115196132623 -0.014908254958700294 0 -0.00039300262886861451 -0.014909046967468883 0 -0.00053415304880209333 -0.015045793162774119 0 -0.00074528265440377932 -0.016593406383067902 0 -0.00068161976731513142 -0.015103269234319663 0 -0.00036459881316413021 -0.014959927456621142 0 -0.00039300262886861451 -0.014909046967468883 0 -0.00053415304880209333 -0.015045793162774119 0 -0.00036459881316413021 -0.014959927456621142 0 -0.00034920967451920331 -0.015336064733377749 0 -0.00053415304880209333 -0.015045793162774119 0 -0.00034920967451920331 -0.015336064733377749 0 -0.00053415304880209333 -0.015045793162774119 0 -0.00065290075580015856 -0.015490933717179746 0 -0.00074528265440377932 -0.016593406383067902 0 -0.00038433895140931382 -0.016671846898005965 0 -0.0011237559953173317 -0.014896948929819293 0 -0.00053415304880209333 -0.015045793162774119 0 -0.00065290075580015856 -0.015490933717179746 0 -9.1735063217899748e-05 -0.0178569333877725 0 -0.0002578861301255151 -0.017906380789609846 0 -0.00016735139667298847 -0.017982261958128836 0 -0.00041820839998066994 -0.017894768819156075 0 -0.0002578861301255151 -0.017906380789609846 0 -0.00034977080397802793 -0.01802036194034299 0 -0.00041820839998066994 -0.017894768819156075 0 -0.00027302175370972834 -0.017775538718120727 0 -0.0002578861301255151 -0.017906380789609846 0 -0.00027302175370972834 -0.017775538718120727 0 -9.1735063217899748e-05 -0.0178569333877725 0 -0.0002578861301255151 -0.017906380789609846 0 -0.0002578861301255151 -0.017906380789609846 0 -0.00034977080397802793 -0.01802036194034299 0 -0.00016735139667298847 -0.017982261958128836 0 -0.00016735139667298847 -0.017982261958128836 0 -0.00029717579795531494 -0.018138958933480033 0 -0.00016250395164688457 -0.018114992592437276 0 -0.00034977080397802793 -0.01802036194034299 0 -0.00016735139667298847 -0.017982261958128836 0 -0.00029717579795531494 -0.018138958933480033 0 0.00011230063988051615 -0.01786150664456386 0 -9.1735063217899748e-05 -0.0178569333877725 0 -4.041995814669387e-05 -0.017924059901935862 0 -7.1877336038904253e-05 -0.017142801920075935 0 -0.00038433895140931382 -0.016671846898005965 0 -9.1735063217899748e-05 -0.0178569333877725 0 -0.00016735139667298847 -0.017982261958128836 0 -4.041995814669387e-05 -0.017924059901935862 0 -0.00016735139667298847 -0.017982261958128836 0 -1.9238826113476554e-05 -0.018005017109634716 0 -0.00016250395164688457 -0.018114992592437276 0 -0.00016735139667298847 -0.017982261958128836 0 -4.041995814669387e-05 -0.017924059901935862 0 -1.9238826113476554e-05 -0.018005017109634716 0 0.00011230063988051615 -0.01786150664456386 0 -4.041995814669387e-05 -0.017924059901935862 0 -1.9238826113476554e-05 -0.018005017109634716 0 8.3911286407746644e-05 -0.01800793815880767 0 -1.9238826113476554e-05 -0.018005017109634716 0 -6.3388961069020059e-05 -0.018176432333010667 0 -1.9238826113476554e-05 -0.018005017109634716 0 -6.3388961069020059e-05 -0.018176432333010667 0 -0.00016250395164688457 -0.018114992592437276 0 8.3911286407746644e-05 -0.01800793815880767 0 2.4758457566800969e-05 -0.018283652189894639 0 -6.3388961069020059e-05 -0.018176432333010667 0 -0.00021467844842914922 -0.018289009117152949 0 -0.00029717579795531494 -0.018138958933480033 0 -0.00016250395164688457 -0.018114992592437276 0 -0.00021467844842914922 -0.018289009117152949 0 -6.3388961069020059e-05 -0.018176432333010667 0 -0.00016250395164688457 -0.018114992592437276 0 -0.00021467844842914922 -0.018289009117152949 0 -0.00029717579795531494 -0.018138958933480033 0 -0.00038800155334564498 -0.018298664762680206 0 -0.00038800155334564498 -0.018298664762680206 0 -0.00054187833766058675 -0.018319536280590319 0 -0.00044847597101587778 -0.018166428302417159 0 -0.00045882739844442343 -0.018405459543291702 0 -0.00038800155334564498 -0.018298664762680206 0 -0.00054187833766058675 -0.018319536280590319 0 -0.00054187833766058675 -0.018319536280590319 0 -0.00044847597101587778 -0.018166428302417159 0 -0.00060025678146039452 -0.018196429703082714 0 -0.00029717579795531494 -0.018138958933480033 0 -0.00038800155334564498 -0.018298664762680206 0 -0.00044847597101587778 -0.018166428302417159 0 -0.00034977080397802793 -0.01802036194034299 0 -0.00044847597101587778 -0.018166428302417159 0 -0.00050890488389065947 -0.018056474270900305 0 -0.00034977080397802793 -0.01802036194034299 0 -0.00029717579795531494 -0.018138958933480033 0 -0.00044847597101587778 -0.018166428302417159 0 -0.00044847597101587778 -0.018166428302417159 0 -0.00050890488389065947 -0.018056474270900305 0 -0.00060025678146039452 -0.018196429703082714 0 -0.00077788835096448687 -0.018092678888011551 0 -0.00066033812804108642 -0.018081949724773401 0 -0.00077671600524995888 -0.018177049130317049 0 -0.00050890488389065947 -0.018056474270900305 0 -0.00066033812804108642 -0.018081949724773401 0 -0.00060025678146039452 -0.018196429703082714 0 -0.00066033812804108642 -0.018081949724773401 0 -0.00060025678146039452 -0.018196429703082714 0 -0.00077671600524995888 -0.018177049130317049 0 -0.00060025678146039452 -0.018196429703082714 0 -0.00071562185654673767 -0.018353956267748054 0 -0.00077671600524995888 -0.018177049130317049 0 -0.00054187833766058675 -0.018319536280590319 0 -0.00060025678146039452 -0.018196429703082714 0 -0.00071562185654673767 -0.018353956267748054 0 -0.00071562185654673767 -0.018353956267748054 0 -0.00087831036575493435 -0.018329541369982039 0 -0.00077671600524995888 -0.018177049130317049 0 -0.00087831036575493435 -0.018329541369982039 0 -0.0010278133077407127 -0.018338248959889072 0 -0.00087746136951150392 -0.018176829013755853 0 -0.0010278133077407127 -0.018338248959889072 0 -0.0011836871112691923 -0.018286449276788828 0 -0.00087746136951150392 -0.018176829013755853 0 -0.0010417241834541641 -0.018506829880634297 0 -0.00087831036575493435 -0.018329541369982039 0 -0.0010278133077407127 -0.018338248959889072 0 -0.0011700295869345552 -0.01843348953091006 0 -0.0010278133077407127 -0.018338248959889072 0 -0.0011836871112691923 -0.018286449276788828 0 -0.0008504312190068758 -0.018115388656237089 0 -0.0009830345745858015 -0.018268642684692939 0 -0.00087746136951150392 -0.018176829013755853 0 -0.00092553836200901841 -0.018257477518729921 0 -0.00087070890468777639 -0.018164353401392597 0 -0.00089476634907514408 -0.01834901566650168 0 -0.00087746136951150392 -0.018176829013755853 0 -0.00092553836200901841 -0.018257477518729921 0 -0.00092553836200901841 -0.018257477518729921 0 -0.00090943520070633371 -0.018168180350927439 0 -0.00087070890468777639 -0.018164353401392597 0 -0.00087746136951150392 -0.018176829013755853 0 -0.00089767787132550864 -0.018143459291447124 0 -0.00087070890468777639 -0.018164353401392597 0 -0.00087831036575493435 -0.018329541369982039 0 -0.00077671600524995888 -0.018177049130317049 0 -0.00087746136951150392 -0.018176829013755853 0 -0.00077671600524995888 -0.018177049130317049 0 -0.00087746136951150392 -0.018176829013755853 0 -0.00089767787132550864 -0.018143459291447124 0 -0.00077788835096448687 -0.018092678888011551 0 -0.00077671600524995888 -0.018177049130317049 0 -0.00089767787132550864 -0.018143459291447124 0 -0.00060438264829469949 -0.027774711141729011 0 -0.0023835638716660141 -0.02521870351405792 0 -0.0022441063044944106 -0.023935051387998084 0 -0.0019284640605384052 -0.023650213464363305 0 -0.0021177280624312014 -0.025308087196956097 0 -0.00024352845671696765 -0.025733725788878812 0 -0.0019284640605384052 -0.023650213464363305 0 -0.0021177280624312014 -0.025308087196956097 0 -0.0013039020351302455 -0.022652600794778995 0 -0.00091159630898795477 -0.02253233767719073 0 -0.0012310287898455485 -0.018431637097767534 0 -0.0012256420764225485 -0.01847537106860252 0 -0.001168985678006609 -0.018427463132615413 0 -0.0013039020351302455 -0.022652600794778995 0 -0.0013568142222398656 -0.02176841770615669 0 -0.0012319630733093816 -0.018461303530148607 0 -0.0012526503671725325 -0.018467135354189378 0 -0.0012256420764225485 -0.01847537106860252 0 -0.0013039020351302455 -0.022652600794778995 0 -0.0023835638716660141 -0.02521870351405792 0 -0.0026396185746027107 -0.024055123873382701 0 -0.00245308859020493 -0.024081034344701852 0 -0.0024810206855384203 -0.024270862813998751 0 -0.0019273289703518881 -0.019891090151816792 0 -0.0023835638716660141 -0.02521870351405792 0 -0.0011161228587262561 -0.01860753431439326 0 -0.0012256420764225485 -0.01847537106860252 0 -0.0011040410905702504 -0.01844300136891202 0 -0.0011161228587262561 -0.01860753431439326 0 -0.0012526503671725325 -0.018467135354189378 0 -0.0012256420764225485 -0.01847537106860252 0 -0.0012256420764225485 -0.01847537106860252 0 -0.0011040410905702504 -0.01844300136891202 0 -0.001168985678006609 -0.018427463132615413 0 -0.0011040410905702504 -0.01844300136891202 0 -0.001168985678006609 -0.018427463132615413 0 -0.0011315141228086527 -0.018329094312063518 0 -0.0012310287898455485 -0.018431637097767534 0 -0.001168985678006609 -0.018427463132615413 0 -0.0011315141228086527 -0.018329094312063518 0 -0.0011293664807000832 -0.021747389168558659 0 -0.00062745080371483697 -0.021289918719435977 0 -0.0011796846697152738 -0.021172717147824802 0 -0.0013039020351302455 -0.022652600794778995 0 -0.00018129830168655566 -0.019592961751493367 0 -0.0014463508691521516 -0.018473379954415822 0 -0.0011700295869345552 -0.01843348953091006 0 -0.0011836871112691923 -0.018286449276788828 0 -0.0011161228587262561 -0.01860753431439326 0 -0.00089476634907514408 -0.01834901566650168 0 -0.0011040410905702504 -0.01844300136891202 0 -0.0019273289703518881 -0.019891090151816792 0 -0.0008504312190068758 -0.018115388656237089 0 -0.00089476634907514408 -0.01834901566650168 0 -0.0011040410905702504 -0.01844300136891202 0 -0.0010296673263043535 -0.018335074728830034 0 -0.0011040410905702504 -0.01844300136891202 0 -0.0011315141228086527 -0.018329094312063518 0 -0.0010296673263043535 -0.018335074728830034 0 -0.00018129830168655566 -0.019592961751493367 0 -0.001057581307231439 -0.018982240190159434 0 -0.00089476634907514408 -0.01834901566650168 0 -0.0010296673263043535 -0.018335074728830034 0 -0.00092553836200901841 -0.018257477518729921 0 -0.0011035412551569756 -0.018315603212728786 0 -0.00092553836200901841 -0.018257477518729921 0 -0.00090943520070633371 -0.018168180350927439 0 -0.00018129830168655566 -0.019592961751493367 0 -0.00030634959976976036 -0.017699059123039138 0 -0.0011035412551569756 -0.018315603212728786 0 -0.0010296673263043535 -0.018335074728830034 0 -0.00092553836200901841 -0.018257477518729921 0 0.00084456911452289484 -0.017088265684803976 0 5.3690339386145776e-05 -0.017725092076447672 0 0.0008757067852940162 -0.017736152996702774 0 -0.00028612078533289041 -0.026651538222792689 0 -0.00062826221406947047 -0.026555938628673326 0 -0.00053890690803233771 -0.027397518187292125 0 0.0008757067852940162 -0.017736152996702774 0 0.0011580808153083745 -0.017164703932879794 0 0.0013235729618035908 -0.018285083403044362 0 -0.00091159630898795477 -0.02253233767719073 0 0.00051733400271535761 -0.022817445611324479 0 0.00084456911452289484 -0.017088265684803976 0 0.0008757067852940162 -0.017736152996702774 0 0.0011580808153083745 -0.017164703932879794 0 -0.00018129830168655566 -0.019592961751493367 0 -0.00091159630898795477 -0.02253233767719073 0 -0.00060438264829469949 -0.027774711141729011 0 -0.00091159630898795477 -0.02253233767719073 0 0.0008757067852940162 -0.017736152996702774 0 0.0013235729618035908 -0.018285083403044362 0 0.00024276022227906374 -0.018630303468640835 0 5.3690339386145776e-05 -0.017725092076447672 0 0.0008757067852940162 -0.017736152996702774 0 0.00024276022227906374 -0.018630303468640835 0 5.3690339386145776e-05 -0.017725092076447672 0 0.00024276022227906374 -0.018630303468640835 0 -0.00030368171934046061 -0.01853878825875542 0 0.00024276022227906374 -0.018630303468640835 0 0.00076060099790693965 -0.019228442533059852 0 -0.00023381044197795354 -0.01968661136983698 0 0.0013235729618035908 -0.018285083403044362 0 0.00024276022227906374 -0.018630303468640835 0 0.00076060099790693965 -0.019228442533059852 0 0.0013235729618035908 -0.018285083403044362 0 0.00076060099790693965 -0.019228442533059852 0 0.0015593748837305719 -0.01959733148046832 0 0.00051733400271535761 -0.022817445611324479 0 0.00049820326605387339 -0.023434674476218269 0 -0.00097628529331362905 -0.018150813577037236 0 -0.00087070890468777639 -0.018164353401392597 0 -0.00079607191587545943 -0.018289074667488817 0 -0.00097628529331362905 -0.018150813577037236 0 -0.00083885875235035763 -0.01805186559830577 0 -0.00089767787132550864 -0.018143459291447124 0 -0.00097628529331362905 -0.018150813577037236 0 -0.00083885875235035763 -0.01805186559830577 0 -0.00083677548208588943 -0.017904201203622207 0 -0.00077788835096448687 -0.018092678888011551 0 -0.00083885875235035763 -0.01805186559830577 0 -0.00089767787132550864 -0.018143459291447124 0 -0.00097628529331362905 -0.018150813577037236 0 -0.00089767787132550864 -0.018143459291447124 0 -0.00087070890468777639 -0.018164353401392597 0 -0.00090943520070633371 -0.018168180350927439 0 -0.00087070890468777639 -0.018164353401392597 0 -0.00079607191587545943 -0.018289074667488817 0 5.3690339386145776e-05 -0.017725092076447672 0 -0.00079607191587545943 -0.018289074667488817 0 -0.00030368171934046061 -0.01853878825875542 0 -0.00030634959976976036 -0.017699059123039138 0 -0.00085396193331175436 -0.018360265698111881 0 0.00024276022227906374 -0.018630303468640835 0 -0.00055708177100914679 -0.019018406501383953 0 -0.00023381044197795354 -0.01968661136983698 0 -0.00079607191587545943 -0.018289074667488817 0 -0.00030368171934046061 -0.01853878825875542 0 -0.00055708177100914679 -0.019018406501383953 0 -0.00079607191587545943 -0.018289074667488817 0 -0.00055708177100914679 -0.019018406501383953 0 -0.001170607978934232 -0.019360102886847811 0 0.00024276022227906374 -0.018630303468640835 0 -0.00030368171934046061 -0.01853878825875542 0 -0.00055708177100914679 -0.019018406501383953 0 -0.00097628529331362905 -0.018150813577037236 0 -0.00083677548208588943 -0.017904201203622207 0 -0.00097534232656857126 -0.017673284159291879 0 -0.00097614599685389098 -0.018182564015592994 0 -0.0012431814288864954 -0.018536255042782127 0 -0.00097628529331362905 -0.018150813577037236 0 -0.00079607191587545943 -0.018289074667488817 0 -0.001170607978934232 -0.019360102886847811 0 -0.0007174523530353536 -0.017971711340915398 0 -0.00083885875235035763 -0.01805186559830577 0 -0.00083677548208588943 -0.017904201203622207 0 -0.0012331144000003766 -0.018257404347621829 0 -0.0012381821379554697 -0.01833276688398508 0 -0.001291603322703023 -0.018264833750701339 0 -0.0012431814288864954 -0.018536255042782127 0 -0.002489189505295559 -0.021658775090997888 0 -0.0012431814288864954 -0.018536255042782127 0 -0.00037344789587377876 -0.01976450170695998 0 -0.00055708177100914679 -0.019018406501383953 0 -0.001170607978934232 -0.019360102886847811 0 -0.00023381044197795354 -0.01968661136983698 0 -0.00055204058433144386 -0.019772442466126739 0 -0.0018124602430078715 -0.020419719179641822 0 1.1470816005800704e-05 -0.020801519533518054 0 -0.0017908328818146478 -0.019450484930759231 0 -0.00055204058433144386 -0.019772442466126739 0 -0.0018124602430078715 -0.020419719179641822 0 -0.002489189505295559 -0.021658775090997888 0 -0.00094785033774545929 -0.023444707200754419 0 -0.003437994989777305 -0.027054549225256116 0 -0.0044660178429546584 -0.02589308011277602 0 -0.0017792981648184834 -0.026535903727349291 0 -0.003437994989777305 -0.027054549225256116 0 -0.0017792981648184834 -0.026535903727349291 0 -0.00272512685370088 -0.027626666279634293 0 -0.002489189505295559 -0.021658775090997888 0 -0.0014863889721903308 -0.021602264109657304 0 -0.001013768731168479 -0.019307890670182123 0 -0.0010267769956888964 -0.020103973239500465 0 -0.0015503931815762499 -0.019573175248514402 0 -0.003437994989777305 -0.027054549225256116 0 -0.0044660178429546584 -0.02589308011277602 0 -0.0045091741707124419 -0.028008916378733643 0 -0.0014863889721903308 -0.021602264109657304 0 -0.00062210977489956024 -0.017148684491615634 0 0.001766472506751894 -0.021200977964409042 0 0.0015593748837305719 -0.01959733148046832 0 0.00068708580816918461 -0.020084101320950301 0 0.00082760520314056364 -0.027405872716781063 0 0.00049820326605387339 -0.023434674476218269 0 0.00076060099790693965 -0.019228442533059852 0 0.0015593748837305719 -0.01959733148046832 0 0.00068708580816918461 -0.020084101320950301 0 -0.00037344789587377876 -0.01976450170695998 0 0.00059204096670361272 -0.020036010671079581 0 0.00076060099790693965 -0.019228442533059852 0 -0.00023381044197795354 -0.01968661136983698 0 0.00068708580816918461 -0.020084101320950301 0 -0.00055204058433144386 -0.019772442466126739 0 0.00068708580816918461 -0.020084101320950301 0 1.1470816005800704e-05 -0.020801519533518054 0 -0.0017792981648184834 -0.026535903727349291 0 -0.0019087393340743895 -0.02805290288041766 0 -0.00272512685370088 -0.027626666279634293 0 0.00082760520314056364 -0.027405872716781063 0 -0.00094785033774545929 -0.023444707200754419 0 0.00092083944542219382 -0.02716923781083342 0 -0.0017792981648184834 -0.026535903727349291 0 -0.00065572691360594841 -0.028414486270479523 0 0.001766472506751894 -0.021200977964409042 0 0.00068708580816918461 -0.020084101320950301 0 1.1470816005800704e-05 -0.020801519533518054 0 0.00092083944542219382 -0.02716923781083342 0 0.0010874159651014066 -0.029328074931316131 0 -0.00065572691360594841 -0.028414486270479523 0 -0.0017792981648184834 -0.026535903727349291 0 -0.00065572691360594841 -0.028414486270479523 0 -0.0019087393340743895 -0.02805290288041766 0 -0.00065572691360594841 -0.028414486270479523 0 -0.0019087393340743895 -0.02805290288041766 0 -0.0019218989915519209 -0.029102844745369404 0 -0.0019087393340743895 -0.02805290288041766 0 -0.0019218989915519209 -0.029102844745369404 0 -0.0029347056606810308 -0.028420979414929461 0 -0.00065572691360594841 -0.028414486270479523 0 -0.0019218989915519209 -0.029102844745369404 0 -0.00047026038854158629 -0.030172913990827225 0 -0.0019218989915519209 -0.029102844745369404 0 -0.0020479173180505063 -0.030525894615401204 0 -0.00047026038854158629 -0.030172913990827225 0 0.0010874159651014066 -0.029328074931316131 0 -0.00065572691360594841 -0.028414486270479523 0 -0.00047026038854158629 -0.030172913990827225 0 0.0010874159651014066 -0.029328074931316131 0 -0.00047026038854158629 -0.030172913990827225 0 0.0011761525149104691 -0.031480306353571207 0 -0.00098489042751166407 -0.023931016935996266 0 -0.00050935133123848283 -0.024400688273984925 0 -0.00099011473175681926 -0.02482239955453585 0 0.00079864597347759189 -0.015574529650017868 0 0.00078239998333421703 -0.015902494300090071 0 0.00056665190046958512 -0.015767573940899022 0 -0.0014863889721903308 -0.021602264109657304 0 0.00032032276642154922 -0.023498391481431225 0 -0.0014863889721903308 -0.021602264109657304 0 -0.0015782302604365793 -0.028198628776258311 0 -0.003437994989777305 -0.027054549225256116 0 -0.0045091741707124419 -0.028008916378733643 0 -0.0035580479465636 -0.028068267377791865 0 -0.003437994989777305 -0.027054549225256116 0 -0.0035580479465636 -0.028068267377791865 0 -0.00272512685370088 -0.027626666279634293 0 -0.0019218989915519209 -0.029102844745369404 0 -0.0029347056606810308 -0.028420979414929461 0 -0.003581792922174682 -0.029003415232047018 0 -0.0035580479465636 -0.028068267377791865 0 -0.00272512685370088 -0.027626666279634293 0 -0.0029347056606810308 -0.028420979414929461 0 -0.0019087393340743895 -0.02805290288041766 0 -0.00272512685370088 -0.027626666279634293 0 -0.0029347056606810308 -0.028420979414929461 0 -0.0045091741707124419 -0.028008916378733643 0 -0.0035580479465636 -0.028068267377791865 0 -0.0035534064729986488 -0.028948440515383155 0 -0.0035580479465636 -0.028068267377791865 0 -0.0029347056606810308 -0.028420979414929461 0 -0.0035534064729986488 -0.028948440515383155 0 -0.0028685975001320183 -0.028868429255753048 0 -0.0015782302604365793 -0.028198628776258311 0 0.00044138587182762401 -0.032140694667644035 0 0.00040152804659069594 -0.032295781064333937 0 0.00048060999406878042 -0.0323938732095417 0 -0.0019218989915519209 -0.029102844745369404 0 -0.0020479173180505063 -0.030525894615401204 0 -0.003581792922174682 -0.029003415232047018 0 -0.00052287978993450514 -0.031797253204229714 0 -0.0015782302604365793 -0.028198628776258311 0 0.00068416919285810437 -0.032477474824874612 0 0.00044138587182762401 -0.032140694667644035 0 0.00048060999406878042 -0.0323938732095417 0 0.00068416919285810437 -0.032477474824874612 0 0.00048060999406878042 -0.0323938732095417 0 0.00054044075059091472 -0.032609908816526034 0 0.00040152804659069594 -0.032295781064333937 0 0.00048060999406878042 -0.0323938732095417 0 0.00037428618834419011 -0.032384402590188641 0 0.00048060999406878042 -0.0323938732095417 0 0.00037428618834419011 -0.032384402590188641 0 0.0004132513257584042 -0.032515605702454785 0 0.0003493386234854501 -0.032451273892636995 0 0.00037428618834419011 -0.032384402590188641 0 0.0004132513257584042 -0.032515605702454785 0 0.0003493386234854501 -0.032451273892636995 0 0.00031918713161516952 -0.032406766869724032 0 0.00037428618834419011 -0.032384402590188641 0 0.0003493386234854501 -0.032451273892636995 0 0.00029558604123050965 -0.032448517915369769 0 0.00031918713161516952 -0.032406766869724032 0 0.00097340535538390578 -0.028311792764349277 0 0.00032032276642154922 -0.023498391481431225 0 0.00031918713161516952 -0.032406766869724032 0 0.00037428618834419011 -0.032384402590188641 0 0.00027694417809237461 -0.032300076253892737 0 0.00029558604123050965 -0.032448517915369769 0 0.00031918713161516952 -0.032406766869724032 0 0.00027694417809237461 -0.032300076253892737 0 0.00040152804659069594 -0.032295781064333937 0 0.00037428618834419011 -0.032384402590188641 0 0.00027694417809237461 -0.032300076253892737 0 -0.0015782302604365793 -0.028198628776258311 0 0.00032032276642154922 -0.023498391481431225 0 0.00044138587182762401 -0.032140694667644035 0 0.00040152804659069594 -0.032295781064333937 0 0.00027694417809237461 -0.032300076253892737 0 0.00078239998333421703 -0.015902494300090071 0 0.00056665190046958512 -0.015767573940899022 0 0.00059954367180937225 -0.016035303827725313 0 2.319702058320562e-05 -0.024673439902217521 0 1.5995480597466892e-05 -0.024960431502894419 0 0.00041915255089775363 -0.024609091558609186 0 0.00032032276642154922 -0.023498391481431225 0 0.00039260462141167544 -0.023343242526887666 0 0.00056665190046958512 -0.015767573940899022 0 0.00035962407190910412 -0.015859099690934502 0 0.00059954367180937225 -0.016035303827725313 0 0.00035962407190910412 -0.015859099690934502 0 0.00019548249486243277 -0.016015951166449421 0 0.00059954367180937225 -0.016035303827725313 0 0.00056665190046958512 -0.015767573940899022 0 0.00035962407190910412 -0.015859099690934502 0 0.00030485987778227416 -0.015633710400911743 0 0.00018958313542882717 -0.015794177145401832 0 -4.1474522248329403e-07 -0.015812749259620475 0 0.00019548249486243277 -0.016015951166449421 0 0.00035962407190910412 -0.015859099690934502 0 0.00018958313542882717 -0.015794177145401832 0 0.00019548249486243277 -0.016015951166449421 0 0.00035962407190910412 -0.015859099690934502 0 0.00018958313542882717 -0.015794177145401832 0 0.00030485987778227416 -0.015633710400911743 0 0.00018958313542882717 -0.015794177145401832 0 0.00030485987778227416 -0.015633710400911743 0 9.6617262452207509e-05 -0.015637305971138882 0 0.00030485987778227416 -0.015633710400911743 0 0.00010771165594785492 -0.015443103793877713 0 0.00029298981188871344 -0.015332214538572029 0 0.00030485987778227416 -0.015633710400911743 0 0.00010771165594785492 -0.015443103793877713 0 9.6617262452207509e-05 -0.015637305971138882 0 0.00079864597347759189 -0.015574529650017868 0 0.00056665190046958512 -0.015767573940899022 0 0.00050369996245655773 -0.015520155561000972 0 0.00079864597347759189 -0.015574529650017868 0 0.00050369996245655773 -0.015520155561000972 0 0.00056014503438097545 -0.015281467567294118 0 0.00030485987778227416 -0.015633710400911743 0 0.00050369996245655773 -0.015520155561000972 0 0.00029298981188871344 -0.015332214538572029 0 0.00056665190046958512 -0.015767573940899022 0 0.00030485987778227416 -0.015633710400911743 0 0.00050369996245655773 -0.015520155561000972 0 0.00056014503438097545 -0.015281467567294118 0 0.00029298981188871344 -0.015332214538572029 0 0.00030715807634386041 -0.01499505045847865 0 -0.001013768731168479 -0.019307890670182123 0 -0.0015503931815762499 -0.019573175248514402 0 -0.0020672757081484339 -0.019041421083626463 0 -0.00062210977489956024 -0.017148684491615634 0 -0.00071128991457119323 -0.016756002577238995 0 0.00050369996245655773 -0.015520155561000972 0 0.00056014503438097545 -0.015281467567294118 0 0.00029298981188871344 -0.015332214538572029 0 0.00029298981188871344 -0.015332214538572029 0 8.3174270081573263e-05 -0.015129135020047741 0 0.00030715807634386041 -0.01499505045847865 0 0.00010771165594785492 -0.015443103793877713 0 0.00029298981188871344 -0.015332214538572029 0 0.00011715830153257135 -0.015284176852099811 0 0.00029298981188871344 -0.015332214538572029 0 0.00011715830153257135 -0.015284176852099811 0 8.3174270081573263e-05 -0.015129135020047741 0 -0.00025276917580905451 -0.014931788978783233 0 -0.00027195520760171614 -0.014934297451831136 0 -0.00022647252037445216 -0.014916580282340388 0 8.3174270081573263e-05 -0.015129135020047741 0 0.00030715807634386041 -0.01499505045847865 0 -0.00022647252037445216 -0.014916580282340388 0 -0.00071128991457119323 -0.016756002577238995 0 8.2626220316365125e-06 -0.014575222115697025 0 -0.00086490146634535128 -0.016537449905750252 0 -0.00071128991457119323 -0.016756002577238995 0 -0.0013386974381114974 -0.018200784893314909 0 -0.001402549761034839 -0.018205539040568958 0 -0.0013550402205499345 -0.018269348846581775 0 -0.002489189505295559 -0.021658775090997888 0 -0.00071128991457119323 -0.016756002577238995 0 -0.0012381821379554697 -0.01833276688398508 0 -0.0013550402205499345 -0.018269348846581775 0 -0.001291603322703023 -0.018264833750701339 0 -0.0013386974381114974 -0.018200784893314909 0 -0.0012331144000003766 -0.018257404347621829 0 -0.001291603322703023 -0.018264833750701339 0 -0.0013386974381114974 -0.018200784893314909 0 -0.0013550402205499345 -0.018269348846581775 0 -0.001291603322703023 -0.018264833750701339 0 -0.00023449281976948557 -0.015001904073649583 0 -0.00031191529949354223 -0.014874942932937204 0 -0.00022647252037445216 -0.014916580282340388 0 -0.00023449281976948557 -0.015001904073649583 0 -0.0002929458018776137 -0.014921266082785083 0 -0.00031191529949354223 -0.014874942932937204 0 -0.00029699997522119242 -0.014773321372032008 0 -0.0002929458018776137 -0.014921266082785083 0 -0.00031191529949354223 -0.014874942932937204 0 -0.00029699997522119242 -0.014773321372032008 0 -0.00032589259686222402 -0.014824260543752344 0 -0.00031191529949354223 -0.014874942932937204 0 -0.00039300262886861451 -0.014909046967468883 0 -0.00031191529949354223 -0.014874942932937204 0 -0.00022647252037445216 -0.014916580282340388 0 8.3174270081573263e-05 -0.015129135020047741 0 -0.00022647252037445216 -0.014916580282340388 0 -8.0561983550173031e-05 -0.015122624442036761 0 -0.00023449281976948557 -0.015001904073649583 0 -0.00022647252037445216 -0.014916580282340388 0 -8.0561983550173031e-05 -0.015122624442036761 0 -0.00023449281976948557 -0.015001904073649583 0 -8.0561983550173031e-05 -0.015122624442036761 0 -0.0001692414023782853 -0.015154287431019486 0 -8.0561983550173031e-05 -0.015122624442036761 0 -5.291254208103407e-05 -0.015296053358214899 0 -0.0001692414023782853 -0.015154287431019486 0 0.00011715830153257135 -0.015284176852099811 0 8.3174270081573263e-05 -0.015129135020047741 0 -8.0561983550173031e-05 -0.015122624442036761 0 0.00010771165594785492 -0.015443103793877713 0 0.00011715830153257135 -0.015284176852099811 0 -5.291254208103407e-05 -0.015296053358214899 0 0.00011715830153257135 -0.015284176852099811 0 -8.0561983550173031e-05 -0.015122624442036761 0 -5.291254208103407e-05 -0.015296053358214899 0 -5.291254208103407e-05 -0.015296053358214899 0 -0.00022925946289266731 -0.01527781475000836 0 -0.0001692414023782853 -0.015154287431019486 0 -0.00022925946289266731 -0.01527781475000836 0 -0.0001692414023782853 -0.015154287431019486 0 -0.00025073049329847103 -0.015099302737988471 0 -0.00023449281976948557 -0.015001904073649583 0 -0.0001692414023782853 -0.015154287431019486 0 -0.00025073049329847103 -0.015099302737988471 0 -0.00034198272052710766 -0.015185972794422469 0 -0.0002929458018776137 -0.014921266082785083 0 -0.00025073049329847103 -0.015099302737988471 0 -0.00023449281976948557 -0.015001904073649583 0 -0.0002929458018776137 -0.014921266082785083 0 -0.00025073049329847103 -0.015099302737988471 0 -0.00034198272052710766 -0.015185972794422469 0 -0.00022925946289266731 -0.01527781475000836 0 -0.00025073049329847103 -0.015099302737988471 0 -0.00034198272052710766 -0.015185972794422469 0 -0.00022925946289266731 -0.01527781475000836 0 -0.0002687843732892786 -0.015459198089247365 0 -0.00022925946289266731 -0.01527781475000836 0 -0.0002687843732892786 -0.015459198089247365 0 -8.4054499910787915e-05 -0.015461265353609923 0 -0.0002687843732892786 -0.015459198089247365 0 -0.00027045180414459624 -0.015654212267750149 0 -0.00013672011932550781 -0.015644984825401477 0 -0.0002687843732892786 -0.015459198089247365 0 -8.4054499910787915e-05 -0.015461265353609923 0 -0.00013672011932550781 -0.015644984825401477 0 -0.00041913666689136496 -0.015602753541398503 0 -0.0002687843732892786 -0.015459198089247365 0 -0.00027045180414459624 -0.015654212267750149 0 -8.4054499910787915e-05 -0.015461265353609923 0 9.6617262452207509e-05 -0.015637305971138882 0 -0.00013672011932550781 -0.015644984825401477 0 0.00010771165594785492 -0.015443103793877713 0 -5.291254208103407e-05 -0.015296053358214899 0 -8.4054499910787915e-05 -0.015461265353609923 0 -5.291254208103407e-05 -0.015296053358214899 0 -0.00022925946289266731 -0.01527781475000836 0 -8.4054499910787915e-05 -0.015461265353609923 0 0.00010771165594785492 -0.015443103793877713 0 -8.4054499910787915e-05 -0.015461265353609923 0 9.6617262452207509e-05 -0.015637305971138882 0 9.6617262452207509e-05 -0.015637305971138882 0 -4.1474522248329403e-07 -0.015812749259620475 0 -0.00013672011932550781 -0.015644984825401477 0 -4.1474522248329403e-07 -0.015812749259620475 0 -8.1626147165096225e-05 -0.015919367778597253 0 0.00019548249486243277 -0.016015951166449421 0 0.00018958313542882717 -0.015794177145401832 0 9.6617262452207509e-05 -0.015637305971138882 0 -4.1474522248329403e-07 -0.015812749259620475 0 -4.1474522248329403e-07 -0.015812749259620475 0 -0.00013672011932550781 -0.015644984825401477 0 -0.0001804043369249372 -0.015794583707329644 0 -4.1474522248329403e-07 -0.015812749259620475 0 -0.0001804043369249372 -0.015794583707329644 0 -8.1626147165096225e-05 -0.015919367778597253 0 -0.00027045180414459624 -0.015654212267750149 0 -0.0001804043369249372 -0.015794583707329644 0 -0.00031758023490015004 -0.015786487251412466 0 -0.00041913666689136496 -0.015602753541398503 0 -0.00027045180414459624 -0.015654212267750149 0 -0.00031758023490015004 -0.015786487251412466 0 -0.00027045180414459624 -0.015654212267750149 0 -0.00013672011932550781 -0.015644984825401477 0 -0.0001804043369249372 -0.015794583707329644 0 -0.0001804043369249372 -0.015794583707329644 0 -0.00022368886637767987 -0.01589923014852072 0 -8.1626147165096225e-05 -0.015919367778597253 0 -0.00031758023490015004 -0.015786487251412466 0 -0.00022368886637767987 -0.01589923014852072 0 -0.00036379513994976427 -0.015952033748886173 0 -0.0001804043369249372 -0.015794583707329644 0 -0.00031758023490015004 -0.015786487251412466 0 -0.00022368886637767987 -0.01589923014852072 0 -0.00016801458807856753 -0.016034315123261429 0 -0.00031003791986683861 -0.016068157638481958 0 -0.00036379513994976427 -0.015952033748886173 0 0.00010066416815123541 -0.016139288514921919 0 0.00082294200161809033 -0.016416843104461221 0 3.5024345035796885e-05 -0.016595851207403277 0 -0.00022368886637767987 -0.01589923014852072 0 -0.00016801458807856753 -0.016034315123261429 0 -0.00036379513994976427 -0.015952033748886173 0 -0.00022368886637767987 -0.01589923014852072 0 -0.00016801458807856753 -0.016034315123261429 0 -8.1626147165096225e-05 -0.015919367778597253 0 0.00011948733914957725 -0.021397925491141927 0 0.00012489760538376439 -0.021371065207948653 0 0.00011312184874227305 -0.021404197035501709 0 -2.2885406727596012e-05 -0.018148186914371055 0 0.00041336659520350863 -0.018927671522617012 0 -7.1947499897048067e-05 -0.018693807047213868 0 -2.2885406727596012e-05 -0.018148186914371055 0 -7.1947499897048067e-05 -0.018693807047213868 0 0.00018198624385285347 -0.018252988585145926 0 -0.00016801458807856753 -0.016034315123261429 0 -8.1626147165096225e-05 -0.015919367778597253 0 0.00019548249486243277 -0.016015951166449421 0 0.00011948733914957725 -0.021397925491141927 0 9.4469633361167989e-05 -0.021432983978451548 0 6.9400807427045708e-05 -0.021482929404847258 0 0.00011312184874227305 -0.021404197035501709 0 9.4469633361167989e-05 -0.021432983978451548 0 8.8824822730862078e-05 -0.021431745837154657 0 0.00011948733914957725 -0.021397925491141927 0 0.00011312184874227305 -0.021404197035501709 0 9.4469633361167989e-05 -0.021432983978451548 0 9.4469633361167989e-05 -0.021432983978451548 0 8.8824822730862078e-05 -0.021431745837154657 0 7.8665989589623618e-05 -0.021448150283188239 0 8.8824822730862078e-05 -0.021431745837154657 0 8.0649559355941658e-05 -0.021433924567144678 0 7.8665989589623618e-05 -0.021448150283188239 0 0.00011312184874227305 -0.021404197035501709 0 8.8824822730862078e-05 -0.021431745837154657 0 8.633582567442608e-05 -0.021426108053540789 0 8.8824822730862078e-05 -0.021431745837154657 0 8.633582567442608e-05 -0.021426108053540789 0 8.0649559355941658e-05 -0.021433924567144678 0 0.00082294200161809033 -0.016416843104461221 0 0.0015665101402527358 -0.016700044240413426 0 0.0010636965536556765 -0.017091344109833543 0 0.00041336659520350863 -0.018927671522617012 0 0.00095967604707295189 -0.020859684414175659 0 0.0022550691938525505 -0.019392908748373693 0 0.0035232718246966054 -0.021053483218724925 0 0.0030371489649501275 -0.023928752592404467 0 0.0032103655426210199 -0.023776709063280735 0 0.0031205855518178513 -0.023750803159767499 0 0.0030371489649501275 -0.023928752592404467 0 0.0031205855518178513 -0.023750803159767499 0 0.0030587491366118121 -0.02378045113643365 0 0.00095967604707295189 -0.020859684414175659 0 0.0022550691938525505 -0.019392908748373693 0 0.0033684010018006569 -0.014758931975342292 0 0.0027830337438635631 -0.014474071211472929 0 0.0027683146542727319 -0.015233696822005732 0 0.00082294200161809033 -0.016416843104461221 0 0.0010636965536556765 -0.017091344109833543 0 3.5024345035796885e-05 -0.016595851207403277 0 0.0022550691938525505 -0.019392908748373693 0 0.0012429003275555687 -0.015206269727523267 0 0.0022550691938525505 -0.019392908748373693 0 0.0044594647785295054 -0.017230616569030299 0 0.0032173167629869991 -0.023773048061172954 0 0.0032087200121218382 -0.02358119415096625 0 0.0035575459434333901 -0.023463580290368425 0 0.0032173167629869991 -0.023773048061172954 0 0.0031205855518178513 -0.023750803159767499 0 0.0032087200121218382 -0.02358119415096625 0 0.0031205855518178513 -0.023750803159767499 0 0.0030566847499420781 -0.023674918512202422 0 0.0032087200121218382 -0.02358119415096625 0 0.0031205855518178513 -0.023750803159767499 0 0.0030587491366118121 -0.02378045113643365 0 0.0030566847499420781 -0.023674918512202422 0 0.0030566847499420781 -0.023674918512202422 0 0.003044652192877001 -0.023535179436590663 0 0.0032087200121218382 -0.02358119415096625 0 0.003044652192877001 -0.023535179436590663 0 0.0032394544676530692 -0.023307299987716423 0 0.0029716967725647364 -0.023351008339546512 0 0.003044652192877001 -0.023535179436590663 0 0.0032087200121218382 -0.02358119415096625 0 0.0032394544676530692 -0.023307299987716423 0 0.0039501658627914193 -0.02418968351645474 0 0.0044594647785295054 -0.017230616569030299 0 0.0041518113376050117 -0.023218838725353248 0 0.0047846295563105821 -0.023078779619539993 0 0.0048761613875972637 -0.023482352381634448 0 0.0032087200121218382 -0.02358119415096625 0 0.0032394544676530692 -0.023307299987716423 0 0.0035575459434333901 -0.023463580290368425 0 0.0026132150606202774 -0.023469294929645244 0 0.0024919373595965149 -0.023540385632628971 0 0.0024569786331195722 -0.023373506129153919 0 0.0026132150606202774 -0.023469294929645244 0 0.0028279826036962932 -0.023512428705206902 0 0.0026579574585347287 -0.02359125390626236 0 0.0026132150606202774 -0.023469294929645244 0 0.0026579574585347287 -0.02359125390626236 0 0.0024919373595965149 -0.023540385632628971 0 0.0026132150606202774 -0.023469294929645244 0 0.0024569786331195722 -0.023373506129153919 0 0.0026908919100417329 -0.023329455406126139 0 0.0026132150606202774 -0.023469294929645244 0 0.0028279826036962932 -0.023512428705206902 0 0.0026908919100417329 -0.023329455406126139 0 0.0029716967725647364 -0.023351008339546512 0 0.0028279826036962932 -0.023512428705206902 0 0.0026908919100417329 -0.023329455406126139 0 0.003044652192877001 -0.023535179436590663 0 0.0029716967725647364 -0.023351008339546512 0 0.0028279826036962932 -0.023512428705206902 0 0.0028279826036962932 -0.023512428705206902 0 0.0028698233399164315 -0.023704998681321574 0 0.0026579574585347287 -0.02359125390626236 0 0.003044652192877001 -0.023535179436590663 0 0.0028279826036962932 -0.023512428705206902 0 0.0028698233399164315 -0.023704998681321574 0 0.0030587491366118121 -0.02378045113643365 0 0.0030566847499420781 -0.023674918512202422 0 0.0028698233399164315 -0.023704998681321574 0 0.0030566847499420781 -0.023674918512202422 0 0.003044652192877001 -0.023535179436590663 0 0.0028698233399164315 -0.023704998681321574 0 0.0028698233399164315 -0.023704998681321574 0 0.0026579574585347287 -0.02359125390626236 0 0.0025227689370862791 -0.023730169342179273 0 0.0026579574585347287 -0.02359125390626236 0 0.0025227689370862791 -0.023730169342179273 0 0.0024919373595965149 -0.023540385632628971 0 -6.1279561646792734e-05 -0.0326736440151707 0 6.4258371134001061e-05 -0.032590697925273117 0 0.00022415978059486198 -0.032887876776601613 0 0.0028698233399164315 -0.023704998681321574 0 0.0029232938151987787 -0.023905326072639083 0 0.0025227689370862791 -0.023730169342179273 0 6.4258371134001061e-05 -0.032590697925273117 0 0.00022444430084638857 -0.032679750755346182 0 0.00022415978059486198 -0.032887876776601613 0 0.0018297841512694131 -0.026063813417053952 0 0.0013641725046247958 -0.028617356411754738 0 0.0030587491366118121 -0.02378045113643365 0 0.0028698233399164315 -0.023704998681321574 0 0.0029232938151987787 -0.023905326072639083 0 0.0030371489649501275 -0.023928752592404467 0 0.0030587491366118121 -0.02378045113643365 0 0.0029169811949015163 -0.023897624766056502 0 0.0034146498637792001 -0.023944766337621829 0 0.0018297841512694131 -0.026063813417053952 0 6.7913681490041087e-05 -0.021427882426787288 0 5.1656932020274463e-05 -0.021459525169252546 0 5.5055490061082484e-07 -0.021480036172285982 0 0.0018297841512694131 -0.026063813417053952 0 -0.00055062926848747896 -0.027494903362693182 0 6.7913681490041087e-05 -0.021427882426787288 0 8.0649559355941658e-05 -0.021433924567144678 0 5.1656932020274463e-05 -0.021459525169252546 0 0.00095967604707295189 -0.020859684414175659 0 0.00069536115533294857 -0.021060935474604598 0 0.00095967604707295189 -0.020859684414175659 0 0.0018297841512694131 -0.026063813417053952 0 9.0598657359931858e-05 -0.021427216191971171 0 6.7913681490041087e-05 -0.021427882426787288 0 8.0649559355941658e-05 -0.021433924567144678 0 7.8665989589623618e-05 -0.021448150283188239 0 5.1656932020274463e-05 -0.021459525169252546 0 6.9400807427045708e-05 -0.021482929404847258 0 9.4469633361167989e-05 -0.021432983978451548 0 7.8665989589623618e-05 -0.021448150283188239 0 6.9400807427045708e-05 -0.021482929404847258 0 8.0649559355941658e-05 -0.021433924567144678 0 7.8665989589623618e-05 -0.021448150283188239 0 5.1656932020274463e-05 -0.021459525169252546 0 5.1656932020274463e-05 -0.021459525169252546 0 6.9400807427045708e-05 -0.021482929404847258 0 5.5055490061082484e-07 -0.021480036172285982 0 6.9400807427045708e-05 -0.021482929404847258 0 5.5055490061082484e-07 -0.021480036172285982 0 -6.7091126171247331e-05 -0.021559997009917828 0 6.4258371134001061e-05 -0.032590697925273117 0 0.00019883216740754754 -0.032469466281215449 0 0.00024077831100144249 -0.032575300105420348 0 0.00018198624385285347 -0.018252988585145926 0 0.00039260462141167544 -0.023343242526887666 0 6.4258371134001061e-05 -0.032590697925273117 0 0.00024077831100144249 -0.032575300105420348 0 0.00022444430084638857 -0.032679750755346182 0 -0.00055062926848747896 -0.027494903362693182 0 0.00039260462141167544 -0.023343242526887666 0 0.00024077831100144249 -0.032575300105420348 0 0.00034977915920593873 -0.032664201214171566 0 0.00030743920222293507 -0.032491016439651708 0 0.00019883216740754754 -0.032469466281215449 0 0.00024077831100144249 -0.032575300105420348 0 0.00030743920222293507 -0.032491016439651708 0 0.00030899213017214667 -0.032458320601278706 0 0.00019883216740754754 -0.032469466281215449 0 0.00030743920222293507 -0.032491016439651708 0 0.00097340535538390578 -0.028311792764349277 0 0.00039260462141167544 -0.023343242526887666 0 0.00024077831100144249 -0.032575300105420348 0 0.00034977915920593873 -0.032664201214171566 0 0.00022444430084638857 -0.032679750755346182 0 0.00034977915920593873 -0.032664201214171566 0 0.00030743920222293507 -0.032491016439651708 0 0.0004132513257584042 -0.032515605702454785 0 0.0003493386234854501 -0.032451273892636995 0 0.00029558604123050965 -0.032448517915369769 0 0.00030743920222293507 -0.032491016439651708 0 0.00097340535538390578 -0.028311792764349277 0 0.00092786688679752393 -0.029093913483022933 0 0.0003493386234854501 -0.032451273892636995 0 0.00030743920222293507 -0.032491016439651708 0 0.0004132513257584042 -0.032515605702454785 0 0.00068416919285810437 -0.032477474824874612 0 0.00054044075059091472 -0.032609908816526034 0 0.00066113592413411285 -0.032847411753086579 0 0.00048060999406878042 -0.0323938732095417 0 0.0004132513257584042 -0.032515605702454785 0 0.00054044075059091472 -0.032609908816526034 0 0.0004132513257584042 -0.032515605702454785 0 0.00054044075059091472 -0.032609908816526034 0 0.00047962321206257907 -0.032789926409079351 0 0.00034977915920593873 -0.032664201214171566 0 0.0004132513257584042 -0.032515605702454785 0 0.00047962321206257907 -0.032789926409079351 0 0.00054044075059091472 -0.032609908816526034 0 0.00047962321206257907 -0.032789926409079351 0 0.00066113592413411285 -0.032847411753086579 0 0.00047962321206257907 -0.032789926409079351 0 0.00066113592413411285 -0.032847411753086579 0 0.00060604956621697912 -0.033130543479817837 0 0.00047962321206257907 -0.032789926409079351 0 0.00022415978059486198 -0.032887876776601613 0 0.00060604956621697912 -0.033130543479817837 0 0.00034977915920593873 -0.032664201214171566 0 0.00022444430084638857 -0.032679750755346182 0 0.00022415978059486198 -0.032887876776601613 0 0.00034977915920593873 -0.032664201214171566 0 0.00047962321206257907 -0.032789926409079351 0 0.00022415978059486198 -0.032887876776601613 0 -0.00054596829251991538 -0.03198691958653023 0 0.0011761525149104691 -0.031480306353571207 0 0.00079972533351124796 -0.033301127216531487 0 -0.00047026038854158629 -0.030172913990827225 0 -0.00054596829251991538 -0.03198691958653023 0 0.0011761525149104691 -0.031480306353571207 0 -0.0020479173180505063 -0.030525894615401204 0 -0.00047026038854158629 -0.030172913990827225 0 -0.00054596829251991538 -0.03198691958653023 0 0.00068416919285810437 -0.032477474824874612 0 0.00086048991574172191 -0.032861958789082435 0 0.00066113592413411285 -0.032847411753086579 0 -0.00052287978993450514 -0.031797253204229714 0 9.8594238969689114e-05 -0.032381831266330485 0 0.00086048991574172191 -0.032861958789082435 0 0.00079349241467732625 -0.033100196927973842 0 0.00066113592413411285 -0.032847411753086579 0 0.00079349241467732625 -0.033100196927973842 0 0.00066113592413411285 -0.032847411753086579 0 0.00060604956621697912 -0.033130543479817837 0 0.00086048991574172191 -0.032861958789082435 0 0.00085707432007174318 -0.033201772266163908 0 0.00079972533351124796 -0.033301127216531487 0 0.00086048991574172191 -0.032861958789082435 0 0.00079349241467732625 -0.033100196927973842 0 0.00085707432007174318 -0.033201772266163908 0 0.00085707432007174318 -0.033201772266163908 0 0.00079972533351124796 -0.033301127216531487 0 0.00087894157617929357 -0.033315794264523295 0 9.8594238969689114e-05 -0.032381831266330485 0 0.00077140264916867056 -0.033206571456037406 0 0.00079349241467732625 -0.033100196927973842 0 0.00085707432007174318 -0.033201772266163908 0 0.00091445352734626244 -0.033202451482063772 0 0.00085707432007174318 -0.033201772266163908 0 0.00091445352734626244 -0.033202451482063772 0 0.00088721940276138681 -0.033241369888129181 0 0.00085707432007174318 -0.033201772266163908 0 0.00087894157617929357 -0.033315794264523295 0 0.00088721940276138681 -0.033241369888129181 0 0.0017236970251757629 -0.028363365442557652 0 0.0015168818982608764 -0.028313709071521861 0 0.00079349241467732625 -0.033100196927973842 0 0.00091445352734626244 -0.033202451482063772 0 0.00060604956621697912 -0.033130543479817837 0 0.002548642672042167 -0.023574377401264071 0 0.0024162434204146521 -0.023574423300349884 0 0.0024495699033334852 -0.023551022598109414 0 0.002548642672042167 -0.023574377401264071 0 0.0024495699033334852 -0.023551022598109414 0 0.0025220052026687454 -0.023622540651775947 0 0.0013641725046247958 -0.028617356411754738 0 0.0015168818982608764 -0.028313709071521861 0 0.0025227689370862791 -0.023730169342179273 0 0.0024162434204146521 -0.023574423300349884 0 0.0024919373595965149 -0.023540385632628971 0 0.0024162434204146521 -0.023574423300349884 0 0.0024495699033334852 -0.023551022598109414 0 0.0024396010201482572 -0.023482190400122213 0 0.0024162434204146521 -0.023574423300349884 0 0.0024396010201482572 -0.023482190400122213 0 0.0024919373595965149 -0.023540385632628971 0 0.0024396010201482572 -0.023482190400122213 0 0.0024919373595965149 -0.023540385632628971 0 0.0024569786331195722 -0.023373506129153919 0 0.0024569786331195722 -0.023373506129153919 0 0.0024363114294672916 -0.023495170867265474 0 0.0024284286634969625 -0.023399155759011352 0 0.0024396010201482572 -0.023482190400122213 0 0.0024569786331195722 -0.023373506129153919 0 0.0024363114294672916 -0.023495170867265474 0 0.0024495699033334852 -0.023551022598109414 0 0.0024396010201482572 -0.023482190400122213 0 0.0024363114294672916 -0.023495170867265474 0 0.0024495699033334852 -0.023551022598109414 0 0.0024363114294672916 -0.023495170867265474 0 0.0024770774102327508 -0.023607250499835374 0 0.0024363114294672916 -0.023495170867265474 0 0.002452269766928914 -0.023633509286529825 0 0.0024171867767744356 -0.023561984119684447 0 0.0024363114294672916 -0.023495170867265474 0 0.002452269766928914 -0.023633509286529825 0 0.0024770774102327508 -0.023607250499835374 0 0.002452269766928914 -0.023633509286529825 0 0.0024770774102327508 -0.023607250499835374 0 0.002497289172731571 -0.023723412502519452 0 0.002452269766928914 -0.023633509286529825 0 0.002497289172731571 -0.023723412502519452 0 0.002462868919753539 -0.023742654872149018 0 0.002452269766928914 -0.023633509286529825 0 0.0024171867767744356 -0.023561984119684447 0 0.0024198654253118831 -0.023720371277233782 0 0.0024171867767744356 -0.023561984119684447 0 0.002361012909308644 -0.023537416396149931 0 0.0024284286634969625 -0.023399155759011352 0 0.0024171867767744356 -0.023561984119684447 0 0.002361012909308644 -0.023537416396149931 0 0.0023734927401530583 -0.023665632276382364 0 0.0024363114294672916 -0.023495170867265474 0 0.0024171867767744356 -0.023561984119684447 0 0.0024284286634969625 -0.023399155759011352 0 0.002548642672042167 -0.023574377401264071 0 0.0025220052026687454 -0.023622540651775947 0 0.0026189858251704392 -0.023691809143816099 0 0.0025220052026687454 -0.023622540651775947 0 0.0025442295627546452 -0.023707313225849017 0 0.0026189858251704392 -0.023691809143816099 0 0.0024495699033334852 -0.023551022598109414 0 0.0025220052026687454 -0.023622540651775947 0 0.0024770774102327508 -0.023607250499835374 0 0.0025220052026687454 -0.023622540651775947 0 0.0024770774102327508 -0.023607250499835374 0 0.0025442295627546452 -0.023707313225849017 0 0.0024770774102327508 -0.023607250499835374 0 0.002497289172731571 -0.023723412502519452 0 0.0025442295627546452 -0.023707313225849017 0 0.002497289172731571 -0.023723412502519452 0 0.0025442295627546452 -0.023707313225849017 0 0.002546559838536275 -0.023793618033160532 0 0.0025442295627546452 -0.023707313225849017 0 0.0026159570490027805 -0.023820501498270429 0 0.0026189858251704392 -0.023691809143816099 0 0.0025442295627546452 -0.023707313225849017 0 0.0026159570490027805 -0.023820501498270429 0 0.002546559838536275 -0.023793618033160532 0 0.0026218263947030617 -0.023921965111586205 0 0.0026159570490027805 -0.023820501498270429 0 0.0025642780191052067 -0.023881087289322606 0 0.0026218263947030617 -0.023921965111586205 0 0.0026159570490027805 -0.023820501498270429 0 0.0026631011213488227 -0.023914423666956536 0 0.0026159570490027805 -0.023820501498270429 0 0.0025642780191052067 -0.023881087289322606 0 0.002546559838536275 -0.023793618033160532 0 0.0026218263947030617 -0.023921965111586205 0 0.0025642780191052067 -0.023881087289322606 0 0.0025596081492420077 -0.024028036228388453 0 0.0025642780191052067 -0.023881087289322606 0 0.0025064151258608466 -0.02381995179777292 0 0.0025084035823128592 -0.023933112184641336 0 0.0025642780191052067 -0.023881087289322606 0 0.002546559838536275 -0.023793618033160532 0 0.0025064151258608466 -0.02381995179777292 0 0.002497289172731571 -0.023723412502519452 0 0.002546559838536275 -0.023793618033160532 0 0.0025064151258608466 -0.02381995179777292 0 0.002497289172731571 -0.023723412502519452 0 0.0025064151258608466 -0.02381995179777292 0 0.002462868919753539 -0.023742654872149018 0 0.0025064151258608466 -0.02381995179777292 0 0.002462868919753539 -0.023742654872149018 0 0.0024649928268193934 -0.023848457831542141 0 0.0025064151258608466 -0.02381995179777292 0 0.0025084035823128592 -0.023933112184641336 0 0.0024649928268193934 -0.023848457831542141 0 0.0025084035823128592 -0.023933112184641336 0 0.0024649928268193934 -0.023848457831542141 0 0.0024633191264141954 -0.023989929396776771 0 0.0024890893803978433 -0.024057697000630304 0 0.0025084035823128592 -0.023933112184641336 0 0.0024633191264141954 -0.023989929396776771 0 0.0024890893803978433 -0.024057697000630304 0 0.0024633191264141954 -0.023989929396776771 0 0.0024745042161502546 -0.024148435936867035 0 0.0024890893803978433 -0.024057697000630304 0 0.0025596081492420077 -0.024028036228388453 0 0.0024790676754683069 -0.024184377411580648 0 0.0024890893803978433 -0.024057697000630304 0 0.0025084035823128592 -0.023933112184641336 0 0.0025596081492420077 -0.024028036228388453 0 0.0025642780191052067 -0.023881087289322606 0 0.0025084035823128592 -0.023933112184641336 0 0.0025596081492420077 -0.024028036228388453 0 0.0025596081492420077 -0.024028036228388453 0 0.002539444866731072 -0.024196261311882079 0 0.0024790676754683069 -0.024184377411580648 0 0.0025596081492420077 -0.024028036228388453 0 0.0026629877843284372 -0.024127889208383397 0 0.002539444866731072 -0.024196261311882079 0 0.0025596081492420077 -0.024028036228388453 0 0.0026969762547646029 -0.023949007010028927 0 0.0026629877843284372 -0.024127889208383397 0 0.0026218263947030617 -0.023921965111586205 0 0.0025596081492420077 -0.024028036228388453 0 0.0026969762547646029 -0.023949007010028927 0 0.0023775057489822636 -0.023807654007671628 0 0.0023734927401530583 -0.023665632276382364 0 0.0022943032032685462 -0.023965628488154003 0 0.002361012909308644 -0.023537416396149931 0 0.0023734927401530583 -0.023665632276382364 0 0.0022943032032685462 -0.023965628488154003 0 0.002361012909308644 -0.023537416396149931 0 0.0025245022962689743 -0.023803145917323812 0 0.0023227917579639944 -0.023660727053199812 0 0.0023557403751738085 -0.023577612886511463 0 0.0024259746142519297 -0.023882607445270584 0 0.0024171867767744356 -0.023561984119684447 0 0.0023734927401530583 -0.023665632276382364 0 0.0024198654253118831 -0.023720371277233782 0 0.0023775057489822636 -0.023807654007671628 0 0.0023734927401530583 -0.023665632276382364 0 0.0024198654253118831 -0.023720371277233782 0 0.002452269766928914 -0.023633509286529825 0 0.0024198654253118831 -0.023720371277233782 0 0.002462868919753539 -0.023742654872149018 0 0.0024198654253118831 -0.023720371277233782 0 0.002462868919753539 -0.023742654872149018 0 0.0024649928268193934 -0.023848457831542141 0 0.0024198654253118831 -0.023720371277233782 0 0.0024649928268193934 -0.023848457831542141 0 0.0024130144171492442 -0.023896943631414765 0 0.0023775057489822636 -0.023807654007671628 0 0.0024198654253118831 -0.023720371277233782 0 0.0024130144171492442 -0.023896943631414765 0 0.0024649928268193934 -0.023848457831542141 0 0.0024130144171492442 -0.023896943631414765 0 0.0024633191264141954 -0.023989929396776771 0 0.0024130144171492442 -0.023896943631414765 0 0.0024633191264141954 -0.023989929396776771 0 0.0024369816724958016 -0.024084782881424169 0 0.0024633191264141954 -0.023989929396776771 0 0.0024369816724958016 -0.024084782881424169 0 0.0024745042161502546 -0.024148435936867035 0 0.0024130144171492442 -0.023896943631414765 0 0.0024369816724958016 -0.024084782881424169 0 0.0022943032032685462 -0.023965628488154003 0 0.0022253891474772088 -0.022583270242467202 0 0.0020718612997525825 -0.021787785286972231 0 0.002229867987001634 -0.020626770766658482 0 0.0020305716395557023 -0.021387113920736993 0 0.0018619181498732206 -0.020053574918116403 0 0.0025245022962689743 -0.023803145917323812 0 0.0023227917579639944 -0.023660727053199812 0 0.002523308097205257 -0.02390480169774177 0 0.0023775057489822636 -0.023807654007671628 0 0.0024130144171492442 -0.023896943631414765 0 0.0022943032032685462 -0.023965628488154003 0 0.002229867987001634 -0.020626770766658482 0 0.0028482297787924987 -0.020503075932527873 0 0.0025085234102337878 -0.019913325697914468 0 0.0024703549265443873 -0.020925910034024213 0 0.0027583409921379089 -0.021201203788241998 0 0.0028482297787924987 -0.020503075932527873 0 0.002229867987001634 -0.020626770766658482 0 0.0024703549265443873 -0.020925910034024213 0 0.0028482297787924987 -0.020503075932527873 0 0.002229867987001634 -0.020626770766658482 0 0.0024703549265443873 -0.020925910034024213 0 0.0020305716395557023 -0.021387113920736993 0 0.0024703549265443873 -0.020925910034024213 0 0.0020305716395557023 -0.021387113920736993 0 0.0027583409921379089 -0.021201203788241998 0 0.0020305716395557023 -0.021387113920736993 0 0.0027583409921379089 -0.021201203788241998 0 0.0026346145108646279 -0.021977902043301394 0 0.0030383491467657398 -0.021793611893979058 0 0.0033497902321694972 -0.02135596417174998 0 0.0036882529904815348 -0.021735970870118523 0 0.0027583409921379089 -0.021201203788241998 0 0.0030383491467657398 -0.021793611893979058 0 0.0033497902321694972 -0.02135596417174998 0 0.0027583409921379089 -0.021201203788241998 0 0.0030383491467657398 -0.021793611893979058 0 0.0026346145108646279 -0.021977902043301394 0 0.0027583409921379089 -0.021201203788241998 0 0.0033497902321694972 -0.02135596417174998 0 0.0033162490551057427 -0.020870821500001992 0 0.0033497902321694972 -0.02135596417174998 0 0.0033162490551057427 -0.020870821500001992 0 0.003873835765315315 -0.021035726066770514 0 0.0033162490551057427 -0.020870821500001992 0 0.0028482297787924987 -0.020503075932527873 0 0.003734701369274453 -0.020307356330517584 0 0.0028482297787924987 -0.020503075932527873 0 0.003734701369274453 -0.020307356330517584 0 0.0030834051264541401 -0.01992086274310249 0 0.0027583409921379089 -0.021201203788241998 0 0.0033162490551057427 -0.020870821500001992 0 0.0028482297787924987 -0.020503075932527873 0 0.003734701369274453 -0.020307356330517584 0 0.0044982257180342777 -0.020452884505428853 0 0.0043808067311968549 -0.019913666243662972 0 0.0033162490551057427 -0.020870821500001992 0 0.003734701369274453 -0.020307356330517584 0 0.003873835765315315 -0.021035726066770514 0 0.003734701369274453 -0.020307356330517584 0 0.0044982257180342777 -0.020452884505428853 0 0.003873835765315315 -0.021035726066770514 0 0.0044982257180342777 -0.020452884505428853 0 0.0045904540662727459 -0.020923532746782544 0 0.003873835765315315 -0.021035726066770514 0 0.0044982257180342777 -0.020452884505428853 0 0.0045904540662727459 -0.020923532746782544 0 0.0050060158350543798 -0.020555203551147105 0 0.0047214006353047113 -0.021172793614305577 0 0.0042954228085061727 -0.021310998704000553 0 0.0046567834970418307 -0.021397319634677701 0 0.0045904540662727459 -0.020923532746782544 0 0.0047214006353047113 -0.021172793614305577 0 0.0042954228085061727 -0.021310998704000553 0 0.0045904540662727459 -0.020923532746782544 0 0.0047214006353047113 -0.021172793614305577 0 0.0051389535989398993 -0.020936828721435034 0 0.0047214006353047113 -0.021172793614305577 0 0.0046567834970418307 -0.021397319634677701 0 0.0049501886287169131 -0.021278687054507601 0 0.0045904540662727459 -0.020923532746782544 0 0.003873835765315315 -0.021035726066770514 0 0.0042954228085061727 -0.021310998704000553 0 0.0038442303677178788 -0.020968759862181607 0 0.0047596250895845281 -0.021787788807681729 0 0.003873835765315315 -0.021035726066770514 0 0.0043663371324126621 -0.021795525269719243 0 0.0036882529904815348 -0.021735970870118523 0 0.0033497902321694972 -0.02135596417174998 0 0.003873835765315315 -0.021035726066770514 0 0.0036882529904815348 -0.021735970870118523 0 0.0036882529904815348 -0.021735970870118523 0 0.0040809831915998183 -0.022113187474336476 0 0.0038007875980779313 -0.022320249772023352 0 0.0036882529904815348 -0.021735970870118523 0 0.0038007875980779313 -0.022320249772023352 0 0.0033048614305659788 -0.0223096826119644 0 0.0043663371324126621 -0.021795525269719243 0 0.0040809831915998183 -0.022113187474336476 0 0.0043993332828260751 -0.022226053832522252 0 0.0043663371324126621 -0.021795525269719243 0 0.0036882529904815348 -0.021735970870118523 0 0.0040809831915998183 -0.022113187474336476 0 0.0041929374098033951 -0.022369141767572202 0 0.0038007875980779313 -0.022320249772023352 0 0.0040645762889769789 -0.02266761274588654 0 0.0040809831915998183 -0.022113187474336476 0 0.0041929374098033951 -0.022369141767572202 0 0.0038007875980779313 -0.022320249772023352 0 0.0040809831915998183 -0.022113187474336476 0 0.0041929374098033951 -0.022369141767572202 0 0.0043993332828260751 -0.022226053832522252 0 0.0041929374098033951 -0.022369141767572202 0 0.0043663434953895878 -0.022542618107114516 0 0.0040645762889769789 -0.02266761274588654 0 0.0038007875980779313 -0.022320249772023352 0 0.0036704859835619817 -0.022725962203926781 0 0.0040645762889769789 -0.02266761274588654 0 0.0038007875980779313 -0.022320249772023352 0 0.0036704859835619817 -0.022725962203926781 0 0.0033048614305659788 -0.0223096826119644 0 0.0046567834970418307 -0.021397319634677701 0 0.0046775886314316976 -0.021709315270062653 0 0.0049314015278676959 -0.021439258300165881 0 0.0046567834970418307 -0.021397319634677701 0 0.0049314015278676959 -0.021439258300165881 0 0.0049501886287169131 -0.021278687054507601 0 0.0043663371324126621 -0.021795525269719243 0 0.0043993332828260751 -0.022226053832522252 0 0.0046894960186735267 -0.022356713948162278 0 0.0042954228085061727 -0.021310998704000553 0 0.0046567834970418307 -0.021397319634677701 0 0.0046775886314316976 -0.021709315270062653 0 0.0047596250895845281 -0.021787788807681729 0 0.0066080068640794031 -0.016310880112567545 0 0.0044261468490765649 -0.022370920488563473 0 0.0043993332828260751 -0.022226053832522252 0 0.0046894960186735267 -0.022356713948162278 0 0.0041929374098033951 -0.022369141767572202 0 0.0044261468490765649 -0.022370920488563473 0 0.0043993332828260751 -0.022226053832522252 0 0.0044261468490765649 -0.022370920488563473 0 0.0045203729411586674 -0.022446260132349381 0 0.0043663434953895878 -0.022542618107114516 0 0.0041929374098033951 -0.022369141767572202 0 0.0044261468490765649 -0.022370920488563473 0 0.0043663434953895878 -0.022542618107114516 0 0.0045203729411586674 -0.022446260132349381 0 0.0046336337505146312 -0.022547757793807355 0 0.0043663434953895878 -0.022542618107114516 0 0.0044261468490765649 -0.022370920488563473 0 0.0045203729411586674 -0.022446260132349381 0 0.0046894960186735267 -0.022356713948162278 0 0.0045203729411586674 -0.022446260132349381 0 0.0046894960186735267 -0.022356713948162278 0 0.0046336337505146312 -0.022547757793807355 0 0.0041518113376050117 -0.023218838725353248 0 0.0047846295563105821 -0.023078779619539993 0 0.0045265618658905556 -0.02282002134378357 0 0.0046894960186735267 -0.022356713948162278 0 0.0046336337505146312 -0.022547757793807355 0 0.0049971765256934765 -0.022768738097203343 0 0.0066080068640794031 -0.016310880112567545 0 0.0070510439377840335 -0.015581638379843665 0 0.0046336337505146312 -0.022547757793807355 0 0.0045265618658905556 -0.02282002134378357 0 0.0049971765256934765 -0.022768738097203343 0 0.0043663434953895878 -0.022542618107114516 0 0.0045265618658905556 -0.02282002134378357 0 0.0040645762889769789 -0.02266761274588654 0 0.0046336337505146312 -0.022547757793807355 0 0.0043663434953895878 -0.022542618107114516 0 0.0045265618658905556 -0.02282002134378357 0 0.0047846295563105821 -0.023078779619539993 0 0.0045265618658905556 -0.02282002134378357 0 0.0049971765256934765 -0.022768738097203343 0 0.0041518113376050117 -0.023218838725353248 0 0.0045265618658905556 -0.02282002134378357 0 0.0040645762889769789 -0.02266761274588654 0 0.0041518113376050117 -0.023218838725353248 0 0.0036704859835619817 -0.022725962203926781 0 0.002989668805348243 -0.022957582936438622 0 0.0041518113376050117 -0.023218838725353248 0 0.0036704859835619817 -0.022725962203926781 0 0.0040645762889769789 -0.02266761274588654 0 0.0039501658627914193 -0.02418968351645474 0 0.0028291139122149297 -0.022645353511002553 0 0.0032394544676530692 -0.023307299987716423 0 0.0029716967725647364 -0.023351008339546512 0 0.002989668805348243 -0.022957582936438622 0 0.0029716967725647364 -0.023351008339546512 0 0.002989668805348243 -0.022957582936438622 0 0.0026908919100417329 -0.023329455406126139 0 0.0024569786331195722 -0.023373506129153919 0 0.0026908919100417329 -0.023329455406126139 0 0.0024505257638051778 -0.02316643233539805 0 0.0024569786331195722 -0.023373506129153919 0 0.0024284286634969625 -0.023399155759011352 0 0.0024505257638051778 -0.02316643233539805 0 0.002989668805348243 -0.022957582936438622 0 0.0026908919100417329 -0.023329455406126139 0 0.0024505257638051778 -0.02316643233539805 0 0.002989668805348243 -0.022957582936438622 0 0.0024505257638051778 -0.02316643233539805 0 0.0028609173700766444 -0.022417043025351892 0 0.002361012909308644 -0.023537416396149931 0 0.0023227917579639944 -0.023660727053199812 0 0.0024505257638051778 -0.02316643233539805 0 0.002361012909308644 -0.023537416396149931 0 0.0024284286634969625 -0.023399155759011352 0 0.0024505257638051778 -0.02316643233539805 0 0.0024505257638051778 -0.02316643233539805 0 0.0026346145108646279 -0.021977902043301394 0 0.0028609173700766444 -0.022417043025351892 0 0.0022253891474772088 -0.022583270242467202 0 0.0024156973405429789 -0.023131271164107851 0 0.0020305716395557023 -0.021387113920736993 0 0.0024505257638051778 -0.02316643233539805 0 0.0026346145108646279 -0.021977902043301394 0 0.0030383491467657398 -0.021793611893979058 0 0.0026346145108646279 -0.021977902043301394 0 0.0028609173700766444 -0.022417043025351892 0 0.0030383491467657398 -0.021793611893979058 0 0.0033048614305659788 -0.0223096826119644 0 0.0028609173700766444 -0.022417043025351892 0 0.0030383491467657398 -0.021793611893979058 0 0.0036882529904815348 -0.021735970870118523 0 0.0033048614305659788 -0.0223096826119644 0 0.0036704859835619817 -0.022725962203926781 0 0.002989668805348243 -0.022957582936438622 0 0.0033048614305659788 -0.0223096826119644 0 0.002989668805348243 -0.022957582936438622 0 0.0033048614305659788 -0.0223096826119644 0 0.0028609173700766444 -0.022417043025351892 0 -6.1328414422935116e-09 -0.034999116416040671 0 0.00014325411827051471 -0.034794116653573341 0 0.00019609204271416015 -0.034523920008523563 0 3.1780660852039294e-07 -0.034999683623382072 0 1.7388338704775087e-05 -0.034997306046187608 0 0.00014325411827051471 -0.034794116653573341 0 0.00035350153507252821 -0.03456222721177675 0 0.00019609204271416015 -0.034523920008523563 0 -6.1328414422935116e-09 -0.034999116416040671 0 0.00014325411827051471 -0.034794116653573341 0 9.22719316077356e-08 -0.034999926033163264 0 0.00014325411827051471 -0.034794116653573341 0 9.22719316077356e-08 -0.034999926033163264 0 0.00010580037551477194 -0.034913430010700228 0 0.00010989041399810031 -0.035001932032992088 0 4.3391135248257455e-09 -0.035000097658602465 0 0.00010580037551477194 -0.034913430010700228 0 4.3391135248257455e-09 -0.035000097658602465 0 9.22719316077356e-08 -0.034999926033163264 0 0.00010580037551477194 -0.034913430010700228 0 0.00010989041399810031 -0.035001932032992088 0 0.00018290969428391487 -0.034993462601829922 0 0.00010580037551477194 -0.034913430010700228 0 0.00018290969428391487 -0.034993462601829922 0 0.00010580037551477194 -0.034913430010700228 0 0.00036849353431192485 -0.034679361538704989 0 0.00014325411827051471 -0.034794116653573341 0 0.00010580037551477194 -0.034913430010700228 0 0.00036849353431192485 -0.034679361538704989 0 0.00018290969428391487 -0.034993462601829922 0 0.00036849353431192485 -0.034679361538704989 0 0.00049292239442222895 -0.03483551156758137 0 0.00068387710969614545 -0.034162053799909733 0 0.00064835481944144739 -0.034131331637419424 0 0.00036849353431192485 -0.034679361538704989 0 0.00049292239442222895 -0.03483551156758137 0 0.00067259339268632538 -0.034402183257775179 0 0.00036849353431192485 -0.034679361538704989 0 0.00052045662137313435 -0.034422140351112553 0 0.00067259339268632538 -0.034402183257775179 0 0.00036849353431192485 -0.034679361538704989 0 0.00052045662137313435 -0.034422140351112553 0 0.00035350153507252821 -0.03456222721177675 0 0.00014325411827051471 -0.034794116653573341 0 0.00036849353431192485 -0.034679361538704989 0 0.00035350153507252821 -0.03456222721177675 0 0.00035350153507252821 -0.03456222721177675 0 0.00047726653315251791 -0.034411914513335286 0 0.00019609204271416015 -0.034523920008523563 0 0.00052045662137313435 -0.034422140351112553 0 0.00035350153507252821 -0.03456222721177675 0 0.00047726653315251791 -0.034411914513335286 0 0.00052045662137313435 -0.034422140351112553 0 0.00047726653315251791 -0.034411914513335286 0 0.00056132999206448899 -0.034391349560697337 0 0.00052045662137313435 -0.034422140351112553 0 0.00075851364473594198 -0.034084089333082448 0 0.00077011651851090874 -0.034259486605574367 0 0.00042197510145595176 -0.034763650231360591 0 0.00066247400779941815 -0.033158813667396377 0 0.00026327597988100104 -0.032895239824440786 0 0.00054685024764809657 -0.033189894696767648 0 0.00035761676650595246 -0.032787300346820446 0 0.00075851364473594198 -0.034084089333082448 0 0.00077011651851090874 -0.034259486605574367 0 0.00086662322290140454 -0.034177935008300381 0 0.00066247400779941815 -0.033158813667396377 0 0.00071471653952343928 -0.033722330555295763 0 0.00054685024764809657 -0.033189894696767648 0 0.00073579476571976278 -0.032966136193328298 0 0.00035761676650595246 -0.032787300346820446 0 0.00086066606049942042 -0.034225894685313819 0 0.00087595545696027776 -0.034086885552548629 0 0.00086662322290140454 -0.034177935008300381 0 0.00086066606049942042 -0.034225894685313819 0 0.00077011651851090874 -0.034259486605574367 0 0.00086662322290140454 -0.034177935008300381 0 0.00052045662137313435 -0.034422140351112553 0 0.00077011651851090874 -0.034259486605574367 0 0.00067259339268632538 -0.034402183257775179 0 0.00086066606049942042 -0.034225894685313819 0 0.00077011651851090874 -0.034259486605574367 0 0.00067259339268632538 -0.034402183257775179 0 0.00049292239442222895 -0.03483551156758137 0 0.00067259339268632538 -0.034402183257775179 0 0.00087529914919478821 -0.034319472723406755 0 0.00086066606049942042 -0.034225894685313819 0 0.00067259339268632538 -0.034402183257775179 0 0.00087529914919478821 -0.034319472723406755 0 0.00059026837825131571 -0.033238318524581201 0 0.00081290360872277999 -0.033400251497438173 0 0.00045425035697562122 -0.033477269020020461 0 0.00064835481944144739 -0.034131331637419424 0 0.00070025402860224642 -0.033916008194445332 0 0.00049292239442222895 -0.03483551156758137 0 0.00087529914919478821 -0.034319472723406755 0 0.00099326058197970134 -0.034574898771394046 0 0.00096906254564367122 -0.033635951112169431 0 0.00099600978886089258 -0.03391394043450064 0 0.00087900459152686857 -0.033812130896686117 0 0.00072117919525840359 -0.033675820701236828 0 0.00070025402860224642 -0.033916008194445332 0 0.00070025402860224642 -0.033916008194445332 0 0.00085878389120910001 -0.033907993806199098 0 0.00099600978886089258 -0.03391394043450064 0 0.00091256760790928658 -0.033942782597392723 0 0.00087900459152686857 -0.033812130896686117 0 0.00091256760790928658 -0.033942782597392723 0 0.00086306004891088502 -0.033873318430093897 0 0.00087900459152686857 -0.033812130896686117 0 0.00091256760790928658 -0.033942782597392723 0 0.00085116694565225267 -0.03392468800209817 0 0.00086306004891088502 -0.033873318430093897 0 0.00092997002258491768 -0.033997485006204566 0 0.00091256760790928658 -0.033942782597392723 0 0.00087595545696027776 -0.034086885552548629 0 0.00091256760790928658 -0.033942782597392723 0 0.00087595545696027776 -0.034086885552548629 0 0.00085116694565225267 -0.03392468800209817 0 0.00087529914919478821 -0.034319472723406755 0 0.00092997002258491768 -0.033997485006204566 0 0.00087595545696027776 -0.034086885552548629 0 0.00092542319590021172 -0.034372646235020073 0 0.00070025402860224642 -0.033916008194445332 0 0.00086066606049942042 -0.034225894685313819 0 0.00087529914919478821 -0.034319472723406755 0 0.00087595545696027776 -0.034086885552548629 0 0.00087595545696027776 -0.034086885552548629 0 0.00084648763159707308 -0.033894795295768977 0 0.00086662322290140454 -0.034177935008300381 0 0.00084648763159707308 -0.033894795295768977 0 0.0008821227227323779 -0.033566153982468393 0 0.00086662322290140454 -0.034177935008300381 0 0.00084648763159707308 -0.033894795295768977 0 0.00080811016560625637 -0.033828057694602343 0 0.0008821227227323779 -0.033566153982468393 0 0.00084648763159707308 -0.033894795295768977 0 0.00085116694565225267 -0.03392468800209817 0 0.00080811016560625637 -0.033828057694602343 0 0.00087595545696027776 -0.034086885552548629 0 0.00084648763159707308 -0.033894795295768977 0 0.00085116694565225267 -0.03392468800209817 0 0.00086306004891088502 -0.033873318430093897 0 0.00080811016560625637 -0.033828057694602343 0 0.00087900459152686857 -0.033812130896686117 0 0.00085116694565225267 -0.03392468800209817 0 0.00086306004891088502 -0.033873318430093897 0 0.00080811016560625637 -0.033828057694602343 0 0.00081458469506815953 -0.033734421905596036 0 0.00080811016560625637 -0.033828057694602343 0 0.00087900459152686857 -0.033812130896686117 0 0.00080811016560625637 -0.033828057694602343 0 0.00078587592886493582 -0.033821642159028671 0 0.0008821227227323779 -0.033566153982468393 0 0.00081458469506815953 -0.033734421905596036 0 0.00080811016560625637 -0.033828057694602343 0 0.00078587592886493582 -0.033821642159028671 0 0.00078587592886493582 -0.033821642159028671 0 0.0008821227227323779 -0.033566153982468393 0 0.00099987980359191042 -0.033440342986951831 0 0.00095967534091150075 -0.032508236693940457 0 0.0010090592959122976 -0.033382938903763822 0 0.0011761525149104691 -0.031480306353571207 0 0.00079972533351124796 -0.033301127216531487 0 0.00099987980359191042 -0.033440342986951831 0 0.0008821227227323779 -0.033566153982468393 0 0.00099987980359191042 -0.033440342986951831 0 0.00089783595182317294 -0.033322511782815423 0 0.00079972533351124796 -0.033301127216531487 0 0.00099987980359191042 -0.033440342986951831 0 0.00087894157617929357 -0.033315794264523295 0 0.00089783595182317294 -0.033322511782815423 0 0.00088721940276138681 -0.033241369888129181 0 0.00079610319033958865 -0.03318796715272937 0 0.0008821227227323779 -0.033566153982468393 0 0.00089783595182317294 -0.033322511782815423 0 0.00079610319033958865 -0.03318796715272937 0 0.00091445352734626244 -0.033202451482063772 0 0.00088721940276138681 -0.033241369888129181 0 0.00079610319033958865 -0.03318796715272937 0 0.00099987980359191042 -0.033440342986951831 0 0.00087894157617929357 -0.033315794264523295 0 0.00089783595182317294 -0.033322511782815423 0 0.00087894157617929357 -0.033315794264523295 0 0.00089783595182317294 -0.033322511782815423 0 0.00088721940276138681 -0.033241369888129181 0 0.0008794992615785783 -0.033598400964158344 0 0.00071471653952343928 -0.033722330555295763 0 0.0008821227227323779 -0.033566153982468393 0 0.00079610319033958865 -0.03318796715272937 0 0.00054685024764809657 -0.033189894696767648 0 0.00079610319033958865 -0.03318796715272937 0 0.00054685024764809657 -0.033189894696767648 0 0.00073579476571976278 -0.032966136193328298 0 0.0017236970251757629 -0.028363365442557652 0 0.0016950360323351025 -0.028492664048377608 0 0.002548642672042167 -0.023574377401264071 0 0.0027203800978599546 -0.023661002371088546 0 0.0026189858251704392 -0.023691809143816099 0 0.00091445352734626244 -0.033202451482063772 0 0.00079610319033958865 -0.03318796715272937 0 0.00073579476571976278 -0.032966136193328298 0 0.0027203800978599546 -0.023661002371088546 0 0.0026189858251704392 -0.023691809143816099 0 0.0027308934569064756 -0.023729808318242264 0 0.0026189858251704392 -0.023691809143816099 0 0.0027308934569064756 -0.023729808318242264 0 0.0026842173589724963 -0.023786707306489713 0 0.0027203800978599546 -0.023661002371088546 0 0.0027308934569064756 -0.023729808318242264 0 0.0028328436241439677 -0.023739138925479623 0 0.0027308934569064756 -0.023729808318242264 0 0.0027824774293464315 -0.023790399551242441 0 0.0028328436241439677 -0.023739138925479623 0 0.0027824774293464315 -0.023790399551242441 0 0.0026842173589724963 -0.023786707306489713 0 0.0026822567748861193 -0.023861734422183974 0 0.0027308934569064756 -0.023729808318242264 0 0.0027824774293464315 -0.023790399551242441 0 0.0026842173589724963 -0.023786707306489713 0 0.0026159570490027805 -0.023820501498270429 0 0.0026189858251704392 -0.023691809143816099 0 0.0026842173589724963 -0.023786707306489713 0 0.0026159570490027805 -0.023820501498270429 0 0.0026842173589724963 -0.023786707306489713 0 0.0026822567748861193 -0.023861734422183974 0 0.0026886733602885429 -0.02397367586232212 0 0.0026969762547646029 -0.023949007010028927 0 0.0026534120950144438 -0.024048185073819138 0 0.0026159570490027805 -0.023820501498270429 0 0.0026822567748861193 -0.023861734422183974 0 0.0026631011213488227 -0.023914423666956536 0 0.002750846895552609 -0.023930744931173236 0 0.0028147540567015463 -0.024024606512287949 0 0.0026969762547646029 -0.023949007010028927 0 0.0028843973197902454 -0.024052777941922555 0 0.0031498250485417689 -0.023834494471123999 0 0.0026822567748861193 -0.023861734422183974 0 0.0026886733602885429 -0.02397367586232212 0 0.0026631011213488227 -0.023914423666956536 0 0.0026218263947030617 -0.023921965111586205 0 0.0026631011213488227 -0.023914423666956536 0 0.0026969762547646029 -0.023949007010028927 0 0.0026886733602885429 -0.02397367586232212 0 0.0026631011213488227 -0.023914423666956536 0 0.0026969762547646029 -0.023949007010028927 0 0.0026969762547646029 -0.023949007010028927 0 0.0028843973197902454 -0.024052777941922555 0 0.0026629877843284372 -0.024127889208383397 0 0.0028843973197902454 -0.024052777941922555 0 0.0026629877843284372 -0.024127889208383397 0 0.0028312068653025368 -0.024259294573999505 0 0.0028843973197902454 -0.024052777941922555 0 0.0030711086779543085 -0.024108553899482923 0 0.0031498250485417689 -0.023834494471123999 0 0.0030711086779543085 -0.024108553899482923 0 0.0031498250485417689 -0.023834494471123999 0 0.0033359494238466608 -0.024110008163866159 0 0.0030711086779543085 -0.024108553899482923 0 0.0033359494238466608 -0.024110008163866159 0 0.0032106542785946563 -0.024313782991069642 0 0.0028843973197902454 -0.024052777941922555 0 0.0030711086779543085 -0.024108553899482923 0 0.0028312068653025368 -0.024259294573999505 0 0.0027824774293464315 -0.023790399551242441 0 0.0026822567748861193 -0.023861734422183974 0 0.0026886733602885429 -0.02397367586232212 0 0.0029922690226607692 -0.023476931973915111 0 0.0025476256487615479 -0.024192457909491667 0 0.0026519507704712681 -0.024227033652746473 0 0.0026886733602885429 -0.02397367586232212 0 0.0026534120950144438 -0.024048185073819138 0 0.0031498250485417689 -0.023834494471123999 0 0.0033359494238466608 -0.024110008163866159 0 0.0035840832620014323 -0.023995060034295985 0 0.0028147540567015463 -0.024024606512287949 0 0.003202861844747551 -0.023434556488297804 0 0.0031498250485417689 -0.023834494471123999 0 0.0035840832620014323 -0.023995060034295985 0 0.0035795155479457549 -0.023712185768160938 0 0.0033359494238466608 -0.024110008163866159 0 0.0035840832620014323 -0.023995060034295985 0 0.0035961414143546948 -0.024310996319536104 0 0.0033359494238466608 -0.024110008163866159 0 0.0035961414143546948 -0.024310996319536104 0 0.0032106542785946563 -0.024313782991069642 0 0.0039304186563506021 -0.024141262890572102 0 0.0035696852645463275 -0.02448755508721533 0 0.0035840832620014323 -0.023995060034295985 0 0.0039501210889384079 -0.024129947514122833 0 0.0035961414143546948 -0.024310996319536104 0 0.0035840832620014323 -0.023995060034295985 0 0.0039378674248861855 -0.023807264061927916 0 0.0039501210889384079 -0.024129947514122833 0 0.0035840832620014323 -0.023995060034295985 0 0.0035795155479457549 -0.023712185768160938 0 0.0039378674248861855 -0.023807264061927916 0 0.003202861844747551 -0.023434556488297804 0 0.0025476215923390714 -0.027888835724463525 0 0.0026519507704712681 -0.024227033652746473 0 0.0023283188729476649 -0.024223850276272649 0 0.0023881166734909557 -0.024613787774261972 0 0.0026519507704712681 -0.024227033652746473 0 0.0026534120950144438 -0.024048185073819138 0 0.0023283188729476649 -0.024223850276272649 0 0.0016950360323351025 -0.028492664048377608 0 0.0018661516894281169 -0.026967219358934657 0 0.0029922690226607692 -0.023476931973915111 0 0.0018661516894281169 -0.026967219358934657 0 0.00066247400779941815 -0.033158813667396377 0 0.0017692789024348595 -0.028950283824994462 0 0.00066247400779941815 -0.033158813667396377 0 0.0018661516894281169 -0.026967219358934657 0 0.0018661516894281169 -0.026967219358934657 0 0.0017692789024348595 -0.028950283824994462 0 0.0023283188729476649 -0.024223850276272649 0 0.0023881166734909557 -0.024613787774261972 0 0.0019597867764509949 -0.024501345344479921 0 0.0014574267184358325 -0.029407221418575966 0 0.0014803541470132648 -0.029374813033437572 0 0.0014033826508731801 -0.02934794622166538 0 0.00047726653315251791 -0.034411914513335286 0 0.00056132999206448899 -0.034391349560697337 0 0.00048979658799195398 -0.034285255190567299 0 0.00047726653315251791 -0.034411914513335286 0 0.00043407612385909045 -0.034286439650533011 0 0.00048979658799195398 -0.034285255190567299 0 0.0020639764328741028 -0.028555043115839319 0 0.0021175251521024312 -0.028529487449520739 0 0.0023069128074270765 -0.028593891732254812 0 0.0015788410367257712 -0.03012338076608535 0 0.0008646429365642464 -0.030465624049674095 0 0.0018199241091102351 -0.030790747014419424 0 0.0016556184180145934 -0.029612184044470958 0 0.0014515421318419895 -0.031155103337757659 0 0.00056503899594425124 -0.032956034331907053 0 0.0016556184180145934 -0.029612184044470958 0 0.00043407612385909045 -0.034286439650533011 0 0.00046287464542367647 -0.034272207303696643 0 0.00048979658799195398 -0.034285255190567299 0 0.0025476215923390714 -0.027888835724463525 0 0.0016556184180145934 -0.029612184044470958 0 0.0025476215923390714 -0.027888835724463525 0 0.0017692789024348595 -0.028950283824994462 0 0.0016556184180145934 -0.029612184044470958 0 0.0017692789024348595 -0.028950283824994462 0 0.0022060095893948889 -0.030021481970181795 0 0.002786575329468746 -0.029741717060021641 0 0.0012747883770342812 -0.029228840138750663 0 0.00062035415727928946 -0.034755085968594342 0 0.00056503899594425124 -0.032956034331907053 0 0.00015579684086186352 -0.034935487788815694 0 7.3944088337331396e-05 -0.03494590185555712 0 3.2904387477241057e-05 -0.035000223077632321 0 0.00056503899594425124 -0.032956034331907053 0 1.7388338704775087e-05 -0.034997306046187608 0 0.00047726653315251791 -0.034411914513335286 0 0.00042302541945518586 -0.03430479350988308 0 0.00019609204271416015 -0.034523920008523563 0 0.00015579684086186352 -0.034935487788815694 0 0.00014935051483720146 -0.034916977353135738 0 7.3944088337331396e-05 -0.03494590185555712 0 0.00056503899594425124 -0.032956034331907053 0 0.0014515421318419895 -0.031155103337757659 0 0.0019915824529519194 -0.030403076678408698 0 0.0014264696447601282 -0.029920983822339303 0 0.0003967924427695699 -0.030273161390452254 0 0.0014515421318419895 -0.031155103337757659 0 0.0001452992835801217 -0.033484511456734721 0 0.0021490476199708562 -0.030846350931133821 0 0.0019915824529519194 -0.030403076678408698 0 0.0003967924427695699 -0.030273161390452254 0 0.00014935051483720146 -0.034916977353135738 0 2.7741538119155973e-05 -0.034901199352617936 0 7.3944088337331396e-05 -0.03494590185555712 0 0.0014515421318419895 -0.031155103337757659 0 0.002153104182996482 -0.028053158790564123 0 0.002153104182996482 -0.028053158790564123 0 0.0021140326031573757 -0.029697335008240868 0 0.0042278646721381936 -0.023675069546786241 0 0.0040831853338189868 -0.023739687685706126 0 0.0041437508428701277 -0.023961277309407444 0 0.0040831853338189868 -0.023739687685706126 0 0.0039378674248861855 -0.023807264061927916 0 0.0041437508428701277 -0.023961277309407444 0 0.0035795155479457549 -0.023712185768160938 0 0.0040315984135917736 -0.023535823302231775 0 0.0039378674248861855 -0.023807264061927916 0 0.0040315984135917736 -0.023535823302231775 0 0.0040831853338189868 -0.023739687685706126 0 0.0039378674248861855 -0.023807264061927916 0 0.0023283188729476649 -0.024223850276272649 0 0.0019184127437845077 -0.024468973259466502 0 0.0019597867764509949 -0.024501345344479921 0 0.0040315984135917736 -0.023535823302231775 0 0.0042278646721381936 -0.023675069546786241 0 0.0040831853338189868 -0.023739687685706126 0 0.0020639764328741028 -0.028555043115839319 0 0.0023069128074270765 -0.028593891732254812 0 0.0023954604926801739 -0.028832332796019985 0 0.0025476215923390714 -0.027888835724463525 0 0.002153104182996482 -0.028053158790564123 0 0.0039378674248861855 -0.023807264061927916 0 0.0041437508428701277 -0.023961277309407444 0 0.0039501210889384079 -0.024129947514122833 0 0.0041437508428701277 -0.023961277309407444 0 0.0039501210889384079 -0.024129947514122833 0 0.0042270115025479236 -0.024271879432441554 0 0.0039501210889384079 -0.024129947514122833 0 0.0040660932811180514 -0.024575498269682812 0 0.0035124583253623013 -0.024677141678279946 0 0.0039501210889384079 -0.024129947514122833 0 0.0040660932811180514 -0.024575498269682812 0 0.0042270115025479236 -0.024271879432441554 0 0.0040660932811180514 -0.024575498269682812 0 0.0044678907102864308 -0.024465496391179141 0 0.0042270115025479236 -0.024271879432441554 0 0.0028004494021422579 -0.030749731738995239 0 0.0026777626326542291 -0.030972380485857976 0 0.002573537301556576 -0.030683742159504986 0 0.0044678907102864308 -0.024465496391179141 0 0.0042270115025479236 -0.024271879432441554 0 0.0044927730517063382 -0.024235780018599339 0 0.0032345272626301239 -0.027794755068333617 0 0.0022515999330651941 -0.027439104359366362 0 0.0027919636954362947 -0.027962739111745401 0 0.002525974662980181 -0.02846401774480755 0 0.002609388481077704 -0.028704418451625767 0 0.0032345272626301239 -0.027794755068333617 0 0.0020946364479599269 -0.029544756328554654 0 0.0020946364479599269 -0.029544756328554654 0 0.0017056408356189879 -0.033414323879322562 0 0.0020946364479599269 -0.029544756328554654 0 0.0022515999330651941 -0.027439104359366362 0 0.0014264696447601282 -0.029920983822339303 0 0.001407383163148481 -0.028748156547381665 0 0.0012503699769930128 -0.029419162322370424 0 0.0042278646721381936 -0.023675069546786241 0 0.0041437508428701277 -0.023961277309407444 0 0.0044927730517063382 -0.024235780018599339 0 0.0013402295756579767 -0.028555573924671809 0 0.0014083474776902946 -0.028746906479423965 0 0.0012503699769930128 -0.029419162322370424 0 0.001987264572333643 -0.030391742018101565 0 0.0014264696447601282 -0.029920983822339303 0 0.001407383163148481 -0.028748156547381665 0 0.002153104182996482 -0.028053158790564123 0 0.0022515999330651941 -0.027439104359366362 0 0.0022515999330651941 -0.027439104359366362 0 0.0014599739368238722 -0.029434455119208478 0 0.0041437508428701277 -0.023961277309407444 0 0.0042270115025479236 -0.024271879432441554 0 0.0044927730517063382 -0.024235780018599339 0 0.0014725291890947698 -0.031977675918580056 0 0.00097327395090390355 -0.032489191662577563 0 0.0006297499488000139 -0.033449541482845895 0 0.00023517523439560103 -0.035075725415363745 0 9.2116856799402081e-05 -0.035027989379671311 0 0.00014928967989150129 -0.035127367354351687 0 0.0013402295756579767 -0.028555573924671809 0 0.0012503699769930128 -0.029419162322370424 0 0.0003967924427695699 -0.030273161390452254 0 0.0020946364479599269 -0.029544756328554654 0 0.0001452992835801217 -0.033484511456734721 0 0.00058208348235730108 -0.033896798684809354 0 0.0001452992835801217 -0.033484511456734721 0 0.00023517523439560103 -0.035075725415363745 0 0.00025143589210870906 -0.035008779716837551 0 9.2116856799402081e-05 -0.035027989379671311 0 0.0014725291890947698 -0.031977675918580056 0 0.00097327395090390355 -0.032489191662577563 0 0.0013172371315187997 -0.031533558569915222 0 0.00023517523439560103 -0.035075725415363745 0 0.00025143589210870906 -0.035008779716837551 0 0.00053272000477025362 -0.034983548619247906 0 0.00058208348235730108 -0.033896798684809354 0 0.0017056408356189879 -0.033414323879322562 0 0.00025143589210870906 -0.035008779716837551 0 6.4345781993838331e-05 -0.034953995332583213 0 9.2116856799402081e-05 -0.035027989379671311 0 0.00025143589210870906 -0.035008779716837551 0 6.4345781993838331e-05 -0.034953995332583213 0 0.00037456908963690516 -0.034816465000180749 0 0.00025143589210870906 -0.035008779716837551 0 0.00053272000477025362 -0.034983548619247906 0 0.00037456908963690516 -0.034816465000180749 0 -3.3447567361894533e-07 -0.034999254279722114 0 6.4345781993838331e-05 -0.034953995332583213 0 9.2116856799402081e-05 -0.035027989379671311 0 -3.3447567361894533e-07 -0.034999254279722114 0 3.1734145920774865e-07 -0.035000673885881128 0 9.2116856799402081e-05 -0.035027989379671311 0 3.1734145920774865e-07 -0.035000673885881128 0 9.2116856799402081e-05 -0.035027989379671311 0 0.00014928967989150129 -0.035127367354351687 0 4.1271199900020349e-07 -0.035000504137956891 0 0.0001452992835801217 -0.033484511456734721 0 1.7602062080408895e-08 -0.034999987825746155 0 7.0201233190633076e-06 -0.034977304435364183 0 1.195806736389906e-05 -0.034974411735351527 0 1.7602062080408895e-08 -0.034999987825746155 0 -1.1016799550699034e-08 -0.034999945655094282 0 1.195806736389906e-05 -0.034974411735351527 0 0.0014264696447601282 -0.029920983822339303 0 0.0012503699769930128 -0.029419162322370424 0 0.0003967924427695699 -0.030273161390452254 0 0.0001452992835801217 -0.033484511456734721 0 -0.00020250933186439658 -0.035127716815296438 0 2.7741538119155973e-05 -0.034901199352617936 0 7.3944088337331396e-05 -0.03494590185555712 0 1.195806736389906e-05 -0.034974411735351527 0 7.3944088337331396e-05 -0.03494590185555712 0 3.2904387477241057e-05 -0.035000223077632321 0 1.195806736389906e-05 -0.034974411735351527 0 3.2904387477241057e-05 -0.035000223077632321 0 -1.1016799550699034e-08 -0.034999945655094282 0 1.195806736389906e-05 -0.034974411735351527 0 1.5322397607756957e-08 -0.035000051880816951 0 3.2904387477241057e-05 -0.035000223077632321 0 -1.1016799550699034e-08 -0.034999945655094282 0 -4.5163132184868773e-08 -0.035000126551448615 0 -5.8078658158391321e-05 -0.035039331764926546 0 6.5148542191630447e-06 -0.034990543235345416 0 -0.000328654889958532 -0.028454591635417172 0 -0.0012545877314137294 -0.030073344415970555 0 -0.0011920569217705671 -0.026414413910180064 0 -0.00072820773056640037 -0.032279097769279133 0 0.00029131883676892221 -0.031941340291914665 0 -5.2366295391261263e-05 -0.027078129292481337 0 -0.000328654889958532 -0.028454591635417172 0 -0.0011920569217705671 -0.026414413910180064 0 -5.2366295391261263e-05 -0.027078129292481337 0 0.001069742161782001 -0.027004046812176889 0 0.00085494586874328474 -0.027687240341966006 0 -5.2366295391261263e-05 -0.027078129292481337 0 0.00085494586874328474 -0.027687240341966006 0 0.00014813983896039094 -0.028042324326251561 0 0.001069742161782001 -0.027004046812176889 0 0.00085494586874328474 -0.027687240341966006 0 0.0019113155689876168 -0.027366742823199706 0 0.001069742161782001 -0.027004046812176889 0 0.0019113155689876168 -0.027366742823199706 0 0.0017212551653342407 -0.025981059362413329 0 0.00085494586874328474 -0.027687240341966006 0 0.0014938981936840879 -0.028198582791655678 0 0.0019113155689876168 -0.027366742823199706 0 0.00085494586874328474 -0.027687240341966006 0 0.0014938981936840879 -0.028198582791655678 0 0.00062088143280504158 -0.028457730603379434 0 0.0014938981936840879 -0.028198582791655678 0 0.00062088143280504158 -0.028457730603379434 0 0.0011993243267382661 -0.02886475655352216 0 -5.2366295391261263e-05 -0.027078129292481337 0 0.00014813983896039094 -0.028042324326251561 0 -0.000328654889958532 -0.028454591635417172 0 0.00085494586874328474 -0.027687240341966006 0 0.00014813983896039094 -0.028042324326251561 0 0.00062088143280504158 -0.028457730603379434 0 0.00062088143280504158 -0.028457730603379434 0 -0.000328654889958532 -0.028454591635417172 0 0.00045443144454335746 -0.029251658209602068 0 0.00014813983896039094 -0.028042324326251561 0 0.00062088143280504158 -0.028457730603379434 0 -0.000328654889958532 -0.028454591635417172 0 -0.000328654889958532 -0.028454591635417172 0 0.00045443144454335746 -0.029251658209602068 0 -0.0012545877314137294 -0.030073344415970555 0 0.00045443144454335746 -0.029251658209602068 0 0.00065818160040152112 -0.030340445426956811 0 -0.0012545877314137294 -0.030073344415970555 0 0.0011993243267382661 -0.02886475655352216 0 0.0014837576638398165 -0.029645982145796172 0 0.0019125609913350013 -0.028815038439160525 0 0.0014938981936840879 -0.028198582791655678 0 0.0011993243267382661 -0.02886475655352216 0 0.0019125609913350013 -0.028815038439160525 0 0.00062088143280504158 -0.028457730603379434 0 0.00045443144454335746 -0.029251658209602068 0 0.0011993243267382661 -0.02886475655352216 0 0.00045443144454335746 -0.029251658209602068 0 0.0011993243267382661 -0.02886475655352216 0 0.0014837576638398165 -0.029645982145796172 0 0.00045443144454335746 -0.029251658209602068 0 0.0014837576638398165 -0.029645982145796172 0 0.00065818160040152112 -0.030340445426956811 0 0.0015259182943102739 -0.030867641782618031 0 0.00065818160040152112 -0.030340445426956811 0 0.0010203513412828046 -0.031907776298798547 0 0.0014837576638398165 -0.029645982145796172 0 0.0015259182943102739 -0.030867641782618031 0 0.0020434026192535279 -0.03017219447106172 0 0.0014837576638398165 -0.029645982145796172 0 0.0015259182943102739 -0.030867641782618031 0 0.00065818160040152112 -0.030340445426956811 0 0.00065818160040152112 -0.030340445426956811 0 -0.0012545877314137294 -0.030073344415970555 0 0.0010203513412828046 -0.031907776298798547 0 -4.5163132184868773e-08 -0.035000126551448615 0 -5.8078658158391321e-05 -0.035039331764926546 0 -3.8328247841082912e-08 -0.034999739472990649 0 -5.8078658158391321e-05 -0.035039331764926546 0 -3.8328247841082912e-08 -0.034999739472990649 0 -0.00028870127492643366 -0.034613574833534763 0 -0.0012545877314137294 -0.030073344415970555 0 -0.00028870127492643366 -0.034613574833534763 0 0.00035322227965554182 -0.033067167983448192 0 -0.00072820773056640037 -0.032279097769279133 0 -0.00032153230002536504 -0.034569052978052239 0 -3.3447567361894533e-07 -0.034999254279722114 0 -3.8328247841082912e-08 -0.034999739472990649 0 -0.00028870127492643366 -0.034613574833534763 0 -3.3447567361894533e-07 -0.034999254279722114 0 6.4345781993838331e-05 -0.034953995332583213 0 -0.00028870127492643366 -0.034613574833534763 0 0.0017056408356189879 -0.033414323879322562 0 0.0010347326219880104 -0.035073265341644427 0 0.00053272000477025362 -0.034983548619247906 0 0.00037456908963690516 -0.034816465000180749 0 0.00080766948513207731 -0.034266690702521523 0 0.0017186780503223758 -0.036804733534341189 0 0.00080766948513207731 -0.034266690702521523 0 0.0019325501371378806 -0.033883810896309874 0 6.4345781993838331e-05 -0.034953995332583213 0 -0.00028870127492643366 -0.034613574833534763 0 0.00037456908963690516 -0.034816465000180749 0 -0.00028870127492643366 -0.034613574833534763 0 0.00080766948513207731 -0.034266690702521523 0 0.00035322227965554182 -0.033067167983448192 0 -0.00028870127492643366 -0.034613574833534763 0 0.00037456908963690516 -0.034816465000180749 0 0.00080766948513207731 -0.034266690702521523 0 0.00080766948513207731 -0.034266690702521523 0 0.0014585123391908945 -0.033072736640517346 0 0.0019325501371378806 -0.033883810896309874 0 0.00080766948513207731 -0.034266690702521523 0 0.0014585123391908945 -0.033072736640517346 0 0.00035322227965554182 -0.033067167983448192 0 -0.0012545877314137294 -0.030073344415970555 0 0.00035322227965554182 -0.033067167983448192 0 0.0010203513412828046 -0.031907776298798547 0 0.0014585123391908945 -0.033072736640517346 0 0.00035322227965554182 -0.033067167983448192 0 0.0010203513412828046 -0.031907776298798547 0 0.0014585123391908945 -0.033072736640517346 0 0.0010203513412828046 -0.031907776298798547 0 0.0019994931095866464 -0.032087120858687139 0 0.0015259182943102739 -0.030867641782618031 0 0.0010203513412828046 -0.031907776298798547 0 0.0019994931095866464 -0.032087120858687139 0 0.0015259182943102739 -0.030867641782618031 0 0.0019994931095866464 -0.032087120858687139 0 0.0023636464715825287 -0.030912914270676498 0 0.0026420918045346803 -0.031693253067921409 0 0.0019994931095866464 -0.032087120858687139 0 0.0023636464715825287 -0.030912914270676498 0 0.0028197532758865041 -0.03118046596229436 0 0.0026420918045346803 -0.031693253067921409 0 0.0023636464715825287 -0.030912914270676498 0 0.0028197532758865041 -0.03118046596229436 0 0.0026420918045346803 -0.031693253067921409 0 0.0032378642718798494 -0.032440919199507 0 0.0025169662453883666 -0.032239687883241927 0 0.0026420918045346803 -0.031693253067921409 0 0.0032378642718798494 -0.032440919199507 0 0.0025169662453883666 -0.032239687883241927 0 0.0026420918045346803 -0.031693253067921409 0 0.0019994931095866464 -0.032087120858687139 0 0.0028197532758865041 -0.03118046596229436 0 0.0032378642718798494 -0.032440919199507 0 0.0029402418662757245 -0.030647544738691319 0 0.0032378642718798494 -0.032440919199507 0 0.002237262355651149 -0.032757388979350967 0 0.0019325501371378806 -0.033883810896309874 0 0.0025169662453883666 -0.032239687883241927 0 0.0019994931095866464 -0.032087120858687139 0 0.002237262355651149 -0.032757388979350967 0 0.0014585123391908945 -0.033072736640517346 0 0.0019994931095866464 -0.032087120858687139 0 0.002237262355651149 -0.032757388979350967 0 0.0025169662453883666 -0.032239687883241927 0 0.0032378642718798494 -0.032440919199507 0 0.002237262355651149 -0.032757388979350967 0 0.0014585123391908945 -0.033072736640517346 0 0.002237262355651149 -0.032757388979350967 0 0.0019325501371378806 -0.033883810896309874 0 0.0032345272626301239 -0.027794755068333617 0 0.0040678032094688676 -0.026029053567644168 0 0.0028004494021422579 -0.030749731738995239 0 0.002573537301556576 -0.030683742159504986 0 0.0029548374761649491 -0.029625607768512086 0 0.0034782685963740821 -0.027823220414956721 0 0.0035259640435863593 -0.027660445739354993 0 0.0035503618245630707 -0.02770482912030579 0 0.0028004494021422579 -0.030749731738995239 0 0.0030873429528000171 -0.02965243262506962 0 0.0029548374761649491 -0.029625607768512086 0 0.0040660932811180514 -0.024575498269682812 0 0.0044678907102864308 -0.024465496391179141 0 0.0042523864631747515 -0.025023174430364271 0 0.0032345272626301239 -0.027794755068333617 0 0.0032638236377624565 -0.02896350534701405 0 0.0017056408356189879 -0.033414323879322562 0 0.003087715309124368 -0.03110065970082812 0 0.0017186780503223758 -0.036804733534341189 0 0.0032378642718798494 -0.032440919199507 0 0.0019325501371378806 -0.033883810896309874 0 0.0039636926848897677 -0.024882466398377469 0 0.0042523864631747515 -0.025023174430364271 0 0.0037646810581620969 -0.025117678661552244 0 0.0040660932811180514 -0.024575498269682812 0 0.0039636926848897677 -0.024882466398377469 0 0.0042523864631747515 -0.025023174430364271 0 0.0040660932811180514 -0.024575498269682812 0 0.0039636926848897677 -0.024882466398377469 0 0.0035124583253623013 -0.024677141678279946 0 0.0035259640435863593 -0.027660445739354993 0 0.0035503618245630707 -0.02770482912030579 0 0.0036332412273301991 -0.027567289988341442 0 0.0042523864631747515 -0.025023174430364271 0 0.0040566825588863216 -0.025612373680408546 0 0.0037646810581620969 -0.025117678661552244 0 0.0040678032094688676 -0.026029053567644168 0 0.0037836897814173889 -0.026658513491833222 0 0.0035259640435863593 -0.027660445739354993 0 0.0036332412273301991 -0.027567289988341442 0 0.0035453415983658148 -0.027446102075374582 0 0.0036332412273301991 -0.027567289988341442 0 0.0036061927556188971 -0.02705058358267726 0 0.0035453415983658148 -0.027446102075374582 0 0.0032378642718798494 -0.032440919199507 0 0.0031895217867307199 -0.029646181105314799 0 0.0035453415983658148 -0.027446102075374582 0 0.0030873429528000171 -0.02965243262506962 0 0.0029548374761649491 -0.029625607768512086 0 0.0033943908932602455 -0.028414559216527271 0 0.0032638236377624565 -0.02896350534701405 0 0.0034909765643847956 -0.02797266693491577 0 0.003087715309124368 -0.03110065970082812 0 0.0034909765643847956 -0.02797266693491577 0 0.0032378642718798494 -0.032440919199507 0 0.0029402418662757245 -0.030647544738691319 0 0.0031895217867307199 -0.029646181105314799 0 0.0028197532758865041 -0.03118046596229436 0 0.0029402418662757245 -0.030647544738691319 0 0.0026892853449345775 -0.030719083917038665 0 0.0029402418662757245 -0.030647544738691319 0 0.0028919721759028258 -0.030027882287342628 0 0.0026334975242301361 -0.030141903089730148 0 0.0029402418662757245 -0.030647544738691319 0 0.0028919721759028258 -0.030027882287342628 0 0.0031895217867307199 -0.029646181105314799 0 0.0028919721759028258 -0.030027882287342628 0 0.0028018491805317791 -0.029682876358770448 0 0.0026334975242301361 -0.030141903089730148 0 0.0028919721759028258 -0.030027882287342628 0 0.0028018491805317791 -0.029682876358770448 0 0.0031895217867307199 -0.029646181105314799 0 0.0015259182943102739 -0.030867641782618031 0 0.0023636464715825287 -0.030912914270676498 0 0.0020434026192535279 -0.03017219447106172 0 0.0023636464715825287 -0.030912914270676498 0 0.0026334975242301361 -0.030141903089730148 0 0.0020434026192535279 -0.03017219447106172 0 0.0023636464715825287 -0.030912914270676498 0 0.0026892853449345775 -0.030719083917038665 0 0.0026334975242301361 -0.030141903089730148 0 0.0028197532758865041 -0.03118046596229436 0 0.0023636464715825287 -0.030912914270676498 0 0.0026892853449345775 -0.030719083917038665 0 0.0029402418662757245 -0.030647544738691319 0 0.0026892853449345775 -0.030719083917038665 0 0.0026334975242301361 -0.030141903089730148 0 0.0026334975242301361 -0.030141903089730148 0 0.0020434026192535279 -0.03017219447106172 0 0.0023790640962932487 -0.029413847228762474 0 0.0028018491805317791 -0.029682876358770448 0 0.0026334975242301361 -0.030141903089730148 0 0.0023790640962932487 -0.029413847228762474 0 0.0014837576638398165 -0.029645982145796172 0 0.0020434026192535279 -0.03017219447106172 0 0.0023790640962932487 -0.029413847228762474 0 0.0014837576638398165 -0.029645982145796172 0 0.0023790640962932487 -0.029413847228762474 0 0.0019125609913350013 -0.028815038439160525 0 0.0023790640962932487 -0.029413847228762474 0 0.0025486638191605424 -0.028712457358933623 0 0.0027959149023856814 -0.02923453212937667 0 0.0023790640962932487 -0.029413847228762474 0 0.0025486638191605424 -0.028712457358933623 0 0.0019125609913350013 -0.028815038439160525 0 0.0025486638191605424 -0.028712457358933623 0 0.0019125609913350013 -0.028815038439160525 0 0.0023880414268541475 -0.02807653038009477 0 0.0031895217867307199 -0.029646181105314799 0 0.0031366803707510052 -0.028214643767798062 0 0.0035453415983658148 -0.027446102075374582 0 0.0031895217867307199 -0.029646181105314799 0 0.0029688859150116468 -0.028698734887120238 0 0.0031366803707510052 -0.028214643767798062 0 0.0031895217867307199 -0.029646181105314799 0 0.0027959149023856814 -0.02923453212937667 0 0.0029688859150116468 -0.028698734887120238 0 0.0028018491805317791 -0.029682876358770448 0 0.0031895217867307199 -0.029646181105314799 0 0.0027959149023856814 -0.02923453212937667 0 0.0028018491805317791 -0.029682876358770448 0 0.0023790640962932487 -0.029413847228762474 0 0.0027959149023856814 -0.02923453212937667 0 0.0025486638191605424 -0.028712457358933623 0 0.0027959149023856814 -0.02923453212937667 0 0.0029688859150116468 -0.028698734887120238 0 0.0025486638191605424 -0.028712457358933623 0 0.0029688859150116468 -0.028698734887120238 0 0.0027619752219301664 -0.028213275027478044 0 0.0029688859150116468 -0.028698734887120238 0 0.0031366803707510052 -0.028214643767798062 0 0.0027619752219301664 -0.028213275027478044 0 0.0031366803707510052 -0.028214643767798062 0 0.0030060810897503346 -0.027795046944127277 0 0.0032981882923742503 -0.027642285978488969 0 0.0031366803707510052 -0.028214643767798062 0 0.0030060810897503346 -0.027795046944127277 0 0.0027619752219301664 -0.028213275027478044 0 0.0025486638191605424 -0.028712457358933623 0 0.0027619752219301664 -0.028213275027478044 0 0.0023880414268541475 -0.02807653038009477 0 0.0027619752219301664 -0.028213275027478044 0 0.0027094750579488964 -0.027531428674281586 0 0.0023880414268541475 -0.02807653038009477 0 0.0030060810897503346 -0.027795046944127277 0 0.0027619752219301664 -0.028213275027478044 0 0.0027094750579488964 -0.027531428674281586 0 0.0030060810897503346 -0.027795046944127277 0 0.0027094750579488964 -0.027531428674281586 0 0.0032107505348004961 -0.027232981359707333 0 0.0030060810897503346 -0.027795046944127277 0 0.0032107505348004961 -0.027232981359707333 0 0.0032981882923742503 -0.027642285978488969 0 0.0014938981936840879 -0.028198582791655678 0 0.0019125609913350013 -0.028815038439160525 0 0.0023880414268541475 -0.02807653038009477 0 0.0027094750579488964 -0.027531428674281586 0 0.0023880414268541475 -0.02807653038009477 0 0.0019113155689876168 -0.027366742823199706 0 0.0014938981936840879 -0.028198582791655678 0 0.0023880414268541475 -0.02807653038009477 0 0.0019113155689876168 -0.027366742823199706 0 0.0027094750579488964 -0.027531428674281586 0 0.0028601486623718898 -0.026764586240518768 0 0.0032107505348004961 -0.027232981359707333 0 0.0027094750579488964 -0.027531428674281586 0 0.0019113155689876168 -0.027366742823199706 0 0.0028601486623718898 -0.026764586240518768 0 0.0036332412273301991 -0.027567289988341442 0 0.0036061927556188971 -0.02705058358267726 0 0.0037259209356062003 -0.026524688095532614 0 0.0028601486623718898 -0.026764586240518768 0 0.0032107505348004961 -0.027232981359707333 0 0.0035752979549946479 -0.026690687217401459 0 0.0032107505348004961 -0.027232981359707333 0 0.003509088575316472 -0.027040214690328662 0 0.0035752979549946479 -0.026690687217401459 0 0.0035752979549946479 -0.026690687217401459 0 0.0036061927556188971 -0.02705058358267726 0 0.0037259209356062003 -0.026524688095532614 0 0.003509088575316472 -0.027040214690328662 0 0.0035752979549946479 -0.026690687217401459 0 0.0036061927556188971 -0.02705058358267726 0 0.003509088575316472 -0.027040214690328662 0 0.0036061927556188971 -0.02705058358267726 0 0.0035453415983658148 -0.027446102075374582 0 0.0031366803707510052 -0.028214643767798062 0 0.0035453415983658148 -0.027446102075374582 0 0.0032981882923742503 -0.027642285978488969 0 0.0032107505348004961 -0.027232981359707333 0 0.0035453415983658148 -0.027446102075374582 0 0.0032981882923742503 -0.027642285978488969 0 0.0032107505348004961 -0.027232981359707333 0 0.003509088575316472 -0.027040214690328662 0 0.0035453415983658148 -0.027446102075374582 0 0.0037259209356062003 -0.026524688095532614 0 0.0033220010841826628 -0.02605700974944818 0 0.0034545528638345452 -0.025614872731319131 0 0.0037259209356062003 -0.026524688095532614 0 0.0033220010841826628 -0.02605700974944818 0 0.0032915673970081993 -0.026234721673030169 0 0.0035752979549946479 -0.026690687217401459 0 0.0037259209356062003 -0.026524688095532614 0 0.0036289732952707876 -0.026420881251275685 0 0.0030893426135517057 -0.02597203580661565 0 0.0033220010841826628 -0.02605700974944818 0 0.0032915673970081993 -0.026234721673030169 0 0.0030893426135517057 -0.02597203580661565 0 0.0028780527238742642 -0.026052640203411987 0 0.0032915673970081993 -0.026234721673030169 0 0.0030893426135517057 -0.02597203580661565 0 0.0033220010841826628 -0.02605700974944818 0 0.0030900222610597138 -0.025649863030085256 0 0.0030900222610597138 -0.025649863030085256 0 0.0034545528638345452 -0.025614872731319131 0 0.0030714705084116446 -0.025191702281506852 0 0.0033220010841826628 -0.02605700974944818 0 0.0030900222610597138 -0.025649863030085256 0 0.0034545528638345452 -0.025614872731319131 0 0.0040566825588863216 -0.025612373680408546 0 0.0037259209356062003 -0.026524688095532614 0 0.0034545528638345452 -0.025614872731319131 0 0.0037836897814173889 -0.026658513491833222 0 0.003754580614536322 -0.026543394826441712 0 0.0040566825588863216 -0.025612373680408546 0 0.0034545528638345452 -0.025614872731319131 0 0.0037646810581620969 -0.025117678661552244 0 0.0039636926848897677 -0.024882466398377469 0 0.0037646810581620969 -0.025117678661552244 0 0.0035124583253623013 -0.024677141678279946 0 0.0037646810581620969 -0.025117678661552244 0 0.0035124583253623013 -0.024677141678279946 0 0.0030714705084116446 -0.025191702281506852 0 0.0035961414143546948 -0.024310996319536104 0 0.0033342047204866321 -0.024622769107766149 0 0.0032106542785946563 -0.024313782991069642 0 0.0035696852645463275 -0.02448755508721533 0 0.0031940913380309518 -0.024922434404668545 0 0.0034545528638345452 -0.025614872731319131 0 0.0037646810581620969 -0.025117678661552244 0 0.0030714705084116446 -0.025191702281506852 0 0.0033342047204866321 -0.024622769107766149 0 0.0029435702417968828 -0.024560626539793688 0 0.0028356393098319453 -0.025388975744956625 0 0.0031940913380309518 -0.024922434404668545 0 0.0028420635058804592 -0.025360290771828647 0 0.0033342047204866321 -0.024622769107766149 0 0.0029435702417968828 -0.024560626539793688 0 0.0032106542785946563 -0.024313782991069642 0 0.0030711086779543085 -0.024108553899482923 0 0.0032106542785946563 -0.024313782991069642 0 0.0028312068653025368 -0.024259294573999505 0 0.0029435702417968828 -0.024560626539793688 0 0.0032106542785946563 -0.024313782991069642 0 0.0028312068653025368 -0.024259294573999505 0 0.0026629877843284372 -0.024127889208383397 0 0.0028312068653025368 -0.024259294573999505 0 0.0025626543608611736 -0.024307573845739686 0 0.0029435702417968828 -0.024560626539793688 0 0.0028312068653025368 -0.024259294573999505 0 0.0026518807082481209 -0.024475384009676665 0 0.0025626543608611736 -0.024307573845739686 0 0.0026518807082481209 -0.024475384009676665 0 0.0023404205400289297 -0.024481301717233495 0 0.0028312068653025368 -0.024259294573999505 0 0.0025626543608611736 -0.024307573845739686 0 0.0026518807082481209 -0.024475384009676665 0 0.0029435702417968828 -0.024560626539793688 0 0.0027162506263954758 -0.024871048274123498 0 0.0028356393098319453 -0.025388975744956625 0 0.0026518807082481209 -0.024475384009676665 0 0.0027162506263954758 -0.024871048274123498 0 0.0023404205400289297 -0.024481301717233495 0 0.0029435702417968828 -0.024560626539793688 0 0.0026518807082481209 -0.024475384009676665 0 0.0027162506263954758 -0.024871048274123498 0 0.0027162506263954758 -0.024871048274123498 0 0.0023404205400289297 -0.024481301717233495 0 0.0023234410957012337 -0.025503408273189577 0 0.0027162506263954758 -0.024871048274123498 0 0.0028356393098319453 -0.025388975744956625 0 0.0024387557293905826 -0.025768445727936688 0 0.0026369954740671107 -0.025231292220569843 0 0.0023931064580751229 -0.024749990772313889 0 0.0030900222610597138 -0.025649863030085256 0 0.0028356393098319453 -0.025388975744956625 0 0.0028848139371236967 -0.02585007132421617 0 0.0030900222610597138 -0.025649863030085256 0 0.0030714705084116446 -0.025191702281506852 0 0.0028356393098319453 -0.025388975744956625 0 0.0030893426135517057 -0.02597203580661565 0 0.0030900222610597138 -0.025649863030085256 0 0.0028848139371236967 -0.02585007132421617 0 0.0030893426135517057 -0.02597203580661565 0 0.0028848139371236967 -0.02585007132421617 0 0.0028780527238742642 -0.026052640203411987 0 0.0028848139371236967 -0.02585007132421617 0 0.0027265181781467671 -0.025988613048911986 0 0.0028780527238742642 -0.026052640203411987 0 0.0026723380468725811 -0.025873180157446673 0 0.0024387557293905826 -0.025768445727936688 0 0.0027566279832493801 -0.026012915786435956 0 0.0028356393098319453 -0.025388975744956625 0 0.0028848139371236967 -0.02585007132421617 0 0.0026723380468725811 -0.025873180157446673 0 0.0028356393098319453 -0.025388975744956625 0 0.0026723380468725811 -0.025873180157446673 0 0.0024387557293905826 -0.025768445727936688 0 0.0028848139371236967 -0.02585007132421617 0 0.0026723380468725811 -0.025873180157446673 0 0.0027265181781467671 -0.025988613048911986 0 0.0026723380468725811 -0.025873180157446673 0 0.0027265181781467671 -0.025988613048911986 0 0.0027566279832493801 -0.026012915786435956 0 0.0027101396536438342 -0.025986941436523168 0 0.0027265181781467671 -0.025988613048911986 0 0.0027190181895964099 -0.026038990070352937 0 0.0027101396536438342 -0.025986941436523168 0 0.0027190181895964099 -0.026038990070352937 0 0.0026689369500194084 -0.025845253846004744 0 0.0027101396536438342 -0.025986941436523168 0 0.0027265181781467671 -0.025988613048911986 0 0.0027566279832493801 -0.026012915786435956 0 0.0027101396536438342 -0.025986941436523168 0 0.0026689369500194084 -0.025845253846004744 0 0.0027566279832493801 -0.026012915786435956 0 0.0027265181781467671 -0.025988613048911986 0 0.0028780527238742642 -0.026052640203411987 0 0.0027190181895964099 -0.026038990070352937 0 0.0027788166199400068 -0.026188875734936074 0 0.0027190181895964099 -0.026038990070352937 0 0.0026856222544951358 -0.025928128143785336 0 0.0028780527238742642 -0.026052640203411987 0 0.0027788166199400068 -0.026188875734936074 0 0.0027190181895964099 -0.026038990070352937 0 0.0026856222544951358 -0.025928128143785336 0 0.002645790749390229 -0.02571992347988054 0 0.0026689369500194084 -0.025845253846004744 0 0.0027190181895964099 -0.026038990070352937 0 0.0026856222544951358 -0.025928128143785336 0 0.0026689369500194084 -0.025845253846004744 0 0.0027788166199400068 -0.026188875734936074 0 0.002471312195290593 -0.025760590320960196 0 0.0025374153355342695 -0.025736717235251956 0 0.0027788166199400068 -0.026188875734936074 0 0.0026856222544951358 -0.025928128143785336 0 0.0025374153355342695 -0.025736717235251956 0 0.0019853107538660387 -0.025922750064043543 0 0.0013378538963498203 -0.029578099171763367 0 0.0013378538963498203 -0.029578099171763367 0 0.0015991554843009606 -0.029373155183359319 0 0.0026856222544951358 -0.025928128143785336 0 0.0025374153355342695 -0.025736717235251956 0 0.002645790749390229 -0.02571992347988054 0 0.0025374153355342695 -0.025736717235251956 0 0.002645790749390229 -0.02571992347988054 0 0.0025983682025954771 -0.025516539047069724 0 0.002645790749390229 -0.02571992347988054 0 0.0026689369500194084 -0.025845253846004744 0 0.0026471235395646893 -0.02563479064750826 0 0.002645790749390229 -0.02571992347988054 0 0.0026471235395646893 -0.02563479064750826 0 0.0025983682025954771 -0.025516539047069724 0 0.0026471235395646893 -0.02563479064750826 0 0.0027566279832493801 -0.026012915786435956 0 0.00264632495188102 -0.025278591076350432 0 0.0026689369500194084 -0.025845253846004744 0 0.0026471235395646893 -0.02563479064750826 0 0.0027566279832493801 -0.026012915786435956 0 0.0026471235395646893 -0.02563479064750826 0 0.0025983682025954771 -0.025516539047069724 0 0.00264632495188102 -0.025278591076350432 0 0.0025771066315740552 -0.02539939600691276 0 0.0025983682025954771 -0.025516539047069724 0 0.00264632495188102 -0.025278591076350432 0 0.0025771066315740552 -0.02539939600691276 0 0.0025467395053701482 -0.025454943788700012 0 0.0024610850306191071 -0.025331078996590931 0 0.0025771066315740552 -0.02539939600691276 0 0.00264632495188102 -0.025278591076350432 0 0.0024610850306191071 -0.025331078996590931 0 0.0025670181796060361 -0.025530324308847815 0 0.0025467395053701482 -0.025454943788700012 0 0.0025483631348383801 -0.025441483779293506 0 0.0025771066315740552 -0.02539939600691276 0 0.0025467395053701482 -0.025454943788700012 0 0.0025483631348383801 -0.025441483779293506 0 0.0025158618718633986 -0.025745450468468174 0 0.0025374153355342695 -0.025736717235251956 0 0.0025483631348383801 -0.025441483779293506 0 0.0013378538963498203 -0.029578099171763367 0 0.0013305430635464637 -0.029899860911132649 0 0.0025771066315740552 -0.02539939600691276 0 0.0025983682025954771 -0.025516539047069724 0 0.0025483631348383801 -0.025441483779293506 0 0.0025374153355342695 -0.025736717235251956 0 0.0025983682025954771 -0.025516539047069724 0 0.0025483631348383801 -0.025441483779293506 0 0.00011565927000351203 -0.034752983287758867 0 0.00010398659797194849 -0.034796812547968285 0 0.00010576346171744766 -0.034777045775093211 0 0.00010398659797194849 -0.034796812547968285 0 0.00010576346171744766 -0.034777045775093211 0 9.0750576045659507e-05 -0.034830427079208436 0 9.935204557942151e-05 -0.034804042941100809 0 0.00010576346171744766 -0.034777045775093211 0 9.0750576045659507e-05 -0.034830427079208436 0 0.00010398659797194849 -0.034796812547968285 0 9.0750576045659507e-05 -0.034830427079208436 0 8.3852946350358723e-05 -0.034837171465849984 0 0.0017869374263452895 -0.030711768297154437 0 0.001743606885008996 -0.03048389060305454 0 0.00010398659797194849 -0.034796812547968285 0 0.00011015191817119399 -0.034798526043740993 0 8.3852946350358723e-05 -0.034837171465849984 0 0.00011565927000351203 -0.034752983287758867 0 0.00010398659797194849 -0.034796812547968285 0 0.00011015191817119399 -0.034798526043740993 0 0.0013378538963498203 -0.029578099171763367 0 0.0017869374263452895 -0.030711768297154437 0 0.0027788166199400068 -0.026188875734936074 0 0.00281061087834445 -0.026566133053231383 0 0.003527938390409074 -0.026479281210797508 0 0.0027788166199400068 -0.026188875734936074 0 0.003527938390409074 -0.026479281210797508 0 0.0032915673970081993 -0.026234721673030169 0 0.0028780527238742642 -0.026052640203411987 0 0.0027788166199400068 -0.026188875734936074 0 0.0032915673970081993 -0.026234721673030169 0 0.0037259209356062003 -0.026524688095532614 0 0.0032915673970081993 -0.026234721673030169 0 0.0036289732952707876 -0.026420881251275685 0 0.003527938390409074 -0.026479281210797508 0 0.0036289732952707876 -0.026420881251275685 0 0.0034618252268461764 -0.026141330950691256 0 0.003527938390409074 -0.026479281210797508 0 0.0032915673970081993 -0.026234721673030169 0 0.0036289732952707876 -0.026420881251275685 0 0.0035752979549946479 -0.026690687217401459 0 0.0036289732952707876 -0.026420881251275685 0 0.0034618252268461764 -0.026141330950691256 0 0.0028601486623718898 -0.026764586240518768 0 0.0035752979549946479 -0.026690687217401459 0 0.0034618252268461764 -0.026141330950691256 0 0.0028601486623718898 -0.026764586240518768 0 0.0034618252268461764 -0.026141330950691256 0 0.0017212551653342407 -0.025981059362413329 0 0.001743606885008996 -0.03048389060305454 0 0.00072013001956607611 -0.030348004762048891 0 0.0019113155689876168 -0.027366742823199706 0 0.0028601486623718898 -0.026764586240518768 0 0.0017212551653342407 -0.025981059362413329 0 8.385919633640308e-05 -0.034836933052335976 0 6.4035613414560784e-05 -0.034864482552782343 0 5.3118198905420145e-05 -0.034845648775551581 0 6.4035613414560784e-05 -0.034864482552782343 0 4.984393179536777e-05 -0.034895429178811006 0 5.3118198905420145e-05 -0.034845648775551581 0 8.385919633640308e-05 -0.034836933052335976 0 6.4035613414560784e-05 -0.034864482552782343 0 8.3852946350358723e-05 -0.034837171465849984 0 0.00011015191817119399 -0.034798526043740993 0 8.385919633640308e-05 -0.034836933052335976 0 8.3852946350358723e-05 -0.034837171465849984 0 9.0750576045659507e-05 -0.034830427079208436 0 8.3852946350358723e-05 -0.034837171465849984 0 6.2123852164979167e-05 -0.034887649063037131 0 7.5130207838922078e-05 -0.034868603401507561 0 9.0750576045659507e-05 -0.034830427079208436 0 6.2123852164979167e-05 -0.034887649063037131 0 7.5130207838922078e-05 -0.034868603401507561 0 4.3801761437947352e-05 -0.034928493623407775 0 6.2123852164979167e-05 -0.034887649063037131 0 6.4035613414560784e-05 -0.034864482552782343 0 6.2123852164979167e-05 -0.034887649063037131 0 4.984393179536777e-05 -0.034895429178811006 0 6.4035613414560784e-05 -0.034864482552782343 0 8.3852946350358723e-05 -0.034837171465849984 0 6.2123852164979167e-05 -0.034887649063037131 0 6.2123852164979167e-05 -0.034887649063037131 0 4.0437761479411433e-05 -0.034941471818898132 0 4.984393179536777e-05 -0.034895429178811006 0 4.0437761479411433e-05 -0.034941471818898132 0 4.8573356458698026e-05 -0.034920711942431494 0 4.984393179536777e-05 -0.034895429178811006 0 4.3801761437947352e-05 -0.034928493623407775 0 6.2123852164979167e-05 -0.034887649063037131 0 4.0437761479411433e-05 -0.034941471818898132 0 4.3801761437947352e-05 -0.034928493623407775 0 4.0437761479411433e-05 -0.034941471818898132 0 5.0420152131598294e-08 -0.034999888072198698 0 5.0420152131598294e-08 -0.034999888072198698 0 2.8463487116592229e-05 -0.034974683280071209 0 3.7603414349940243e-08 -0.034999938727162533 0 4.0437761479411433e-05 -0.034941471818898132 0 5.0420152131598294e-08 -0.034999888072198698 0 2.8463487116592229e-05 -0.034974683280071209 0 4.0437761479411433e-05 -0.034941471818898132 0 2.8463487116592229e-05 -0.034974683280071209 0 4.8573356458698026e-05 -0.034920711942431494 0 2.8463487116592229e-05 -0.034974683280071209 0 3.7603414349940243e-08 -0.034999938727162533 0 5.6547167852942275e-06 -0.034998906822212225 0 2.8463487116592229e-05 -0.034974683280071209 0 8.7130303170661563e-05 -0.034882324308081712 0 4.8573356458698026e-05 -0.034920711942431494 0 2.6129600653310744e-05 -0.034808833348185006 0 8.008601346383632e-05 -0.035424124770189275 0 8.7130303170661563e-05 -0.034882324308081712 0 4.8573356458698026e-05 -0.034920711942431494 0 6.1687115210391378e-05 -0.034867250615028704 0 4.984393179536777e-05 -0.034895429178811006 0 6.1687115210391378e-05 -0.034867250615028704 0 5.3118198905420145e-05 -0.034845648775551581 0 4.8573356458698026e-05 -0.034920711942431494 0 4.984393179536777e-05 -0.034895429178811006 0 6.1687115210391378e-05 -0.034867250615028704 0 6.1687115210391378e-05 -0.034867250615028704 0 5.3118198905420145e-05 -0.034845648775551581 0 8.7459514219445837e-05 -0.034812457977769391 0 -5.2366295391261263e-05 -0.027078129292481337 0 0.0017212551653342407 -0.025981059362413329 0 -0.0011920569217705671 -0.026414413910180064 0 0.00072013001956607611 -0.030348004762048891 0 0.00029131883676892221 -0.031941340291914665 0 -5.2366295391261263e-05 -0.027078129292481337 0 0.001069742161782001 -0.027004046812176889 0 0.0017212551653342407 -0.025981059362413329 0 8.008601346383632e-05 -0.035424124770189275 0 0.00029131883676892221 -0.031941340291914665 0 3.7603414349940243e-08 -0.034999938727162533 0 5.6547167852942275e-06 -0.034998906822212225 0 6.5148542191630447e-06 -0.034990543235345416 0 -4.5163132184868773e-08 -0.035000126551448615 0 3.7603414349940243e-08 -0.034999938727162533 0 6.5148542191630447e-06 -0.034990543235345416 0 8.7130303170661563e-05 -0.034882324308081712 0 6.1687115210391378e-05 -0.034867250615028704 0 8.7459514219445837e-05 -0.034812457977769391 0 0.0035426035614527424 -0.018402379047250048 0 0.0025579435729510087 -0.018628590294498287 0 0.0031452552130368234 -0.018957554799997656 0 0.0040932327003407641 -0.023723260470705131 0 0.0035675208477166016 -0.023875104492418031 0 0.0037556896306807923 -0.023417758796075248 0 0.0037114996674843448 -0.020582561261712526 0 0.0029979566033741883 -0.021236327525317206 0 0.0035675208477166016 -0.023875104492418031 0 0.0031821971870665869 -0.023794799156394646 0 0.0033390918116043659 -0.023526549184914227 0 0.0035675208477166016 -0.023875104492418031 0 0.0037556896306807923 -0.023417758796075248 0 0.0033390918116043659 -0.023526549184914227 0 0.0037556896306807923 -0.023417758796075248 0 0.0033390918116043659 -0.023526549184914227 0 0.0033982220446324113 -0.023046535458109578 0 0.0036798533648234651 -0.023139033149203996 0 0.003885983222266342 -0.023035431339103584 0 0.0037133550526481942 -0.022965709354023228 0 0.0039128834481926 -0.023310371039578361 0 0.0036798533648234651 -0.023139033149203996 0 0.003885983222266342 -0.023035431339103584 0 0.0037114996674843448 -0.020582561261712526 0 0.0039663388289303565 -0.023646807564063288 0 0.0039128834481926 -0.023310371039578361 0 0.0043177003548186942 -0.023184951663118753 0 0.0041584171177895196 -0.022964270331090702 0 0.0039128834481926 -0.023310371039578361 0 0.003885983222266342 -0.023035431339103584 0 0.0041584171177895196 -0.022964270331090702 0 0.0043177003548186942 -0.023184951663118753 0 0.0044211898050480168 -0.022741086089453615 0 0.0041584171177895196 -0.022964270331090702 0 0.0043038642163807572 -0.017464649543294703 0 0.0041300515131103294 -0.018580057249665945 0 0.0051899450125500683 -0.018353196179497419 0 0.0032275853423050873 -0.017742018766181696 0 0.0043038642163807572 -0.017464649543294703 0 0.0041300515131103294 -0.018580057249665945 0 0.0037114996674843448 -0.020582561261712526 0 0.0038507027104944416 -0.02076209731468567 0 0.0037114996674843448 -0.020582561261712526 0 0.0041050043422446204 -0.018442736071503513 0 0.0035426035614527424 -0.018402379047250048 0 0.0037198428656062925 -0.019476676091122264 0 0.0044443816815355995 -0.019232165497180754 0 0.0041050043422446204 -0.018442736071503513 0 0.0052319496635399405 -0.019847190702816916 0 0.0044982257180342777 -0.020452884505428853 0 0.0043808067311968549 -0.019913666243662972 0 0.005266793529333829 -0.020001437119443622 0 0.0044443816815355995 -0.019232165497180754 0 0.0043808067311968549 -0.019913666243662972 0 0.005266793529333829 -0.020001437119443622 0 0.0037198428656062925 -0.019476676091122264 0 0.0044443816815355995 -0.019232165497180754 0 0.0043808067311968549 -0.019913666243662972 0 0.003734701369274453 -0.020307356330517584 0 0.0037198428656062925 -0.019476676091122264 0 0.0043808067311968549 -0.019913666243662972 0 0.003734701369274453 -0.020307356330517584 0 0.0037198428656062925 -0.019476676091122264 0 0.0030834051264541401 -0.01992086274310249 0 0.0030834051264541401 -0.01992086274310249 0 0.0032108388308765279 -0.019434041049648253 0 0.0027712163368656443 -0.019359167788217731 0 0.0037198428656062925 -0.019476676091122264 0 0.0030834051264541401 -0.01992086274310249 0 0.0032108388308765279 -0.019434041049648253 0 0.0035426035614527424 -0.018402379047250048 0 0.0037198428656062925 -0.019476676091122264 0 0.0031452552130368234 -0.018957554799997656 0 0.0037198428656062925 -0.019476676091122264 0 0.0032108388308765279 -0.019434041049648253 0 0.0031452552130368234 -0.018957554799997656 0 0.0032108388308765279 -0.019434041049648253 0 0.0031452552130368234 -0.018957554799997656 0 0.0027712163368656443 -0.019359167788217731 0 0.0025579435729510087 -0.018628590294498287 0 0.0027712163368656443 -0.019359167788217731 0 0.002217858174287633 -0.019344044902792706 0 0.0025579435729510087 -0.018628590294498287 0 0.0031452552130368234 -0.018957554799997656 0 0.0027712163368656443 -0.019359167788217731 0 0.0027712163368656443 -0.019359167788217731 0 0.002217858174287633 -0.019344044902792706 0 0.0025085234102337878 -0.019913325697914468 0 0.002217858174287633 -0.019344044902792706 0 0.0025085234102337878 -0.019913325697914468 0 0.0018619181498732206 -0.020053574918116403 0 0.0030834051264541401 -0.01992086274310249 0 0.0027712163368656443 -0.019359167788217731 0 0.0025085234102337878 -0.019913325697914468 0 0.0028482297787924987 -0.020503075932527873 0 0.0030834051264541401 -0.01992086274310249 0 0.0025085234102337878 -0.019913325697914468 0 0.002229867987001634 -0.020626770766658482 0 0.0025085234102337878 -0.019913325697914468 0 0.0018619181498732206 -0.020053574918116403 0 0.0025245022962689743 -0.023803145917323812 0 0.002523308097205257 -0.02390480169774177 0 0.0026764783116278112 -0.023979511675606077 0 0.002523308097205257 -0.02390480169774177 0 0.0026764783116278112 -0.023979511675606077 0 0.0026463414298586174 -0.023983878447826842 0 0.0024369816724958016 -0.024084782881424169 0 0.0022943032032685462 -0.023965628488154003 0 0.0024714680251786952 -0.024240532930675955 0 0.0024259746142519297 -0.023882607445270584 0 0.0025717292914099379 -0.024090260902406242 0 0.0024714680251786952 -0.024240532930675955 0 0.0024745042161502546 -0.024148435936867035 0 0.0024824992548307572 -0.024239118860338423 0 0.0024369816724958016 -0.024084782881424169 0 0.0024714680251786952 -0.024240532930675955 0 0.0024745042161502546 -0.024148435936867035 0 0.0026764783116278112 -0.023979511675606077 0 0.0026463414298586174 -0.023983878447826842 0 0.0026800742732330219 -0.023986149704244977 0 0.0024714680251786952 -0.024240532930675955 0 0.0025127193939002701 -0.024179632795833086 0 0.0026399330753200624 -0.023971259442604316 0 0.0026764783116278112 -0.023979511675606077 0 0.0026800742732330219 -0.023986149704244977 0 0.0026399330753200624 -0.023971259442604316 0 0.0025717292914099379 -0.024090260902406242 0 0.002616549634475196 -0.02397414526864897 0 0.0024714680251786952 -0.024240532930675955 0 0.0024824992548307572 -0.024239118860338423 0 0.0025127193939002701 -0.024179632795833086 0 0.0026463414298586174 -0.023983878447826842 0 0.0026800742732330219 -0.023986149704244977 0 0.0026503948421906292 -0.024024514329537425 0 0.002546631776551362 -0.023531795164743394 0 0.0027758757474926712 -0.022229226180328968 0 0.0020718612997525825 -0.021787785286972231 0 0.0027758757474926712 -0.022229226180328968 0 0.002523308097205257 -0.02390480169774177 0 0.0026463414298586174 -0.023983878447826842 0 0.0026503948421906292 -0.024024514329537425 0 0.0025579435729510087 -0.018628590294498287 0 0.002217858174287633 -0.019344044902792706 0 0.0016010716491268145 -0.01887199650814346 0 0.002217858174287633 -0.019344044902792706 0 0.0018619181498732206 -0.020053574918116403 0 0.0016010716491268145 -0.01887199650814346 0 0.0025626543608611736 -0.024307573845739686 0 0.002539444866731072 -0.024196261311882079 0 0.0024313691598941514 -0.024330853186901192 0 0.0025626543608611736 -0.024307573845739686 0 0.0024313691598941514 -0.024330853186901192 0 0.0023404205400289297 -0.024481301717233495 0 0.0026629877843284372 -0.024127889208383397 0 0.0025626543608611736 -0.024307573845739686 0 0.002539444866731072 -0.024196261311882079 0 0.002539444866731072 -0.024196261311882079 0 0.0024313691598941514 -0.024330853186901192 0 0.0024790676754683069 -0.024184377411580648 0 0.0024313691598941514 -0.024330853186901192 0 0.0024790676754683069 -0.024184377411580648 0 0.0024824992548307572 -0.024239118860338423 0 0.0024890893803978433 -0.024057697000630304 0 0.0024790676754683069 -0.024184377411580648 0 0.0024745042161502546 -0.024148435936867035 0 0.0024790676754683069 -0.024184377411580648 0 0.0024745042161502546 -0.024148435936867035 0 0.0024824992548307572 -0.024239118860338423 0 0.0024313691598941514 -0.024330853186901192 0 0.0024824992548307572 -0.024239118860338423 0 0.0024445711460392532 -0.024214014605127669 0 0.0024824992548307572 -0.024239118860338423 0 0.0025127193939002701 -0.024179632795833086 0 0.0024445711460392532 -0.024214014605127669 0 0.0025127193939002701 -0.024179632795833086 0 0.0024445711460392532 -0.024214014605127669 0 0.0026399330753200624 -0.023971259442604316 0 0.0024313691598941514 -0.024330853186901192 0 0.0024445711460392532 -0.024214014605127669 0 0.0023404205400289297 -0.024481301717233495 0 0.0022621764009926348 -0.024426550693735928 0 0.0023931064580751229 -0.024749990772313889 0 0.0024445711460392532 -0.024214014605127669 0 0.0023404205400289297 -0.024481301717233495 0 0.0020558293327267497 -0.023770329730826666 0 0.0024445711460392532 -0.024214014605127669 0 0.0024313320560563267 -0.023866273816783808 0 0.0020558293327267497 -0.023770329730826666 0 0.0024445711460392532 -0.024214014605127669 0 0.0024313320560563267 -0.023866273816783808 0 0.0026399330753200624 -0.023971259442604316 0 0.0024313320560563267 -0.023866273816783808 0 0.0026399330753200624 -0.023971259442604316 0 0.0026460444230701329 -0.023697113161384797 0 0.0024313320560563267 -0.023866273816783808 0 0.0024546720844928274 -0.023550966887649561 0 0.0026460444230701329 -0.023697113161384797 0 0.0024546720844928274 -0.023550966887649561 0 0.0026460444230701329 -0.023697113161384797 0 0.0026555469170029466 -0.023454265240673854 0 0.0024546720844928274 -0.023550966887649561 0 0.0026555469170029466 -0.023454265240673854 0 0.0025191207776000661 -0.023275495588004076 0 0.0023931064580751229 -0.024749990772313889 0 0.0026797810549069067 -0.025305423448851103 0 0.0024546720844928274 -0.023550966887649561 0 0.0020558293327267497 -0.023770329730826666 0 0.0022731288940871707 -0.023192164733473301 0 0.0024313320560563267 -0.023866273816783808 0 0.0024546720844928274 -0.023550966887649561 0 0.0020558293327267497 -0.023770329730826666 0 0.0023931064580751229 -0.024749990772313889 0 0.0023417898098006145 -0.023650546310393681 0 0.0035675208477166016 -0.023875104492418031 0 0.0031821971870665869 -0.023794799156394646 0 0.0029993466308385415 -0.024026161923694563 0 0.0029979566033741883 -0.021236327525317206 0 0.0027758757474926712 -0.022229226180328968 0 0.0031821971870665869 -0.023794799156394646 0 0.0029620178147775106 -0.023904839711685177 0 0.0030433439977401023 -0.023650238856920629 0 0.0031821971870665869 -0.023794799156394646 0 0.0029620178147775106 -0.023904839711685177 0 0.0029993466308385415 -0.024026161923694563 0 0.0029777167184638939 -0.023217810614194853 0 0.0027758757474926712 -0.022229226180328968 0 0.0026800742732330219 -0.023986149704244977 0 0.0029711583402464003 -0.024006632693418 0 0.0027867122038957573 -0.02392904674429177 0 0.0029620178147775106 -0.023904839711685177 0 0.0029711583402464003 -0.024006632693418 0 0.0027867122038957573 -0.02392904674429177 0 0.0029620178147775106 -0.023904839711685177 0 0.0027867122038957573 -0.02392904674429177 0 0.0028133433966790805 -0.023795307052261985 0 0.0026800742732330219 -0.023986149704244977 0 0.0026399330753200624 -0.023971259442604316 0 0.0027867122038957573 -0.02392904674429177 0 0.0026399330753200624 -0.023971259442604316 0 0.0027867122038957573 -0.02392904674429177 0 0.0028133433966790805 -0.023795307052261985 0 0.0026399330753200624 -0.023971259442604316 0 0.0028133433966790805 -0.023795307052261985 0 0.0026460444230701329 -0.023697113161384797 0 0.0029620178147775106 -0.023904839711685177 0 0.0028133433966790805 -0.023795307052261985 0 0.0030433439977401023 -0.023650238856920629 0 0.0028133433966790805 -0.023795307052261985 0 0.0028490211379068038 -0.023555236062899231 0 0.0030433439977401023 -0.023650238856920629 0 0.0028133433966790805 -0.023795307052261985 0 0.0028490211379068038 -0.023555236062899231 0 0.0026460444230701329 -0.023697113161384797 0 0.0028490211379068038 -0.023555236062899231 0 0.0026460444230701329 -0.023697113161384797 0 0.0026555469170029466 -0.023454265240673854 0 0.0028490211379068038 -0.023555236062899231 0 0.0026555469170029466 -0.023454265240673854 0 0.002807181231268109 -0.023187104089870909 0 0.0028490211379068038 -0.023555236062899231 0 0.0030869481201739658 -0.023315310897735003 0 0.002807181231268109 -0.023187104089870909 0 0.0030869481201739658 -0.023315310897735003 0 0.0033390918116043659 -0.023526549184914227 0 0.0033982220446324113 -0.023046535458109578 0 0.0028490211379068038 -0.023555236062899231 0 0.0030869481201739658 -0.023315310897735003 0 0.0030433439977401023 -0.023650238856920629 0 0.0031821971870665869 -0.023794799156394646 0 0.0030433439977401023 -0.023650238856920629 0 0.0033390918116043659 -0.023526549184914227 0 0.0030869481201739658 -0.023315310897735003 0 0.0030433439977401023 -0.023650238856920629 0 0.0033390918116043659 -0.023526549184914227 0 0.00312888275157006 -0.02293871250503356 0 0.0034439624659202014 -0.022701564830076414 0 0.0033982220446324113 -0.023046535458109578 0 0.0030869481201739658 -0.023315310897735003 0 0.00312888275157006 -0.02293871250503356 0 0.0033982220446324113 -0.023046535458109578 0 0.0030869481201739658 -0.023315310897735003 0 0.00312888275157006 -0.02293871250503356 0 0.002807181231268109 -0.023187104089870909 0 0.002807181231268109 -0.023187104089870909 0 0.0025191207776000661 -0.023275495588004076 0 0.0025987889036811988 -0.02302163906922329 0 0.0026555469170029466 -0.023454265240673854 0 0.002807181231268109 -0.023187104089870909 0 0.0025191207776000661 -0.023275495588004076 0 0.002807181231268109 -0.023187104089870909 0 0.0028483308401401806 -0.022870577861910546 0 0.0025987889036811988 -0.02302163906922329 0 0.00312888275157006 -0.02293871250503356 0 0.002807181231268109 -0.023187104089870909 0 0.0028483308401401806 -0.022870577861910546 0 0.0024520332604220231 -0.023360674815974668 0 0.0023879075967872085 -0.02402972705319038 0 0.0028483308401401806 -0.022870577861910546 0 0.0031529995460013505 -0.022570549509261899 0 0.0025546543428694381 -0.022648276111715861 0 0.0028483308401401806 -0.022870577861910546 0 0.0025987889036811988 -0.02302163906922329 0 0.0025546543428694381 -0.022648276111715861 0 0.00312888275157006 -0.02293871250503356 0 0.0031529995460013505 -0.022570549509261899 0 0.0034439624659202014 -0.022701564830076414 0 0.00312888275157006 -0.02293871250503356 0 0.0028483308401401806 -0.022870577861910546 0 0.0031529995460013505 -0.022570549509261899 0 0.0025869826247726649 -0.024074114570644206 0 0.0026183668363004529 -0.024560267862065235 0 0.0023298757245446742 -0.024500131016212089 0 0.0026183668363004529 -0.024560267862065235 0 0.0023298757245446742 -0.024500131016212089 0 0.0023426532684871467 -0.02486440278340836 0 0.0022731288940871707 -0.023192164733473301 0 0.0025191207776000661 -0.023275495588004076 0 0.0025987889036811988 -0.02302163906922329 0 0.0024546720844928274 -0.023550966887649561 0 0.0022731288940871707 -0.023192164733473301 0 0.0025191207776000661 -0.023275495588004076 0 0.0023298757245446742 -0.024500131016212089 0 0.0021203077562532524 -0.024875711898749219 0 0.0023426532684871467 -0.02486440278340836 0 0.0022731288940871707 -0.023192164733473301 0 0.0025987889036811988 -0.02302163906922329 0 0.0025546543428694381 -0.022648276111715861 0 0.0023417898098006145 -0.023650546310393681 0 0.0023879075967872085 -0.02402972705319038 0 0.0021203077562532524 -0.024875711898749219 0 0.0022013780974034485 -0.024907407523778173 0 0.0021302497205840831 -0.02485521689921532 0 0.0021203077562532524 -0.024875711898749219 0 0.0023426532684871467 -0.02486440278340836 0 0.0022013780974034485 -0.024907407523778173 0 0.0023426532684871467 -0.02486440278340836 0 0.0022875419943317343 -0.024978046893722353 0 0.0022013780974034485 -0.024907407523778173 0 0.0026183668363004529 -0.024560267862065235 0 0.0023426532684871467 -0.02486440278340836 0 0.00264632495188102 -0.025278591076350432 0 0.0026797810549069067 -0.025305423448851103 0 0.0026559091447955871 -0.025276740919932435 0 0.0023426532684871467 -0.02486440278340836 0 0.0024006565373280828 -0.025063806444058454 0 0.0022875419943317343 -0.024978046893722353 0 0.00264632495188102 -0.025278591076350432 0 0.0023370598956148235 -0.02510938578214238 0 0.0024610850306191071 -0.025331078996590931 0 0.0023426532684871467 -0.02486440278340836 0 0.00264632495188102 -0.025278591076350432 0 0.0024006565373280828 -0.025063806444058454 0 0.00264632495188102 -0.025278591076350432 0 0.0024006565373280828 -0.025063806444058454 0 0.0023370598956148235 -0.02510938578214238 0 0.0024006565373280828 -0.025063806444058454 0 0.0023370598956148235 -0.02510938578214238 0 0.0022875419943317343 -0.024978046893722353 0 0.0023370598956148235 -0.02510938578214238 0 0.0021644689431628344 -0.024907540052951937 0 0.0021087812713978336 -0.024975767214017026 0 0.0022875419943317343 -0.024978046893722353 0 0.0022013780974034485 -0.024907407523778173 0 0.0021644689431628344 -0.024907540052951937 0 0.0023370598956148235 -0.02510938578214238 0 0.0022875419943317343 -0.024978046893722353 0 0.0021644689431628344 -0.024907540052951937 0 0.0021644689431628344 -0.024907540052951937 0 0.0020921070401678718 -0.024763518767088925 0 0.0020289580821930327 -0.024843567602998776 0 0.0022013780974034485 -0.024907407523778173 0 0.0021644689431628344 -0.024907540052951937 0 0.0021302497205840831 -0.02485521689921532 0 0.0021203077562532524 -0.024875711898749219 0 0.0021302497205840831 -0.02485521689921532 0 0.0020921070401678718 -0.024763518767088925 0 0.0023879075967872085 -0.02402972705319038 0 0.0021036382945762741 -0.024600646049803044 0 0.0021644689431628344 -0.024907540052951937 0 0.0021302497205840831 -0.02485521689921532 0 0.0020921070401678718 -0.024763518767088925 0 0.0021644689431628344 -0.024907540052951937 0 0.0021087812713978336 -0.024975767214017026 0 0.0020289580821930327 -0.024843567602998776 0 0.0021087812713978336 -0.024975767214017026 0 0.0020378589120550266 -0.025088227841044825 0 0.0022521659550265548 -0.025188785438155368 0 0.0021369239584215992 -0.025265989598028706 0 0.0020378589120550266 -0.025088227841044825 0 0.0022521659550265548 -0.025188785438155368 0 0.0023370598956148235 -0.02510938578214238 0 0.0021087812713978336 -0.024975767214017026 0 0.0022521659550265548 -0.025188785438155368 0 0.0023239915621392207 -0.025346153155545531 0 0.0022521659550265548 -0.025188785438155368 0 0.0024610850306191071 -0.025331078996590931 0 0.0023370598956148235 -0.02510938578214238 0 0.0022521659550265548 -0.025188785438155368 0 0.0024610850306191071 -0.025331078996590931 0 0.0016082861742033887 -0.024349636167401489 0 0.0018980882381001935 -0.024791020694006672 0 0.0015913672608980339 -0.024721505226501201 0 0.0016082861742033887 -0.024349636167401489 0 0.0015913672608980339 -0.024721505226501201 0 0.001319402048256209 -0.024461752395836679 0 0.0016082861742033887 -0.024349636167401489 0 0.0020921070401678718 -0.024763518767088925 0 0.0018980882381001935 -0.024791020694006672 0 0.0016082861742033887 -0.024349636167401489 0 0.002167531355407969 -0.024660150180891939 0 0.0020921070401678718 -0.024763518767088925 0 0.0021087812713978336 -0.024975767214017026 0 0.0020289580821930327 -0.024843567602998776 0 0.0018980882381001935 -0.024791020694006672 0 0.0020921070401678718 -0.024763518767088925 0 0.0020289580821930327 -0.024843567602998776 0 0.0018980882381001935 -0.024791020694006672 0 0.0020378589120550266 -0.025088227841044825 0 0.0018980882381001935 -0.024791020694006672 0 0.0017630555938093497 -0.024946210796911249 0 0.0021087812713978336 -0.024975767214017026 0 0.0020378589120550266 -0.025088227841044825 0 0.0018980882381001935 -0.024791020694006672 0 0.0019257047599694948 -0.025215749944428864 0 0.0020378589120550266 -0.025088227841044825 0 0.0017630555938093497 -0.024946210796911249 0 0.0016932535033651805 -0.025181539595340897 0 0.0017630555938093497 -0.024946210796911249 0 0.0015610130139332963 -0.024980008164286208 0 0.0017630555938093497 -0.024946210796911249 0 0.0015913672608980339 -0.024721505226501201 0 0.0015610130139332963 -0.024980008164286208 0 0.0018980882381001935 -0.024791020694006672 0 0.0017630555938093497 -0.024946210796911249 0 0.0015913672608980339 -0.024721505226501201 0 0.0015913672608980339 -0.024721505226501201 0 0.0015610130139332963 -0.024980008164286208 0 0.0013221470318760321 -0.024796241714202891 0 0.0014104742270620821 -0.025119750775689072 0 0.0015610130139332963 -0.024980008164286208 0 0.0013221470318760321 -0.024796241714202891 0 0.0014104742270620821 -0.025119750775689072 0 0.0013221470318760321 -0.024796241714202891 0 0.0010817495923016009 -0.024915945499735592 0 0.0013221470318760321 -0.024796241714202891 0 0.0010817495923016009 -0.024915945499735592 0 0.0010983348001183414 -0.024625524128206198 0 0.0013221470318760321 -0.024796241714202891 0 0.0010983348001183414 -0.024625524128206198 0 0.001319402048256209 -0.024461752395836679 0 0.0015913672608980339 -0.024721505226501201 0 0.0013221470318760321 -0.024796241714202891 0 0.001319402048256209 -0.024461752395836679 0 0.0008976925755198481 -0.024966463858941808 0 0.0010817495923016009 -0.024915945499735592 0 0.00072739337345155755 -0.024832002185676428 0 0.0010817495923016009 -0.024915945499735592 0 0.0010983348001183414 -0.024625524128206198 0 0.00072739337345155755 -0.024832002185676428 0 0.0012923785170410778 -0.022332668303829392 0 0.0012969110113381615 -0.023247942699940776 0 0.0016973319426231512 -0.022807676376619391 0 0.0010497177577505872 -0.023576676313321762 0 0.0010002166404304124 -0.023879217183096341 0 0.00094661096951506889 -0.023860560383396359 0 0.0021377229205065099 -0.023240846678440397 0 0.0016089129667609225 -0.023246624195273905 0 0.0036757006421857985 -0.022496236746959428 0 0.0038872884977709651 -0.022558683359387047 0 0.0041252939107417246 -0.022425723858638415 0 0.0010983348001183414 -0.024625524128206198 0 0.00072739337345155755 -0.024832002185676428 0 0.00099432747567382751 -0.023972845361247292 0 0.0012923785170410778 -0.022332668303829392 0 0.0012969110113381615 -0.023247942699940776 0 0.00099432747567382751 -0.023972845361247292 0 0.0018258938567519785 -0.023580611645115601 0 0.0051973889325909331 -0.019604454192978418 0 0.0012969110113381615 -0.023247942699940776 0 0.0016089129667609225 -0.023246624195273905 0 0.0016973319426231512 -0.022807676376619391 0 0.0012969110113381615 -0.023247942699940776 0 0.00094661096951506889 -0.023860560383396359 0 0.00099432747567382751 -0.023972845361247292 0 0.0012969110113381615 -0.023247942699940776 0 0.00094661096951506889 -0.023860560383396359 0 0.0016089129667609225 -0.023246624195273905 0 0.0016082861742033887 -0.024349636167401489 0 0.001319402048256209 -0.024461752395836679 0 0.00099432747567382751 -0.023972845361247292 0 0.0016082861742033887 -0.024349636167401489 0 0.00094661096951506889 -0.023860560383396359 0 0.00099432747567382751 -0.023972845361247292 0 0.0024520332604220231 -0.023360674815974668 0 0.0018258938567519785 -0.023580611645115601 0 0.0010983348001183414 -0.024625524128206198 0 0.001319402048256209 -0.024461752395836679 0 0.00099432747567382751 -0.023972845361247292 0 0.0034439624659202014 -0.022701564830076414 0 0.0036532763955973635 -0.022806169758472286 0 0.0033982220446324113 -0.023046535458109578 0 0.0031529995460013505 -0.022570549509261899 0 0.0036757006421857985 -0.022496236746959428 0 0.0034439624659202014 -0.022701564830076414 0 0.0034439624659202014 -0.022701564830076414 0 0.0036803016867232737 -0.022651223028029646 0 0.0036532763955973635 -0.022806169758472286 0 0.0036757006421857985 -0.022496236746959428 0 0.0034439624659202014 -0.022701564830076414 0 0.0036803016867232737 -0.022651223028029646 0 0.0036757006421857985 -0.022496236746959428 0 0.0037685804805656668 -0.022576595796385889 0 0.0038872884977709651 -0.022558683359387047 0 0.0038101639017309899 -0.022653878716059731 0 0.0036532763955973635 -0.022806169758472286 0 0.0039305630709208653 -0.022789675670803665 0 0.0036757006421857985 -0.022496236746959428 0 0.0037685804805656668 -0.022576595796385889 0 0.0036803016867232737 -0.022651223028029646 0 0.0037685804805656668 -0.022576595796385889 0 0.0036803016867232737 -0.022651223028029646 0 0.0038101639017309899 -0.022653878716059731 0 0.0037685804805656668 -0.022576595796385889 0 0.0038872884977709651 -0.022558683359387047 0 0.0038101639017309899 -0.022653878716059731 0 0.0038872884977709651 -0.022558683359387047 0 0.0038101639017309899 -0.022653878716059731 0 0.003914313539845715 -0.022636890708972467 0 0.0038101639017309899 -0.022653878716059731 0 0.003914313539845715 -0.022636890708972467 0 0.0039305630709208653 -0.022789675670803665 0 0.0036803016867232737 -0.022651223028029646 0 0.0038101639017309899 -0.022653878716059731 0 0.0036532763955973635 -0.022806169758472286 0 0.0036532763955973635 -0.022806169758472286 0 0.0037133550526481942 -0.022965709354023228 0 0.0039305630709208653 -0.022789675670803665 0 0.003885983222266342 -0.023035431339103584 0 0.0037133550526481942 -0.022965709354023228 0 0.0039305630709208653 -0.022789675670803665 0 0.0036532763955973635 -0.022806169758472286 0 0.0037133550526481942 -0.022965709354023228 0 0.0033982220446324113 -0.023046535458109578 0 0.0039663388289303565 -0.023646807564063288 0 0.0033112565097274237 -0.022932537998676741 0 0.0036798533648234651 -0.023139033149203996 0 0.0037133550526481942 -0.022965709354023228 0 0.0033982220446324113 -0.023046535458109578 0 0.0044211898050480168 -0.022741086089453615 0 0.0041584171177895196 -0.022964270331090702 0 0.0041312820335413017 -0.022704060803468682 0 0.003885983222266342 -0.023035431339103584 0 0.0041584171177895196 -0.022964270331090702 0 0.0039305630709208653 -0.022789675670803665 0 0.0041584171177895196 -0.022964270331090702 0 0.0039305630709208653 -0.022789675670803665 0 0.0041312820335413017 -0.022704060803468682 0 0.0041312820335413017 -0.022704060803468682 0 0.0040190083041132139 -0.022594325615673722 0 0.0041252939107417246 -0.022425723858638415 0 0.003914313539845715 -0.022636890708972467 0 0.0039305630709208653 -0.022789675670803665 0 0.0040190083041132139 -0.022594325615673722 0 0.0039305630709208653 -0.022789675670803665 0 0.0041312820335413017 -0.022704060803468682 0 0.0040190083041132139 -0.022594325615673722 0 0.0038872884977709651 -0.022558683359387047 0 0.0040190083041132139 -0.022594325615673722 0 0.0041252939107417246 -0.022425723858638415 0 0.0038872884977709651 -0.022558683359387047 0 0.003914313539845715 -0.022636890708972467 0 0.0040190083041132139 -0.022594325615673722 0 0.0044211898050480168 -0.022741086089453615 0 0.0041312820335413017 -0.022704060803468682 0 0.0041252939107417246 -0.022425723858638415 0 0.010001001220525727 -0.012709025458135887 0 0.010083931219166512 -0.01340918320869104 0 0.01074976946742898 -0.013752375062106274 0 0.0076013670398516267 -0.017728606450402463 0 0.0051973889325909331 -0.019604454192978418 0 0.0020731957227987075 -0.02315228525129874 0 0.0032792477617889395 -0.022896515567776672 0 0.0028589421290215141 -0.022596979265785747 0 0.002263351058580095 -0.022795149958688778 0 0.0020731957227987075 -0.02315228525129874 0 0.0028589421290215141 -0.022596979265785747 0 0.0051973889325909331 -0.019604454192978418 0 0.0065527002210288808 -0.018558388851275493 0 0.010083931219166512 -0.01340918320869104 0 0.01074976946742898 -0.013752375062106274 0 0.0095578945755558017 -0.013837786765463135 0 0.002263351058580095 -0.022795149958688778 0 0.0020673147072490972 -0.022617066270862896 0 0.0023920429029988689 -0.022559966197552572 0 0.002263351058580095 -0.022795149958688778 0 0.0023920429029988689 -0.022559966197552572 0 0.0028589421290215141 -0.022596979265785747 0 0.0021377229205065099 -0.023240846678440397 0 0.0019666519143679323 -0.02307701752610811 0 0.0016089129667609225 -0.023246624195273905 0 0.0051973889325909331 -0.019604454192978418 0 0.004584449320482107 -0.020701313012255241 0 0.002263351058580095 -0.022795149958688778 0 0.0020731957227987075 -0.02315228525129874 0 0.0019666519143679323 -0.02307701752610811 0 0.0019666519143679323 -0.02307701752610811 0 0.0016973319426231512 -0.022807676376619391 0 0.0020673147072490972 -0.022617066270862896 0 0.002263351058580095 -0.022795149958688778 0 0.0019666519143679323 -0.02307701752610811 0 0.0020673147072490972 -0.022617066270862896 0 0.0019666519143679323 -0.02307701752610811 0 0.0016089129667609225 -0.023246624195273905 0 0.0016973319426231512 -0.022807676376619391 0 0.0020403419500719449 -0.021351973085867719 0 0.0012923785170410778 -0.022332668303829392 0 0.0018927357595971584 -0.022162493687236443 0 0.0016973319426231512 -0.022807676376619391 0 0.0020673147072490972 -0.022617066270862896 0 0.0018927357595971584 -0.022162493687236443 0 0.0012923785170410778 -0.022332668303829392 0 0.0016973319426231512 -0.022807676376619391 0 0.0018927357595971584 -0.022162493687236443 0 0.0020673147072490972 -0.022617066270862896 0 0.0021125142934371858 -0.022170771963629283 0 0.0018927357595971584 -0.022162493687236443 0 0.0020673147072490972 -0.022617066270862896 0 0.0021125142934371858 -0.022170771963629283 0 0.0022830190352152386 -0.02229559727018322 0 0.0021538695116121581 -0.021835392141312412 0 0.0021125142934371858 -0.022170771963629283 0 0.0023115279335309481 -0.02197166793759767 0 0.0021538695116121581 -0.021835392141312412 0 0.0021125142934371858 -0.022170771963629283 0 0.0018927357595971584 -0.022162493687236443 0 0.0028806327097113775 -0.021500776018606556 0 0.0025264753638263434 -0.022056731819970081 0 0.0028589421290215141 -0.022596979265785747 0 0.0023920429029988689 -0.022559966197552572 0 0.0025264753638263434 -0.022056731819970081 0 0.0028589421290215141 -0.022596979265785747 0 0.0023920429029988689 -0.022559966197552572 0 0.0022830190352152386 -0.02229559727018322 0 0.0025264753638263434 -0.022056731819970081 0 0.0020673147072490972 -0.022617066270862896 0 0.0023920429029988689 -0.022559966197552572 0 0.0022830190352152386 -0.02229559727018322 0 0.0024602771597145995 -0.021537480029707901 0 0.0023115279335309481 -0.02197166793759767 0 0.0025264753638263434 -0.022056731819970081 0 0.0022830190352152386 -0.02229559727018322 0 0.0023115279335309481 -0.02197166793759767 0 0.0025264753638263434 -0.022056731819970081 0 0.0021125142934371858 -0.022170771963629283 0 0.0022830190352152386 -0.02229559727018322 0 0.0023115279335309481 -0.02197166793759767 0 0.0028806327097113775 -0.021500776018606556 0 0.0040069317575390185 -0.022022058899346979 0 0.0028589421290215141 -0.022596979265785747 0 0.0028368544204585267 -0.021355928700913594 0 0.003512658747070724 -0.02219852700731258 0 0.0040069317575390185 -0.022022058899346979 0 0.0032792477617889395 -0.022896515567776672 0 0.0046905407544917121 -0.022702115073144208 0 0.0095578945755558017 -0.013837786765463135 0 0.0080112771456504247 -0.014017218798649495 0 0.0093866169948027996 -0.013042719192097964 0 0.0065527002210288808 -0.018558388851275493 0 0.0068547114650875773 -0.015794873954631593 0 0.0040069317575390185 -0.022022058899346979 0 0.0032792477617889395 -0.022896515567776672 0 0.0028589421290215141 -0.022596979265785747 0 0.0052646842615989608 -0.015958706508236786 0 0.0042127880787021718 -0.014316927387863207 0 0.0029148894916604549 -0.021136944974727394 0 0.0029422063226182838 -0.021193057572120141 0 0.0030345656264587086 -0.021108859968110918 0 0.003512658747070724 -0.02219852700731258 0 0.0052646842615989608 -0.015958706508236786 0 0.0029148894916604549 -0.021136944974727394 0 0.0028707551797969109 -0.021233036302965334 0 0.0029422063226182838 -0.021193057572120141 0 0.0040069317575390185 -0.022022058899346979 0 0.0046905407544917121 -0.022702115073144208 0 0.005004842980696496 -0.022458382565117244 0 0.0068547114650875773 -0.015794873954631593 0 0.0070030125695847729 -0.015738185039335457 0 0.0085217610884403393 -0.013643785822655885 0 0.0084969996524059729 -0.013420119277459461 0 0.0088228660326364408 -0.013114024595324054 0 0.0085217610884403393 -0.013643785822655885 0 0.0084969996524059729 -0.013420119277459461 0 0.0084691301464860837 -0.013564311633423738 0 0.0085217610884403393 -0.013643785822655885 0 0.0084691301464860837 -0.013564311633423738 0 0.0084572879452039229 -0.013661395929709804 0 0.0084691301464860837 -0.013564311633423738 0 0.0083962341719526646 -0.013539079542787864 0 0.0084572879452039229 -0.013661395929709804 0 0.0083962341719526646 -0.013539079542787864 0 0.0083469596996255876 -0.013651573194132016 0 0.0084572879452039229 -0.013661395929709804 0 0.0082808617097821641 -0.013550247154429498 0 0.0082531519269011221 -0.013856215676000459 0 0.0080917337927285463 -0.013460996396045295 0 0.0083962341719526646 -0.013539079542787864 0 0.0083189979306094123 -0.013373765162980692 0 0.0082808617097821641 -0.013550247154429498 0 0.0083962341719526646 -0.013539079542787864 0 0.0082808617097821641 -0.013550247154429498 0 0.0083469596996255876 -0.013651573194132016 0 0.0084969996524059729 -0.013420119277459461 0 0.0084691301464860837 -0.013564311633423738 0 0.0083962341719526646 -0.013539079542787864 0 0.0084969996524059729 -0.013420119277459461 0 0.0083962341719526646 -0.013539079542787864 0 0.0083189979306094123 -0.013373765162980692 0 0.0083189979306094123 -0.013373765162980692 0 0.0082808617097821641 -0.013550247154429498 0 0.0080917337927285463 -0.013460996396045295 0 0.0082808617097821641 -0.013550247154429498 0 0.0083469596996255876 -0.013651573194132016 0 0.0082531519269011221 -0.013856215676000459 0 0.0083469596996255876 -0.013651573194132016 0 0.0084572879452039229 -0.013661395929709804 0 0.0082531519269011221 -0.013856215676000459 0 0.0068547114650875773 -0.015794873954631593 0 0.0052646842615989608 -0.015958706508236786 0 0.0085187779204540567 -0.013656307090512293 0 0.0084572879452039229 -0.013661395929709804 0 0.0082531519269011221 -0.013856215676000459 0 0.0052646842615989608 -0.015958706508236786 0 0.0065266095541709106 -0.010465437205499062 0 0.0082531519269011221 -0.013856215676000459 0 0.0080917337927285463 -0.013460996396045295 0 0.0074751276374477819 -0.013451880698535083 0 0.0053366730432673438 -0.0081451878266420585 0 0.0056494893740249887 -0.0082364903968879383 0 0.0056836210748368856 -0.007826771160237939 0 0.0080917337927285463 -0.013460996396045295 0 0.0080617543763210429 -0.013097590812585866 0 0.0074751276374477819 -0.013451880698535083 0 0.0076128056394556796 -0.012685157486011711 0 0.0080617543763210429 -0.013097590812585866 0 0.0074751276374477819 -0.013451880698535083 0 0.0083189979306094123 -0.013373765162980692 0 0.0080917337927285463 -0.013460996396045295 0 0.0080617543763210429 -0.013097590812585866 0 0.0076128056394556796 -0.012685157486011711 0 0.0080617543763210429 -0.013097590812585866 0 0.0080864136847810259 -0.012636067820414614 0 0.0080617543763210429 -0.013097590812585866 0 0.0084289040185905086 -0.01288676603973456 0 0.0080864136847810259 -0.012636067820414614 0 0.0080617543763210429 -0.013097590812585866 0 0.0084289040185905086 -0.01288676603973456 0 0.0084017475765532038 -0.01317439670462006 0 0.0083189979306094123 -0.013373765162980692 0 0.0080617543763210429 -0.013097590812585866 0 0.0084017475765532038 -0.01317439670462006 0 0.0084969996524059729 -0.013420119277459461 0 0.0083189979306094123 -0.013373765162980692 0 0.0084017475765532038 -0.01317439670462006 0 0.0084289040185905086 -0.01288676603973456 0 0.0084017475765532038 -0.01317439670462006 0 0.0085753959828318675 -0.013072397064122524 0 0.0084969996524059729 -0.013420119277459461 0 0.0085753959828318675 -0.013072397064122524 0 0.0088228660326364408 -0.013114024595324054 0 0.0084969996524059729 -0.013420119277459461 0 0.0084017475765532038 -0.01317439670462006 0 0.0085753959828318675 -0.013072397064122524 0 0.0085753959828318675 -0.013072397064122524 0 0.0087339916067659448 -0.012779873225087123 0 0.0088228660326364408 -0.013114024595324054 0 0.0084289040185905086 -0.01288676603973456 0 0.0087339916067659448 -0.012779873225087123 0 0.0085450587530179322 -0.012456207508335536 0 0.0084289040185905086 -0.01288676603973456 0 0.0085753959828318675 -0.013072397064122524 0 0.0087339916067659448 -0.012779873225087123 0 0.0087339916067659448 -0.012779873225087123 0 0.0085450587530179322 -0.012456207508335536 0 0.0089431223069036149 -0.012380456148922105 0 0.0085450587530179322 -0.012456207508335536 0 0.0089431223069036149 -0.012380456148922105 0 0.0088204656620819947 -0.011828835111778192 0 0.0085450587530179322 -0.012456207508335536 0 0.0082577574752255196 -0.01224021170094932 0 0.0088204656620819947 -0.011828835111778192 0 0.0084289040185905086 -0.01288676603973456 0 0.0085450587530179322 -0.012456207508335536 0 0.0080864136847810259 -0.012636067820414614 0 0.0085450587530179322 -0.012456207508335536 0 0.0082577574752255196 -0.01224021170094932 0 0.0080864136847810259 -0.012636067820414614 0 0.0076128056394556796 -0.012685157486011711 0 0.0079134529039837087 -0.012301811472572208 0 0.0076106269123735843 -0.012006680831994528 0 0.0076128056394556796 -0.012685157486011711 0 0.0080864136847810259 -0.012636067820414614 0 0.0079134529039837087 -0.012301811472572208 0 0.0082577574752255196 -0.01224021170094932 0 0.0080864136847810259 -0.012636067820414614 0 0.0079134529039837087 -0.012301811472572208 0 0.0082577574752255196 -0.01224021170094932 0 0.0079134529039837087 -0.012301811472572208 0 0.0080906633879376591 -0.011868360921557264 0 0.0079134529039837087 -0.012301811472572208 0 0.0076106269123735843 -0.012006680831994528 0 0.0080906633879376591 -0.011868360921557264 0 0.010001001220525727 -0.012709025458135887 0 0.010083931219166512 -0.01340918320869104 0 0.0093866169948027996 -0.013042719192097964 0 0.010083931219166512 -0.01340918320869104 0 0.0095578945755558017 -0.013837786765463135 0 0.0093866169948027996 -0.013042719192097964 0 0.0093866169948027996 -0.013042719192097964 0 0.0088228660326364408 -0.013114024595324054 0 0.0090778890140477166 -0.012753985405656757 0 0.0068547114650875773 -0.015794873954631593 0 0.010030044873981311 -0.012306876438389944 0 0.0085217610884403393 -0.013643785822655885 0 0.0093866169948027996 -0.013042719192097964 0 0.0088228660326364408 -0.013114024595324054 0 0.0087339916067659448 -0.012779873225087123 0 0.0088228660326364408 -0.013114024595324054 0 0.0090778890140477166 -0.012753985405656757 0 0.0093866169948027996 -0.013042719192097964 0 0.0090778890140477166 -0.012753985405656757 0 0.0093546085239716963 -0.012526189971470633 0 0.0090778890140477166 -0.012753985405656757 0 0.0093546085239716963 -0.012526189971470633 0 0.0089431223069036149 -0.012380456148922105 0 0.0093546085239716963 -0.012526189971470633 0 0.0089431223069036149 -0.012380456148922105 0 0.0093233993550759665 -0.011785924089810778 0 0.0087339916067659448 -0.012779873225087123 0 0.0090778890140477166 -0.012753985405656757 0 0.0089431223069036149 -0.012380456148922105 0 0.010001001220525727 -0.012709025458135887 0 0.0093546085239716963 -0.012526189971470633 0 0.0093233993550759665 -0.011785924089810778 0 0.010001001220525727 -0.012709025458135887 0 0.0093866169948027996 -0.013042719192097964 0 0.0093546085239716963 -0.012526189971470633 0 0.0076013670398516267 -0.017728606450402463 0 0.006812224869785514 -0.016414651516668821 0 0.0043177003548186942 -0.023184951663118753 0 0.0044211898050480168 -0.022741086089453615 0 0.0047296338962571844 -0.023031759335597566 0 0.0038507027104944416 -0.02076209731468567 0 0.006812224869785514 -0.016414651516668821 0 0.0043038642163807572 -0.017464649543294703 0 0.005426445616729926 -0.017171865223677391 0 0.0051899450125500683 -0.018353196179497419 0 0.006812224869785514 -0.016414651516668821 0 0.0075311962546656475 -0.013917602736890536 0 0.005426445616729926 -0.017171865223677391 0 0.0062227331676608742 -0.018089697529005848 0 0.0051899450125500683 -0.018353196179497419 0 0.0096582332088043284 -0.011668709413429863 0 0.0088204656620819947 -0.011828835111778192 0 0.0088900901934834149 -0.010536004122730544 0 0.0089431223069036149 -0.012380456148922105 0 0.0093233993550759665 -0.011785924089810778 0 0.0088204656620819947 -0.011828835111778192 0 0.006812224869785514 -0.016414651516668821 0 0.010058923691603435 -0.011716391581548601 0 0.0088204656620819947 -0.011828835111778192 0 0.0080906633879376591 -0.011868360921557264 0 0.0082326355307671996 -0.011369362702235951 0 0.0082577574752255196 -0.01224021170094932 0 0.0088204656620819947 -0.011828835111778192 0 0.0080906633879376591 -0.011868360921557264 0 0.0076106269123735843 -0.012006680831994528 0 0.0080906633879376591 -0.011868360921557264 0 0.0076870344568471822 -0.011435646777693639 0 0.0080906633879376591 -0.011868360921557264 0 0.0082326355307671996 -0.011369362702235951 0 0.0076870344568471822 -0.011435646777693639 0 0.0076870344568471822 -0.011435646777693639 0 0.008193875965360916 -0.010658832883196325 0 0.0074924032699985122 -0.010620624460049589 0 0.0082326355307671996 -0.011369362702235951 0 0.0076870344568471822 -0.011435646777693639 0 0.008193875965360916 -0.010658832883196325 0 0.0088204656620819947 -0.011828835111778192 0 0.0082326355307671996 -0.011369362702235951 0 0.0088900901934834149 -0.010536004122730544 0 0.0082326355307671996 -0.011369362702235951 0 0.008193875965360916 -0.010658832883196325 0 0.0088900901934834149 -0.010536004122730544 0 0.0075311962546656475 -0.013917602736890536 0 0.0078107286236489002 -0.014548270728009334 0 0.0062227331676608742 -0.018089697529005848 0 0.0070482083960196062 -0.019050595989740054 0 0.00605610498441694 -0.019347416123735035 0 0.008193875965360916 -0.010658832883196325 0 0.0088900901934834149 -0.010536004122730544 0 0.0081783985441399986 -0.0093503192801761021 0 0.0081783985441399986 -0.0093503192801761021 0 0.0071471802206099621 -0.009907719580409596 0 0.0074924032699985122 -0.010620624460049589 0 0.008193875965360916 -0.010658832883196325 0 0.0081783985441399986 -0.0093503192801761021 0 0.0074924032699985122 -0.010620624460049589 0 0.0078107286236489002 -0.014548270728009334 0 0.0068584178576206589 -0.012655579461207373 0 0.0070482083960196062 -0.019050595989740054 0 0.00605610498441694 -0.019347416123735035 0 0.0068056257495964709 -0.019877019533490355 0 0.00605610498441694 -0.019347416123735035 0 0.0050476566089889419 -0.019487915288600596 0 0.0051899450125500683 -0.018353196179497419 0 0.0041300515131103294 -0.018580057249665945 0 0.0050476566089889419 -0.019487915288600596 0 0.0051899450125500683 -0.018353196179497419 0 0.0062227331676608742 -0.018089697529005848 0 0.00605610498441694 -0.019347416123735035 0 0.0051899450125500683 -0.018353196179497419 0 0.005038151379765419 -0.0096845926220904821 0 0.0058408199403257007 -0.0095840085368823474 0 0.0061491244661566608 -0.011006448633130049 0 0.005038151379765419 -0.0096845926220904821 0 0.0058408199403257007 -0.0095840085368823474 0 0.0052828459617157413 -0.0090145998951978515 0 0.0047498386751007697 -0.0079811657023891851 0 0.0041654847810939661 -0.0083785940759455186 0 0.0048237327181032373 -0.0087947821762975782 0 0.0041370116656677365 -0.0084249362431268963 0 0.0039241308437903506 -0.0074215978403526454 0 0.0047498386751007697 -0.0079811657023891851 0 0.0041654847810939661 -0.0083785940759455186 0 0.0039117383350044596 -0.0073798150931765442 0 0.0049029300747614971 -0.008844316363712244 0 0.0037635055978429109 -0.0074640581428739167 0 0.0047498386751007697 -0.0079811657023891851 0 0.0039117383350044596 -0.0073798150931765442 0 0.003712126558233005 -0.0068075852622255925 0 0.005038151379765419 -0.0096845926220904821 0 0.0047339795208840114 -0.0085771719726854875 0 0.0052828459617157413 -0.0090145998951978515 0 0.005038151379765419 -0.0096845926220904821 0 0.0047339795208840114 -0.0085771719726854875 0 0.0037955851517487804 -0.0081137069728873211 0 0.0047339795208840114 -0.0085771719726854875 0 0.0052828459617157413 -0.0090145998951978515 0 0.0052541902065387268 -0.0083206216160608831 0 0.0052828459617157413 -0.0090145998951978515 0 0.005693149358826784 -0.008793512748146522 0 0.0052541902065387268 -0.0083206216160608831 0 0.0058408199403257007 -0.0095840085368823474 0 0.0052828459617157413 -0.0090145998951978515 0 0.005693149358826784 -0.008793512748146522 0 0.005693149358826784 -0.008793512748146522 0 0.0064010955819798904 -0.0089968453673158096 0 0.0058841560181441275 -0.0081157378772474045 0 0.005693149358826784 -0.008793512748146522 0 0.0058841560181441275 -0.0081157378772474045 0 0.0052541902065387268 -0.0083206216160608831 0 0.0064010955819798904 -0.0089968453673158096 0 0.0072362553854082579 -0.0090889010028109667 0 0.0067146587017810535 -0.0083410646185363424 0 0.0064010955819798904 -0.0089968453673158096 0 0.0067146587017810535 -0.0083410646185363424 0 0.0058841560181441275 -0.0081157378772474045 0 0.0064010955819798904 -0.0089968453673158096 0 0.0072362553854082579 -0.0090889010028109667 0 0.0065425452196611012 -0.0098357238799005875 0 0.0058408199403257007 -0.0095840085368823474 0 0.005693149358826784 -0.008793512748146522 0 0.0064010955819798904 -0.0089968453673158096 0 0.0081783985441399986 -0.0093503192801761021 0 0.0072362553854082579 -0.0090889010028109667 0 0.0071471802206099621 -0.009907719580409596 0 0.0081783985441399986 -0.0093503192801761021 0 0.0072362553854082579 -0.0090889010028109667 0 0.0073745308574690201 -0.0081461466887958502 0 0.0072362553854082579 -0.0090889010028109667 0 0.0071471802206099621 -0.009907719580409596 0 0.0065425452196611012 -0.0098357238799005875 0 0.0071471802206099621 -0.009907719580409596 0 0.0065425452196611012 -0.0098357238799005875 0 0.0068766870029520078 -0.010610087956402846 0 0.0058408199403257007 -0.0095840085368823474 0 0.0065425452196611012 -0.0098357238799005875 0 0.0061491244661566608 -0.011006448633130049 0 0.0058408199403257007 -0.0095840085368823474 0 0.0064010955819798904 -0.0089968453673158096 0 0.0065425452196611012 -0.0098357238799005875 0 0.0065425452196611012 -0.0098357238799005875 0 0.0061491244661566608 -0.011006448633130049 0 0.0068766870029520078 -0.010610087956402846 0 0.0061491244661566608 -0.011006448633130049 0 0.0068766870029520078 -0.010610087956402846 0 0.0071469205120255914 -0.011347891994247832 0 0.0071471802206099621 -0.009907719580409596 0 0.0074924032699985122 -0.010620624460049589 0 0.0068766870029520078 -0.010610087956402846 0 0.0074924032699985122 -0.010620624460049589 0 0.0068766870029520078 -0.010610087956402846 0 0.0071469205120255914 -0.011347891994247832 0 0.0076870344568471822 -0.011435646777693639 0 0.0074924032699985122 -0.010620624460049589 0 0.0071469205120255914 -0.011347891994247832 0 0.0076106269123735843 -0.012006680831994528 0 0.0071469205120255914 -0.011347891994247832 0 0.0071222334880699017 -0.012180062782716787 0 0.0061491244661566608 -0.011006448633130049 0 0.0071469205120255914 -0.011347891994247832 0 0.0071222334880699017 -0.012180062782716787 0 0.0076106269123735843 -0.012006680831994528 0 0.0076870344568471822 -0.011435646777693639 0 0.0071469205120255914 -0.011347891994247832 0 0.0059214745320138951 -0.010034463244907005 0 0.0071048895569879979 -0.011544584789530641 0 0.0057749465569836367 -0.0091807747154057234 0 0.0052897038576207919 -0.010171513972082777 0 0.0060017838754979165 -0.010642643516042579 0 0.0057749465569836367 -0.0091807747154057234 0 0.0067801808756620049 -0.010374459157714051 0 0.0060017838754979165 -0.010642643516042579 0 0.0046969441561566698 -0.009713517999925975 0 0.0051037307047143831 -0.010524205562410351 0 0.0052897038576207919 -0.010171513972082777 0 0.0057749465569836367 -0.0091807747154057234 0 0.0051984084291782154 -0.0095777512067917927 0 0.0052897038576207919 -0.010171513972082777 0 0.0051984084291782154 -0.0095777512067917927 0 0.0046969441561566698 -0.009713517999925975 0 0.0052897038576207919 -0.010171513972082777 0 0.0051984084291782154 -0.0095777512067917927 0 0.0048890381459927587 -0.0092744216418720986 0 0.0046969441561566698 -0.009713517999925975 0 0.0057749465569836367 -0.0091807747154057234 0 0.0051984084291782154 -0.0095777512067917927 0 0.0048890381459927587 -0.0092744216418720986 0 0.0049029300747614971 -0.008844316363712244 0 0.0059214745320138951 -0.010034463244907005 0 0.0047498386751007697 -0.0079811657023891851 0 0.0057749465569836367 -0.0091807747154057234 0 0.0048237327181032373 -0.0087947821762975782 0 0.0057749465569836367 -0.0091807747154057234 0 0.0048890381459927587 -0.0092744216418720986 0 0.0048237327181032373 -0.0087947821762975782 0 0.0040993648036931861 -0.0082594386629360004 0 0.004303881736545982 -0.0090963675688035608 0 0.0036508839286995996 -0.0083306100205292263 0 0.0041370116656677365 -0.0084249362431268963 0 0.004710874989012185 -0.008511622973094414 0 0.0041654847810939661 -0.0083785940759455186 0 0.0048237327181032373 -0.0087947821762975782 0 0.004412488339590551 -0.0093741135847947472 0 0.004710874989012185 -0.008511622973094414 0 0.0044793226727988696 -0.0068368588450405778 0 0.0048890381459927587 -0.0092744216418720986 0 0.0048237327181032373 -0.0087947821762975782 0 0.004412488339590551 -0.0093741135847947472 0 0.0060164585729827148 -0.0063969836238383778 0 0.0063079164802412159 -0.0076643932413974596 0 0.005095657694056361 -0.0070022425491539572 0 0.004710874989012185 -0.008511622973094414 0 0.005928134395704306 -0.0086130883179768632 0 0.0044188661466133912 -0.0093693942040935733 0 0.0046969441561566698 -0.009713517999925975 0 0.0047194369901810045 -0.01063347293450689 0 0.0048890381459927587 -0.0092744216418720986 0 0.004412488339590551 -0.0093741135847947472 0 0.0046969441561566698 -0.009713517999925975 0 0.004710874989012185 -0.008511622973094414 0 0.0049023334478954803 -0.0093429772124827889 0 0.005928134395704306 -0.0086130883179768632 0 0.0056572156196151259 -0.0064904430905830344 0 0.005928134395704306 -0.0086130883179768632 0 0.0063519636098110441 -0.0085081296685523208 0 0.0051037307047143831 -0.010524205562410351 0 0.005228834108725924 -0.010906778346799085 0 0.0060017838754979165 -0.010642643516042579 0 0.0051037307047143831 -0.010524205562410351 0 0.0052897038576207919 -0.010171513972082777 0 0.0060017838754979165 -0.010642643516042579 0 0.0046969441561566698 -0.009713517999925975 0 0.0047194369901810045 -0.01063347293450689 0 0.0051037307047143831 -0.010524205562410351 0 0.0059021426357383317 -0.009197040391872309 0 0.0060991769932867762 -0.0093057490753054046 0 0.005939976141405727 -0.0093592243220618591 0 0.005928134395704306 -0.0086130883179768632 0 0.0058122495066788571 -0.010313587489554408 0 0.0047194369901810045 -0.01063347293450689 0 0.0051037307047143831 -0.010524205562410351 0 0.005228834108725924 -0.010906778346799085 0 0.0062288352401952268 -0.0084703320916194123 0 0.0063591250568937347 -0.0084232860259402242 0 0.0062597900611855743 -0.0083488602144708279 0 0.0058122495066788571 -0.010313587489554408 0 0.0063519636098110441 -0.0085081296685523208 0 0.0063591250568937347 -0.0084232860259402242 0 0.0062597900611855743 -0.0083488602144708279 0 0.0063324169294494657 -0.0083036244112849114 0 0.0063519636098110441 -0.0085081296685523208 0 0.0063302893012973111 -0.0083697943306966088 0 0.0062288352401952268 -0.0084703320916194123 0 0.0062597900611855743 -0.0083488602144708279 0 0.0061451998024431072 -0.008304405457625513 0 0.0061451998024431072 -0.008304405457625513 0 0.0062646538794768405 -0.0082199519918513438 0 0.0061341177297684658 -0.0081069958714316513 0 0.0062597900611855743 -0.0083488602144708279 0 0.0061451998024431072 -0.008304405457625513 0 0.0062646538794768405 -0.0082199519918513438 0 0.0063572661096876013 -0.0084306516597809494 0 0.0063324169294494657 -0.0083036244112849114 0 0.0064067725922113353 -0.0081963862378069893 0 0.0063324169294494657 -0.0083036244112849114 0 0.0062646538794768405 -0.0082199519918513438 0 0.0064067725922113353 -0.0081963862378069893 0 0.0062597900611855743 -0.0083488602144708279 0 0.0063324169294494657 -0.0083036244112849114 0 0.0062646538794768405 -0.0082199519918513438 0 0.0063318813259271292 -0.0074009756788061569 0 0.0063649355740218582 -0.0075430216627973149 0 0.0059513906301176716 -0.0076832609716849121 0 0.0063572661096876013 -0.0084306516597809494 0 0.0064067725922113353 -0.0081963862378069893 0 0.006581572671929819 -0.0081627239104698664 0 0.0063572661096876013 -0.0084306516597809494 0 0.006581572671929819 -0.0081627239104698664 0 0.0068017541780523013 -0.008268399912508894 0 0.0063519636098110441 -0.0085081296685523208 0 0.006420607443753841 -0.0071723167098402454 0 0.0076128056394556796 -0.012685157486011711 0 0.0076106269123735843 -0.012006680831994528 0 0.0071793653245066542 -0.012157018389946076 0 0.0076661510789435552 -0.012717484673499325 0 0.0071048895569879979 -0.011544584789530641 0 0.0076128056394556796 -0.012685157486011711 0 0.0071390866808141778 -0.012092015884043697 0 0.0070514716364667909 -0.012654216350307491 0 0.0074065023723581371 -0.011856040757959244 0 0.0071048895569879979 -0.011544584789530641 0 0.0071390866808141778 -0.012092015884043697 0 0.0064585058849787264 -0.012323261308318567 0 0.0070514716364667909 -0.012654216350307491 0 0.0071048895569879979 -0.011544584789530641 0 0.0061061725787542754 -0.0114981495610126 0 0.0058122495066788571 -0.010313587489554408 0 0.0061061725787542754 -0.0114981495610126 0 0.0058122495066788571 -0.010313587489554408 0 0.0063523886322155235 -0.010736855996539119 0 0.0062288352401952268 -0.0084703320916194123 0 0.0061451998024431072 -0.008304405457625513 0 0.0059412937076594495 -0.0083338347682084118 0 0.0057799300074384231 -0.012545329489781614 0 0.0064585058849787264 -0.012323261308318567 0 0.0066324061016750794 -0.01301179444212042 0 0.0061451998024431072 -0.008304405457625513 0 0.0059412937076594495 -0.0083338347682084118 0 0.0061341177297684658 -0.0081069958714316513 0 0.0064585058849787264 -0.012323261308318567 0 0.0066324061016750794 -0.01301179444212042 0 0.0070514716364667909 -0.012654216350307491 0 0.0066324061016750794 -0.01301179444212042 0 0.0070514716364667909 -0.012654216350307491 0 0.0074751276374477819 -0.013451880698535083 0 0.0076128056394556796 -0.012685157486011711 0 0.0070514716364667909 -0.012654216350307491 0 0.0074751276374477819 -0.013451880698535083 0 0.0063523886322155235 -0.010736855996539119 0 0.0065266095541709106 -0.010465437205499062 0 0.0059412937076594495 -0.0083338347682084118 0 0.0056494893740249887 -0.0082364903968879383 0 0.0058918272862997344 -0.008069869529522971 0 0.0056494893740249887 -0.0082364903968879383 0 0.0058918272862997344 -0.008069869529522971 0 0.0056836210748368856 -0.007826771160237939 0 0.0058918272862997344 -0.008069869529522971 0 0.006042603294100295 -0.0078273589656749683 0 0.0061341177297684658 -0.0081069958714316513 0 0.0059412937076594495 -0.0083338347682084118 0 0.0058918272862997344 -0.008069869529522971 0 0.0061341177297684658 -0.0081069958714316513 0 0.0058918272862997344 -0.008069869529522971 0 0.006042603294100295 -0.0078273589656749683 0 0.0056836210748368856 -0.007826771160237939 0 0.006430442089749292 -0.0078852156239712003 0 0.0064809290088838475 -0.0080580729422500847 0 0.006327203862124306 -0.00805642201716638 0 0.006430442089749292 -0.0078852156239712003 0 0.0065720454298393597 -0.0079498374244672803 0 0.0064809290088838475 -0.0080580729422500847 0 0.0065720454298393597 -0.0079498374244672803 0 0.0065285457262360038 -0.0077312525436241362 0 0.0067935259231524129 -0.0079285140285750913 0 0.006430442089749292 -0.0078852156239712003 0 0.0065720454298393597 -0.0079498374244672803 0 0.0065285457262360038 -0.0077312525436241362 0 0.0065720454298393597 -0.0079498374244672803 0 0.006581572671929819 -0.0081627239104698664 0 0.0067935259231524129 -0.0079285140285750913 0 0.0065720454298393597 -0.0079498374244672803 0 0.006581572671929819 -0.0081627239104698664 0 0.0064809290088838475 -0.0080580729422500847 0 0.0064067725922113353 -0.0081963862378069893 0 0.0064809290088838475 -0.0080580729422500847 0 0.006327203862124306 -0.00805642201716638 0 0.0064067725922113353 -0.0081963862378069893 0 0.006581572671929819 -0.0081627239104698664 0 0.0064809290088838475 -0.0080580729422500847 0 0.0062646538794768405 -0.0082199519918513438 0 0.0064067725922113353 -0.0081963862378069893 0 0.006327203862124306 -0.00805642201716638 0 0.0062646538794768405 -0.0082199519918513438 0 0.006327203862124306 -0.00805642201716638 0 0.0061341177297684658 -0.0081069958714316513 0 0.006327203862124306 -0.00805642201716638 0 0.0061341177297684658 -0.0081069958714316513 0 0.0062805733807851701 -0.0078665226265597875 0 0.006430442089749292 -0.0078852156239712003 0 0.006327203862124306 -0.00805642201716638 0 0.0062805733807851701 -0.0078665226265597875 0 0.006042603294100295 -0.0078273589656749683 0 0.0061341177297684658 -0.0081069958714316513 0 0.0062805733807851701 -0.0078665226265597875 0 0.006042603294100295 -0.0078273589656749683 0 0.0062805733807851701 -0.0078665226265597875 0 0.0062583460474138616 -0.0076924291468641924 0 0.0062805733807851701 -0.0078665226265597875 0 0.0062583460474138616 -0.0076924291468641924 0 0.0064085580650160732 -0.0077006257611045275 0 0.0064410666509110174 -0.0075438895971178437 0 0.0062583460474138616 -0.0076924291468641924 0 0.0064085580650160732 -0.0077006257611045275 0 0.0064085580650160732 -0.0077006257611045275 0 0.0065285457262360038 -0.0077312525436241362 0 0.0065183504176835926 -0.0075714349132251311 0 0.0064410666509110174 -0.0075438895971178437 0 0.0064085580650160732 -0.0077006257611045275 0 0.0065183504176835926 -0.0075714349132251311 0 0.006430442089749292 -0.0078852156239712003 0 0.0064085580650160732 -0.0077006257611045275 0 0.0065285457262360038 -0.0077312525436241362 0 0.006430442089749292 -0.0078852156239712003 0 0.0062805733807851701 -0.0078665226265597875 0 0.0064085580650160732 -0.0077006257611045275 0 0.0065285457262360038 -0.0077312525436241362 0 0.0065183504176835926 -0.0075714349132251311 0 0.0065994870131998564 -0.0075641356443829251 0 0.0065839821227448381 -0.0074502261125493447 0 0.0065183504176835926 -0.0075714349132251311 0 0.0065994870131998564 -0.0075641356443829251 0 0.0065839821227448381 -0.0074502261125493447 0 0.0065994870131998564 -0.0075641356443829251 0 0.0066979516895930491 -0.0073762320090553493 0 0.0065994870131998564 -0.0075641356443829251 0 0.0066979516895930491 -0.0073762320090553493 0 0.0067935259231524129 -0.0079285140285750913 0 0.0067143782956358257 -0.0073681940526153372 0 0.0067349657440437796 -0.0073755872686478369 0 0.0066979516895930491 -0.0073762320090553493 0 0.0066626859039466578 -0.0072142980656327562 0 0.0067009288634496357 -0.0067823466139172051 0 0.0066979516895930491 -0.0073762320090553493 0 0.0066626859039466578 -0.0072142980656327562 0 0.0065959023484846698 -0.0072969194719832674 0 0.0065049844629458276 -0.0072841359223851879 0 0.0065411941373562489 -0.0071258255690934856 0 0.0064521846958323914 -0.0070426490681250167 0 0.0065049844629458276 -0.0072841359223851879 0 0.0065959023484846698 -0.0072969194719832674 0 0.0065411941373562489 -0.0071258255690934856 0 0.0066626859039466578 -0.0072142980656327562 0 0.0065959023484846698 -0.0072969194719832674 0 0.0065411941373562489 -0.0071258255690934856 0 0.0066626859039466578 -0.0072142980656327562 0 0.0065411941373562489 -0.0071258255690934856 0 0.0064406210915801338 -0.0067275319188194347 0 0.0065285457262360038 -0.0077312525436241362 0 0.0065994870131998564 -0.0075641356443829251 0 0.0067935259231524129 -0.0079285140285750913 0 0.0066626859039466578 -0.0072142980656327562 0 0.0066060809996898477 -0.0061090939241588678 0 0.0064406210915801338 -0.0067275319188194347 0 0.0066626859039466578 -0.0072142980656327562 0 0.0067009288634496357 -0.0067823466139172051 0 0.0063638158420742308 -0.0064529955363393137 0 0.0067009288634496357 -0.0067823466139172051 0 0.0063638158420742308 -0.0064529955363393137 0 0.0065705699920053443 -0.0062971850936006952 0 0.0067349657440437796 -0.0073755872686478369 0 0.006420607443753841 -0.0071723167098402454 0 0.0066675047148162352 -0.0071252489916699214 0 0.0064656625473440846 -0.0063115360822901994 0 0.0067009288634496357 -0.0067823466139172051 0 0.0066266776094977614 -0.006277705507076326 0 0.0065705699920053443 -0.0062971850936006952 0 0.006581572671929819 -0.0081627239104698664 0 0.0067935259231524129 -0.0079285140285750913 0 0.0068017541780523013 -0.008268399912508894 0 0.0062247045612259591 -0.006353097759081789 0 0.0064406210915801338 -0.0067275319188194347 0 0.0057737570112617711 -0.0064663822086603864 0 0.0061062497580779036 -0.006085634132157223 0 0.0062247045612259591 -0.006353097759081789 0 0.0057737570112617711 -0.0064663822086603864 0 0.0062247045612259591 -0.006353097759081789 0 0.0066060809996898477 -0.0061090939241588678 0 0.0064406210915801338 -0.0067275319188194347 0 0.0061062497580779036 -0.006085634132157223 0 0.0062247045612259591 -0.006353097759081789 0 0.0066060809996898477 -0.0061090939241588678 0 0.0064406210915801338 -0.0067275319188194347 0 0.0062953769725983839 -0.0070018803974393768 0 0.0057737570112617711 -0.0064663822086603864 0 0.0062339114121473102 -0.006893303290744484 0 0.0057550862798045463 -0.0061061754109911102 0 0.0065411941373562489 -0.0071258255690934856 0 0.0064406210915801338 -0.0067275319188194347 0 0.0064521846958323914 -0.0070426490681250167 0 0.0064406210915801338 -0.0067275319188194347 0 0.0064521846958323914 -0.0070426490681250167 0 0.0062953769725983839 -0.0070018803974393768 0 0.0065049844629458276 -0.0072841359223851879 0 0.0064521846958323914 -0.0070426490681250167 0 0.0062953769725983839 -0.0070018803974393768 0 0.0062953769725983839 -0.0070018803974393768 0 0.0055397082287490379 -0.0068468535924267396 0 0.0057008431974698258 -0.0056481829447991233 0 0.0055397082287490379 -0.0068468535924267396 0 0.0048647453885543339 -0.006015440163885763 0 0.0057008431974698258 -0.0056481829447991233 0 0.0048647453885543339 -0.006015440163885763 0 0.0049196376751094451 -0.005503884621535002 0 0.0057008431974698258 -0.0056481829447991233 0 0.0048647453885543339 -0.006015440163885763 0 0.0049196376751094451 -0.005503884621535002 0 0.0045374335894407215 -0.0058287464697482499 0 0.0049196376751094451 -0.005503884621535002 0 0.0057008431974698258 -0.0056481829447991233 0 0.005180783543697995 -0.0049158144868351782 0 0.0061062497580779036 -0.006085634132157223 0 0.0057737570112617711 -0.0064663822086603864 0 0.0057489771811631884 -0.0057851906313349201 0 0.0057550862798045463 -0.0061061754109911102 0 0.0050663404356530431 -0.0050541016908086803 0 0.0057737570112617711 -0.0064663822086603864 0 0.0057489771811631884 -0.0057851906313349201 0 0.0051300504574737817 -0.0055288224084099145 0 0.0054669172425910696 -0.0054440330424860859 0 0.0051111323202765882 -0.0055198057318897329 0 0.0053130884092759522 -0.0047583177532367392 0 0.0057489771811631884 -0.0057851906313349201 0 0.0054669172425910696 -0.0054440330424860859 0 0.0051300504574737817 -0.0055288224084099145 0 0.0052556490649881401 -0.0051827966289780718 0 0.0050663404356530431 -0.0050541016908086803 0 0.0054669172425910696 -0.0054440330424860859 0 0.0057932229397696083 -0.0055276999785796588 0 0.0058195923792093325 -0.0052255681143910434 0 0.0057489771811631884 -0.0057851906313349201 0 0.0057932229397696083 -0.0055276999785796588 0 0.0060838299993764243 -0.0056176956411187941 0 0.0057932229397696083 -0.0055276999785796588 0 0.0058195923792093325 -0.0052255681143910434 0 0.0060838299993764243 -0.0056176956411187941 0 0.0057489771811631884 -0.0057851906313349201 0 0.0054669172425910696 -0.0054440330424860859 0 0.0057932229397696083 -0.0055276999785796588 0 0.0049196376751094451 -0.005503884621535002 0 0.005180783543697995 -0.0049158144868351782 0 0.0043906964587954742 -0.0051028107250255554 0 0.0047004788508210578 -0.0044625258285265409 0 0.0038900815927055115 -0.0046414392382937803 0 0.0041472807265885937 -0.0042343891858660412 0 0.0050663404356530431 -0.0050541016908086803 0 0.0041186617000149809 -0.0048187486350675778 0 0.0051111323202765882 -0.0055198057318897329 0 0.0053130884092759522 -0.0047583177532367392 0 0.0044476733448286232 -0.0043187216155210822 0 0.0047004788508210578 -0.0044625258285265409 0 0.0041472807265885937 -0.0042343891858660412 0 0.0042867344323784459 -0.0037793304974099808 0 0.0050663404356530431 -0.0050541016908086803 0 0.00434138259794327 -0.0040205094429148058 0 0.0058195923792093325 -0.0052255681143910434 0 0.0053130884092759522 -0.0047583177532367392 0 0.0062591471739819387 -0.004832599264799271 0 0.0054669172425910696 -0.0054440330424860859 0 0.0058195923792093325 -0.0052255681143910434 0 0.0053130884092759522 -0.0047583177532367392 0 0.0058195923792093325 -0.0052255681143910434 0 0.0062591471739819387 -0.004832599264799271 0 0.0060838299993764243 -0.0056176956411187941 0 0.006420607443753841 -0.0071723167098402454 0 0.0056572156196151259 -0.0064904430905830344 0 0.0063318813259271292 -0.0074009756788061569 0 0.0059513906301176716 -0.0076832609716849121 0 0.0059118062303913184 -0.0071702930785963095 0 0.0060857779748526887 -0.0057720662994110968 0 0.0066228537674099001 -0.0062795959956028673 0 0.0065451972257150335 -0.0054716419775702298 0 0.0060857779748526887 -0.0057720662994110968 0 0.0066228537674099001 -0.0062795959956028673 0 0.0065705699920053443 -0.0062971850936006952 0 0.006420607443753841 -0.0071723167098402454 0 0.0064738836686366796 -0.0071203058553371513 0 0.0066060809996898477 -0.0061090939241588678 0 0.0062591471739819387 -0.004832599264799271 0 0.0060838299993764243 -0.0056176956411187941 0 0.0064656625473440846 -0.0063115360822901994 0 0.0062532218091295748 -0.0051521212953580782 0 0.0063638158420742308 -0.0064529955363393137 0 0.0060857779748526887 -0.0057720662994110968 0 0.0065705699920053443 -0.0062971850936006952 0 0.0061062497580779036 -0.006085634132157223 0 0.0066060809996898477 -0.0061090939241588678 0 0.0060838299993764243 -0.0056176956411187941 0 0.0061062497580779036 -0.006085634132157223 0 0.0057489771811631884 -0.0057851906313349201 0 0.0060838299993764243 -0.0056176956411187941 0 0.0023397280560504487 -0.0050710524595764563 0 0.002915755993643136 -0.0055680931002053298 0 0.0035598729047314919 -0.0050574631307489636 0 0.0023397280560504487 -0.0050710524595764563 0 0.0030906541375644836 -0.0048222436279113778 0 0.0026307638971211598 -0.0046151064980481738 0 0.0023816693056170567 -0.005076272681435989 0 0.0032979112594882353 -0.0049534694221760297 0 0.0028905221776808275 -0.0055849093735950454 0 0.0026435116865950164 -0.0053415030270535461 0 0.0034288404324680556 -0.0053804733824224203 0 0.0028905221776808275 -0.0055849093735950454 0 0.0031028682222205162 -0.0057259641157591246 0 0.0034288404324680556 -0.0053804733824224203 0 0.0032920413831184357 -0.005860918225065583 0 0.0028243493729574218 -0.0058092378810343662 0 0.0031028682222205162 -0.0057259641157591246 0 0.0032920413831184357 -0.005860918225065583 0 0.0031028682222205162 -0.0057259641157591246 0 0.0034288404324680556 -0.0053804733824224203 0 0.0032920413831184357 -0.005860918225065583 0 0.0034288404324680556 -0.0053804733824224203 0 0.0037218923764192613 -0.0058814806370289154 0 0.0034288404324680556 -0.0053804733824224203 0 0.0037218923764192613 -0.0058814806370289154 0 0.0041173778380702818 -0.0057529977864081375 0 0.0031709426753811134 -0.0054703679948707833 0 0.0040599512106273203 -0.0057203273728047878 0 0.002915755993643136 -0.0055680931002053298 0 0.0035598729047314919 -0.0050574631307489636 0 0.0041173778380702818 -0.0057529977864081375 0 0.0035598729047314919 -0.0050574631307489636 0 0.0041173778380702818 -0.0057529977864081375 0 0.0043906964587954742 -0.0051028107250255554 0 0.0040990370979598944 -0.006142371304762544 0 0.0037218923764192613 -0.0058814806370289154 0 0.0041173778380702818 -0.0057529977864081375 0 0.0045707153918170393 -0.0061660997337450096 0 0.0041173778380702818 -0.0057529977864081375 0 0.0045374335894407215 -0.0058287464697482499 0 0.0045707153918170393 -0.0061660997337450096 0 0.0048647453885543339 -0.006015440163885763 0 0.0045374335894407215 -0.0058287464697482499 0 0.0049196376751094451 -0.005503884621535002 0 0.0045374335894407215 -0.0058287464697482499 0 0.0043906964587954742 -0.0051028107250255554 0 0.0041173778380702818 -0.0057529977864081375 0 0.0045374335894407215 -0.0058287464697482499 0 0.0043906964587954742 -0.0051028107250255554 0 0.0038900815927055115 -0.0046414392382937803 0 0.0041472807265885937 -0.0042343891858660412 0 0.0037314082451644884 -0.004054259037355408 0 0.0041472807265885937 -0.0042343891858660412 0 0.0037314082451644884 -0.004054259037355408 0 0.0042867344323784459 -0.0037793304974099808 0 0.0037314082451644884 -0.004054259037355408 0 0.0031429463360925568 -0.0041828507096982265 0 0.0034474518377731445 -0.0034200263274039512 0 0.0030906541375644836 -0.0048222436279113778 0 0.0038900815927055115 -0.0046414392382937803 0 0.0031429463360925568 -0.0041828507096982265 0 0.0032979112594882353 -0.0049534694221760297 0 0.0041186617000149809 -0.0048187486350675778 0 0.0038900815927055115 -0.0046414392382937803 0 0.0037314082451644884 -0.004054259037355408 0 0.0031429463360925568 -0.0041828507096982265 0 0.0030906541375644836 -0.0048222436279113778 0 0.0031429463360925568 -0.0041828507096982265 0 0.0026307638971211598 -0.0046151064980481738 0 0.0031429463360925568 -0.0041828507096982265 0 0.0024558057717894211 -0.0041924136600705857 0 0.0027252050795752601 -0.0034161037715850764 0 0.0023397280560504487 -0.0050710524595764563 0 0.0020240709895753581 -0.0046233481776974247 0 0.0026307638971211598 -0.0046151064980481738 0 0.0031429463360925568 -0.0041828507096982265 0 0.0024558057717894211 -0.0041924136600705857 0 0.0026307638971211598 -0.0046151064980481738 0 0.0020240709895753581 -0.0046233481776974247 0 0.0024558057717894211 -0.0041924136600705857 0 0.0026307638971211598 -0.0046151064980481738 0 0.0020879989474735547 -0.003143350788256664 0 0.0020089122564560338 -0.0023684028881770249 0 0.0025436416222908344 -0.0027911060679861733 0 0.0025436416222908344 -0.0027911060679861733 0 0.0027252050795752601 -0.0034161037715850764 0 0.0028806474706233017 -0.003017170697301572 0 0.0020879989474735547 -0.003143350788256664 0 0.0025436416222908344 -0.0027911060679861733 0 0.0027252050795752601 -0.0034161037715850764 0 0.0020909698110224916 -0.0036697542688188343 0 0.0020879989474735547 -0.003143350788256664 0 0.0027252050795752601 -0.0034161037715850764 0 0.0020909698110224916 -0.0036697542688188343 0 0.0024558057717894211 -0.0041924136600705857 0 0.0027252050795752601 -0.0034161037715850764 0 0.0031429463360925568 -0.0041828507096982265 0 0.0027252050795752601 -0.0034161037715850764 0 0.0034474518377731445 -0.0034200263274039512 0 0.0028806474706233017 -0.003017170697301572 0 0.0032234189652605026 -0.0028332998400225637 0 0.0034474518377731445 -0.0034200263274039512 0 0.0027252050795752601 -0.0034161037715850764 0 0.0028806474706233017 -0.003017170697301572 0 0.0034474518377731445 -0.0034200263274039512 0 0.0025436416222908344 -0.0027911060679861733 0 0.0028806474706233017 -0.003017170697301572 0 0.0029191916145109393 -0.0025942445986154535 0 0.0028806474706233017 -0.003017170697301572 0 0.0032234189652605026 -0.0028332998400225637 0 0.0029191916145109393 -0.0025942445986154535 0 0.003586633645238182 -0.0028706870918371345 0 0.0034474518377731445 -0.0034200263274039512 0 0.0038820340545637185 -0.0031310513250969139 0 0.0032234189652605026 -0.0028332998400225637 0 0.003586633645238182 -0.0028706870918371345 0 0.0034474518377731445 -0.0034200263274039512 0 0.0034474518377731445 -0.0034200263274039512 0 0.0038820340545637185 -0.0031310513250969139 0 0.0042867344323784459 -0.0037793304974099808 0 0.0037314082451644884 -0.004054259037355408 0 0.0034474518377731445 -0.0034200263274039512 0 0.0042867344323784459 -0.0037793304974099808 0 0.0039165599372332329 -0.003205692700954586 0 0.00434138259794327 -0.0040205094429148058 0 0.0038820340545637185 -0.0031310513250969139 0 0.0038306258578387313 -0.0025220566431128516 0 0.0047302633191162666 -0.0029440011344268424 0 0.0038820340545637185 -0.0031310513250969139 0 0.0044476733448286232 -0.0043187216155210822 0 0.0047302633191162666 -0.0029440011344268424 0 0.003586633645238182 -0.0028706870918371345 0 0.0038820340545637185 -0.0031310513250969139 0 0.0038306258578387313 -0.0025220566431128516 0 0.0026499940271043766 -0.0051928147204359154 0 0.0032153410467164359 -0.0051325911354656523 0 0.0031220208325390439 -0.0046769025782949329 0 0.0033301163365599441 -0.0039345855877080272 0 0.0040090234210015986 -0.0041997849081077294 0 0.0026499940271043766 -0.0051928147204359154 0 0.0033637057090051057 -0.0055686470781776557 0 0.0032153410467164359 -0.0051325911354656523 0 0.0026499940271043766 -0.0051928147204359154 0 0.0024893612233021175 -0.0043945878367091101 0 0.0031220208325390439 -0.0046769025782949329 0 0.0026499940271043766 -0.0051928147204359154 0 0.0024893612233021175 -0.0043945878367091101 0 0.0019452718674072959 -0.0048020710228798263 0 0.0018753404923181499 -0.0029763737029306413 0 0.0022682045179641054 -0.0029744091656153581 0 0.0015241043991404656 -0.001379207970547844 0 0.0013948080149146925 -0.001483886489400325 0 0.0013741710300066619 -0.0013151522968076535 0 0.0038306258578387313 -0.0025220566431128516 0 0.0033860932852706744 -0.0025582087899474418 0 0.0031533460546008555 -0.0021599079810540925 0 0.0033301163365599441 -0.0039345855877080272 0 0.0022682045179641054 -0.0029744091656153581 0 0.003586633645238182 -0.0028706870918371345 0 0.0038306258578387313 -0.0025220566431128516 0 0.0033860932852706744 -0.0025582087899474418 0 0.0032234189652605026 -0.0028332998400225637 0 0.003586633645238182 -0.0028706870918371345 0 0.0033860932852706744 -0.0025582087899474418 0 0.0032234189652605026 -0.0028332998400225637 0 0.0033860932852706744 -0.0025582087899474418 0 0.0031268913300231778 -0.0024369834467882065 0 0.0032234189652605026 -0.0028332998400225637 0 0.0029191916145109393 -0.0025942445986154535 0 0.0031268913300231778 -0.0024369834467882065 0 0.0029191916145109393 -0.0025942445986154535 0 0.0030844313354226219 -0.002210552362133369 0 0.0025976978946373364 -0.002340578789339182 0 0.0031268913300231778 -0.0024369834467882065 0 0.0031533460546008555 -0.0021599079810540925 0 0.0030844313354226219 -0.002210552362133369 0 0.0033860932852706744 -0.0025582087899474418 0 0.0031268913300231778 -0.0024369834467882065 0 0.0031533460546008555 -0.0021599079810540925 0 0.0029191916145109393 -0.0025942445986154535 0 0.0031268913300231778 -0.0024369834467882065 0 0.0030844313354226219 -0.002210552362133369 0 0.0031594423585081435 -0.002153711641917997 0 0.0030844313354226219 -0.002210552362133369 0 0.0024277670494387282 -0.001733557427583399 0 0.0022682045179641054 -0.0029744091656153581 0 0.0017619873116822571 -0.0014088124849710461 0 0.0013948080149146925 -0.001483886489400325 0 0.0012035400167116955 -0.0013624605261643643 0 0.0013741710300066619 -0.0013151522968076535 0 0.0022682045179641054 -0.0029744091656153581 0 0.002491268473858933 -0.0027940408279014469 0 0.0030844313354226219 -0.002210552362133369 0 0.0024277670494387282 -0.001733557427583399 0 0.0025976978946373364 -0.002340578789339182 0 0.0020089122564560338 -0.0023684028881770249 0 0.0024277670494387282 -0.001733557427583399 0 0.0025976978946373364 -0.002340578789339182 0 0.0020089122564560338 -0.0023684028881770249 0 0.0025436416222908344 -0.0027911060679861733 0 0.0025976978946373364 -0.002340578789339182 0 0.0025436416222908344 -0.0027911060679861733 0 0.0029191916145109393 -0.0025942445986154535 0 0.0025976978946373364 -0.002340578789339182 0 0.0046574827913619292 -0.0060220985736521614 0 0.0040904516234450622 -0.006150125584510926 0 0.0045490679248519897 -0.0055519614571282912 0 0.0046574827913619292 -0.0060220985736521614 0 0.0050338086269797752 -0.0057890181192926807 0 0.0045490679248519897 -0.0055519614571282912 0 0.0050338086269797752 -0.0057890181192926807 0 0.0045490679248519897 -0.0055519614571282912 0 0.005274578367536917 -0.0055146514374521723 0 0.0060164585729827148 -0.0063969836238383778 0 0.0050338086269797752 -0.0057890181192926807 0 0.005274578367536917 -0.0055146514374521723 0 0.0046574827913619292 -0.0060220985736521614 0 0.0050338086269797752 -0.0057890181192926807 0 0.0051001113096877104 -0.0066803995299256833 0 0.004941692511582216 -0.0059911607246547118 0 0.0056572156196151259 -0.0064904430905830344 0 0.0060164585729827148 -0.0063969836238383778 0 0.0050338086269797752 -0.0057890181192926807 0 0.005095657694056361 -0.0070022425491539572 0 0.0056572156196151259 -0.0064904430905830344 0 0.0049063610258632479 -0.0051485851742675273 0 0.0060857779748526887 -0.0057720662994110968 0 0.0065451972257150335 -0.0054716419775702298 0 0.0058099878220374424 -0.0050845216019679259 0 0.0062532218091295748 -0.0051521212953580782 0 0.0049063610258632479 -0.0051485851742675273 0 0.0046574827913619292 -0.0060220985736521614 0 0.0051001113096877104 -0.0066803995299256833 0 0.0040904516234450622 -0.006150125584510926 0 0.0053130884092759522 -0.0047583177532367392 0 0.0044476733448286232 -0.0043187216155210822 0 0.0057851744103294992 -0.0035242472662119829 0 0.0053130884092759522 -0.0047583177532367392 0 0.0062591471739819387 -0.004832599264799271 0 0.0057851744103294992 -0.0035242472662119829 0 0.0044476733448286232 -0.0043187216155210822 0 0.0047302633191162666 -0.0029440011344268424 0 0.0057851744103294992 -0.0035242472662119829 0 0.0049063610258632479 -0.0051485851742675273 0 0.0035511594001927933 -0.0054449109135767185 0 0.0033637057090051057 -0.0055686470781776557 0 0.0040356674102154707 -0.0059088151924125403 0 0.0037170772643577285 -0.00508778847493 0 0.0040090234210015986 -0.0041997849081077294 0 0.0049063610258632479 -0.0051485851742675273 0 0.0040904516234450622 -0.006150125584510926 0 0.0037170772643577285 -0.00508778847493 0 0.0045490679248519897 -0.0055519614571282912 0 0.0037170772643577285 -0.00508778847493 0 0.0032153410467164359 -0.0051325911354656523 0 0.0031220208325390439 -0.0046769025782949329 0 0.0033637057090051057 -0.0055686470781776557 0 0.0037170772643577285 -0.00508778847493 0 0.0032153410467164359 -0.0051325911354656523 0 0.0037170772643577285 -0.00508778847493 0 0.0031220208325390439 -0.0046769025782949329 0 0.0035124058463732563 -0.0042864648462637997 0 0.0037170772643577285 -0.00508778847493 0 0.0041119555948429271 -0.0041650691622111668 0 0.0035124058463732563 -0.0042864648462637997 0 0.0037170772643577285 -0.00508778847493 0 0.0046686008371159028 -0.0048162669201147401 0 0.0041119555948429271 -0.0041650691622111668 0 0.003790953729035736 -0.0061498131933838468 0 0.0032498880957027697 -0.0055343078494058786 0 0.0029407238270643325 -0.0075077278886743325 0 0.0034053416835527453 -0.0073102279002341466 0 0.0028555171866415942 -0.0066292074036973739 0 0.0029407238270643325 -0.0075077278886743325 0 0.0028555171866415942 -0.0066292074036973739 0 0.0022217478424945807 -0.0066516294032809157 0 0.0037170772643577285 -0.00508778847493 0 0.0046686008371159028 -0.0048162669201147401 0 0.0045490679248519897 -0.0055519614571282912 0 0.0046686008371159028 -0.0048162669201147401 0 0.0045490679248519897 -0.0055519614571282912 0 0.005274578367536917 -0.0055146514374521723 0 0.0029407238270643325 -0.0075077278886743325 0 0.0036508839286995996 -0.0083306100205292263 0 0.0034053416835527453 -0.0073102279002341466 0 0.003790953729035736 -0.0061498131933838468 0 0.0044793226727988696 -0.0068368588450405778 0 0.0040993648036931861 -0.0082594386629360004 0 0.0039117383350044596 -0.0073798150931765442 0 0.0036508839286995996 -0.0083306100205292263 0 0.0039117383350044596 -0.0073798150931765442 0 0.0036508839286995996 -0.0083306100205292263 0 0.0034053416835527453 -0.0073102279002341466 0 0.0039117383350044596 -0.0073798150931765442 0 0.0034053416835527453 -0.0073102279002341466 0 0.003712126558233005 -0.0068075852622255925 0 0.0034053416835527453 -0.0073102279002341466 0 0.003712126558233005 -0.0068075852622255925 0 0.0028555171866415942 -0.0066292074036973739 0 0.0037955851517487804 -0.0081137069728873211 0 0.0040433058700882849 -0.0075296793058975808 0 0.0034650568274220178 -0.0069579737646327522 0 0.0037955851517487804 -0.0081137069728873211 0 0.0034650568274220178 -0.0069579737646327522 0 0.0026518083528362679 -0.0063841757298478416 0 0.0037635055978429109 -0.0074640581428739167 0 0.0027035363534954463 -0.0060608826677841345 0 0.0040433058700882849 -0.0075296793058975808 0 0.0034650568274220178 -0.0069579737646327522 0 0.0043732636539085814 -0.0071803858520240495 0 0.0034650568274220178 -0.0069579737646327522 0 0.0026518083528362679 -0.0063841757298478416 0 0.0033954833852756685 -0.0058378735252397574 0 0.0034650568274220178 -0.0069579737646327522 0 0.0043732636539085814 -0.0071803858520240495 0 0.0042423503096867933 -0.006383301447442126 0 0.0034650568274220178 -0.0069579737646327522 0 0.0033954833852756685 -0.0058378735252397574 0 0.0042423503096867933 -0.006383301447442126 0 0.002744635061779349 -0.0057408827507399443 0 0.0028555171866415942 -0.0066292074036973739 0 0.0021824636894450761 -0.0059103262790441346 0 0.002744635061779349 -0.0057408827507399443 0 0.0021824636894450761 -0.0059103262790441346 0 0.002215797711907243 -0.0052963541844215367 0 0.003712126558233005 -0.0068075852622255925 0 0.002744635061779349 -0.0057408827507399443 0 0.0028555171866415942 -0.0066292074036973739 0 0.0028555171866415942 -0.0066292074036973739 0 0.0022217478424945807 -0.0066516294032809157 0 0.0021824636894450761 -0.0059103262790441346 0 0.0041119555948429271 -0.0041650691622111668 0 0.0035124058463732563 -0.0042864648462637997 0 0.0035867115151937789 -0.0035427329721714812 0 0.0032498880957027697 -0.0055343078494058786 0 0.0022725266726716107 -0.0039887493795582509 0 0.0031220208325390439 -0.0046769025782949329 0 0.0035124058463732563 -0.0042864648462637997 0 0.0030336747876281611 -0.0039730207825088562 0 0.0035124058463732563 -0.0042864648462637997 0 0.0035867115151937789 -0.0035427329721714812 0 0.0030336747876281611 -0.0039730207825088562 0 0.0017680444814681959 -0.0012188260487511161 0 0.0016636415382483829 -0.001085159054645403 0 0.0016049166296013347 -0.0011781599664726168 0 0.0017680444814681959 -0.0012188260487511161 0 0.001645324499911071 -0.001293177503304569 0 0.0016049166296013347 -0.0011781599664726168 0 0.0022725266726716107 -0.0039887493795582509 0 0.0010779621005685312 -0.0030149474342363535 0 0.0022725266726716107 -0.0039887493795582509 0 0.0025275002880190407 -0.0024297201093033617 0 0.0022217478424945807 -0.0066516294032809157 0 0.0015500578082951455 -0.005816891237312917 0 0.0021824636894450761 -0.0059103262790441346 0 0.0022725266726716107 -0.0039887493795582509 0 0.0016841585835765649 -0.005794709001357176 0 0.0015500578082951455 -0.005816891237312917 0 0.0021824636894450761 -0.0059103262790441346 0 0.002215797711907243 -0.0052963541844215367 0 0.002744635061779349 -0.0057408827507399443 0 0.002215797711907243 -0.0052963541844215367 0 0.0017260225376797722 -0.0047008818894244799 0 0.0027035363534954463 -0.0060608826677841345 0 0.0017714709558449917 -0.0047870985081638557 0 0.0014253975126859934 -0.0059198490562670661 0 0.002215797711907243 -0.0052963541844215367 0 0.0014994729208434516 -0.0051869264323463633 0 0.002215797711907243 -0.0052963541844215367 0 0.0014994729208434516 -0.0051869264323463633 0 0.0017260225376797722 -0.0047008818894244799 0 0.0014253975126859934 -0.0059198490562670661 0 0.00073907355247664194 -0.0051157361521158642 0 0.0014994729208434516 -0.0051869264323463633 0 0.00073907355247664194 -0.0051157361521158642 0 0.0014994729208434516 -0.0051869264323463633 0 0.001073877768317094 -0.0044273144098274826 0 0.0014994729208434516 -0.0051869264323463633 0 0.001073877768317094 -0.0044273144098274826 0 0.0017260225376797722 -0.0047008818894244799 0 0.001073877768317094 -0.0044273144098274826 0 0.0017260225376797722 -0.0047008818894244799 0 0.0016198111269359941 -0.0038584080332091553 0 0.001073877768317094 -0.0044273144098274826 0 0.0016198111269359941 -0.0038584080332091553 0 0.0007911925592680671 -0.0035925511727332763 0 0.0017260225376797722 -0.0047008818894244799 0 0.0027344215392170849 -0.0050680811740756318 0 0.0025342867776426926 -0.0038493123222108129 0 0.0017260225376797722 -0.0047008818894244799 0 0.0016198111269359941 -0.0038584080332091553 0 0.0025342867776426926 -0.0038493123222108129 0 0.0034020577854204375 -0.0046608815560748888 0 0.0027344215392170849 -0.0050680811740756318 0 0.0025342867776426926 -0.0038493123222108129 0 0.0034020577854204375 -0.0046608815560748888 0 0.004049406274663804 -0.0053763672389585881 0 0.0043594912867250552 -0.0046615366546294982 0 0.0034020577854204375 -0.0046608815560748888 0 0.0041235129329317121 -0.0031360726128098265 0 0.0043594912867250552 -0.0046615366546294982 0 0.0034020577854204375 -0.0046608815560748888 0 0.004049406274663804 -0.0053763672389585881 0 0.0033954833852756685 -0.0058378735252397574 0 0.004049406274663804 -0.0053763672389585881 0 0.0033954833852756685 -0.0058378735252397574 0 0.0042423503096867933 -0.006383301447442126 0 0.0026518083528362679 -0.0063841757298478416 0 0.0033954833852756685 -0.0058378735252397574 0 0.0027344215392170849 -0.0050680811740756318 0 0.0026518083528362679 -0.0063841757298478416 0 0.0017260225376797722 -0.0047008818894244799 0 0.0027344215392170849 -0.0050680811740756318 0 0.0034020577854204375 -0.0046608815560748888 0 0.0033954833852756685 -0.0058378735252397574 0 0.0027344215392170849 -0.0050680811740756318 0 0.0010834771655552477 -0.0010995380645263393 0 0.0012299719077011745 -0.0011328051559794208 0 0.0011918645161952302 -0.00094519472287981612 0 0.0012035400167116955 -0.0013624605261643643 0 0.0012299719077011745 -0.0011328051559794208 0 0.0013741710300066619 -0.0013151522968076535 0 0.0010834771655552477 -0.0010995380645263393 0 0.0012035400167116955 -0.0013624605261643643 0 0.0012299719077011745 -0.0011328051559794208 0 0.0012299719077011745 -0.0011328051559794208 0 0.0013741710300066619 -0.0013151522968076535 0 0.0014863103450008716 -0.0012067869115041639 0 0.0012299719077011745 -0.0011328051559794208 0 0.0014863103450008716 -0.0012067869115041639 0 0.0014110496822045914 -0.0010583376552949645 0 0.0011686989002508083 -0.0012102581228803494 0 0.001505862944583377 -0.00079173550956683936 0 0.0015241043991404656 -0.001379207970547844 0 0.0013741710300066619 -0.0013151522968076535 0 0.0014863103450008716 -0.0012067869115041639 0 0.0015241043991404656 -0.001379207970547844 0 0.0014863103450008716 -0.0012067869115041639 0 0.001645324499911071 -0.001293177503304569 0 0.0018753404923181499 -0.0029763737029306413 0 0.0025275002880190407 -0.0024297201093033617 0 0.0024893612233021175 -0.0043945878367091101 0 0.0031220208325390439 -0.0046769025782949329 0 0.0030336747876281611 -0.0039730207825088562 0 0.0014863103450008716 -0.0012067869115041639 0 0.0016049166296013347 -0.0011781599664726168 0 0.0015436877727655659 -0.0010914161020041681 0 0.0014863103450008716 -0.0012067869115041639 0 0.001645324499911071 -0.001293177503304569 0 0.0016049166296013347 -0.0011781599664726168 0 0.0010779621005685312 -0.0030149474342363535 0 0.0012385078576585362 -0.0022490004279417612 0 0.0016636415382483829 -0.001085159054645403 0 0.0015436877727655659 -0.0010914161020041681 0 0.0015637527601445975 -0.0009682448245645289 0 0.0016636415382483829 -0.001085159054645403 0 0.0016049166296013347 -0.0011781599664726168 0 0.0015436877727655659 -0.0010914161020041681 0 0.00073907355247664194 -0.0051157361521158642 0 0.001073877768317094 -0.0044273144098274826 0 1.4048257752698495e-05 -0.0042563870344720992 0 0.001073877768317094 -0.0044273144098274826 0 1.4048257752698495e-05 -0.0042563870344720992 0 0.0007911925592680671 -0.0035925511727332763 0 0.0012385078576585362 -0.0022490004279417612 0 0.0010347363932769248 -0.0033283716362410782 0 0.0014897513477807841 -0.00086060328374540384 0 0.0013513837561799039 -0.00097297556273958556 0 0.001323218867756221 -0.0008367500811929375 0 0.0014863103450008716 -0.0012067869115041639 0 0.0015436877727655659 -0.0010914161020041681 0 0.0014110496822045914 -0.0010583376552949645 0 0.0015436877727655659 -0.0010914161020041681 0 0.0015637527601445975 -0.0009682448245645289 0 0.0014110496822045914 -0.0010583376552949645 0 0.0012385078576585362 -0.0022490004279417612 0 0.001505862944583377 -0.00079173550956683936 0 0.0013513837561799039 -0.00097297556273958556 0 0.001323218867756221 -0.0008367500811929375 0 0.0011918645161952302 -0.00094519472287981612 0 0.0012299719077011745 -0.0011328051559794208 0 0.0013513837561799039 -0.00097297556273958556 0 0.0011918645161952302 -0.00094519472287981612 0 0.001323218867756221 -0.0008367500811929375 0 0.0011918645161952302 -0.00094519472287981612 0 0.0011361968255197501 -0.00076916199984527903 0 0.0011361968255197501 -0.00076916199984527903 0 0.0013368098379517876 -0.00067930578664848111 0 0.0011511521858238343 -0.0005111426063503803 0 0.0010254313460534134 -0.0006206461186577738 0 0.0011361968255197501 -0.00076916199984527903 0 0.0011511521858238343 -0.0005111426063503803 0 0.001323218867756221 -0.0008367500811929375 0 0.0011361968255197501 -0.00076916199984527903 0 0.0013368098379517876 -0.00067930578664848111 0 0.0011902483844094445 -0.0014848542132845166 0 0.00096856710118457812 -0.0011568977537573467 0 0.0014897513477807841 -0.00086060328374540384 0 0.001323218867756221 -0.0008367500811929375 0 0.0013368098379517876 -0.00067930578664848111 0 0.0012385078576585362 -0.0022490004279417612 0 0.0011902483844094445 -0.0014848542132845166 0 0.0013185698708083763 -0.0029279697006966534 0 0.0010023739194763577 -0.0024077399872630295 0 0.0013543516994441651 -0.0026084267071761215 0 0.0013543516994441651 -0.0026084267071761215 0 0.0015118210607744007 -0.0023580778617644732 0 0.0015834710089293541 -0.002747083348628093 0 0.0010023739194763577 -0.0024077399872630295 0 0.0013543516994441651 -0.0026084267071761215 0 0.0015118210607744007 -0.0023580778617644732 0 0.0013185698708083763 -0.0029279697006966534 0 0.0013543516994441651 -0.0026084267071761215 0 0.0015834710089293541 -0.002747083348628093 0 0.0010023739194763577 -0.0024077399872630295 0 0.0015118210607744007 -0.0023580778617644732 0 0.0014290294901495731 -0.0018169865471921879 0 0.0014124376370427912 -0.0012777661365141267 0 0.0014290294901495731 -0.0018169865471921879 0 0.0010942228658627701 -0.0016797761597647407 0 0.0014124376370427912 -0.0012777661365141267 0 0.0010334372766318642 -0.0012131412198630326 0 0.0010942228658627701 -0.0016797761597647407 0 0.0010023739194763577 -0.0024077399872630295 0 0.0014290294901495731 -0.0018169865471921879 0 0.0010942228658627701 -0.0016797761597647407 0 0.0010023739194763577 -0.0024077399872630295 0 0.0010942228658627701 -0.0016797761597647407 0 0.00076387856659275465 -0.001756878617775786 0 0.0010334372766318642 -0.0012131412198630326 0 0.0010942228658627701 -0.0016797761597647407 0 0.00076387856659275465 -0.001756878617775786 0 0.0006748990304895413 -0.0011282885402515059 0 0.0010334372766318642 -0.0012131412198630326 0 0.00076387856659275465 -0.001756878617775786 0 0.00083008452135845351 -0.00077453837236491274 0 0.00096856710118457812 -0.0011568977537573467 0 0.002607121015419712 -0.0027228722706951172 0 0.001976151843131871 -0.0021441912983816381 0 0.0029679052971793712 -0.0020010003923309973 0 0.00293195020560637 -0.0052258954906656083 0 0.0044984130869608271 -0.0056398981303824982 0 0.0038565433171704609 -0.0066040935404931287 0 0.0029647909461381181 -0.0036257954416941771 0 0.0039959296710873702 -0.0049064516306512448 0 0.002607121015419712 -0.0027228722706951172 0 0.0029679052971793712 -0.0020010003923309973 0 0.0041235129329317121 -0.0031360726128098265 0 0.0034020577854204375 -0.0046608815560748888 0 0.0025342867776426926 -0.0038493123222108129 0 0.0041235129329317121 -0.0031360726128098265 0 0.002607121015419712 -0.0027228722706951172 0 0.0025342867776426926 -0.0038493123222108129 0 0.0041235129329317121 -0.0031360726128098265 0 0.0016198111269359941 -0.0038584080332091553 0 0.0025342867776426926 -0.0038493123222108129 0 0.001792334574826315 -0.0027862806329998092 0 0.002607121015419712 -0.0027228722706951172 0 0.0025342867776426926 -0.0038493123222108129 0 0.001792334574826315 -0.0027862806329998092 0 0.0015118210607744007 -0.0023580778617644732 0 0.001792334574826315 -0.0027862806329998092 0 0.0015834710089293541 -0.002747083348628093 0 0.0016198111269359941 -0.0038584080332091553 0 0.001792334574826315 -0.0027862806329998092 0 0.0007911925592680671 -0.0035925511727332763 0 0.0017925642419464268 -0.0027529053070792348 0 0.0010347363932769248 -0.0033283716362410782 0 0.0015118210607744007 -0.0023580778617644732 0 0.001792334574826315 -0.0027862806329998092 0 0.001976151843131871 -0.0021441912983816381 0 0.002607121015419712 -0.0027228722706951172 0 0.001792334574826315 -0.0027862806329998092 0 0.001976151843131871 -0.0021441912983816381 0 0.001976151843131871 -0.0021441912983816381 0 0.0021446331578547531 -0.0013736189654295547 0 0.0029679052971793712 -0.0020010003923309973 0 0.0014290294901495731 -0.0018169865471921879 0 0.001976151843131871 -0.0021441912983816381 0 0.0021446331578547531 -0.0013736189654295547 0 0.0014124376370427912 -0.0012777661365141267 0 0.0014290294901495731 -0.0018169865471921879 0 0.0021446331578547531 -0.0013736189654295547 0 0.0015118210607744007 -0.0023580778617644732 0 0.0014290294901495731 -0.0018169865471921879 0 0.001976151843131871 -0.0021441912983816381 0 0.0021515255381205109 -0.0026055310597933893 0 0.0029647909461381181 -0.0036257954416941771 0 0.0021174815311693629 -0.0038032907370521424 0 0.00293195020560637 -0.0052258954906656083 0 0.003374711469903046 -0.0040127616340898051 0 0.00293195020560637 -0.0052258954906656083 0 0.003374711469903046 -0.0040127616340898051 0 0.0044302483088315909 -0.0044309486363820136 0 0.0041730538921885309 -0.0033325671235456596 0 0.003374711469903046 -0.0040127616340898051 0 0.0044302483088315909 -0.0044309486363820136 0 0.0055944341532040412 -0.0032346824434049339 0 0.0044302483088315909 -0.0044309486363820136 0 0.0057225266897462128 -0.0048098318680057268 0 0.0044302483088315909 -0.0044309486363820136 0 0.0044984130869608271 -0.0056398981303824982 0 0.0057225266897462128 -0.0048098318680057268 0 0.0044984130869608271 -0.0056398981303824982 0 0.0055729636265634073 -0.0058735153627263743 0 0.0057225266897462128 -0.0048098318680057268 0 0.00293195020560637 -0.0052258954906656083 0 0.0044302483088315909 -0.0044309486363820136 0 0.0044984130869608271 -0.0056398981303824982 0 0.0044984130869608271 -0.0056398981303824982 0 0.0038565433171704609 -0.0066040935404931287 0 0.0054500674606775407 -0.0070057588984081499 0 0.0044984130869608271 -0.0056398981303824982 0 0.0054500674606775407 -0.0070057588984081499 0 0.0055729636265634073 -0.0058735153627263743 0 0.0038565433171704609 -0.0066040935404931287 0 0.0054500674606775407 -0.0070057588984081499 0 0.0048441885307059359 -0.0078817953806145369 0 0.0039959296710873702 -0.0049064516306512448 0 0.0051396833324321893 -0.0061069020783882213 0 0.0063951171381838139 -0.0068758112370322678 0 0.0069274146706172005 -0.0073742877773259096 0 0.0063461997253403193 -0.0076464877415473743 0 0.0063951171381838139 -0.0068758112370322678 0 0.0072541996792205672 -0.0069062317261346989 0 0.0069274146706172005 -0.0073742877773259096 0 0.0063951171381838139 -0.0068758112370322678 0 0.0054500674606775407 -0.0070057588984081499 0 0.0063461997253403193 -0.0076464877415473743 0 0.0063951171381838139 -0.0068758112370322678 0 0.0054500674606775407 -0.0070057588984081499 0 0.0055729636265634073 -0.0058735153627263743 0 0.0063951171381838139 -0.0068758112370322678 0 0.0065560951246836198 -0.0059628477467837905 0 0.0072541996792205672 -0.0069062317261346989 0 0.0063951171381838139 -0.0068758112370322678 0 0.0055729636265634073 -0.0058735153627263743 0 0.0065560951246836198 -0.0059628477467837905 0 0.0065560951246836198 -0.0059628477467837905 0 0.0057225266897462128 -0.0048098318680057268 0 0.0070421611679054334 -0.0051605293580124579 0 0.0055729636265634073 -0.0058735153627263743 0 0.0065560951246836198 -0.0059628477467837905 0 0.0057225266897462128 -0.0048098318680057268 0 0.0057225266897462128 -0.0048098318680057268 0 0.0067297007679820598 -0.004139567709094248 0 0.0070421611679054334 -0.0051605293580124579 0 -1.2316065084328811e-05 -0.012774710053714309 0 -0.00020499253221551458 -0.012819373757034009 0 0.00018422837630117044 -0.013021744203708663 0 0.0031874886408485722 -0.0083710153444825457 0 0.004302286189781057 -0.0096186400093948264 0 -1.2316065084328811e-05 -0.012774710053714309 0 0.00023585600452610993 -0.012848193248153237 0 0.00018422837630117044 -0.013021744203708663 0 0.0067297007679820598 -0.004139567709094248 0 0.0079247560227621583 -0.0050276712735770647 0 0.0070421611679054334 -0.0051605293580124579 0 -0.00028630224157537396 -0.012804825746078998 0 0.00023249496607779933 -0.014244231273916363 0 0.0015735143374859064 -0.013907142217511222 0 0.0014585422208699382 -0.014260326086763236 0 0.0021826774274572749 -0.014184227600656648 0 0.00023249496607779933 -0.014244231273916363 0 0.004302286189781057 -0.0096186400093948264 0 0.004302286189781057 -0.0096186400093948264 0 0.0051258063631259097 -0.010032015111128946 0 0.0075060470600562899 -0.0063836016949516015 0 0.0074073861616742219 -0.0067210592469056172 0 0.0077129848377231859 -0.0067667784416499009 0 0.0075060470600562899 -0.0063836016949516015 0 0.0080769245553930068 -0.0067576525659454037 0 0.0077129848377231859 -0.0067667784416499009 0 0.0065560951246836198 -0.0059628477467837905 0 0.0070421611679054334 -0.0051605293580124579 0 0.007647473856091983 -0.0058889710938586299 0 0.0079247560227621583 -0.0050276712735770647 0 0.0070421611679054334 -0.0051605293580124579 0 0.007647473856091983 -0.0058889710938586299 0 0.004302286189781057 -0.0096186400093948264 0 0.0077348264369428181 -0.005545410281552564 0 -0.00050759150003739165 -0.016187520513189314 0 -0.00075369578667568561 -0.016132296391661291 0 3.5024345035796885e-05 -0.016595851207403277 0 -2.2885406727596012e-05 -0.018148186914371055 0 -0.00037111654766194889 -0.016366140853897371 0 0.00010066416815123541 -0.016139288514921919 0 -0.00050759150003739165 -0.016187520513189314 0 3.5024345035796885e-05 -0.016595851207403277 0 -0.00031003791986683861 -0.016068157638481958 0 -0.00036379513994976427 -0.015952033748886173 0 -0.00050759150003739165 -0.016187520513189314 0 -0.00047903326205120129 -0.015801995421295133 0 -0.00036379513994976427 -0.015952033748886173 0 -0.00053201683220697657 -0.015981789093028581 0 -0.00036379513994976427 -0.015952033748886173 0 -0.00053201683220697657 -0.015981789093028581 0 -0.00050759150003739165 -0.016187520513189314 0 -0.00053201683220697657 -0.015981789093028581 0 -0.00050759150003739165 -0.016187520513189314 0 -0.00075369578667568561 -0.016132296391661291 0 0.00023249496607779933 -0.014244231273916363 0 0.00079853562400463319 -0.015267156214741865 0 -0.0010997303096165689 -0.015938727488557531 0 -0.00075369578667568561 -0.016132296391661291 0 -0.00087578506611598944 -0.015918366616698095 0 -0.00066430753807725663 -0.015861395911874115 0 -0.00053201683220697657 -0.015981789093028581 0 -0.00075369578667568561 -0.016132296391661291 0 -0.00066430753807725663 -0.015861395911874115 0 -0.00075369578667568561 -0.016132296391661291 0 -0.00087578506611598944 -0.015918366616698095 0 0.0014585422208699382 -0.014260326086763236 0 0.0021826774274572749 -0.014184227600656648 0 0.002118765784901915 -0.01474770700049499 0 0.00079853562400463319 -0.015267156214741865 0 0.0012429003275555687 -0.015206269727523267 0 0.0021826774274572749 -0.014184227600656648 0 0.002118765784901915 -0.01474770700049499 0 0.0027830337438635631 -0.014474071211472929 0 0.0080769245553930068 -0.0067576525659454037 0 0.0086296620921620364 -0.0072530310455077695 0 0.0082760786264278567 -0.0071868201687763306 0 0.002118765784901915 -0.01474770700049499 0 0.0027830337438635631 -0.014474071211472929 0 0.0027683146542727319 -0.015233696822005732 0 0.0051258063631259097 -0.010032015111128946 0 0.0044594647785295054 -0.017230616569030299 0 0.0080769245553930068 -0.0067576525659454037 0 0.0082760786264278567 -0.0071868201687763306 0 0.0081216261234005292 -0.0072250361132395555 0 0.0079081790836859258 -0.0069472578582792698 0 0.0081216261234005292 -0.0072250361132395555 0 0.0076703081377834867 -0.0070079272926445186 0 0.0080769245553930068 -0.0067576525659454037 0 0.0079081790836859258 -0.0069472578582792698 0 0.0081216261234005292 -0.0072250361132395555 0 0.0080769245553930068 -0.0067576525659454037 0 0.0079081790836859258 -0.0069472578582792698 0 0.0077129848377231859 -0.0067667784416499009 0 0.0084091743262400872 -0.0075135675212329471 0 0.0078956105468629533 -0.0074247442888884701 0 0.0079608785000056786 -0.0079930710120015812 0 0.0081216261234005292 -0.0072250361132395555 0 0.0084091743262400872 -0.0075135675212329471 0 0.0078956105468629533 -0.0074247442888884701 0 0.0070394297093756717 -0.0073852384351104977 0 0.0078601236442173341 -0.01240114240803938 0 0.0082760786264278567 -0.0071868201687763306 0 0.0081216261234005292 -0.0072250361132395555 0 0.008277998042543401 -0.0075034122611186641 0 0.0047846295563105821 -0.023078779619539993 0 0.0048761613875972637 -0.023482352381634448 0 0.005312639954146753 -0.02310061158380914 0 0.0086296620921620364 -0.0072530310455077695 0 0.0082760786264278567 -0.0071868201687763306 0 0.008277998042543401 -0.0075034122611186641 0 0.0044594647785295054 -0.017230616569030299 0 0.0078601236442173341 -0.01240114240803938 0 0.0065560951246836198 -0.0059628477467837905 0 0.007647473856091983 -0.0058889710938586299 0 0.0072541996792205672 -0.0069062317261346989 0 0.0074073861616742219 -0.0067210592469056172 0 0.0072541996792205672 -0.0069062317261346989 0 0.0076703081377834867 -0.0070079272926445186 0 0.0077348264369428181 -0.005545410281552564 0 0.0072185361462263654 -0.0070772883187180556 0 0.0074073861616742219 -0.0067210592469056172 0 0.0077129848377231859 -0.0067667784416499009 0 0.0076703081377834867 -0.0070079272926445186 0 0.0079081790836859258 -0.0069472578582792698 0 0.0077129848377231859 -0.0067667784416499009 0 0.0076703081377834867 -0.0070079272926445186 0 0.0081216261234005292 -0.0072250361132395555 0 0.0076703081377834867 -0.0070079272926445186 0 0.0078956105468629533 -0.0074247442888884701 0 0.0076703081377834867 -0.0070079272926445186 0 0.0078956105468629533 -0.0074247442888884701 0 0.007488797862137248 -0.0074211741108522588 0 0.0078956105468629533 -0.0074247442888884701 0 0.007488797862137248 -0.0074211741108522588 0 0.0079608785000056786 -0.0079930710120015812 0 0.0072541996792205672 -0.0069062317261346989 0 0.0076703081377834867 -0.0070079272926445186 0 0.007488797862137248 -0.0074211741108522588 0 0.0072541996792205672 -0.0069062317261346989 0 0.007488797862137248 -0.0074211741108522588 0 0.0069274146706172005 -0.0073742877773259096 0 0.007488797862137248 -0.0074211741108522588 0 0.0069274146706172005 -0.0073742877773259096 0 0.0071270900509471744 -0.0079990905516316158 0 0.0071270900509471744 -0.0079990905516316158 0 0.0079608785000056786 -0.0079930710120015812 0 0.0075615721097425535 -0.0085278331436399839 0 0.007488797862137248 -0.0074211741108522588 0 0.0071270900509471744 -0.0079990905516316158 0 0.0079608785000056786 -0.0079930710120015812 0 0.0079608785000056786 -0.0079930710120015812 0 0.0075615721097425535 -0.0085278331436399839 0 0.0080978921352759473 -0.0085566069456798483 0 0.0075615721097425535 -0.0085278331436399839 0 0.0080978921352759473 -0.0085566069456798483 0 0.0079432206022121508 -0.0091021750326880958 0 0.0071270900509471744 -0.0079990905516316158 0 0.0075615721097425535 -0.0085278331436399839 0 0.0069611772828485291 -0.0090246004525309162 0 0.0071270900509471744 -0.0079990905516316158 0 0.0069611772828485291 -0.0090246004525309162 0 0.006412377364154692 -0.0083319343559369215 0 0.0084752220835863125 -0.0077223448142420955 0 0.0088077281884817171 -0.0081346746686096812 0 0.0084008232819269436 -0.0082284593109840619 0 0.0047846295563105821 -0.023078779619539993 0 0.005312639954146753 -0.02310061158380914 0 0.0049971765256934765 -0.022768738097203343 0 0.009134574779489868 -0.0085799654416852823 0 0.0088077281884817171 -0.0081346746686096812 0 0.0087256846248935319 -0.0084376447416361459 0 0.0078601236442173341 -0.01240114240803938 0 0.0070510439377840335 -0.015581638379843665 0 0.0088077281884817171 -0.0081346746686096812 0 0.0084008232819269436 -0.0082284593109840619 0 0.0087256846248935319 -0.0084376447416361459 0 0.0084752220835863125 -0.0077223448142420955 0 0.0079608785000056786 -0.0079930710120015812 0 0.0084008232819269436 -0.0082284593109840619 0 0.0078601236442173341 -0.01240114240803938 0 0.0087762537921069004 -0.0068636587365377127 0 0.0079608785000056786 -0.0079930710120015812 0 0.0084008232819269436 -0.0082284593109840619 0 0.0080978921352759473 -0.0085566069456798483 0 0.0080978921352759473 -0.0085566069456798483 0 0.0085531192412736292 -0.0088115637092762295 0 0.0079432206022121508 -0.0091021750326880958 0 0.0084008232819269436 -0.0082284593109840619 0 0.0080978921352759473 -0.0085566069456798483 0 0.0085531192412736292 -0.0088115637092762295 0 0.0046775886314316976 -0.021709315270062653 0 0.0054555893161559454 -0.02137897974256292 0 0.0049314015278676959 -0.021439258300165881 0 0.009134574779489868 -0.0085799654416852823 0 0.0085531192412736292 -0.0088115637092762295 0 0.0087256846248935319 -0.0084376447416361459 0 0.0066080068640794031 -0.016310880112567545 0 0.0071963831493892195 -0.014909114714689847 0 0.0084008232819269436 -0.0082284593109840619 0 0.0085531192412736292 -0.0088115637092762295 0 0.0087256846248935319 -0.0084376447416361459 0 0.0054555893161559454 -0.02137897974256292 0 0.0049314015278676959 -0.021439258300165881 0 0.0049501886287169131 -0.021278687054507601 0 0.0045904540662727459 -0.020923532746782544 0 0.0051389535989398993 -0.020936828721435034 0 0.0050060158350543798 -0.020555203551147105 0 0.0047214006353047113 -0.021172793614305577 0 0.0051389535989398993 -0.020936828721435034 0 0.0049501886287169131 -0.021278687054507601 0 0.0054555893161559454 -0.02137897974256292 0 0.0051389535989398993 -0.020936828721435034 0 0.0049501886287169131 -0.021278687054507601 0 0.0051389535989398993 -0.020936828721435034 0 0.0055060552623879822 -0.020567472637049212 0 0.0050060158350543798 -0.020555203551147105 0 0.0060365302076867116 -0.020513059957629139 0 0.0055060552623879822 -0.020567472637049212 0 0.0061062201221885846 -0.020902405425987768 0 0.0054555893161559454 -0.02137897974256292 0 0.0051389535989398993 -0.020936828721435034 0 0.0063417372470993246 -0.020912962909251744 0 0.0050067719608707121 -0.022050245402628243 0 0.0068918347284820059 -0.015832133767038372 0 0.0051389535989398993 -0.020936828721435034 0 0.0055060552623879822 -0.020567472637049212 0 0.0061062201221885846 -0.020902405425987768 0 0.0071963831493892195 -0.014909114714689847 0 0.0068918347284820059 -0.015832133767038372 0 0.0052319496635399405 -0.019847190702816916 0 0.0059687329268632858 -0.020450598821818423 0 0.005266793529333829 -0.020001437119443622 0 0.0060365302076867116 -0.020513059957629139 0 0.0055060552623879822 -0.020567472637049212 0 0.00605610498441694 -0.019347416123735035 0 0.0050476566089889419 -0.019487915288600596 0 0.0060365302076867116 -0.020513059957629139 0 0.005266793529333829 -0.020001437119443622 0 0.0055060552623879822 -0.020567472637049212 0 0.0050060158350543798 -0.020555203551147105 0 0.0044982257180342777 -0.020452884505428853 0 0.005266793529333829 -0.020001437119443622 0 0.0050060158350543798 -0.020555203551147105 0 0.0065613615618143016 -0.012639836562747645 0 0.0063047430685471712 -0.012298316441946799 0 0.0070882078028978203 -0.012444380240461628 0 0.0065613615618143016 -0.012639836562747645 0 0.0063047430685471712 -0.012298316441946799 0 0.0060134367279938939 -0.012875185321255568 0 0.0060365302076867116 -0.020513059957629139 0 0.0069903430523092346 -0.020473934740955737 0 0.0061062201221885846 -0.020902405425987768 0 0.0066871337674367631 -0.010302715796308856 0 0.0068918347284820059 -0.015832133767038372 0 0.0064961151678343664 -0.016893901177549603 0 0.0068918347284820059 -0.015832133767038372 0 0.0075615721097425535 -0.0085278331436399839 0 0.0069611772828485291 -0.0090246004525309162 0 0.0079432206022121508 -0.0091021750326880958 0 0.0060365302076867116 -0.020513059957629139 0 0.0069903430523092346 -0.020473934740955737 0 0.0068056257495964709 -0.019877019533490355 0 0.00605610498441694 -0.019347416123735035 0 0.0060365302076867116 -0.020513059957629139 0 0.0068056257495964709 -0.019877019533490355 0 0.0069903430523092346 -0.020473934740955737 0 0.0068056257495964709 -0.019877019533490355 0 0.0078661413881866687 -0.020009161004785808 0 0.0070482083960196062 -0.019050595989740054 0 0.0068056257495964709 -0.019877019533490355 0 0.0078661413881866687 -0.020009161004785808 0 0.0064961151678343664 -0.016893901177549603 0 0.0068584178576206589 -0.012655579461207373 0 0.0072362553854082579 -0.0090889010028109667 0 0.0073745308574690201 -0.0081461466887958502 0 0.0067146587017810535 -0.0083410646185363424 0 0.0068584178576206589 -0.012655579461207373 0 0.0076479165762041489 -0.008324692998296598 0 0.0068584178576206589 -0.012655579461207373 0 0.0058484270152119947 -0.0084379593737833516 0 0.0063047430685471712 -0.012298316441946799 0 0.0060134367279938939 -0.012875185321255568 0 0.0054661349875657376 -0.012169754551504763 0 0.0066871337674367631 -0.010302715796308856 0 0.0058484270152119947 -0.0084379593737833516 0 0.0065762592712882437 -0.0063236436706876568 0 0.0062186802367062734 -0.0074304282495904336 0 0.0057919056519659604 -0.0068459131575110618 0 0.0077281017778666828 -0.0078871572732828622 0 0.0065762592712882437 -0.0063236436706876568 0 0.0062186802367062734 -0.0074304282495904336 0 0.0058484270152119947 -0.0084379593737833516 0 0.0060542710294477931 -0.006904338409383674 0 0.0077281017778666828 -0.0078871572732828622 0 0.0062186802367062734 -0.0074304282495904336 0 0.0067146587017810535 -0.0083410646185363424 0 0.0062186802367062734 -0.0074304282495904336 0 0.0067146587017810535 -0.0083410646185363424 0 0.0058841560181441275 -0.0081157378772474045 0 0.0062186802367062734 -0.0074304282495904336 0 0.0058841560181441275 -0.0081157378772474045 0 0.0052292927216707336 -0.0075731391716676146 0 0.0058841560181441275 -0.0081157378772474045 0 0.0052541902065387268 -0.0083206216160608831 0 0.0052292927216707336 -0.0075731391716676146 0 0.0047339795208840114 -0.0085771719726854875 0 0.0037955851517487804 -0.0081137069728873211 0 0.0045416040263038474 -0.0078710519710735814 0 0.0037955851517487804 -0.0081137069728873211 0 0.0040433058700882849 -0.0075296793058975808 0 0.0045416040263038474 -0.0078710519710735814 0 0.0052541902065387268 -0.0083206216160608831 0 0.0052292927216707336 -0.0075731391716676146 0 0.0045416040263038474 -0.0078710519710735814 0 0.0047339795208840114 -0.0085771719726854875 0 0.0052541902065387268 -0.0083206216160608831 0 0.0045416040263038474 -0.0078710519710735814 0 0.0052292927216707336 -0.0075731391716676146 0 0.0045416040263038474 -0.0078710519710735814 0 0.0043732636539085814 -0.0071803858520240495 0 0.0040433058700882849 -0.0075296793058975808 0 0.0045416040263038474 -0.0078710519710735814 0 0.0043732636539085814 -0.0071803858520240495 0 0.0043732636539085814 -0.0071803858520240495 0 0.0042423503096867933 -0.006383301447442126 0 0.0050858364238955157 -0.0066802706133518288 0 0.0052292927216707336 -0.0075731391716676146 0 0.0043732636539085814 -0.0071803858520240495 0 0.0050858364238955157 -0.0066802706133518288 0 0.0042423503096867933 -0.006383301447442126 0 0.0050858364238955157 -0.0066802706133518288 0 0.004891937770725668 -0.0055818929106560208 0 0.0062186802367062734 -0.0074304282495904336 0 0.0052292927216707336 -0.0075731391716676146 0 0.0057919056519659604 -0.0068459131575110618 0 0.0052292927216707336 -0.0075731391716676146 0 0.0057919056519659604 -0.0068459131575110618 0 0.0050858364238955157 -0.0066802706133518288 0 0.0050858364238955157 -0.0066802706133518288 0 0.0058559970182769996 -0.006206464346086453 0 0.004891937770725668 -0.0055818929106560208 0 0.0057919056519659604 -0.0068459131575110618 0 0.0050858364238955157 -0.0066802706133518288 0 0.0058559970182769996 -0.006206464346086453 0 0.0065762592712882437 -0.0063236436706876568 0 0.0057919056519659604 -0.0068459131575110618 0 0.0058559970182769996 -0.006206464346086453 0 0.0058484270152119947 -0.0084379593737833516 0 0.0051396833324321893 -0.0061069020783882213 0 0.0058559970182769996 -0.006206464346086453 0 0.004891937770725668 -0.0055818929106560208 0 0.0053762251564613396 -0.0046272658427148009 0 0.0066402033047098987 -0.0062923714936665501 0 0.0058559970182769996 -0.006206464346086453 0 0.0053762251564613396 -0.0046272658427148009 0 0.004049406274663804 -0.0053763672389585881 0 0.0042423503096867933 -0.006383301447442126 0 0.004891937770725668 -0.0055818929106560208 0 0.004049406274663804 -0.0053763672389585881 0 0.004891937770725668 -0.0055818929106560208 0 0.0043594912867250552 -0.0046615366546294982 0 0.0041235129329317121 -0.0031360726128098265 0 0.0043594912867250552 -0.0046615366546294982 0 0.0053762251564613396 -0.0046272658427148009 0 0.004891937770725668 -0.0055818929106560208 0 0.0043594912867250552 -0.0046615366546294982 0 0.0053762251564613396 -0.0046272658427148009 0 0.0054500674606775407 -0.0070057588984081499 0 0.0048441885307059359 -0.0078817953806145369 0 0.0057637902845518642 -0.0080078602934579284 0 0.0054500674606775407 -0.0070057588984081499 0 0.0057637902845518642 -0.0080078602934579284 0 0.0063461997253403193 -0.0076464877415473743 0 0.0071270900509471744 -0.0079990905516316158 0 0.0063461997253403193 -0.0076464877415473743 0 0.006412377364154692 -0.0083319343559369215 0 0.0069274146706172005 -0.0073742877773259096 0 0.0071270900509471744 -0.0079990905516316158 0 0.0063461997253403193 -0.0076464877415473743 0 0.0057637902845518642 -0.0080078602934579284 0 0.0063461997253403193 -0.0076464877415473743 0 0.006412377364154692 -0.0083319343559369215 0 0.0069611772828485291 -0.0090246004525309162 0 0.0057933159175057964 -0.008963054299826528 0 0.006412377364154692 -0.0083319343559369215 0 0.0057933159175057964 -0.008963054299826528 0 0.0057637902845518642 -0.0080078602934579284 0 0.006412377364154692 -0.0083319343559369215 0 0.0057933159175057964 -0.008963054299826528 0 0.0048441885307059359 -0.0078817953806145369 0 0.0057637902845518642 -0.0080078602934579284 0 
</DataArray>
</PointData>
<CellData Scalars="region_id,cross_section_updated," Vectors="" Tensors="stress,">
<DataArray type="Float64" Name="region_id" format="ascii">
5 5 5 5 5 6 5 5 5 5 5 5 5 5 5 5 6 5 5 5 5 5 5 5 5 6 6 5 6 5 5 6 5 5 6 5 6 5 6 5 5 5 6 5 6 5 6 5 5 5 5 5 5 5 5 5 5 5 5 5 6 5 5 6 5 5 5 5 5 5 6 5 5 5 5 5 5 6 5 5 5 5 5 5 5 5 6 5 5 5 5 5 5 5 5 5 5 6 5 5 5 5 5 5 5 5 5 6 5 6 5 5 5 5 5 5 5 5 5 5 5 5 5 5 5 6 5 6 6 5 6 5 5 5 6 6 5 5 5 5 5 5 5 5 5 5 5 5 5 5 5 5 5 5 5 5 5 5 5 6 5 5 5 5 5 5 5 5 5 5 5 5 5 5 5 5 5 5 5 5 5 5 5 5 5 5 5 5 5 5 5 5 5 5 5 5 5 5 5 5 5 5 5 5 5 5 5 5 6 5 6 5 5 5 5 5 5 5 5 5 5 5 5 5 5 5 5 5 5 5 6 5 5 5 5 5 6 5 5 6 6 5 5 5 6 5 5 5 5 5 6 6 5 6 5 5 5 5 5 5 5 5 5 5 5 5 6 5 5 5 5 5 5 5 5 5 5 6 5 5 5 5 5 5 5 5 5 5 5 5 5 6 5 5 5 5 5 5 5 5 5 5 5 5 5 5 5 5 5 5 5 5 5 5 5 5 5 5 5 5 5 5 5 5 5 5 5 5 5 5 5 5 6 5 6 5 5 6 5 5 6 5 5 5 5 6 5 5 6 5 5 5 5 5 5 6 5 5 6 5 5 5 5 6 5 5 5 6 5 6 6 5 5 6 6 5 5 5 5 5 5 5 5 5 5 5 5 5 5 5 5 5 5 5 6 5 5 5 5 5 5 5 5 5 6 5 5 5 5 5 5 5 5 5 5 5 5 5 5 5 5 5 5 5 5 5 5 5 5 5 5 5 5 5 5 5 5 5 5 5 5 5 5 5 5 5 5 5 5 5 5 5 5 5 5 5 5 5 5 5 5 6 5 5 5 5 5 5 5 5 5 5 5 5 5 5 5 5 5 5 5 5 5 5 5 5 5 5 5 5 5 5 5 5 5 5 5 5 5 5 5 5 5 5 5 5 5 5 5 5 5 5 5 5 5 5 5 5 5 5 5 5 5 5 5 5 5 5 5 5 5 5 5 6 5 6 5 5 5 5 5 5 5 5 5 5 5 5 5 5 5 5 5 6 5 5 5 5 5 6 5 5 5 5 5 5 5 5 5 5 5 5 5 5 5 5 5 5 5 5 5 5 5 5 5 5 5 5 5 5 5 5 5 5 5 5 5 6 5 5 5 6 5 5 5 5 5 5 5 5 5 5 5 6 5 6 5 5 5 6 5 6 5 5 5 5 5 5 5 5 5 5 5 5 5 5 5 5 5 5 5 5 5 5 5 5 5 5 5 5 5 5 5 5 5 5 5 5 5 5 5 5 5 5 5 6 5 5 5 5 5 6 5 5 5 5 5 5 6 5 5 5 5 5 5 6 5 5 5 5 5 5 5 5 6 5 5 5 5 5 5 5 5 5 5 6 5 5 5 5 6 5 5 5 5 5 6 6 5 6 5 5 5 5 6 5 6 6 6 5 5 5 5 5 6 5 5 5 5 5 6 5 5 6 5 5 5 5 5 5 5 5 5 5 5 5 5 5 5 5 5 5 5 5 5 5 5 6 5 5 5 5 5 5 6 5 5 5 5 5 5 5 5 5 5 5 5 5 6 5 5 5 5 5 5 5 5 6 5 5 5 5 5 5 5 5 5 5 5 5 5 5 5 5 5 5 5 5 5 5 5 5 5 5 5 5 5 5 5 5 5 5 5 5 5 5 5 5 5 5 5 5 5 5 5 5 5 5 5 5 5 5 5 5 5 5 5 5 5 5 5 5 5 5 5 5 5 5 5 5 5 5 5 5 5 5 5 5 5 5 5 5 5 5 5 5 5 5 5 5 5 5 5 5 5 5 5 6 5 5 5 5 5 5 6 5 5 5 5 5 5 5 5 5 5 5 5 5 5 5 5 5 5 5 5 5 5 5 5 5 5 5 6 5 6 5 5 5 5 5 5 6 6 5 5 5 5 5 5 5 5 5 6 5 5 6 5 5 5 5 5 5 5 5 6 5 5 6 6 5 5 5 5 5 5 5 6 5 5 6 5 5 5 5 5 5 6 5 5 5 5 5 5 5 5 5 5 5 5 5 5 5 5 5 6 5 6 5 5 5 5 5 5 5 5 5 5 5 6 5 5 5 5 5 5 5 5 5 5 5 5 5 5 5 5 5 5 5 5 5 5 5 5 5 5 5 5 5 5 5 5 5 5 5 5 5 5 5 5 5 5 5 5 5 5 5 5 5 5 5 5 5 5 5 6 5 5 5 5 5 5 5 5 5 6 5 5 5 6 6 5 6 5 6 5 6 5 5 5 5 5 6 5 5 6 5 5 6 5 5 5 5 5 5 6 5 6 6 5 5 5 5 5 5 5 5 5 6 5 5 5 5 5 6 5 5 5 5 6 5 5 5 5 5 6 5 5 6 5 5 6 5 5 5 5 5 5 5 5 6 5 5 5 5 5 5 5 6 5 5 6 6 5 5 5 5 5 5 5 5 5 6 5 6 5 5 5 5 5 5 5 5 5 5 5 5 5 5 5 5 5 5 5 5 6 5 5 5 6 5 5 5 5 6 6 6 5 5 5 6 5 5 5 6 5 6 5 6 6 5 5 5 6 5 5 5 6 5 5 6 5 6 5 5 6 5 5 5 5 5 5 5 5 5 5 5 5 5 5 6 5 5 5 5 5 5 6 5 6 5 5 5 6 5 5 6 5 5 6 5 5 5 5 5 5 5 5 6 5 5 5 5 6 5 5 5 5 6 5 5 5 5 5 5 5 5 6 5 5 5 6 5 5 5 5 5 5 5 5 5 5 5 5 5 5 5 5 5 5 5 6 5 5 6 5 5 5 5 5 5 5 5 5 6 5 5 5 5 5 6 5 5 5 6 5 5 6 5 6 6 5 5 5 5 5 5 6 5 6 5 5 5 6 5 5 5 6 5 5 5 5 5 5 5 5 5 5 5 5 5 5 5 5 5 5 5 5 6 5 5 5 5 6 5 5 5 5 5 5 5 5 5 5 6 5 5 5 5 5 5 5 5 5 5 5 5 5 5 5 5 5 5 6 5 5 5 5 5 5 5 5 5 5 5 5 5 5 6 5 5 5 5 6 5 5 5 5 5 5 5 6 5 5 5 5 5 5 5 5 5 5 5 5 5 5 5 5 5 6 5 5 5 5 6 5 5 5 5 5 5 5 5 6 5 5 6 5 5 6 5 5 5 5 5 5 5 5 5 5 6 5 5 5 6 5 5 5 5 5 5 5 5 5 5 5 5 5 5 5 5 5 5 5 5 5 5 5 5 5 5 6 5 5 5 5 5 5 5 5 5 5 6 5 6 5 5 5 5 5 5 5 6 5 6 5 5 6 5 6 5 6 5 5 5 5 5 6 5 5 5 5 5 5 5 6 5 5 5 5 5 5 5 5 5 5 5 5 5 5 5 5 5 5 5 5 5 5 5 5 5 5 5 5 5 5 5 5 6 5 5 5 5 5 5 5 6 5 5 5 5 5 5 5 6 5 5 5 5 5 6 5 5 5 5 5 5 5 5 5 5 5 5 6 5 5 5 5 5 6 5 6 5 5 5 5 5 5 5 5 6 5 5 5 5 5 5 6 5 5 6 5 5 5 5 5 5 5 5 5 5 5 5 5 5 5 5 5 5 5 5 5 6 5 5 5 6 5 5 5 5 6 6 5 6 6 6 5 5 5 6 6 5 5 5 5 5 5 5 5 5 6 5 6 5 5 5 5 6 5 5 5 5 6 5 6 5 5 5 6 5 5 5 5 5 6 5 5 6 5 5 5 5 5 6 5 5 5 5 5 5 5 5 5 5 5 5 5 5 5 5 5 5 5 5 5 5 5 5 5 5 5 5 5 5 5 5 5 5 5 5 5 5 5 5 5 5 6 5 5 5 5 5 5 6 5 6 5 5 5 5 5 5 5 5 5 6 5 6 5 5 5 5 5 5 5 6 5 5 5 5 6 5 5 6 5 5 5 5 5 5 5 5 5 5 5 6 6 5 5 5 6 6 5 5 5 5 5 5 5 5 5 5 5 5 5 5 5 5 5 5 5 5 5 5 5 5 5 5 5 6 5 5 5 5 6 5 5 5 5 5 5 5 6 6 5 6 5 5 5 5 5 5 5 5 5 5 5 5 6 5 5 5 5 5 5 5 5 6 5 5 5 5 5 6 5 5 5 6 5 5 5 5 5 5 6 5 5 5 5 5 5 5 5 5 5 5 5 5 5 5 5 5 5 5 5 5 5 5 5 5 5 5 5 5 6 5 5 5 5 5 5 5 5 5 5 5 5 5 5 5 5 5 5 5 5 5 5 5 5 5 5 5 5 5 5 5 5 5 5 5 5 5 5 5 5 5 5 5 5 5 5 5 5 5 5 5 5 6 5 5 5 5 5 5 5 5 5 5 5 5 5 5 5 5 5 5 5 6 5 5 6 5 5 5 5 5 5 5 5 5 5 5 5 5 5 5 5 5 5 5 5 5 5 5 5 5 5 5 5 5 5 5 5 5 5 5 5 5 5 5 5 5 5 5 5 5 5 5 5 5 5 5 6 5 5 5 5 5 5 5 6 5 5 5 5 5 6 5 5 5 5 5 5 5 5 5 5 5 5 5 5 5 5 5 5 5 6 5 5 5 5 5 5 5 5 6 5 6 5 5 5 5 5 6 6 5 5 6 5 5 5 5 5 5 5 6 5 5 5 5 5 5 5 5 5 5 5 5 5 5 5 5 5 5 6 5 5 5 5 5 5 5 5 6 5 5 5 5 5 5 5 5 5 5 5 5 5 5 5 5 5 5 5 5 5 5 5 5 6 5 5 5 5 5 5 5 5 5 5 5 5 5 5 5 5 5 5 5 5 5 5 5 5 5 5 6 5 6 5 5 5 5 5 5 5 5 5 5 5 5 5 5 5 5 5 5 5 5 5 5 5 5 5 5 5 6 5 5 6 5 5 5 5 5 5 6 5 5 5 5 6 5 6 6 5 5 5 5 5 5 5 5 5 5 5 5 5 5 5 5 5 5 5 5 6 6 5 5 5 5 6 5 5 5 5 5 5 5 5 5 5 5 5 5 5 5 6 6 5 5 6 5 5 5 5 5 5 5 5 5 5 5 5 5 5 5 5 5 5 6 5 5 5 5 5 5 6 6 5 6 5 5 5 5 5 5 5 5 5 5 5 5 5 6 5 5 5 5 5 5 5 5 5 5 5 5 5 5 5 5 5 5 5 5 5 5 5 5 5 5 5 6 5 6 5 5 5 5 5 5 5 5 5 5 5 5 5 6 5 5 5 6 5 5 5 6 5 5 5 5 5 5 6 5 5 6 5 5 5 5 5 5 5 5 5 5 5 5 5 5 5 5 5 5 6 5 5 5 5 6 5 6 5 5 6 5 5 5 5 5 5 5 5 5 5 5 5 5 6 6 5 5 6 5 6 6 5 5 5 5 5 5 5 5 5 5 5 6 5 5 6 5 5 5 5 6 6 5 6 5 6 6 5 5 5 6 6 6 5 5 6 6 5 6 5 5 6 5 5 5 6 5 5 5 6 5 5 6 5 5 6 5 6 5 5 5 6 5 6 5 5 6 6 6 6 5 6 5 5 5 6 5 5 5 6 6 5 5 6 5 6 5 5 6 6 5 6 5 5 5 6 5 5 5 5 5 5 6 5 5 5 6 5 5 5 5 5 5 5 5 5 5 5 5 6 5 5 5 5 5 5 5 5 5 5 5 5 5 5 5 6 5 5 5 6 5 5 6 5 5 5 5 5 5 5 5 5 5 5 5 5 5 5 5 5 6 5 5 6 5 5 5 6 5 6 5 5 6 5 5 5 6 5 5 5 6 5 5 5 5 5 5 5 5 5 5 5 6 5 6 5 6 5 5 5 5 5 5 5 6 5 5 5 5 6 5 6 5 6 5 5 5 6 5 6 5 5 6 5 6 6 5 5 5 5 5 5 5 6 5 5 6 5 5 5 5 5 5 6 5 5 5 5 5 5 5 5 6 5 5 5 5 6 5 6 5 5 6 5 6 5 5 5 5 5 5 5 5 6 5 5 5 5 5 5 5 5 5 5 5 5 5 5 5 5 5 6 5 6 6 5 5 5 5 5 6 5 5 5 5 5 5 5 5 6 5 5 6 5 5 5 5 5 6 5 5 5 5 5 5 5 5 6 5 5 6 5 5 5 5 5 5 6 5 5 6 6 5 6 5 6 6 6 5 5 5 6 6 5 5 6 6 5 6 5 5 6 6 5 5 6 5 5 5 6 5 6 6 5 5 5 5 5 5 5 5 6 5 5 5 5 5 5 5 5 5 5 6 5 5 6 5 6 5 5 5 5 5 5 5 5 6 5 5 5 6 5 5 5 5 5 5 5 6 5 5 5 5 5 5 6 5 5 5 5 5 5 6 5 5 5 6 5 5 5 6 5 6 5 6 5 5 5 5 6 6 5 5 5 5 5 5 5 5 5 5 5 5 5 5 5 5 5 5 5 5 6 5 5 6 5 5 5 6 6 5 6 5 5 5 5 5 5 5 5 5 6 5 5 5 5 5 5 6 5 5 5 5 5 5 5 5 6 5 5 5 6 6 5 5 5 5 5 5 5 5 5 5 5 5 5 5 6 5 5 5 5 5 5 5 5 5 6 5 6 5 5 5 5 5 5 5 5 5 5 5 5 5 5 5 5 5 5 5 5 5 5 5 5 5 5 5 5 5 5 5 5 5 5 5 5 5 5 5 5 5 5 5 5 5 5 5 5 5 5 5 5 5 6 5 6 5 6 5 5 5 5 5 5 5 6 5 5 5 5 6 5 5 5 5 5 5 5 5 6 5 5 5 5 5 6 6 5 5 5 5 6 5 5 6 5 5 5 6 5 5 6 5 5 5 5 5 6 5 6 6 5 5 6 6 5 5 5 6 5 6 5 6 5 5 5 6 6 5 5 5 6 6 5 6 5 5 5 6 6 5 5 5 6 6 5 6 6 5 6 6 5 5 5 5 6 5 6 5 6 5 6 5 5 5 5 5 5 5 5 5 5 6 5 5 6 5 6 5 5 5 6 6 5 5 5 6 5 6 5 6 6 5 5 5 5 5 5 5 5 5 5 5 5 6 5 5 5 5 5 5 6 5 5 6 5 5 5 5 5 5 5 5 5 6 5 5 6 5 5 5 5 5 5 5 5 5 5 5 5 5 5 5 5 5 5 5 5 5 5 5 5 5 5 5 5 5 5 5 5 5 5 5 5 5 5 5 6 5 5 5 5 5 5 6 5 5 5 5 5 5 5 5 5 5 5 5 6 5 6 5 5 5 5 5 5 5 5 5 5 5 5 5 5 5 5 5 5 5 5 6 5 5 6 5 5 5 6 6 5 5 5 5 5 5 5 5 6 5 5 5 5 5 5 5 5 5 5 5 5 5 5 5 5 6 5 5 5 5 5 5 6 6 5 5 5 5 5 5 5 5 6 5 5 5 6 5 5 5 5 5 5 6 5 5 5 5 5 5 5 6 5 5 5 5 5 5 5 5 5 5 5 5 6 5 5 5 6 5 5 5 5 6 5 5 5 5 5 5 5 5 5 5 5 5 5 5 5 5 6 5 5 5 5 5 5 5 5 5 5 5 6 5 6 5 5 5 5 5 5 5 5 6 5 5 6 5 5 5 5 5 5 6 5 5 6 6 5 5 5 5 5 5 5 5 5 6 5 5 5 6 5 5 5 5 5 5 5 5 5 5 6 5 5 5 5 5 5 5 5 5 5 5 5 5 5 5 5 5 5 5 5 5 5 5 5 5 5 5 5 5 5 6 5 5 5 5 5 6 5 5 5 5 5 5 5 5 5 6 5 6 5 5 5 5 5 5 6 5 5 6 5 5 5 5 5 5 5 5 5 5 5 5 5 5 5 5 5 5 5 5 5 5 6 5 6 5 5 5 5 5 5 5 5 5 5 5 5 5 5 5 5 5 5 5 5 5 5 5 6 5 5 5 5 6 5 5 5 5 5 6 5 5 6 5 6 5 5 5 5 6 6 6 5 5 6 5 5 6 6 5 6 5 5 5 5 5 6 5 5 5 6 6 6 6 5 5 5 6 6 5 5 5 6 6 5 6 5 5 5 5 5 5 5 5 5 5 5 5 5 5 5 5 5 5 6 5 5 5 5 5 5 5 5 5 5 5 5 6 5 5 5 5 5 5 5 5 5 5 5 5 5 6 6 5 5 5 5 5 5 5 5 6 5 6 5 5 5 5 6 5 6 5 5 5 5 5 5 6 5 5 5 5 5 5 5 5 5 5 5 5 5 5 5 5 6 5 5 6 5 5 5 5 5 5 5 5 5 5 5 5 5 5 5 5 5 5 5 5 6 5 5 5 5 5 5 5 5 6 5 5 5 5 5 5 5 5 5 5 5 6 5 6 5 5 5 5 5 6 5 5 5 6 5 6 5 5 5 5 5 5 5 5 5 6 5 5 5 5 5 5 5 5 5 5 5 6 5 5 6 5 5 5 5 5 6 6 5 5 5 5 5 6 5 5 6 5 5 6 5 5 5 5 5 5 5 5 5 5 5 5 5 5 5 5 6 5 5 6 5 5 5 5 5 5 5 5 5 5 5 5 5 5 5 5 5 5 5 6 5 5 5 5 6 5 5 5 5 5 6 5 5 5 5 5 6 5 5 5 5 6 5 5 5 5 5 6 5 5 5 5 5 5 5 5 5 5 5 5 5 5 5 5 5 5 5 5 5 5 5 6 5 5 5 5 5 5 5 6 5 5 5 5 5 5 5 6 5 5 5 6 5 5 5 5 5 5 5 5 5 5 5 6 5 5 5 5 5 5 6 5 5 5 5 5 5 5 5 5 5 5 5 5 5 5 5 5 5 5 5 6 5 5 5 5 5 5 6 5 5 5 5 5 5 5 5 6 5 5 5 6 5 5 5 5 5 5 5 5 5 5 5 5 5 5 5 5 5 5 5 5 5 5 5 5 5 5 5 5 5 5 5 5 5 5 5 5 5 5 5 5 5 5 6 5 5 5 5 5 5 5 5 5 5 5 5 5 5 5 5 5 5 5 5 5 5 5 5 5 5 6 5 5 5 5 5 5 5 5 5 5 5 5 6 5 5 5 5 5 5 5 5 5 5 5 6 5 5 6 5 5 5 5 5 5 5 6 5 5 5 5 5 5 5 5 5 5 5 5 6 5 6 5 6 5 6 5 5 5 5 5 6 5 5 5 5 5 5 5 5 5 5 5 5 5 5 5 5 6 5 5 5 5 5 5 5 5 5 5 5 6 5 6 5 5 5 5 6 5 6 5 5 5 5 5 5 5 5 5 5 6 6 5 5 5 5 5 5 5 6 5 5 5 5 6 6 5 5 5 5 6 5 5 5 5 5 5 5 5 5 5 5 5 5 5 5 5 5 5 5 5 5 5 5 5 5 5 5 5 5 5 5 5 5 5 5 5 5 5 5 5 5 5 5 5 5 5 5 5 5 5 5 5 5 5 5 5 5 5 5 5 5 5 5 5 5 5 5 5 5 5 5 6 5 5 5 5 5 5 5 5 5 5 5 5 5 5 5 5 5 5 5 5 5 6 5 5 5 5 5 6 5 5 5 5 6 5 5 5 5 5 5 5 6 5 5 5 6 5 5 5 5 5 5 5 5 5 5 5 5 5 5 6 5 5 5 5 6 5 6 5 5 5 5 5 5 6 5 5 5 5 5 5 5 5 5 5 6 5 5 6 5 5 5 5 5 5 5 5 5 5 5 6 5 5 5 5 5 5 5 6 5 5 5 5 5 5 5 5 5 5 5 5 5 5 6 5 6 5 5 6 5 5 6 6 5 5 5 5 6 5 6 5 5 6 5 6 5 5 5 5 5 5 5 5 5 5 5 5 6 5 5 5 6 5 5 5 6 5 5 5 5 5 5 5 5 5 5 5 6 5 5 5 6 5 6 5 5 5 5 6 5 5 5 5 5 5 5 5 5 5 5 6 5 5 5 5 5 5 5 6 5 5 5 5 6 5 6 5 6 5 5 5 5 5 5 5 6 5 5 5 5 5 5 6 5 5 5 5 5 5 5 6 5 5 5 5 5 6 5 5 5 5 6 6 5 5 5 5 5 6 5 5 5 5 5 6 5 6 5 5 5 5 6 5 5 5 6 5 5 5 5 5 5 5 5 5 5 5 5 5 5 5 5 5 5 5 5 5 5 5 5 5 5 5 6 5 5 5 6 6 5 5 5 5 5 5 5 5 6 5 5 5 5 6 5 5 5 5 5 5 5 5 5 6 5 5 6 5 5 5 5 6 5 5 6 5 5 5 5 6 5 5 6 5 5 6 5 5 6 5 5 5 5 5 5 5 5 5 5 5 5 5 5 5 5 6 5 5 5 6 5 5 5 5 5 5 5 6 5 5 5 6 5 5 6 6 5 5 5 6 5 6 5 5 5 6 6 5 5 5 5 5 5 5 5 5 6 5 6 5 5 5 5 6 6 5 5 5 6 5 5 5 5 5 6 5 5 5 5 5 5 5 5 5 5 5 5 5 5 5 5 5 5 5 5 5 5 5 5 5 5 5 5 6 5 5 5 5 5 5 5 5 5 5 6 5 5 6 5 5 5 5 6 5 5 5 5 5 5 5 5 5 5 5 5 5 5 5 5 6 5 5 5 5 5 5 5 6 6 5 5 5 5 5 5 5 6 6 5 5 5 5 5 5 5 6 5 5 5 5 5 6 5 5 5 5 5 6 5 6 6 5 6 5 5 5 5 5 5 5 5 5 5 5 5 5 5 5 5 5 5 5 5 5 5 5 5 5 5 5 5 5 5 5 5 5 6 5 5 5 5 5 5 5 5 5 5 5 6 5 5 5 5 5 5 5 5 6 5 5 6 6 5 6 5 6 5 6 5 5 5 6 6 5 5 6 5 5 5 6 5 5 5 5 5 5 6 5 5 6 5 5 5 5 5 5 6 5 5 5 6 5 5 5 5 5 5 5 5 5 5 5 6 5 5 5 5 5 5 5 6 5 5 5 6 5 5 5 5 5 5 5 6 5 5 5 5 6 5 5 5 5 5 5 5 5 6 5 5 5 6 5 5 5 6 5 5 5 5 6 5 5 5 5 5 6 5 6 5 5 5 6 5 6 5 5 5 5 6 5 5 6 5 5 6 5 5 5 5 5 5 5 5 5 5 5 5 5 5 5 5 5 5 5 5 5 5 5 5 5 5 5 5 5 5 5 5 5 5 5 5 5 5 5 5 5 5 5 5 5 5 5 5 5 6 6 5 5 5 5 5 5 6 5 5 5 5 5 5 5 5 5 5 5 5 5 5 5 5 5 5 5 5 5 5 5 5 5 5 5 5 5 6 5 5 5 5 5 5 6 5 5 6 5 5 5 5 5 5 5 5 6 5 5 5 5 5 6 5 5 5 6 5 5 5 6 5 5 5 5 5 6 5 5 5 6 5 6 5 6 6 5 6 5 5 5 5 6 5 5 5 5 5 5 5 5 5 6 5 5 5 5 5 5 6 5 5 6 5 5 5 5 5 5 5 6 5 5 5 5 5 5 5 5 5 5 5 5 5 5 5 5 5 5 5 5 5 5 5 5 5 5 5 5 6 5 6 5 6 5 5 5 5 6 6 5 5 5 5 5 5 6 5 6 5 5 5 5 5 5 5 5 5 5 5 5 5 5 5 5 5 5 5 5 5 5 6 5 6 5 6 6 6 5 5 5 5 5 5 5 6 5 6 5 5 5 5 5 5 5 5 6 6 5 6 5 5 6 5 5 5 6 5 6 5 5 5 5 6 5 5 5 5 5 5 5 5 5 5 5 5 5 6 5 5 5 5 5 5 5 5 5 6 5 5 5 5 5 5 5 5 6 5 5 5 5 5 6 5 5 5 5 5 6 5 5 5 5 5 5 5 6 5 5 6 5 5 6 5 5 5 5 5 5 6 5 5 5 5 6 5 6 5 5 5 5 5 5 5 6 5 5 6 6 5 6 5 6 5 5 5 6 5 6 5 6 5 5 5 5 6 5 5 5 5 5 6 5 5 5 5 5 5 5 5 6 5 5 5 5 5 5 5 5 5 5 5 5 5 6 5 5 5 5 5 5 5 5 5 5 6 5 5 5 6 5 5 5 5 5 5 5 5 5 5 5 6 5 5 5 6 5 6 5 5 6 5 5 5 6 5 5 5 6 5 5 6 5 5 5 5 5 5 5 5 6 5 6 5 5 5 5 5 5 5 5 5 5 5 5 5 5 5 5 5 5 5 5 5 5 5 5 5 5 6 5 5 6 5 5 6 5 5 5 5 5 5 5 5 5 5 5 5 5 5 5 5 5 5 5 5 5 5 5 5 5 5 5 5 5 5 5 5 5 5 6 5 5 5 5 5 5 5 5 5 5 5 5 5 5 5 5 5 6 5 5 6 5 5 5 5 5 5 5 6 5 5 5 5 5 5 5 5 5 5 5 6 5 6 5 5 5 6 5 5 6 5 5 5 6 5 6 5 5 5 5 5 5 5 6 5 6 5 5 5 5 5 5 5 5 5 5 5 5 5 5 5 5 5 6 5 5 6 5 5 5 5 6 5 6 5 5 5 6 5 5 5 6 5 6 5 5 5 5 5 5 6 5 5 5 5 5 5 5 5 5 5 6 5 5 5 5 6 5 5 5 5 5 5 5 5 5 5 5 5 5 5 5 5 5 5 5 5 5 5 5 5 5 5 5 5 5 5 5 5 5 5 5 5 5 5 5 5 5 6 5 5 5 5 5 6 6 5 5 5 5 6 5 6 5 5 5 5 5 5 5 6 6 5 5 5 5 5 5 5 5 5 6 5 5 5 5 5 5 5 5 5 5 5 5 5 5 5 5 5 5 5 5 5 5 5 5 5 5 5 5 5 5 5 5 5 5 5 5 5 5 5 5 5 5 5 5 5 5 5 5 5 5 5 5 5 6 5 5 5 6 5 5 5 5 5 5 5 5 5 5 5 5 5 5 5 5 5 5 5 5 5 5 5 5 5 5 5 5 5 5 5 5 5 5 5 5 5 6 5 6 5 5 5 5 5 5 5 5 5 5 5 5 5 5 5 5 5 5 6 5 5 5 5 5 5 5 5 5 5 5 6 5 5 5 5 5 6 5 5 5 5 5 5 6 5 5 5 5 5 5 5 5 5 5 5 5 5 5 5 5 5 5 5 5 5 5 5 5 5 5 5 5 5 6 5 5 5 5 5 5 5 5 5 5 5 5 5 5 5 5 5 5 5 5 5 5 5 5 5 5 5 5 5 6 5 5 6 5 5 6 5 5 6 5 6 5 5 5 5 5 5 5 5 5 5 5 5 5 5 5 5 5 5 5 5 5 5 5 5 5 5 5 5 6 5 5 5 5 5 5 5 5 6 5 6 5 5 5 6 5 5 6 5 6 5 6 5 6 5 6 5 6 5 5 5 5 5 5 5 5 5 5 5 5 5 5 5 5 5 5 5 5 5 5 5 5 5 5 5 5 5 6 5 5 6 5 6 5 5 5 5 5 6 5 5 6 5 5 5 5 6 5 6 5 6 5 6 6 5 6 6 6 5 6 5 5 5 5 5 5 5 5 5 6 5 5 5 5 5 6 5 5 6 5 5 5 5 5 5 5 6 5 5 6 5 5 6 5 5 5 5 5 5 5 5 5 5 5 5 5 5 5 5 6 5 5 6 5 5 6 5 5 5 5 5 6 5 5 5 5 5 6 5 5 5 5 5 6 5 5 5 5 6 5 5 6 5 5 6 6 5 5 5 5 6 5 5 5 6 5 5 5 6 5 5 5 5 5 5 5 5 6 5 5 5 5 5 5 5 5 5 5 6 5 5 5 5 6 5 6 5 5 5 5 6 5 5 6 5 5 5 5 5 5 5 5 5 5 6 5 5 5 6 5 5 5 5 5 5 5 5 5 5 5 6 6 5 5 5 5 5 6 5 5 5 5 6 5 5 5 6 5 5 6 5 5 5 5 5 5 5 6 6 5 5 5 5 5 5 6 5 6 5 6 5 5 5 6 5 5 6 5 5 5 5 6 6 6 5 5 5 5 5 5 5 5 5 5 5 5 5 5 5 5 5 5 5 5 6 5 5 5 5 5 5 5 5 5 5 5 5 5 5 6 5 5 5 6 6 5 6 5 5 6 6 6 5 6 5 6 5 5 5 6 5 6 5 5 6 5 5 6 6 6 5 6 5 6 6 5 5 6 5 5 5 5 6 6 5 5 5 5 5 5 6 6 5 6 6 5 6 5 5 6 5 5 5 6 6 5 5 5 6 5 5 5 5 5 5 5 5 5 5 6 5 5 5 5 5 5 5 5 5 5 5 5 5 5 5 5 5 6 5 5 5 5 6 5 5 5 5 5 5 5 5 5 5 5 5 5 5 6 5 5 5 5 5 5 6 5 6 5 5 5 5 5 6 6 5 5 5 5 5 5 5 5 5 5 5 5 5 5 5 5 5 5 5 5 5 5 5 5 5 5 5 5 5 5 5 5 5 5 5 5 5 5 5 5 5 5 5 5 5 5 5 5 5 5 5 5 5 5 5 5 5 5 6 5 5 5 6 5 5 5 5 5 5 5 5 5 5 5 5 6 5 5 5 5 5 5 5 5 6 5 5 6 5 5 6 5 5 5 5 6 5 6 5 5 5 6 5 6 5 5 5 5 6 5 5 6 6 5 5 6 5 5 6 5 5 5 5 5 5 5 5 5 5 5 5 5 5 5 6 5 5 5 5 5 5 5 5 5 5 5 5 5 5 5 5 5 5 5 5 5 5 5 5 5 5 5 5 5 5 5 5 5 5 5 5 5 5 5 5 5 5 5 5 5 5 5 6 5 6 5 5 5 5 5 5 5 5 6 5 5 5 5 5 5 5 6 5 5 6 5 5 6 5 5 5 5 5 5 5 5 5 5 5 5 5 5 5 5 5 5 5 6 5 5 5 5 5 5 5 6 5 5 5 6 5 5 6 6 6 5 5 5 5 6 6 5 5 5 5 5 6 5 5 5 5 6 5 5 5 5 5 5 6 5 5 5 6 6 5 5 5 5 5 5 5 5 5 5 5 5 5 6 5 5 6 5 5 5 5 5 5 5 5 5 5 5 5 5 5 5 5 5 5 5 6 5 5 5 5 5 5 5 5 5 5 5 5 5 5 6 5 5 5 5 5 6 5 5 6 5 5 5 5 5 5 6 5 6 5 6 5 6 5 5 6 5 5 6 5 5 5 6 5 6 5 5 5 5 5 5 5 5 6 5 5 5 5 5 5 5 5 5 5 5 5 5 5 5 5 5 5 5 5 5 5 5 6 5 5 6 5 5 5 6 5 6 6 5 5 5 5 5 5 5 5 5 5 6 5 6 5 6 5 5 5 5 5 5 5 5 5 5 5 5 6 5 5 5 5 5 5 5 5 5 5 5 5 5 5 5 5 5 5 5 5 5 6 5 6 5 5 5 6 6 6 5 5 5 5 6 5 5 5 5 6 5 5 5 5 5 5 6 5 5 5 5 5 5 6 6 5 6 6 5 5 5 5 5 6 5 5 5 5 5 5 5 5 6 5 5 5 5 5 5 5 6 5 5 5 6 5 5 5 6 5 5 5 5 5 5 6 5 5 6 5 5 6 5 5 6 5 5 6 5 6 5 5 5 5 5 6 5 5 5 5 5 5 5 5 5 5 5 5 5 6 5 6 5 5 5 5 5 5 5 5 5 5 5 5 5 5 5 5 5 5 5 5 5 5 5 5 5 5 5 5 5 5 5 5 5 5 5 6 5 5 6 5 5 5 5 5 5 6 5 5 5 5 5 5 5 5 5 5 5 5 6 5 5 5 5 6 5 5 5 5 5 6 5 5 5 5 5 6 5 5 5 5 5 5 5 5 5 5 5 5 5 5 5 5 5 5 5 5 5 5 5 5 5 5 5 5 5 5 5 5 5 5 5 5 5 5 5 6 5 5 5 5 5 6 5 5 6 5 5 5 5 5 5 6 5 5 6 5 5 6 5 5 6 6 6 5 5 6 5 5 6 5 5 5 5 5 5 6 5 5 5 5 5 5 5 5 5 6 5 6 5 5 5 5 5 6 5 5 6 5 5 6 5 5 5 5 5 5 5 6 5 5 5 5 6 5 5 6 5 5 5 5 5 6 5 5 5 5 5 5 5 6 5 5 6 5 6 5 5 5 5 5 5 5 5 5 5 5 5 5 5 5 5 5 5 5 5 5 5 5 5 5 5 5 5 5 5 6 5 5 5 5 5 6 5 5 5 6 5 5 5 5 5 5 5 5 5 5 5 5 5 5 5 5 5 5 5 5 6 5 5 5 5 5 5 6 5 5 5 5 5 5 5 5 5 5 6 5 5 5 5 5 6 5 5 6 6 5 5 5 5 5 6 5 5 5 5 5 5 6 5 5 5 5 6 5 5 5 5 5 5 5 5 5 5 5 5 5 5 6 5 6 5 5 5 5 5 5 5 5 5 5 5 5 5 5 5 5 5 5 5 5 5 6 5 6 5 5 6 6 5 5 5 5 5 5 5 6 5 5 5 6 5 5 6 5 5 5 6 5 5 5 6 5 5 6 5 5 5 5 5 6 5 5 5 5 5 5 5 5 5 5 6 5 5 6 5 5 5 5 5 5 5 5 6 5 5 6 5 5 6 5 5 5 5 5 5 6 5 5 5 6 5 5 5 5 5 6 5 5 5 5 6 5 5 5 6 5 5 6 6 5 5 5 5 6 5 5 5 6 5 5 5 5 5 5 6 5 5 5 5 6 5 6 5 6 5 5 6 5 5 6 6 5 5 5 5 6 5 5 5 5 5 6 5 5 5 5 5 5 5 5 5 5 5 6 5 5 5 5 5 5 5 5 5 6 5 5 5 5 5 5 5 5 5 5 5 5 5 5 5 5 5 5 5 5 5 5 5 5 5 5 5 5 5 5 6 5 5 5 5 5 5 5 5 5 6 5 6 5 5 5 5 6 5 5 5 5 5 5 5 5 5 5 5 6 5 5 5 5 5 5 5 5 5 5 5 5 5 5 5 6 5 5 5 5 6 5 5 5 5 5 5 6 5 5 5 5 5 5 5 5 5 5 5 5 5 5 5 5 5 5 5 5 5 5 5 5 5 5 5 5 5 5 5 5 5 5 5 5 5 5 5 5 5 5 5 5 5 5 5 5 5 6 5 5 5 6 5 5 5 5 5 5 5 5 5 5 5 5 6 5 5 5 6 5 5 5 5 6 5 5 5 6 5 6 6 5 5 6 6 5 6 6 5 5 5 5 5 5 5 5 5 5 5 5 5 5 5 5 5 5 5 5 5 5 5 5 5 5 5 5 5 6 5 5 5 5 5 6 5 5 6 6 5 5 5 5 6 5 5 5 6 5 6 5 5 6 5 6 5 6 6 5 5 5 5 5 5 5 5 5 5 5 6 5 5 5 6 5 5 5 5 6 6 5 5 6 6 5 6 6 5 6 5 5 6 5 5 5 5 5 6 5 5 5 5 5 5 5 5 6 5 6 5 5 5 5 5 5 5 5 5 6 5 5 5 5 6 5 5 5 5 5 5 5 6 5 5 5 6 5 5 5 5 5 5 5 5 6 6 5 5 6 6 6 5 5 5 5 5 5 5 5 5 5 5 5 5 5 5 5 5 5 5 6 5 5 5 5 6 5 5 6 5 5 5 5 5 5 5 5 5 5 5 5 5 5 5 5 6 5 5 5 5 5 5 5 6 5 6 5 5 5 5 5 5 5 5 5 6 5 5 6 5 5 6 5 6 5 5 5 6 5 5 5 5 6 5 5 5 5 5 5 5 5 5 5 5 6 5 5 5 5 5 5 5 5 5 6 5 5 5 5 5 5 5 5 5 6 5 5 6 5 5 5 6 5 5 6 5 5 5 5 6 5 5 6 5 5 6 5 5 5 5 5 5 5 5 5 5 5 5 5 5 5 6 5 6 5 5 6 5 6 5 5 5 5 5 5 5 5 5 5 5 5 5 6 5 5 5 6 5 6 6 5 5 5 5 6 5 5 5 5 5 5 5 5 6 5 5 5 5 5 5 5 5 6 5 5 5 5 5 5 5 6 5 5 5 5 5 5 5 5 5 5 5 5 5 5 5 6 5 5 5 5 5 5 5 5 6 5 5 6 5 5 5 5 6 5 5 5 5 5 5 5 5 5 5 5 5 5 5 5 5 5 6 5 5 5 5 5 5 5 5 5 5 5 5 5 5 5 5 5 6 5 5 5 5 5 5 5 5 5 5 5 6 5 5 5 6 5 5 5 5 5 5 5 5 6 5 5 5 6 5 5 5 5 5 5 5 5 5 5 5 5 5 5 5 6 5 5 5 5 5 5 5 5 5 6 5 5 5 5 5 5 5 5 5 5 5 6 5 5 5 5 5 5 5 5 5 5 5 5 6 6 5 5 5 5 5 5 5 6 5 5 5 6 5 5 5 5 5 5 6 5 5 5 5 5 5 5 5 5 5 5 5 5 5 5 5 5 5 5 5 5 5 5 5 5 5 5 5 5 5 5 5 5 5 5 5 5 5 5 5 6 5 5 5 5 5 5 5 5 5 5 5 5 5 5 5 5 5 5 5 5 5 5 5 5 5 5 6 5 6 5 5 5 5 6 5 5 5 5 6 5 5 5 5 5 5 5 5 5 5 5 5 6 5 5 5 5 5 6 5 5 6 5 6 5 5 6 5 5 5 5 5 5 5 5 5 5 5 5 5 5 5 5 5 5 5 5 5 6 5 5 5 5 5 5 5 6 5 5 5 5 5 5 5 5 5 5 5 5 5 5 5 6 5 5 5 5 5 5 5 5 5 5 6 5 5 5 5 6 5 5 6 5 5 5 5 5 5 5 5 6 5 5 5 5 5 5 5 6 5 5 6 5 5 5 5 5 5 5 5 5 6 5 5 5 5 5 5 5 5 5 5 5 5 5 5 5 5 5 5 5 5 5 5 5 5 5 5 5 5 5 5 5 5 5 5 5 5 5 5 5 5 5 5 5 5 5 5 5 5 5 5 5 5 5 5 5 5 5 6 5 5 5 5 5 6 5 5 5 5 5 5 5 5 5 6 5 5 5 5 5 5 5 5 5 5 6 5 5 5 5 5 5 5 5 5 5 5 5 5 5 5 5 5 5 5 5 5 6 5 6 5 5 5 5 5 5 6 5 5 5 5 5 5 5 5 5 6 5 5 5 5 6 5 5 6 5 5 5 5 5 5 5 5 5 5 5 5 5 5 5 5 5 5 5 5 5 5 5 5 5 5 5 5 5 5 5 5 5 5 5 5 5 5 5 5 5 5 5 5 5 5 5 5 5 5 5 5 5 5 5 5 5 5 5 5 5 5 5 5 5 5 5 5 5 5 5 5 5 5 5 5 5 5 5 5 5 5 5 5 5 5 5 5 5 5 5 5 5 5 5 5 5 5 5 5 5 5 5 5 5 5 5 5 5 5 5 5 5 5 5 5 5 5 5 5 5 5 5 5 5 5 5 5 5 5 5 5 5 5 5 6 5 5 5 5 5 5 5 6 5 5 5 5 5 6 5 5 5 5 5 5 5 5 5 5 5 5 5 5 5 5 5 5 5 5 5 6 5 5 5 5 6 5 5 5 5 5 5 5 5 5 5 5 5 5 5 5 5 5 5 5 5 5 5 5 6 5 5 5 5 5 5 5 5 5 5 5 5 5 5 5 5 5 5 5 5 5 6 5 5 5 5 6 5 5 6 6 5 5 5 6 5 5 5 5 6 6 5 5 6 5 5 5 5 5 5 5 5 5 5 5 5 5 5 5 5 5 5 5 5 5 5 5 5 5 6 5 5 5 6 5 5 6 6 5 5 5 5 5 5 5 6 5 5 6 5 5 6 5 6 5 5 6 5 5 5 5 5 5 6 5 5 5 6 5 5 5 5 5 5 5 5 5 5 5 5 5 5 5 5 5 5 5 5 5 6 5 5 5 5 6 5 5 6 5 5 5 5 5 5 6 5 6 5 5 5 6 5 5 5 5 6 6 5 5 5 5 5 6 6 5 5 6 5 6 5 5 5 5 5 5 5 6 5 6 5 5 5 5 5 5 5 5 5 6 5 5 5 5 5 5 5 5 6 6 5 5 5 5 5 5 5 5 5 5 5 5 5 6 5 6 5 6 5 5 5 6 5 5 5 5 5 6 5 6 6 5 5 5 5 5 5 5 5 5 5 5 5 6 5 5 5 5 5 5 6 5 5 5 6 5 5 5 6 5 5 5 5 5 5 5 5 5 6 5 6 5 6 5 5 5 5 5 5 5 5 5 5 5 5 5 5 5 5 6 5 5 5 6 5 6 5 5 5 5 6 5 5 5 6 5 5 5 5 5 5 5 5 5 6 5 5 5 5 5 5 5 5 5 5 5 5 5 5 5 5 5 5 5 5 5 5 5 5 5 5 5 6 5 5 5 5 5 5 5 6 5 5 6 5 6 5 6 5 6 5 5 5 5 5 5 6 5 5 6 5 5 6 5 5 6 5 5 5 5 6 5 6 6 5 5 5 5 5 5 6 5 5 5 5 5 5 5 6 5 5 5 5 5 6 5 5 5 6 6 5 5 5 6 5 5 6 5 5 6 5 6 5 6 5 5 5 6 5 5 5 5 5 5 5 5 5 5 5 5 6 6 5 5 5 5 5 5 5 6 5 5 6 5 5 5 5 5 5 5 6 5 5 5 6 5 5 5 6 5 5 5 5 5 5 5 5 5 5 5 5 5 5 5 6 5 5 5 5 5 5 6 6 5 6 5 5 5 5 5 5 5 5 5 5 5 5 5 5 5 5 5 5 5 5 5 5 5 5 5 5 5 5 5 5 5 5 5 5 5 5 5 5 5 5 5 5 5 5 5 5 6 6 6 5 5 5 5 5 5 5 5 5 6 6 5 5 6 5 5 6 6 5 5 5 5 5 5 5 6 5 5 5 5 5 5 5 5 5 5 5 5 5 5 5 5 5 5 6 5 5 6 5 6 5 6 6 5 5 5 5 5 5 5 6 5 6 5 5 5 6 5 5 5 6 5 5 5 5 5 5 5 5 5 5 5 5 5 5 6 5 5 5 5 5 6 5 5 5 6 5 5 5 6 5 5 5 5 5 5 5 5 5 5 5 5 5 5 5 5 5 5 5 5 5 5 5 5 5 5 5 5 5 5 5 5 5 5 5 5 5 5 5 5 5 5 5 5 5 5 5 6 5 5 5 5 5 5 5 5 5 5 6 5 5 5 5 5 5 5 5 5 5 5 5 5 5 5 5 5 5 5 5 5 5 5 5 5 5 5 6 5 5 5 5 5 5 5 5 5 5 5 5 5 5 5 5 6 5 5 5 5 5 5 5 5 5 6 5 5 5 5 5 5 5 6 5 5 5 5 5 5 5 5 5 6 5 5 5 5 5 5 5 6 5 5 5 5 5 5 5 5 5 6 5 5 5 5 5 5 5 5 6 5 5 6 5 5 5 5 5 5 5 5 6 5 5 6 6 5 5 5 5 5 5 6 5 5 5 5 5 5 5 5 5 5 5 5 6 5 5 5 5 5 5 5 5 6 5 5 6 5 5 5 5 5 5 5 5 5 5 5 5 6 5 5 5 5 5 5 5 5 5 5 5 6 5 5 6 5 5 5 6 5 5 5 6 5 5 6 6 6 6 6 5 5 5 5 5 5 6 6 5 6 6 6 5 6 5 6 5 5 6 5 6 5 5 6 6 5 5 5 5 5 5 5 6 5 5 5 5 5 5 5 6 5 6 6 6 5 5 5 5 6 6 5 5 5 5 6 6 5 5 5 6 5 5 5 5 5 5 6 5 5 5 6 5 5 5 5 5 5 6 5 5 5 5 5 5 5 5 5 5 5 5 5 5 5 5 5 5 5 5 5 5 5 5 5 5 6 5 5 6 5 5 5 5 5 5 5 5 5 5 5 5 5 5 5 5 5 5 5 5 5 5 5 6 5 5 5 5 6 6 5 5 5 5 5 5 6 5 5 5 5 6 6 5 5 5 5 5 5 5 5 5 5 5 5 5 5 5 5 5 5 5 5 5 5 5 5 5 5 5 5 5 5 5 5 5 5 5 5 5 5 5 5 5 5 5 5 5 5 5 5 5 5 5 5 5 5 5 5 6 5 5 5 5 6 5 5 6 5 5 5 5 5 5 5 5 5 5 5 5 6 5 5 5 5 5 5 5 5 5 5 5 5 5 5 5 5 5 5 5 5 5 6 6 5 5 5 5 5 5 5 5 5 5 5 5 5 6 5 5 5 5 5 5 6 5 5 6 5 5 5 5 5 5 5 5 5 6 5 5 5 5 5 5 5 5 5 5 5 5 5 5 5 5 5 5 5 6 5 5 5 5 5 6 5 6 5 5 5 5 5 6 5 5 5 5 5 6 5 5 5 5 5 6 6 5 6 5 5 5 5 5 5 5 5 5 5 5 5 5 5 5 5 5 5 5 5 6 5 5 5 5 5 6 5 5 6 6 5 5 5 5 5 5 5 5 5 5 5 5 5 5 6 5 5 5 5 5 5 5 6 5 5 6 5 6 5 5 6 5 5 5 5 5 5 5 5 5 5 5 5 5 5 5 5 5 5 5 5 5 5 5 6 5 5 5 5 5 5 5 5 5 5 6 5 5 5 5 6 5 5 5 5 5 5 5 5 5 5 5 6 5 5 5 5 5 5 5 5 5 5 5 5 5 5 5 5 5 5 5 5 5 5 5 5 5 5 5 5 6 5 5 5 5 6 5 5 5 5 5 6 5 5 5 5 5 5 5 5 5 5 5 5 5 5 5 5 6 5 5 5 5 5 5 5 5 5 5 5 6 5 5 6 5 5 5 5 6 5 5 5 5 5 5 5 5 5 5 5 5 5 5 5 5 5 5 5 6 5 5 6 5 6 5 6 5 5 6 5 5 5 5 5 5 5 5 5 5 5 5 5 6 5 6 5 5 5 5 5 5 5 5 5 5 5 5 5 5 5 5 5 5 5 5 5 5 5 5 5 5 5 5 5 6 5 5 5 5 5 5 5 5 6 5 6 5 6 5 5 5 6 5 5 5 5 5 5 5 5 6 5 5 5 5 6 5 5 5 5 5 5 5 6 5 6 5 5 5 5 5 5 5 5 5 5 5 5 5 5 5 5 5 5 5 5 5 5 5 5 5 5 6 5 5 5 5 5 5 5 6 5 5 5 6 5 6 5 5 6 5 5 6 6 6 5 5 5 5 6 5 5 6 5 6 5 5 5 5 5 5 5 5 5 6 5 6 5 6 5 6 6 6 5 5 5 5 5 5 6 5 5 5 5 5 5 5 5 5 5 5 5 5 5 5 5 5 5 5 5 5 5 5 5 5 5 5 5 5 6 5 5 5 5 5 5 5 5 5 5 6 6 5 5 5 5 5 5 5 6 5 5 5 5 5 5 5 5 5 6 5 5 5 6 5 5 5 5 5 5 6 5 5 6 5 5 5 6 5 5 5 6 5 6 5 5 5 5 5 6 5 5 5 5 5 5 6 5 5 5 5 5 5 5 5 5 5 5 6 5 5 5 5 5 5 5 5 5 5 5 5 5 5 5 5 5 5 5 5 6 5 5 5 5 6 5 5 5 6 5 5 6 5 5 5 5 5 5 5 5 5 6 5 6 5 5 5 5 5 5 5 5 5 6 5 6 5 6 5 5 5 5 6 5 6 5 5 5 5 5 5 6 5 5 5 5 5 6 5 5 5 5 5 5 6 5 5 5 5 5 5 5 5 5 6 5 5 5 5 6 6 5 6 5 5 6 5 5 5 5 5 5 5 5 5 5 5 5 5 5 5 5 5 5 5 5 5 5 6 5 5 6 5 5 5 6 5 5 5 5 6 5 5 5 6 5 5 5 5 5 5 6 5 6 5 5 5 5 5 5 5 5 5 5 5 6 5 5 6 5 5 5 5 5 5 5 6 5 5 5 5 5 5 6 5 5 5 5 5 5 5 5 5 5 6 5 5 5 5 5 5 5 5 5 5 6 5 5 6 5 6 6 5 5 5 5 6 5 6 5 5 5 5 5 6 5 5 5 5 6 5 5 5 6 5 5 5 5 5 5 6 5 5 5 6 5 5 6 5 5 5 5 5 5 5 5 5 5 5 5 5 5 5 5 5 6 5 5 6 5 5 5 5 5 6 5 5 5 5 5 5 5 5 6 5 6 6 5 5 5 5 5 5 5 6 6 5 5 5 5 5 6 5 6 6 5 6 5 5 6 5 5 5 5 5 5 5 5 5 5 5 5 5 5 5 5 5 5 6 5 5 5 5 5 5 5 5 5 5 5 5 5 5 
</DataArray>
<DataArray type="Float64" Name="stress" NumberOfComponents="9" format="ascii">
1.3892115631028317 -159.94227481892449 0 -159.94227481892449 707.7847006099837 0 0 0 0 -230.49384031189612 -1050.7031529555461 0 -1050.7031529555461 2860.3467431307872 0 0 0 0 -405.3440147537259 -1739.124631278959 0 -1739.124631278959 3489.1952155294857 0 0 0 0 1204.1967854107324 -1212.8740125470686 0 -1212.8740125470686 951.01863707831944 0 0 0 0 136.78561158438947 325.94820991366669 0 325.94820991366669 -74.394740498930332 0 0 0 0 -0.28200691041890413 -0.90204018113564643 0 -0.90204018113564643 0.40421967305020701 0 0 0 0 56.126028248394704 -289.99135988505805 0 -289.99135988505805 410.29268974636943 0 0 0 0 30.605685511396644 -169.85896222319025 0 -169.85896222319025 -148.73027128395915 0 0 0 0 3.5715596206748614 -104.58470220614254 0 -104.58470220614254 -7.834264146964415 0 0 0 0 11.893980697529003 -136.81526670182211 0 -136.81526670182211 -96.284392631041555 0 0 0 0 -0.061645846099045817 -163.3814945311351 0 -163.3814945311351 -19.191597638768144 0 0 0 0 -221.51162218764387 -177.24579900168465 0 -177.24579900168465 66.891794874914922 0 0 0 0 -147.93256718021712 -230.34275612320926 0 -230.34275612320926 58.423995701858075 0 0 0 0 -138.9394638536487 -151.81134813728568 0 -151.81134813728568 54.428184124175459 0 0 0 0 -143.0401486692781 -145.13024967402453 0 -145.13024967402453 131.24333768295037 0 0 0 0 -144.80049499056929 -215.49681042541306 0 -215.49681042541306 96.037296740891179 0 0 0 0 -0.24931896031730005 -0.76201981099379168 0 -0.76201981099379168 0.22970709103039866 0 0 0 0 -132.33338713397256 -118.78163635573583 0 -118.78163635573583 293.92833305964268 0 0 0 0 -9.4369761649159045 -64.660691848934221 0 -64.660691848934221 122.74975606253429 0 0 0 0 -116.02708668065725 -237.77806627807149 0 -237.77806627807149 -156.05163726149112 0 0 0 0 -42.886584014219238 -194.90567881055176 0 -194.90567881055176 -140.03187970857834 0 0 0 0 -195.20433746802291 -185.04308063628559 0 -185.04308063628559 -42.970864390284987 0 0 0 0 -226.12009995361052 -206.51120460066886 0 -206.51120460066886 -48.465158713777782 0 0 0 0 96.696107747180577 113.72488628560677 0 113.72488628560677 90.132629257801455 0 0 0 0 -159.03632381409443 -29.60593057749611 0 -29.60593057749611 491.02985420263576 0 0 0 0 4.7593511654391598 1.7074424068402863 0 1.7074424068402863 30.815389390622045 0 0 0 0 -11.641919239081545 -23.459635090905749 0 -23.459635090905749 99.218337449921421 0 0 0 0 -103.20519260724976 18.138791617401239 0 18.138791617401239 117.01535795925884 0 0 0 0 -7.3849707440490509 -1.9854484810015833 0 -1.9854484810015833 20.958978397817035 0 0 0 0 -65.505437466274543 -132.1925962948153 0 -132.1925962948153 -158.36761411844782 0 0 0 0 -66.475588456223647 -143.96855940460227 0 -143.96855940460227 -78.246382731344056 0 0 0 0 21.560774141836873 34.082178478412445 0 34.082178478412445 73.156797874997324 0 0 0 0 -295.84831325181733 145.75419671833515 0 145.75419671833515 3434.3316715552937 0 0 0 0 292.81850574553857 131.40635165102867 0 131.40635165102867 127.73086067448094 0 0 0 0 6.0285364456590216 -0.41340503519549543 0 -0.41340503519549543 16.395444633310831 0 0 0 0 134.8842636039434 780.67796666906361 0 780.67796666906361 3494.6773146268533 0 0 0 0 1.6360850882161364 10.047314472122764 0 10.047314472122764 18.857773839550163 0 0 0 0 -43.763014748575372 171.97609996094252 0 171.97609996094252 1509.3133098126127 0 0 0 0 6.0966229860150323 43.536931331291925 0 43.536931331291925 33.502864866177866 0 0 0 0 -63.011657606818517 11.376769775597495 0 11.376769775597495 116.77565555468755 0 0 0 0 -11.48911223317873 134.58000988850108 0 134.58000988850108 22.856662776619487 0 0 0 0 -696.06030340988616 -904.18541779377119 0 -904.18541779377119 3496.2523504682904 0 0 0 0 1.8833721445535745 43.941913528155254 0 43.941913528155254 18.797690634896625 0 0 0 0 676.02180881859624 -341.12325253301606 0 -341.12325253301606 279.76394476504356 0 0 0 0 4.7460439930207832 0.63051286365859482 0 0.63051286365859482 19.695528841626725 0 0 0 0 5.3019641741838477 11.65282363537699 0 11.65282363537699 3496.8120509822184 0 0 0 0 4.7231763885650917 2.968593412770133 0 2.968593412770133 -2.4532718552004269 0 0 0 0 -39.764357883108346 106.17627173462824 0 106.17627173462824 79.925371366975014 0 0 0 0 15.210287054721448 93.341551620433165 0 93.341551620433165 82.916050906005694 0 0 0 0 50.639792585079249 200.02537354947708 0 200.02537354947708 242.54125972221664 0 0 0 0 -47.812141888064616 0.22082618356944295 0 0.22082618356944295 226.22907581125037 0 0 0 0 -49.167754760195066 48.736169435200281 0 48.736169435200281 -5.056470212781278 0 0 0 0 -100.71756858895154 80.427681886489154 0 80.427681886489154 91.988644579454558 0 0 0 0 -14.25433001613078 61.744945185495453 0 61.744945185495453 94.829606703744503 0 0 0 0 -22.171509392556118 140.32933237448015 0 140.32933237448015 131.02681945264339 0 0 0 0 -34.515089812623046 93.60007899858465 0 93.60007899858465 68.210882936793496 0 0 0 0 -60.733991138478473 1024.9320244293958 0 1024.9320244293958 2968.5381658293263 0 0 0 0 -267.30251148376442 1260.4476562098353 0 1260.4476562098353 3495.4920106575664 0 0 0 0 1456.8792447526623 1114.5486154328391 0 1114.5486154328391 800.44747585112054 0 0 0 0 111.35752602943148 36.618327825248343 0 36.618327825248343 -161.28658439732681 0 0 0 0 1.1324680882373124 28.073466834246346 0 28.073466834246346 -4.2507896576366448 0 0 0 0 139.1078151172137 224.43213130348158 0 224.43213130348158 10.329993413441116 0 0 0 0 92.325607473584114 78.49488970071252 0 78.49488970071252 181.53226804915903 0 0 0 0 2.0690628234558619 19.672163944614439 0 19.672163944614439 -10.811319133806236 0 0 0 0 97.844354228445241 -189.23300624213516 0 -189.23300624213516 34.544816047389759 0 0 0 0 -82.371013606706583 -84.882666868081287 0 -84.882666868081287 143.99766890058527 0 0 0 0 381.32877285174322 0.07803721175150713 0 0.07803721175150713 140.30081066298703 0 0 0 0 -106.40555195702836 14.307900064504793 0 14.307900064504793 746.87980423501358 0 0 0 0 228.955702179181 368.25670453121165 0 368.25670453121165 589.51139390510798 0 0 0 0 -29.318684811469211 -127.78993415477453 0 -127.78993415477453 1018.4906761807579 0 0 0 0 0.055367441106531523 -0.46162950290300664 0 -0.46162950290300664 7.1486345640175841 0 0 0 0 445.28239837816795 -300.57700950919025 0 -300.57700950919025 372.07194913314015 0 0 0 0 261.5105099897944 -65.245850594899821 0 -65.245850594899821 75.085348860171507 0 0 0 0 -221.57697592852705 73.331958089936961 0 73.331958089936961 -34.805521384249005 0 0 0 0 -242.97495411905615 404.93075152042763 0 404.93075152042763 263.39689786426607 0 0 0 0 -129.45040980383351 -241.49098522815621 0 -241.49098522815621 96.813376359716131 0 0 0 0 436.7896498713834 451.15606795389795 0 451.15606795389795 -417.85220883069269 0 0 0 0 1.9834755272868501 -3.3579336401579098 0 -3.3579336401579098 2.3248420067650102 0 0 0 0 -83.671203451345036 -24.096208591043251 0 -24.096208591043251 211.21259713405016 0 0 0 0 -85.403497064329031 -35.217958928355074 0 -35.217958928355074 524.36521901375818 0 0 0 0 -46.437085337318763 -26.112101773384893 0 -26.112101773384893 502.54496649414068 0 0 0 0 -129.89254864407849 -232.91095352189586 0 -232.91095352189586 607.01859257012256 0 0 0 0 -141.97838388244418 -35.361965992677142 0 -35.361965992677142 336.76353159159771 0 0 0 0 -269.04755440964846 -44.860170269683294 0 -44.860170269683294 857.72353656546329 0 0 0 0 -46.079881469969223 333.5202549972455 0 333.5202549972455 16.704697885848873 0 0 0 0 -83.695363408562571 -160.12604999112955 0 -160.12604999112955 574.79167222414981 0 0 0 0 -7.6199557450702597 -33.547229499724196 0 -33.547229499724196 104.80982223773873 0 0 0 0 -206.88949848261953 -235.86339868141295 0 -235.86339868141295 25.316945213737199 0 0 0 0 -238.65084285874173 369.35988417728367 0 369.35988417728367 414.98383559005742 0 0 0 0 -330.03577548349267 -408.72357635021763 0 -408.72357635021763 905.82505192537792 0 0 0 0 -195.14724948762682 -114.29420315458265 0 -114.29420315458265 17.958414363893098 0 0 0 0 -218.32753720920357 -142.34936953886427 0 -142.34936953886427 64.304111730743898 0 0 0 0 -162.8252917222967 -152.4923915854597 0 -152.4923915854597 -33.662741809064755 0 0 0 0 -193.46644100235369 -123.52819525459927 0 -123.52819525459927 55.48864746230538 0 0 0 0 -210.46425087353282 -169.10899907564453 0 -169.10899907564453 50.384614205599064 0 0 0 0 -153.37209063183172 -298.47332511552668 0 -298.47332511552668 -134.6884646810613 0 0 0 0 152.38271930497604 -130.84095258083835 0 -130.84095258083835 -306.50773526732883 0 0 0 0 -5.2588786725635561 -35.10125474268871 0 -35.10125474268871 103.07847589346022 0 0 0 0 -157.8477379526671 -120.00858588773553 0 -120.00858588773553 73.919711615002598 0 0 0 0 -178.74270316297225 -148.3918166802323 0 -148.3918166802323 41.101761593803531 0 0 0 0 -186.91752755521975 -132.85351985618763 0 -132.85351985618763 87.887334231927525 0 0 0 0 -178.91328803213256 -130.0083187742639 0 -130.0083187742639 66.081194261860219 0 0 0 0 -183.46496992049038 -145.82718556727195 0 -145.82718556727195 58.815455093776109 0 0 0 0 -629.63897894025308 13.682317734543176 0 13.682317734543176 218.65440182021121 0 0 0 0 -620.60781005241279 -60.994903491984587 0 -60.994903491984587 173.51821056339759 0 0 0 0 -581.55472936795354 -183.05770168125309 0 -183.05770168125309 470.83639303891687 0 0 0 0 171.65172789896428 -50.98678268398362 0 -50.98678268398362 -86.947139213894843 0 0 0 0 -0.15357614072010631 -1.7775186608475746 0 -1.7775186608475746 18.749730093137487 0 0 0 0 50.168182690326375 11.265565649489872 0 11.265565649489872 50.634553100357152 0 0 0 0 -0.69280027880287609 1.7996634292547293 0 1.7996634292547293 -0.31823898013917074 0 0 0 0 -423.99229326075624 158.57102107198443 0 158.57102107198443 -557.82842497463571 0 0 0 0 -13.005074827020053 -100.57544589219833 0 -100.57544589219833 13.82452063781875 0 0 0 0 -33.568111139949451 -0.88738355852274253 0 -0.88738355852274253 32.205524147342658 0 0 0 0 -384.64831634371853 -40.420833573483833 0 -40.420833573483833 217.35979203431634 0 0 0 0 -1033.1222231135598 140.37141541951314 0 140.37141541951314 256.93372524779988 0 0 0 0 -624.31558869239348 27.52842258659075 0 27.52842258659075 -152.65933694785781 0 0 0 0 -621.98178424978676 -14.525775341099234 0 -14.525775341099234 204.40322609792929 0 0 0 0 -381.62787336759675 284.73289020913035 0 284.73289020913035 159.00002602806489 0 0 0 0 -736.88820415955456 -131.8334058437631 0 -131.8334058437631 550.5033878908871 0 0 0 0 -696.29082574966776 -76.475278992631502 0 -76.475278992631502 44.535857035050867 0 0 0 0 -965.98394606502097 -82.298423290383653 0 -82.298423290383653 266.17559981456725 0 0 0 0 -831.25246573110849 -84.974857992277975 0 -84.974857992277975 -117.80477797481581 0 0 0 0 -789.42009188402972 -191.71987332670687 0 -191.71987332670687 131.44999853242916 0 0 0 0 -87.074833828428382 -64.094401477021165 0 -64.094401477021165 41.695049310452305 0 0 0 0 -976.98697066820205 -54.338756547993398 0 -54.338756547993398 196.57049731962616 0 0 0 0 -2.5561024203990343 -6.6258349400944159 0 -6.6258349400944159 27.705893777614619 0 0 0 0 -168.4292085877014 -50.806871895445511 0 -50.806871895445511 148.62292951348354 0 0 0 0 -0.66537492012557231 -10.06742995845628 0 -10.06742995845628 -0.70811453650233602 0 0 0 0 -9.0836262892147097 -25.269274875966175 0 -25.269274875966175 108.08892861238809 0 0 0 0 -670.15765561435364 -145.29680973925861 0 -145.29680973925861 -97.463560792733915 0 0 0 0 -11.615277623152357 -98.964985319576542 0 -98.964985319576542 33.758722973702902 0 0 0 0 -219.05426013098077 -86.451295494451188 0 -86.451295494451188 169.17435775225749 0 0 0 0 -203.17691787392414 -100.181955547705 0 -100.181955547705 137.02921610799967 0 0 0 0 -214.06670870200924 -83.429305480211042 0 -83.429305480211042 160.3838535832474 0 0 0 0 -4.1671105556380263 4.5053033686825934 0 4.5053033686825934 63.26112873007736 0 0 0 0 -3.9726520206431406 -12.040141046201436 0 -12.040141046201436 82.724147719759912 0 0 0 0 -204.51887840690961 -99.65270991739817 0 -99.65270991739817 125.51351464638719 0 0 0 0 -185.89605415978644 -71.578741119221377 0 -71.578741119221377 82.181995263614226 0 0 0 0 -232.60385154300866 -111.28971178691427 0 -111.28971178691427 138.22199790537707 0 0 0 0 -213.12910469696726 -91.863785469700815 0 -91.863785469700815 146.80491926742252 0 0 0 0 -217.44215466451169 -97.904690695926547 0 -97.904690695926547 149.00713233056013 0 0 0 0 -212.15763249186693 -102.09710825403454 0 -102.09710825403454 137.92225943983067 0 0 0 0 -215.98791070243897 -96.032967546023428 0 -96.032967546023428 140.60455610556528 0 0 0 0 -211.23077747301795 -101.16946268244646 0 -101.16946268244646 127.42656029231148 0 0 0 0 -225.20917550107515 -109.76939174954896 0 -109.76939174954896 129.058544182888 0 0 0 0 -215.21015727214473 -104.66273177357471 0 -104.66273177357471 130.36815107933944 0 0 0 0 -242.81856897046407 -99.063015728574101 0 -99.063015728574101 122.74617132137064 0 0 0 0 -230.77245278076407 -103.10012287908467 0 -103.10012287908467 111.90971354107023 0 0 0 0 -256.38639704062189 -99.082706168381264 0 -99.082706168381264 111.74286397575634 0 0 0 0 -234.47456488671924 -75.306057088717353 0 -75.306057088717353 94.472098352620378 0 0 0 0 -205.45739544539902 -90.219180660322309 0 -90.219180660322309 99.653747845790349 0 0 0 0 -210.85467307714134 -84.194990018906537 0 -84.194990018906537 97.354578092170414 0 0 0 0 -231.70401409086844 -86.771945144020719 0 -86.771945144020719 107.346895767143 0 0 0 0 -213.52840396451938 -100.001401566813 0 -100.001401566813 115.50105283653829 0 0 0 0 -222.27307959228892 -95.20710471716302 0 -95.20710471716302 124.20866313565057 0 0 0 0 -211.49607958571323 -99.065150412905496 0 -99.065150412905496 151.76083832071163 0 0 0 0 -215.49027491648121 -94.669187514926307 0 -94.669187514926307 165.18970205640653 0 0 0 0 -176.72838318314803 116.79799336264841 0 116.79799336264841 185.63995198262273 0 0 0 0 -591.97033114392525 -85.382289722581845 0 -85.382289722581845 -5.6853347468713764 0 0 0 0 -7.6001430045712697 14.261080124166128 0 14.261080124166128 21.323283323514346 0 0 0 0 -911.34779031234348 -533.27765085613646 0 -533.27765085613646 -101.28390881314692 0 0 0 0 -973.56286478826314 -459.02613532637042 0 -459.02613532637042 293.93001046525023 0 0 0 0 -208.99298300316764 -148.13101330731297 0 -148.13101330731297 103.05477783780952 0 0 0 0 -185.81196254357292 -145.73039846675147 0 -145.73039846675147 91.654341636953177 0 0 0 0 -207.8330678328216 -126.99009999586997 0 -126.99009999586997 128.3854491278762 0 0 0 0 -144.94804937143249 -81.833589720430609 0 -81.833589720430609 110.9344605061051 0 0 0 0 -218.87346943916236 -104.91812238453713 0 -104.91812238453713 140.33795254319557 0 0 0 0 -202.87439402273185 -125.91168181366811 0 -125.91168181366811 124.71097130791168 0 0 0 0 -241.91304207158237 -139.25156086240895 0 -139.25156086240895 124.28304710083921 0 0 0 0 -225.28479342208402 -112.98940686167043 0 -112.98940686167043 126.73933263120125 0 0 0 0 -239.46697711372877 -123.78331209759563 0 -123.78331209759563 119.27874773507938 0 0 0 0 -276.71397242034254 -120.27926765970187 0 -120.27926765970187 120.70605783603969 0 0 0 0 -271.58660622326443 -149.39203214476584 0 -149.39203214476584 116.48182429865847 0 0 0 0 -235.09889987472525 -139.8224170494359 0 -139.8224170494359 118.6314653410227 0 0 0 0 -259.27140372398071 -172.98937626603583 0 -172.98937626603583 110.17541183273897 0 0 0 0 -233.31153908317106 -172.25816066391712 0 -172.25816066391712 109.86949642229592 0 0 0 0 -202.8085661906066 -159.36663701364887 0 -159.36663701364887 112.22641677585489 0 0 0 0 -151.90076162933542 -196.31657744575932 0 -196.31657744575932 86.563374395758728 0 0 0 0 -201.14529681213585 -182.18570476575201 0 -182.18570476575201 85.949560282184393 0 0 0 0 -138.71040240661296 -172.66962683569 0 -172.66962683569 83.505400703463238 0 0 0 0 -186.33397333666903 -151.06851181244929 0 -151.06851181244929 76.590222417202312 0 0 0 0 -84.964405116561238 -173.37116566952318 0 -173.37116566952318 55.560270281152043 0 0 0 0 -139.89527106585825 -178.32341890117459 0 -178.32341890117459 57.260280263479217 0 0 0 0 -152.067715319218 -202.95356530387653 0 -202.95356530387653 62.745893380917551 0 0 0 0 -84.59853796034929 -194.66528629538516 0 -194.66528629538516 58.208804168767529 0 0 0 0 -84.205255027287365 -200.43799558513433 0 -200.43799558513433 35.365126411095844 0 0 0 0 -43.815690245634187 -211.14980814256705 0 -211.14980814256705 36.751141777494922 0 0 0 0 -41.455795018379661 -221.34638608828391 0 -221.34638608828391 33.785713240155019 0 0 0 0 -0.01034778082080523 -207.5691224777911 0 -207.5691224777911 16.9536672141694 0 0 0 0 -37.325936425361135 -194.56335010503972 0 -194.56335010503972 14.676071061978291 0 0 0 0 -37.752441214108103 -194.45494369250082 0 -194.45494369250082 28.929832716756209 0 0 0 0 -0.033385860482463198 -183.08417339406878 0 -183.08417339406878 11.813136265605863 0 0 0 0 -29.301916492883553 -162.94796623309048 0 -162.94796623309048 -1.6331677838606993 0 0 0 0 -32.728889811576664 -163.21573535662537 0 -163.21573535662537 38.392467241850682 0 0 0 0 -24.320805577148633 -153.83498737744958 0 -153.83498737744958 32.92099610256264 0 0 0 0 -70.481883366337456 -151.97583630664303 0 -151.97583630664303 63.244430787170131 0 0 0 0 -62.947628808115326 -134.00109689057535 0 -134.00109689057535 45.945264803885948 0 0 0 0 -155.60077976720618 -176.14338618114562 0 -176.14338618114562 31.383206456841435 0 0 0 0 -132.68034139537667 -140.65019242856215 0 -140.65019242856215 53.214350531590753 0 0 0 0 -132.56642007623168 -135.67548030093167 0 -135.67548030093167 55.983528748831304 0 0 0 0 -138.41732619504 -150.24969555382268 0 -150.24969555382268 73.420904133716249 0 0 0 0 -138.86429731812086 -153.59853993972138 0 -153.59853993972138 51.425173204246676 0 0 0 0 -73.883300032002012 -168.82806543711195 0 -168.82806543711195 34.876722114044242 0 0 0 0 -73.281138573504677 -165.27805139611155 0 -165.27805139611155 33.149849336645275 0 0 0 0 -73.006869691327438 -146.08362427381508 0 -146.08362427381508 47.229898866207805 0 0 0 0 -553.91517614521683 -21.645253393220628 0 -21.645253393220628 99.446671014055028 0 0 0 0 -429.48362401777297 73.220196869122447 0 73.220196869122447 85.463498560304288 0 0 0 0 -580.18635467475201 -606.66431305339574 0 -606.66431305339574 33.677067429962335 0 0 0 0 -2.3562533313067364 1.0002825833050366 0 1.0002825833050366 8.8141056235562303 0 0 0 0 -307.19609783636452 50.253621530115197 0 50.253621530115197 27.573071371127298 0 0 0 0 -4.0702970806246359 0.25900858078939848 0 0.25900858078939848 10.308816103571218 0 0 0 0 -562.88856189546277 -611.06623354448311 0 -611.06623354448311 -791.74783942392969 0 0 0 0 -774.96845153504933 -178.69902967050439 0 -178.69902967050439 129.76852202767623 0 0 0 0 -490.62851212669989 -104.68242589904548 0 -104.68242589904548 -420.3398621276865 0 0 0 0 -225.82530659007841 -68.915802073192026 0 -68.915802073192026 72.553068925612024 0 0 0 0 -491.76709868798275 -199.07925835786591 0 -199.07925835786591 50.41526352292567 0 0 0 0 -543.10137806121918 -315.92346319302669 0 -315.92346319302669 734.11495386726165 0 0 0 0 -458.60623915680577 143.26932806941295 0 143.26932806941295 601.16048993296863 0 0 0 0 -302.15595254174912 -44.58605667744996 0 -44.58605667744996 87.136371918109944 0 0 0 0 -322.3091018627274 103.03706142292549 0 103.03706142292549 77.091014492543763 0 0 0 0 -244.59184976410302 -510.18553471848645 0 -510.18553471848645 92.694225091225235 0 0 0 0 -311.24102764334901 -704.57414205279201 0 -704.57414205279201 919.26612136910444 0 0 0 0 -496.97574031384738 187.22395681699345 0 187.22395681699345 2768.5027896093816 0 0 0 0 428.08522179429633 808.36889619582143 0 808.36889619582143 2795.1839807262645 0 0 0 0 -511.49734824471864 853.57243041031325 0 853.57243041031325 3501.7387383064379 0 0 0 0 -336.68001976661071 845.90251619094033 0 845.90251619094033 1766.2269410347508 0 0 0 0 -569.93305049215462 -430.73625438180352 0 -430.73625438180352 878.45606236823369 0 0 0 0 -453.7883782063949 -365.8737012321908 0 -365.8737012321908 727.78274998641928 0 0 0 0 15.832612674704174 1673.8811393800934 0 1673.8811393800934 3492.3661073923795 0 0 0 0 80.095751061028295 -1160.6312591261158 0 -1160.6312591261158 2104.0504128446046 0 0 0 0 2.0375048726380278 -4.3865548966701979 0 -4.3865548966701979 19.404533296394931 0 0 0 0 351.13984703289361 -781.02706468934775 0 -781.02706468934775 520.6265135044232 0 0 0 0 88.686658602733644 382.89118438074365 0 382.89118438074365 -68.636074409339926 0 0 0 0 278.2180950912304 52.990980345504795 0 52.990980345504795 -494.3486860250996 0 0 0 0 -512.58030806332158 -221.3000333303462 0 -221.3000333303462 631.0707200523284 0 0 0 0 -266.90102304605693 93.697291915690585 0 93.697291915690585 58.924680136995448 0 0 0 0 0.57802627142483032 -11.573388351282567 0 -11.573388351282567 41.793506702598336 0 0 0 0 370.1417069166589 510.76049170072292 0 510.76049170072292 656.99612838885514 0 0 0 0 246.36464010330928 351.34634046992142 0 351.34634046992142 466.55640546753784 0 0 0 0 -11.90060910151756 17.245649489405395 0 17.245649489405395 -3.3421874547759671 0 0 0 0 0.81901124751472842 0.92601078345553844 0 0.92601078345553844 0.71394020289748639 0 0 0 0 12.514305636705103 390.01633413498348 0 390.01633413498348 982.63395013893387 0 0 0 0 71.70301045098131 297.70703506598511 0 297.70703506598511 782.46871591306262 0 0 0 0 162.58486894592534 132.70407166313817 0 132.70407166313817 632.63620469765738 0 0 0 0 1.3867408952871969 1.9697616161304978 0 1.9697616161304978 0.48180999583051687 0 0 0 0 172.22366837330082 248.30050543225661 0 248.30050543225661 431.55202199143969 0 0 0 0 34.432708046948392 179.30031440186576 0 179.30031440186576 433.67191475187246 0 0 0 0 767.36068810797633 -727.93302476730605 0 -727.93302476730605 -2616.057599280728 0 0 0 0 -0.57686992516710234 538.96127379022801 0 538.96127379022801 963.81040663534441 0 0 0 0 -161.49005500462044 -884.07089673374503 0 -884.07089673374503 -2069.1014473689538 0 0 0 0 -1.6883231141271162 5.689528615753801 0 5.689528615753801 -3.9440133692150283 0 0 0 0 -2.2349645091092945 5.0288277031999371 0 5.0288277031999371 -4.0730061777101412 0 0 0 0 70.735653746876778 530.37927366056829 0 530.37927366056829 -1059.8972639828426 0 0 0 0 -6.2040962100063233 13.322693848995996 0 13.322693848995996 -8.6016314739419215 0 0 0 0 -21.850502117987617 323.06882085077086 0 323.06882085077086 1164.2071592053981 0 0 0 0 -10.681121241957868 257.63004503353295 0 257.63004503353295 1281.6775588896417 0 0 0 0 213.69715955334738 -100.34910380288784 0 -100.34910380288784 1410.8610165269929 0 0 0 0 96.046483256272722 115.69815802798985 0 115.69815802798985 1015.9010262179872 0 0 0 0 -472.19089602691884 -496.98394102226666 0 -496.98394102226666 3491.4604867418238 0 0 0 0 -466.83849654960949 96.721894340560539 0 96.721894340560539 3501.5400619068896 0 0 0 0 -470.15667259613826 -389.56667579796158 0 -389.56667579796158 2599.7680237083841 0 0 0 0 2.338350194088207 2.2937125835742336 0 2.2937125835742336 2363.5688600477006 0 0 0 0 -17.623177348056103 377.70822780627532 0 377.70822780627532 1646.6841482009913 0 0 0 0 245.6923834051172 58.520680972644186 0 58.520680972644186 1402.1982664655588 0 0 0 0 -29.952085134939338 367.07669437405866 0 367.07669437405866 2648.008297816421 0 0 0 0 -64.119791766587809 168.68482190129725 0 168.68482190129725 -83.344015455906629 0 0 0 0 -2.5776891203850365 13.526617578113814 0 13.526617578113814 -5.6780410512492665 0 0 0 0 -698.21006454690814 403.49205008344143 0 403.49205008344143 -147.50055614359735 0 0 0 0 -185.56648659659754 375.39946864132435 0 375.39946864132435 2669.9258692992662 0 0 0 0 17.952119193226906 815.81388991438871 0 815.81388991438871 3499.4683671355015 0 0 0 0 -41.957970116786043 73.545155505627918 0 73.545155505627918 266.66090406196963 0 0 0 0 -98.360973987646958 314.86860541403803 0 314.86860541403803 49.894353692601726 0 0 0 0 -194.25734304613371 249.48864106949986 0 249.48864106949986 135.65253849412329 0 0 0 0 16.601952104854718 310.33880245918408 0 310.33880245918408 -31.848209578849492 0 0 0 0 191.13202602021749 576.70689349394524 0 576.70689349394524 370.95803663671541 0 0 0 0 22.894843881164526 134.14851355457358 0 134.14851355457358 -135.00081538357335 0 0 0 0 -57.531882879547538 53.527806854974187 0 53.527806854974187 376.58495910758973 0 0 0 0 0.40906455052049218 0.50066773538654274 0 0.50066773538654274 0.47654479000995664 0 0 0 0 -86.394063787657842 210.87262729372742 0 210.87262729372742 789.79969507735404 0 0 0 0 -44.545219405140557 412.81850948471492 0 412.81850948471492 254.62958383479418 0 0 0 0 -178.59376731559672 69.533758350720746 0 69.533758350720746 266.32684311010757 0 0 0 0 61.539253538349385 115.54968465026104 0 115.54968465026104 326.01085682876874 0 0 0 0 121.57637815151384 167.40165307456846 0 167.40165307456846 332.59056548879744 0 0 0 0 21.874221239620283 61.89610806465862 0 61.89610806465862 305.07794399400882 0 0 0 0 118.84852424509629 100.22008086838468 0 100.22008086838468 320.19492424571217 0 0 0 0 114.2667875839696 133.70066604894873 0 133.70066604894873 98.011674496410706 0 0 0 0 100.62858647930491 -61.191814994166634 0 -61.191814994166634 215.68331206321091 0 0 0 0 -123.46390853236889 280.91695915728269 0 280.91695915728269 204.85434031011391 0 0 0 0 -127.18875337114673 -76.677534755894158 0 -76.677534755894158 -19.389754132796952 0 0 0 0 -210.2125494221591 -423.95085725339595 0 -423.95085725339595 121.8900829402337 0 0 0 0 57.534366931897068 201.98608219774178 0 201.98608219774178 426.6703836193783 0 0 0 0 1.4448121601604313 -2.6493939181554538 0 -2.6493939181554538 5.04473573467493 0 0 0 0 40.290214635270331 -17.384976052993807 0 -17.384976052993807 453.59950380968075 0 0 0 0 41.397006365897028 111.29290092386145 0 111.29290092386145 167.74110783640208 0 0 0 0 -37.628991425372305 94.485494629425375 0 94.485494629425375 356.42074862047593 0 0 0 0 -18.006998484342603 116.44617288928021 0 116.44617288928021 309.58234376919427 0 0 0 0 -8.5050585782289545 95.184526410503167 0 95.184526410503167 356.33482723152611 0 0 0 0 -12.92911072681008 127.02786155627837 0 127.02786155627837 389.65576729970053 0 0 0 0 21.895642862115778 107.76618398238497 0 107.76618398238497 346.2552647547127 0 0 0 0 64.049458140736078 122.58145324827638 0 122.58145324827638 341.54077461721863 0 0 0 0 -4.2835691477935427 121.47823157891162 0 121.47823157891162 356.05210667778738 0 0 0 0 -1.7499265450452697 138.36865485728549 0 138.36865485728549 397.67774737401487 0 0 0 0 73.468127889194875 185.08613554800104 0 185.08613554800104 112.04403151119368 0 0 0 0 26.677426920125868 344.79663599327432 0 344.79663599327432 837.13148275781714 0 0 0 0 92.113649830359009 324.56992475870175 0 324.56992475870175 478.1586242309495 0 0 0 0 44.625514343701752 117.44416826651832 0 117.44416826651832 427.56919165967702 0 0 0 0 101.01440928517957 225.5924522313635 0 225.5924522313635 492.29600940350792 0 0 0 0 52.095332537992817 151.15841418891796 0 151.15841418891796 429.09682980619982 0 0 0 0 -19.692262750387727 144.13111476815175 0 144.13111476815175 430.85341881596105 0 0 0 0 -18.748809277738928 139.31974191181143 0 139.31974191181143 372.65151407667145 0 0 0 0 -19.534905640927263 94.125775855252868 0 94.125775855252868 351.22997993241734 0 0 0 0 -20.171327592819416 116.33306477090974 0 116.33306477090974 396.84910447287984 0 0 0 0 23.91572888234009 62.592856392504473 0 62.592856392504473 338.15291778637766 0 0 0 0 15.406279363777458 20.671063948102528 0 20.671063948102528 451.01048464926498 0 0 0 0 -5.5493235026582397 170.64746293750068 0 170.64746293750068 422.55453752283938 0 0 0 0 16.913791018798747 115.90495531893248 0 115.90495531893248 387.31990321318517 0 0 0 0 -248.88111481347232 273.12972480532335 0 273.12972480532335 494.61122253727808 0 0 0 0 -53.522950527747525 163.99709270199673 0 163.99709270199673 511.91119779478322 0 0 0 0 -129.23043534327485 16.047454228099014 0 16.047454228099014 543.36167775961803 0 0 0 0 -89.755242830926818 53.625913748088351 0 53.625913748088351 473.77601963246161 0 0 0 0 -50.69528525952046 -92.931608802929986 0 -92.931608802929986 559.5117834945122 0 0 0 0 -97.981749005322172 -55.832546360474225 0 -55.832546360474225 701.77903505659197 0 0 0 0 -277.65379340310415 90.492554563788872 0 90.492554563788872 666.37910484770691 0 0 0 0 -224.20271861948686 92.760480321947398 0 92.760480321947398 637.84061413181917 0 0 0 0 -1028.49604314722 -110.68854625200402 0 -110.68854625200402 473.85094578047574 0 0 0 0 -263.7347498434392 154.21934173936461 0 154.21934173936461 565.24074241970447 0 0 0 0 32.118423403130237 324.53126541928214 0 324.53126541928214 429.00868066615658 0 0 0 0 178.28485233401307 235.89563102581451 0 235.89563102581451 462.17568721327189 0 0 0 0 -201.92494821108494 575.58813109788389 0 575.58813109788389 378.15487685039261 0 0 0 0 85.339995147239279 123.57114784098667 0 123.57114784098667 623.18434531486855 0 0 0 0 -842.53640432159978 -421.47244433352898 0 -421.47244433352898 483.81564521554537 0 0 0 0 -1064.7998166146588 -66.67016327901365 0 -66.67016327901365 55.468008176205331 0 0 0 0 -5.0088246568052401 -1.6906361173925006 0 -1.6906361173925006 0.30059517165027216 0 0 0 0 233.25828407246036 -111.22762568201142 0 -111.22762568201142 26.87565045615338 0 0 0 0 5.8826774498973053 -9.548041903606169 0 -9.548041903606169 16.781743979769317 0 0 0 0 -1.7098649992731225 1.7104428593302146 0 1.7104428593302146 45.23353289860097 0 0 0 0 -14.10618813727524 -55.13498085250103 0 -55.13498085250103 51.376001335687761 0 0 0 0 4.7018610660976732 -15.946202554155448 0 -15.946202554155448 21.734204519686472 0 0 0 0 77.958532599802766 -9.8822656919983274 0 -9.8822656919983274 3.3690309956946294 0 0 0 0 30.667674670904262 -86.204794393957854 0 -86.204794393957854 66.576124161307234 0 0 0 0 -8.7949342635621175 -2.2801012534777669 0 -2.2801012534777669 1.1911673165973582 0 0 0 0 -61.360205363102068 47.424749547990359 0 47.424749547990359 3.7035936836109613 0 0 0 0 -44.916974284899538 -105.10825745724469 0 -105.10825745724469 574.25034269716707 0 0 0 0 -41.251341928537386 -103.97660384088522 0 -103.97660384088522 526.97116012161268 0 0 0 0 -28.741011713113267 -71.787424011288749 0 -71.787424011288749 347.61607596875547 0 0 0 0 -11.742155376898184 -7.3662495578436591 0 -7.3662495578436591 3.1660469154702326 0 0 0 0 -17.77859441325495 4.1702596539171282 0 4.1702596539171282 18.456877724354854 0 0 0 0 12.982667872135153 65.579896879859007 0 65.579896879859007 258.08422721299939 0 0 0 0 -1.4270307456457689 -2.8329724492492048 0 -2.8329724492492048 -0.57572218124525421 0 0 0 0 72.10953326814456 -93.430618269132538 0 -93.430618269132538 46.65390987808496 0 0 0 0 11.430017710708626 27.246280498504348 0 27.246280498504348 -12.458195309613075 0 0 0 0 -18.012137201671521 -92.033594691245526 0 -92.033594691245526 276.27707784076665 0 0 0 0 -11.946792820376004 81.869355258946598 0 81.869355258946598 330.24912641599076 0 0 0 0 22.730523612872688 -70.757479589425657 0 -70.757479589425657 48.478078338397609 0 0 0 0 19.387782324063664 -7.1889354803388414 0 -7.1889354803388414 84.719266570973559 0 0 0 0 -1.3281236466783151 -14.614674204994998 0 -14.614674204994998 -13.267289569370291 0 0 0 0 5.8475115779938278 -21.290588115785795 0 -21.290588115785795 -19.21839250465564 0 0 0 0 21.111962776548353 -20.365601256846276 0 -20.365601256846276 -19.171652157824155 0 0 0 0 -0.24555520139025244 -14.865618168010002 0 -14.865618168010002 -13.817123078355337 0 0 0 0 -13.789381116022923 -53.254414946050019 0 -53.254414946050019 -4.8793181355722481 0 0 0 0 36.844035476384761 -51.599436186239473 0 -51.599436186239473 -13.290968161065393 0 0 0 0 20.607886101190616 -33.666638938171673 0 -33.666638938171673 73.802417578262975 0 0 0 0 15.421088820027194 -4.5307551376545234 0 -4.5307551376545234 -16.485159321629908 0 0 0 0 -0.16550125226198009 -1.0687663207040288 0 -1.0687663207040288 -2.4878956325435126 0 0 0 0 -19.034078489109106 22.064947059516271 0 22.064947059516271 -10.39536303650857 0 0 0 0 -7.5490826083730553 -2.8099111967858335 0 -2.8099111967858335 80.933028848303366 0 0 0 0 -5.8429952753003818 -14.458965572659508 0 -14.458965572659508 14.336645721916284 0 0 0 0 -1.5242549994686403 -1.4350113837755885 0 -1.4350113837755885 1.6141511439697496 0 0 0 0 -3.3045828319682187 -17.444498651108006 0 -17.444498651108006 -21.72956827822054 0 0 0 0 0.19794829519000068 -2.7600941961968175 0 -2.7600941961968175 -3.1837503251666135 0 0 0 0 -1.0151415751270347 -15.941714404541443 0 -15.941714404541443 8.6942140570752997 0 0 0 0 -195.27272424847433 -39.768524180428358 0 -39.768524180428358 17.762995366665109 0 0 0 0 21.214375598994593 9.5778983916534344 0 9.5778983916534344 15.333091360245817 0 0 0 0 -11.647461341335386 3.3594350721511574 0 3.3594350721511574 2.3348852328127805 0 0 0 0 5.2571336692415613 -14.257227735302436 0 -14.257227735302436 21.191780234993217 0 0 0 0 -43.764870160239411 -41.318346166986885 0 -41.318346166986885 87.640607887704391 0 0 0 0 -33.969710150093249 -78.047616070029108 0 -78.047616070029108 22.883647876937175 0 0 0 0 -171.39817344437756 -47.765649580891477 0 -47.765649580891477 -1.685604972706642 0 0 0 0 -46.90553043797081 -43.554246600309853 0 -43.554246600309853 7.8104280108382227 0 0 0 0 -12.992625968776792 -67.257472759367374 0 -67.257472759367374 20.777323386369972 0 0 0 0 -25.120704624457176 -20.891595747772953 0 -20.891595747772953 -22.549835964600788 0 0 0 0 4.3724707099249827 -34.402067610157246 0 -34.402067610157246 -29.789234582422068 0 0 0 0 -4.4464351539818381 -26.95306234988675 0 -26.95306234988675 -30.97040120488964 0 0 0 0 -14.050998623228679 -34.776792956778081 0 -34.776792956778081 -13.40714623479289 0 0 0 0 23.966064409930823 -45.524126947304467 0 -45.524126947304467 -10.978278676480841 0 0 0 0 12.895849825791402 -22.286640192367486 0 -22.286640192367486 54.212705246263795 0 0 0 0 -3.2425557764629502 -44.24900444918967 0 -44.24900444918967 115.92322009560303 0 0 0 0 -31.477293029773591 25.295043935057038 0 25.295043935057038 259.23973721286166 0 0 0 0 -6.4335286135426486 63.559566869735136 0 63.559566869735136 180.31778263973683 0 0 0 0 -46.39536782338638 20.100560101152951 0 20.100560101152951 116.68163364303473 0 0 0 0 -9.2577356092155174 -10.680441266869082 0 -10.680441266869082 139.3695744509896 0 0 0 0 6.6869100477044014 -62.777380197866478 0 -62.777380197866478 -26.349797063710866 0 0 0 0 37.831268205018432 -17.656286183846532 0 -17.656286183846532 -22.510287054508808 0 0 0 0 -168.36085509477289 131.6645893638306 0 131.6645893638306 164.70737737218951 0 0 0 0 4.155843414684643 -7.5996672977454907 0 -7.5996672977454907 14.873999539226844 0 0 0 0 -125.58936471014249 -8.0186234523571329 0 -8.0186234523571329 -21.016569946552409 0 0 0 0 -171.10277874337248 -126.55328367694528 0 -126.55328367694528 -19.924352176465618 0 0 0 0 -353.03958663934509 -14.499148474445974 0 -14.499148474445974 83.167009580312879 0 0 0 0 -439.93616790201452 -211.1394120870973 0 -211.1394120870973 103.85907091847912 0 0 0 0 -559.45009429974721 -311.73097459220207 0 -311.73097459220207 -35.735059939979692 0 0 0 0 -645.1054278984941 -29.464691214234335 0 -29.464691214234335 119.44168610768975 0 0 0 0 -392.64107341497106 -340.62496863473643 0 -340.62496863473643 -234.88890525768147 0 0 0 0 -606.81653209753483 -64.642192334080391 0 -64.642192334080391 105.12709118302155 0 0 0 0 -117.80009109600599 -96.978169406236702 0 -96.978169406236702 -19.703751795670541 0 0 0 0 -3.5202440406937079 1.8073332422997908 0 1.8073332422997908 -1.4566998632715666 0 0 0 0 -188.57216891846815 -110.24001710551966 0 -110.24001710551966 -5.8864812315296149 0 0 0 0 -217.3750508934595 -131.08064425930206 0 -131.08064425930206 -18.502519084136566 0 0 0 0 -255.39153707390756 4.13305334663346 0 4.13305334663346 93.034426673402777 0 0 0 0 -323.04512732301782 -65.926111791508447 0 -65.926111791508447 51.425891803337436 0 0 0 0 -306.48046106004449 -72.021404502474979 0 -72.021404502474979 59.474541777657578 0 0 0 0 -189.27959651628424 -83.925927372832803 0 -83.925927372832803 -12.430366380314808 0 0 0 0 -191.82571965035731 1.1516161203908268 0 1.1516161203908268 96.521015234899096 0 0 0 0 -164.74041828212356 -113.64300100625314 0 -113.64300100625314 207.31728207506967 0 0 0 0 -202.4864309103362 38.766344687973287 0 38.766344687973287 114.10970168566564 0 0 0 0 -209.53212539927381 -13.534852172248065 0 -13.534852172248065 119.02285221601778 0 0 0 0 -143.17932992193346 8.185886205494171 0 8.185886205494171 123.06936660692008 0 0 0 0 -153.89085397817485 -44.266275656043945 0 -44.266275656043945 192.49503527973138 0 0 0 0 -143.72195452985244 33.300015579803585 0 33.300015579803585 72.957450247660745 0 0 0 0 -51.744038697756878 -84.419825543787738 0 -84.419825543787738 152.30860534992826 0 0 0 0 -34.154227538344458 -175.32575084210839 0 -175.32575084210839 236.46535671146557 0 0 0 0 94.321208810637927 -289.34822111376707 0 -289.34822111376707 262.97632344900921 0 0 0 0 -116.11945872027832 -35.376877966558823 0 -35.376877966558823 183.07195035413315 0 0 0 0 -114.78030944473858 -185.45049564982037 0 -185.45049564982037 395.37302939589426 0 0 0 0 -141.03202051763947 -245.51576511373423 0 -245.51576511373423 663.65295303157473 0 0 0 0 -58.995280759707839 -249.32755791652744 0 -249.32755791652744 374.22113246944355 0 0 0 0 -123.03221293764318 -107.03297020172613 0 -107.03297020172613 298.01457746732922 0 0 0 0 -87.531157335909711 -181.17096636744645 0 -181.17096636744645 316.37164810544346 0 0 0 0 -151.27967531125705 -116.89212311935989 0 -116.89212311935989 363.31573575634775 0 0 0 0 -105.76287476449397 -74.734842461959488 0 -74.734842461959488 231.57858542710892 0 0 0 0 -97.810629284296056 -163.35228566945807 0 -163.35228566945807 370.93352300948754 0 0 0 0 -137.19877671890595 -141.43351953087404 0 -141.43351953087404 441.25846746073512 0 0 0 0 -118.63046238477909 -231.64790457221534 0 -231.64790457221534 488.66182317801577 0 0 0 0 -99.962092904283509 -150.64879231094528 0 -150.64879231094528 526.5474123574586 0 0 0 0 -127.68586693871885 -165.2741984548411 0 -165.2741984548411 522.39504592133744 0 0 0 0 -72.890315307737637 -110.96020434959428 0 -110.96020434959428 364.00126388342323 0 0 0 0 -88.542092850292079 -169.92264067896576 0 -169.92264067896576 294.61809255073604 0 0 0 0 -41.219347037874286 -48.940067170184193 0 -48.940067170184193 220.30594792912962 0 0 0 0 -207.85566185272796 -8.1969225226675917 0 -8.1969225226675917 129.82363925703612 0 0 0 0 -120.38327510552506 -172.52295730610876 0 -172.52295730610876 37.893275146270753 0 0 0 0 -75.686472358391939 -86.898358396174444 0 -86.898358396174444 195.71887519911979 0 0 0 0 -9.6175866938178842 -75.518967576819705 0 -75.518967576819705 66.736644481745316 0 0 0 0 -6.0405297219226668 -40.484047013967938 0 -40.484047013967938 196.49282182187744 0 0 0 0 58.17795683993586 -6.9043223865537584 0 -6.9043223865537584 89.969272668487974 0 0 0 0 35.981485532494389 -42.70319776170254 0 -42.70319776170254 86.360575566453917 0 0 0 0 74.590009558595284 54.771647342997312 0 54.771647342997312 151.83998946411884 0 0 0 0 -16.482579519036335 -88.193960718184826 0 -88.193960718184826 179.74901000038153 0 0 0 0 -36.698661847694666 -46.825907297847152 0 -46.825907297847152 353.47501960076625 0 0 0 0 -82.759378946199945 -116.0975220851069 0 -116.0975220851069 512.6131473606365 0 0 0 0 -15.306045234599424 -95.515499046297919 0 -95.515499046297919 323.03268607296195 0 0 0 0 -49.338102230702589 -138.10044430788548 0 -138.10044430788548 487.49060011529218 0 0 0 0 -107.43688446241367 -168.50383232940658 0 -168.50383232940658 568.4439990516039 0 0 0 0 39.185272320682998 -152.85593414844698 0 -152.85593414844698 475.12184166506631 0 0 0 0 -59.789262907681746 -158.81215787635756 0 -158.81215787635756 553.01516854575311 0 0 0 0 -49.444111244799842 -48.823706231149117 0 -48.823706231149117 534.88870538469928 0 0 0 0 133.21605377490187 -152.88172429318729 0 -152.88172429318729 530.52437853137235 0 0 0 0 -28.833930442000337 -154.84612120062593 0 -154.84612120062593 610.71016072490602 0 0 0 0 28.457993517640261 -152.89529577494068 0 -152.89529577494068 586.72725803990033 0 0 0 0 164.80574466587723 -198.38370120459876 0 -198.38370120459876 523.37939917153926 0 0 0 0 190.564860710039 -147.7635049252176 0 -147.7635049252176 434.1694656360778 0 0 0 0 658.36875507428113 -272.93442865541874 0 -272.93442865541874 456.5513494252009 0 0 0 0 83.468944427817291 -377.74717422839331 0 -377.74717422839331 753.27439498530293 0 0 0 0 2.790978917783268 -3.9088085055584045 0 -3.9088085055584045 6.1666142303548384 0 0 0 0 -107.79822463424807 38.37610362138912 0 38.37610362138912 817.94160246047977 0 0 0 0 16.943680768195463 112.09087281305983 0 112.09087281305983 274.34024426800897 0 0 0 0 -86.464497494132956 -82.578480492280505 0 -82.578480492280505 79.96149407656776 0 0 0 0 27.366300773265834 -50.508075108965386 0 -50.508075108965386 69.210480093846854 0 0 0 0 -116.53062300277304 -239.48923287139769 0 -239.48923287139769 89.135953701406834 0 0 0 0 -141.03111758969612 -237.83949635738099 0 -237.83949635738099 161.57974986900808 0 0 0 0 -205.91831604634581 -231.11547270900337 0 -231.11547270900337 138.59975130243402 0 0 0 0 -208.92739511685386 -217.37277690546762 0 -217.37277690546762 96.767758725269232 0 0 0 0 -278.31869406057604 -206.00790463965677 0 -206.00790463965677 106.89125351782423 0 0 0 0 -304.01908917968967 -220.23485793252621 0 -220.23485793252621 163.95466220927483 0 0 0 0 -263.323729396055 -235.4182299459826 0 -235.4182299459826 258.48677376595151 0 0 0 0 -294.77926411666772 -168.47449855832747 0 -168.47449855832747 133.17428636786644 0 0 0 0 -137.95849310299809 -242.01898317979067 0 -242.01898317979067 132.10510108774179 0 0 0 0 -44.348986423064844 -207.53936491871718 0 -207.53936491871718 247.33695733700006 0 0 0 0 19.549761857206477 -298.50159121936304 0 -298.50159121936304 181.53056593590009 0 0 0 0 0.20291984397115007 -263.01971580410515 0 -263.01971580410515 141.36770997999702 0 0 0 0 -84.138978640540586 -279.51530196170643 0 -279.51530196170643 126.95965159516345 0 0 0 0 -12.979533492887299 -217.77550687348412 0 -217.77550687348412 89.820154346351046 0 0 0 0 -48.089749447601264 -246.18056834823801 0 -246.18056834823801 78.571958872817049 0 0 0 0 -0.06341838071228581 -233.76309795369161 0 -233.76309795369161 37.190651568642352 0 0 0 0 -74.172834742315899 -218.41412366135773 0 -218.41412366135773 54.691499574066256 0 0 0 0 -90.580935022820199 -226.60431124897877 0 -226.60431124897877 54.681693063233979 0 0 0 0 -168.19065951657444 -223.73694871808402 0 -223.73694871808402 72.34681607055245 0 0 0 0 -94.788066419480685 -214.92849997293706 0 -214.92849997293706 61.425314200285356 0 0 0 0 -94.114942071560563 -245.95808574112743 0 -245.95808574112743 71.043123786119395 0 0 0 0 -173.39649817875397 -238.02854876327183 0 -238.02854876327183 94.141436476798845 0 0 0 0 -250.7441511537877 -206.27047193613544 0 -206.27047193613544 87.987595226171834 0 0 0 0 -174.07553803181258 -228.05421380652888 0 -228.05421380652888 80.728876391047379 0 0 0 0 -168.14884336590441 -221.22190611582113 0 -221.22190611582113 80.758788147737505 0 0 0 0 -226.37963862585957 -203.10278622989426 0 -203.10278622989426 90.498074608734896 0 0 0 0 -225.48471810341277 -181.59747028409083 0 -181.59747028409083 90.960059739212738 0 0 0 0 -272.13524399723747 -199.8691107010527 0 -199.8691107010527 95.379970206384314 0 0 0 0 -250.83135544098354 -162.25568880798528 0 -162.25568880798528 104.18027502772748 0 0 0 0 -299.75212385891746 -154.90682090393966 0 -154.90682090393966 107.37618005911281 0 0 0 0 -316.6449821335882 -138.89013681467623 0 -138.89013681467623 108.35865799227759 0 0 0 0 -257.88405609793881 -134.55463447402144 0 -134.55463447402144 107.9375177610782 0 0 0 0 -305.37375919097599 -88.007334287172853 0 -88.007334287172853 94.42161346442299 0 0 0 0 -338.98831824434092 -125.6067892028077 0 -125.6067892028077 74.832885157899 0 0 0 0 -352.6484262675101 -76.026240173778206 0 -76.026240173778206 77.412971988669597 0 0 0 0 -363.53536686545704 -144.26928461284842 0 -144.26928461284842 95.063775410293601 0 0 0 0 -283.276765817875 -144.31164880704455 0 -144.31164880704455 88.594485944864573 0 0 0 0 -299.43433409265072 -157.33677837396681 0 -157.33677837396681 79.563508494888083 0 0 0 0 -436.4113386817935 -83.445375596827944 0 -83.445375596827944 96.259400496215676 0 0 0 0 -406.76991702972009 -119.95715436065802 0 -119.95715436065802 87.867915192866349 0 0 0 0 -478.75647267179829 -105.0819782668259 0 -105.0819782668259 88.690828049526317 0 0 0 0 -392.01347207150417 -106.01921870426759 0 -106.01921870426759 65.45248997505405 0 0 0 0 -353.28441616493546 -142.76524518305087 0 -142.76524518305087 64.11187249251816 0 0 0 0 -400.25716013555842 -155.59715529241748 0 -155.59715529241748 97.13471511946409 0 0 0 0 -352.66011987969114 -181.62672838414437 0 -181.62672838414437 102.62011543699919 0 0 0 0 -250.64816115875294 -206.18275913399611 0 -206.18275913399611 79.920957950758748 0 0 0 0 -313.83359396037213 -182.36748155330133 0 -182.36748155330133 94.957338900989726 0 0 0 0 -412.03060911919465 -186.1313434507756 0 -186.1313434507756 58.236108199453156 0 0 0 0 -496.13752582353891 -250.40594005853927 0 -250.40594005853927 77.166380247152119 0 0 0 0 -550.73652046063114 -84.901718725435785 0 -84.901718725435785 162.28315217529598 0 0 0 0 -256.84976652304249 -13.409768959136272 0 -13.409768959136272 138.07330840851137 0 0 0 0 -364.06476220238414 -46.933868259162409 0 -46.933868259162409 50.098286924650893 0 0 0 0 -338.39489456216688 54.751084400675609 0 54.751084400675609 23.422153037216049 0 0 0 0 -243.49959273528657 11.332079512183554 0 11.332079512183554 43.20003664190881 0 0 0 0 -218.76061669267347 -9.8176690306281671 0 -9.8176690306281671 48.850633421214297 0 0 0 0 -215.07622089846666 -47.51233486876481 0 -47.51233486876481 68.890181417111307 0 0 0 0 -284.41323424950497 -28.803686648840085 0 -28.803686648840085 64.142399220349034 0 0 0 0 -252.86063879896392 -76.430322132699075 0 -76.430322132699075 95.107873354863841 0 0 0 0 -287.36507380300282 -102.89809203884215 0 -102.89809203884215 106.47256289463257 0 0 0 0 -252.20725355139439 -100.75422504452581 0 -100.75422504452581 105.97909604507731 0 0 0 0 -257.82422613964081 -69.987327611393994 0 -69.987327611393994 88.695800820540171 0 0 0 0 -318.26404547622769 -70.742572635790566 0 -70.742572635790566 89.153575095064298 0 0 0 0 -296.24964250415087 -89.406744349282235 0 -89.406744349282235 82.660540806944482 0 0 0 0 -382.8844848520921 -13.280578186764615 0 -13.280578186764615 75.630314318143064 0 0 0 0 -281.42784782062517 -32.543177333791391 0 -32.543177333791391 67.491054708487354 0 0 0 0 -362.48917063160434 -68.016503627950442 0 -68.016503627950442 87.962084337661508 0 0 0 0 -366.0592810772896 -73.378309740219265 0 -73.378309740219265 85.862386817836523 0 0 0 0 0.026630502574625393 -3.10212971661179 0 -3.10212971661179 74.118494456979931 0 0 0 0 -481.55060216860511 18.439003454419435 0 18.439003454419435 92.17936612907215 0 0 0 0 -0.71186661971458287 -0.3004804794268825 0 -0.3004804794268825 59.485470825002778 0 0 0 0 -532.59143165237401 -41.071464418855612 0 -41.071464418855612 94.134883291728329 0 0 0 0 -260.92501354315664 71.900780337866308 0 71.900780337866308 98.180103975377278 0 0 0 0 -99.382757378360566 -86.456231518946879 0 -86.456231518946879 -45.137540825337055 0 0 0 0 -243.57234599249227 -39.871143087219025 0 -39.871143087219025 45.20851710496936 0 0 0 0 -424.13823007479732 -29.5741334521299 0 -29.5741334521299 64.023729558699415 0 0 0 0 -493.50211615923013 -75.909712952665359 0 -75.909712952665359 95.648815489083063 0 0 0 0 -456.64688420493439 -61.655979937815573 0 -61.655979937815573 44.610738705378026 0 0 0 0 -413.48989962260111 -150.71870974128251 0 -150.71870974128251 61.656893802166451 0 0 0 0 -274.40326801253883 -117.98253879921583 0 -117.98253879921583 101.67211637282162 0 0 0 0 -151.9994112403333 -148.66833182675327 0 -148.66833182675327 -42.661864358800813 0 0 0 0 -274.13330953590275 -127.70062416022847 0 -127.70062416022847 -285.07108942551713 0 0 0 0 -384.41841630960789 104.04536342609208 0 104.04536342609208 -67.957964926186833 0 0 0 0 -349.44833739457658 21.926605473232485 0 21.926605473232485 71.945873715900234 0 0 0 0 -192.71274685905701 133.57749460817286 0 133.57749460817286 105.54336393829726 0 0 0 0 -152.58561955125151 62.905445463555225 0 62.905445463555225 14.91647935364017 0 0 0 0 -173.94198553903425 57.04584341491136 0 57.04584341491136 140.44312928934232 0 0 0 0 -26.0651212940611 79.094018234158284 0 79.094018234158284 -8.0263946568666142 0 0 0 0 -0.28929486136420862 -0.366630854983935 0 -0.366630854983935 87.366906542850643 0 0 0 0 -497.29552647634091 -45.166510000199196 0 -45.166510000199196 -34.755567289656028 0 0 0 0 -525.46093941190884 -75.664729089316097 0 -75.664729089316097 82.052541656827088 0 0 0 0 -656.3426821685789 76.013063171616523 0 76.013063171616523 17.416144274913677 0 0 0 0 -826.99221852611845 -25.771605304245895 0 -25.771605304245895 117.94816060343874 0 0 0 0 -129.45445940490981 -44.534174969143351 0 -44.534174969143351 -156.42293443484232 0 0 0 0 -1.3549965675734383 -2.8121188731845592 0 -2.8121188731845592 36.866843454766638 0 0 0 0 -701.579610653278 -136.03338030886152 0 -136.03338030886152 3.0663981122488622 0 0 0 0 -108.76316628037466 -20.980107339106326 0 -20.980107339106326 54.6193509788136 0 0 0 0 -209.21347721990423 -16.442457107892551 0 -16.442457107892551 137.52280224084097 0 0 0 0 -233.15198240390146 44.581184839436901 0 44.581184839436901 139.38281153412436 0 0 0 0 -288.79369671349741 55.817122421016393 0 55.817122421016393 106.33147690571786 0 0 0 0 -411.8038510294208 -175.58876081986091 0 -175.58876081986091 150.38506342316396 0 0 0 0 -340.71425840461188 -153.41955285942822 0 -153.41955285942822 93.663312207324452 0 0 0 0 -281.21506474478076 -213.93894486700083 0 -213.93894486700083 94.025941446176148 0 0 0 0 -425.23093946723475 -165.74842733642436 0 -165.74842733642436 88.083574657794088 0 0 0 0 -462.01020445020822 -89.277094704506453 0 -89.277094704506453 65.05390616360819 0 0 0 0 -506.04810818110741 -113.3889946088093 0 -113.3889946088093 58.511723953008186 0 0 0 0 -489.3263475528247 -55.73441441693285 0 -55.73441441693285 4.1964458332950016 0 0 0 0 -629.27946240751555 -60.934202675973211 0 -60.934202675973211 87.444248072366463 0 0 0 0 -432.78807586039966 -109.04137628505123 0 -109.04137628505123 59.631769631276256 0 0 0 0 -495.79355373278759 -103.00316035869764 0 -103.00316035869764 90.948769641427134 0 0 0 0 -557.24339017795592 -88.792399592886795 0 -88.792399592886795 127.26951817973168 0 0 0 0 -564.63095530913688 -49.114121435879497 0 -49.114121435879497 47.432513135805493 0 0 0 0 -555.91829309366676 -72.749651584934327 0 -72.749651584934327 25.014026820135769 0 0 0 0 -656.35170491621921 -30.312018929020269 0 -30.312018929020269 82.444127218914218 0 0 0 0 -529.9855672577205 -22.284650822781259 0 -22.284650822781259 68.431702666086494 0 0 0 0 -484.97800054085383 -91.643560899319709 0 -91.643560899319709 167.07070991376531 0 0 0 0 -456.64154139302582 -70.081340885866666 0 -70.081340885866666 125.4785248890712 0 0 0 0 -410.1854246215994 -162.83287857853429 0 -162.83287857853429 256.71918578381883 0 0 0 0 -569.05339841059413 7.1535869514555088 0 7.1535869514555088 390.27166207715345 0 0 0 0 -625.89517969388442 -96.464179217258788 0 -96.464179217258788 420.68386155682674 0 0 0 0 -578.52681238013474 101.64300517008087 0 101.64300517008087 98.282906394088059 0 0 0 0 -584.04128265949112 86.448915743058024 0 86.448915743058024 222.7249156764301 0 0 0 0 -547.49010549878403 78.130799977996503 0 78.130799977996503 115.5558553664232 0 0 0 0 -601.02441991890828 218.60847049292352 0 218.60847049292352 364.42830457777018 0 0 0 0 -760.2118878571714 213.65787066870689 0 213.65787066870689 591.91292093777156 0 0 0 0 -681.67178237498501 224.39207327131589 0 224.39207327131589 364.11873721858137 0 0 0 0 -818.87170250098734 67.136150338606967 0 67.136150338606967 481.75802664110233 0 0 0 0 -190.50947243721021 33.44331321377831 0 33.44331321377831 108.99438513022324 0 0 0 0 -220.36018374608875 21.964894889759307 0 21.964894889759307 125.38061743584694 0 0 0 0 -218.70229471623043 26.126211271432112 0 26.126211271432112 105.32209222543042 0 0 0 0 -255.90730508560273 -2.2025170581910061 0 -2.2025170581910061 109.40769487863872 0 0 0 0 -200.87628857671143 43.240528572998301 0 43.240528572998301 560.66714409991982 0 0 0 0 -0.22885592721545547 -1.1548256887190096 0 -1.1548256887190096 102.09263502638214 0 0 0 0 -560.35490944599928 -4.8593961075257539 0 -4.8593961075257539 -171.82553581084358 0 0 0 0 -571.76976384893715 182.78871950594475 0 182.78871950594475 -23.770872349283309 0 0 0 0 -11.489619655391834 -53.235965818090335 0 -53.235965818090335 -708.13623510114849 0 0 0 0 -0.64395383307441478 -0.76481304289229612 0 -0.76481304289229612 12.452930098322952 0 0 0 0 -571.22777985565108 279.5626489763963 0 279.5626489763963 299.43321347562596 0 0 0 0 -663.07625274619477 301.02353495272473 0 301.02353495272473 640.30771655598073 0 0 0 0 -240.89272196496313 22.189917754250928 0 22.189917754250928 126.20166072656866 0 0 0 0 -293.57649772971581 27.136058739844884 0 27.136058739844884 136.27582671933487 0 0 0 0 -207.15186525901936 22.609137168794405 0 22.609137168794405 125.90867951554173 0 0 0 0 -226.14498396596264 46.18241932548699 0 46.18241932548699 130.99005867434971 0 0 0 0 -208.16363894552569 -65.974012374081212 0 -65.974012374081212 118.34654079584288 0 0 0 0 -184.38617444888769 -102.33656973580219 0 -102.33656973580219 118.90899380796327 0 0 0 0 -190.01271959197038 61.929382722380979 0 61.929382722380979 66.408053716397262 0 0 0 0 -249.34689857323292 72.639759482968657 0 72.639759482968657 98.524896262591938 0 0 0 0 -344.70369780429655 169.59731956292671 0 169.59731956292671 9.1952755265447195 0 0 0 0 -10.712302076290319 -5.2863975283451197 0 -5.2863975283451197 28.103508326641133 0 0 0 0 -583.47944797847072 -135.83479210518368 0 -135.83479210518368 1653.2124660286354 0 0 0 0 -2.4955147389849048 4.5231779612760645 0 4.5231779612760645 112.89795079890479 0 0 0 0 200.10372457703215 -271.65082414556673 0 -271.65082414556673 -477.45857249705296 0 0 0 0 -688.24130861244612 -68.514333029168483 0 -68.514333029168483 912.78385215023445 0 0 0 0 23.981485703443013 51.256563911108969 0 51.256563911108969 -87.778933696121385 0 0 0 0 2.4571852130414178 8.0023253653333306 0 8.0023253653333306 24.632875314709196 0 0 0 0 -428.16728787787451 519.99169155691197 0 519.99169155691197 -599.86130317787956 0 0 0 0 6.3738210011876202 32.420705607120368 0 32.420705607120368 61.69115899481443 0 0 0 0 -248.56199962751589 -32.690206878032768 0 -32.690206878032768 210.92363233289507 0 0 0 0 -44.382472453201899 42.436097640911612 0 42.436097640911612 131.90322043925698 0 0 0 0 -814.69746930966301 109.08915920221716 0 109.08915920221716 414.38218218422844 0 0 0 0 -875.35606122474474 90.298777469448396 0 90.298777469448396 413.71687354866299 0 0 0 0 -695.47034808730041 3.3042340759202489 0 3.3042340759202489 327.11245431890711 0 0 0 0 -802.89355713376426 265.30317078257212 0 265.30317078257212 28.270291845750762 0 0 0 0 -718.95332940057642 249.5692594284701 0 249.5692594284701 -0.4887116078461986 0 0 0 0 -746.86834455308781 374.4203511588712 0 374.4203511588712 -407.87592562473583 0 0 0 0 -1149.9495267526245 458.89997637099441 0 458.89997637099441 159.14570984611055 0 0 0 0 -1062.4344497149359 -45.57654649838787 0 -45.57654649838787 522.0665094658325 0 0 0 0 -112.26406978366322 798.85830526224163 0 798.85830526224163 826.01046872939878 0 0 0 0 -27.76099180435358 -311.13830940027401 0 -311.13830940027401 705.99195942259394 0 0 0 0 -663.1144580232135 -168.96991796541988 0 -168.96991796541988 898.64960873075324 0 0 0 0 23.254057778771426 -352.0594503110915 0 -352.0594503110915 503.08504012162302 0 0 0 0 -666.00096476039698 45.060557480013813 0 45.060557480013813 405.30464465927798 0 0 0 0 -849.46396439494902 -119.17801335163176 0 -119.17801335163176 648.47734978358494 0 0 0 0 -428.19862274892739 -187.29812621352903 0 -187.29812621352903 451.79558960479335 0 0 0 0 -435.26562733061274 -229.76552724633802 0 -229.76552724633802 535.58715843735263 0 0 0 0 -29.615979549349504 -318.99590574195463 0 -318.99590574195463 341.52139518059994 0 0 0 0 -258.00611751922219 -246.55404193851064 0 -246.55404193851064 325.08274810637522 0 0 0 0 -300.82935885346433 -174.11764013956417 0 -174.11764013956417 235.79241724415624 0 0 0 0 -331.82673414180181 -201.24500893988443 0 -201.24500893988443 275.50049585910165 0 0 0 0 -0.47111330236296534 -211.63117092958055 0 -211.63117092958055 430.35893044389377 0 0 0 0 140.89601631056098 -214.53995346520242 0 -214.53995346520242 245.08789911156055 0 0 0 0 -73.524705994065243 -212.80397699044261 0 -212.80397699044261 448.20038459164789 0 0 0 0 250.82631905602585 -270.53267899716593 0 -270.53267899716593 424.31186403266474 0 0 0 0 200.94054799831559 69.369037087875768 0 69.369037087875768 759.97723727074481 0 0 0 0 2.4280484232497868 -65.449807146309467 0 -65.449807146309467 994.58077998882072 0 0 0 0 7.5340067641827808 -176.15714729127558 0 -176.15714729127558 760.67124974331819 0 0 0 0 538.66534276364564 -311.2290299003289 0 -311.2290299003289 775.78117602923157 0 0 0 0 53.80212922917417 75.607469901166041 0 75.607469901166041 1588.4629425004823 0 0 0 0 883.8172178067091 290.68136331040296 0 290.68136331040296 1357.7006070098723 0 0 0 0 1924.799535653907 695.34164449493983 0 695.34164449493983 1836.9998572356599 0 0 0 0 382.67958160094781 504.53490230513944 0 504.53490230513944 1816.792862499904 0 0 0 0 655.03088255112743 522.82499506678141 0 522.82499506678141 3272.4188076031569 0 0 0 0 3654.4224871237702 3163.5698203947613 0 3163.5698203947613 1407.8311646167422 0 0 0 0 -1.5849607965706212 1892.2713874283654 0 1892.2713874283654 3488.4039028491243 0 0 0 0 1211.6245028718608 2409.5664218008169 0 2409.5664218008169 3746.3186527699581 0 0 0 0 -35.728101946292554 481.5890863405657 0 481.5890863405657 2075.2852619572659 0 0 0 0 432.12697642540979 1964.44755559021 0 1964.44755559021 1710.2262616996013 0 0 0 0 1239.2411763962307 1325.137495226023 0 1325.137495226023 1102.1393734814628 0 0 0 0 2510.8062849798284 1642.9425724300454 0 1642.9425724300454 542.98562811885495 0 0 0 0 608.65855344509919 1956.6495565400619 0 1956.6495565400619 947.45475969103791 0 0 0 0 -1.6923362160742423 4.3065220364875501 0 4.3065220364875501 27.038907944474488 0 0 0 0 -1127.9226310273671 -129.21350483339484 0 -129.21350483339484 490.495594652617 0 0 0 0 -956.40925392422105 61.510773136214993 0 61.510773136214993 190.7228853070701 0 0 0 0 -1692.1197393843859 797.98847703953652 0 797.98847703953652 311.54240887982269 0 0 0 0 -375.16747142094346 3376.1623103959573 0 3376.1623103959573 -519.57204414915213 0 0 0 0 377.59506866587867 1514.2190789539936 0 1514.2190789539936 -1139.8630332488683 0 0 0 0 7.114885343512956 14.470268253392618 0 14.470268253392618 18.211770350487939 0 0 0 0 -5.1226980731416134 -816.82163677448943 0 -816.82163677448943 4155.1428174698667 0 0 0 0 1327.9960919907596 970.66893483965941 0 970.66893483965941 609.34381373120414 0 0 0 0 551.81082114305082 1343.4711112216828 0 1343.4711112216828 2695.655850899846 0 0 0 0 457.23612331197273 423.68504368843423 0 423.68504368843423 850.33862019280059 0 0 0 0 -286.56062211672906 -20.593019892967277 0 -20.593019892967277 -22.712838680949062 0 0 0 0 -0.25933934401912806 139.64243989722308 0 139.64243989722308 -185.51396309833945 0 0 0 0 -5.5363573276405944 0.50397543606609929 0 0.50397543606609929 69.549230888244438 0 0 0 0 -145.2864629993951 514.03409822762478 0 514.03409822762478 2096.6413302065775 0 0 0 0 1033.9583626217466 -104.93848771195826 0 -104.93848771195826 -388.2782700194075 0 0 0 0 120.27665856434569 -138.04042739176657 0 -138.04042739176657 218.85677133357967 0 0 0 0 7.9142436839272534 60.435638902708888 0 60.435638902708888 -66.912151707965677 0 0 0 0 -0.018798375866288207 70.644918017041007 0 70.644918017041007 392.36490921099903 0 0 0 0 209.36078946481587 370.29739472523215 0 370.29739472523215 236.07218463046593 0 0 0 0 0.11577473186901505 -0.92667492164086696 0 -0.92667492164086696 2.8219771478255211 0 0 0 0 -49.120387111461291 -57.897076726465457 0 -57.897076726465457 79.889390891607036 0 0 0 0 -200.99256450145498 143.47100845562818 0 143.47100845562818 559.856004389585 0 0 0 0 -0.015430780878965921 11.408123217926914 0 11.408123217926914 2.2868092284079466 0 0 0 0 -166.86100429042722 -41.942853863534765 0 -41.942853863534765 188.16458888316993 0 0 0 0 -191.02748679720366 121.13246478666406 0 121.13246478666406 227.65895975896274 0 0 0 0 285.92770671906919 105.63388086906343 0 105.63388086906343 -126.4401840520004 0 0 0 0 -486.34375222494668 -380.39109549329805 0 -380.39109549329805 621.26008677678328 0 0 0 0 -366.25956312560987 -102.25767410883054 0 -102.25767410883054 369.48429048179241 0 0 0 0 -4.3657718315371881 -6.8914450014413049 0 -6.8914450014413049 91.763703724356617 0 0 0 0 -71.121243843918933 -134.02540125607629 0 -134.02540125607629 101.3844614525151 0 0 0 0 -27.546593543165045 236.4354414393456 0 236.4354414393456 36.846711963153211 0 0 0 0 344.81094763743158 -125.73111639628769 0 -125.73111639628769 262.12739169496672 0 0 0 0 437.34721912596069 528.5563624398128 0 528.5563624398128 795.00926847972733 0 0 0 0 790.23002187518557 392.54480826711006 0 392.54480826711006 70.953302508118213 0 0 0 0 194.13848670802463 -3.4614195501962968 0 -3.4614195501962968 -20.67412685493764 0 0 0 0 153.59286108687115 112.05032492378086 0 112.05032492378086 98.448293655332236 0 0 0 0 487.78824386933456 202.22004455910792 0 202.22004455910792 18.192320802772883 0 0 0 0 261.89300054663772 70.666657533685793 0 70.666657533685793 134.08071635363376 0 0 0 0 -214.14589305022892 -240.30815636720945 0 -240.30815636720945 49.464178597823775 0 0 0 0 -3.6973786344968875 -10.590335785789684 0 -10.590335785789684 94.647705563919033 0 0 0 0 181.60620229986569 -172.79787379609479 0 -172.79787379609479 -257.06998571943404 0 0 0 0 284.88647674360783 92.82717056931142 0 92.82717056931142 1.4208724140626146 0 0 0 0 28.586817279342199 -112.50735608960531 0 -112.50735608960531 -6.0977840680716326 0 0 0 0 -40.928960080307547 -69.238074732453242 0 -69.238074732453242 38.526328543573072 0 0 0 0 0.34988222713850492 6.1409297596939325 0 6.1409297596939325 7.3198688303083372 0 0 0 0 4.5268496622854855 47.761996461173112 0 47.761996461173112 61.479129404542618 0 0 0 0 -153.85811465960433 -55.760646876937244 0 -55.760646876937244 90.927417851984501 0 0 0 0 -123.00108712123713 -13.446152572680148 0 -13.446152572680148 100.46308459178545 0 0 0 0 82.58430638512209 21.60415490809828 0 21.60415490809828 27.861484805878717 0 0 0 0 -31.943252558276754 -21.140363932019682 0 -21.140363932019682 22.452254093543161 0 0 0 0 3.77903433349621 -14.36199625456954 0 -14.36199625456954 18.023423396667113 0 0 0 0 -1.896808720343131 -6.3569199700528856 0 -6.3569199700528856 28.930350611794552 0 0 0 0 -41.365076183907149 -10.694449494563742 0 -10.694449494563742 32.408581095922273 0 0 0 0 -14.335422986388117 38.35029422836827 0 38.35029422836827 32.122411642405041 0 0 0 0 61.585795481320474 42.548822698092408 0 42.548822698092408 88.739271949685644 0 0 0 0 261.59514208096243 168.82010544523655 0 168.82010544523655 85.963330687489361 0 0 0 0 17.813212700713734 64.493750424777318 0 64.493750424777318 105.21044499902928 0 0 0 0 -37.358872119926957 -38.361591870729171 0 -38.361591870729171 23.963742949359585 0 0 0 0 0.64294411402504481 -7.5205824008637308 0 -7.5205824008637308 58.02897671838943 0 0 0 0 15.705853037090151 -19.99789631497697 0 -19.99789631497697 20.548728687339462 0 0 0 0 3.3293469202332213 -3.2103765774172928 0 -3.2103765774172928 23.489226776044319 0 0 0 0 5.3311263364178556 -10.246547012857619 0 -10.246547012857619 -6.2791117908205933 0 0 0 0 4.4464695291467535 -15.308102712717613 0 -15.308102712717613 41.787094087725336 0 0 0 0 -54.540045504990758 -41.404517039627535 0 -41.404517039627535 45.477768013894092 0 0 0 0 -30.207503188629971 -54.279208049068984 0 -54.279208049068984 40.12166789296316 0 0 0 0 -14.780653682904926 -28.590243409453251 0 -28.590243409453251 52.926538992120186 0 0 0 0 -1.6570885105547859 -41.597453003938426 0 -41.597453003938426 42.604662309910054 0 0 0 0 -1.405677627868545 -5.3692568261049018 0 -5.3692568261049018 18.345174119371222 0 0 0 0 1.2322586077962043 -0.035770916774282568 0 -0.035770916774282568 8.3197366980556922 0 0 0 0 16.755419923760087 -28.919442485705076 0 -28.919442485705076 29.882889113869169 0 0 0 0 -0.0033718610278358745 3.2125560581407626 0 3.2125560581407626 8.4106289056071546 0 0 0 0 -4.4529491020163166 2.9610793436004315 0 2.9610793436004315 12.116104975255439 0 0 0 0 -12.724330426415049 9.6275697345554363 0 9.6275697345554363 13.633774621252087 0 0 0 0 47.020736971288443 102.08320221136091 0 102.08320221136091 166.74681710143341 0 0 0 0 1.5922551117944652 -2.5509517392973891 0 -2.5509517392973891 10.610704001564443 0 0 0 0 -13.64546006398799 2.555751361404873 0 2.555751361404873 18.200592430352117 0 0 0 0 251.95911162190941 369.26421223839498 0 369.26421223839498 260.17608335519617 0 0 0 0 -0.70431451005016488 0.22128510990046024 0 0.22128510990046024 6.8575404730412117 0 0 0 0 -482.13627346081785 -304.1081028517292 0 -304.1081028517292 322.1246753137093 0 0 0 0 469.9078012109353 694.67075163719346 0 694.67075163719346 726.69609163302266 0 0 0 0 59.784356954835857 87.517603426895221 0 87.517603426895221 943.7757181240886 0 0 0 0 279.5908152816537 -2.1216301321983337 0 -2.1216301321983337 463.52043519100698 0 0 0 0 46.109247327595313 96.016296581910865 0 96.016296581910865 423.38642224121941 0 0 0 0 104.86367365960336 180.76718506006 0 180.76718506006 472.87610408803448 0 0 0 0 60.433920310383201 136.61939697172238 0 136.61939697172238 318.42570666699612 0 0 0 0 30.864375049961382 35.612512898984278 0 35.612512898984278 143.80755065028279 0 0 0 0 96.12776711171955 183.35512723417924 0 183.35512723417924 263.4304985162089 0 0 0 0 183.32879923575001 252.77775104108878 0 252.77775104108878 169.69989011521102 0 0 0 0 181.75912516548942 258.430373523046 0 258.430373523046 180.73650410107803 0 0 0 0 92.057173607459845 353.34901414674823 0 353.34901414674823 253.2399045501661 0 0 0 0 79.626585362188052 397.74617580726772 0 397.74617580726772 500.86997350549245 0 0 0 0 239.77406499919744 428.40096224760055 0 428.40096224760055 279.06889327596218 0 0 0 0 209.27150470184506 433.92590238037701 0 433.92590238037701 164.23774429119658 0 0 0 0 224.88684950537345 381.81588097033818 0 381.81588097033818 333.09720459779055 0 0 0 0 321.95549803429276 354.9152068004405 0 354.9152068004405 262.41644051935873 0 0 0 0 315.32821341931867 292.14318300522427 0 292.14318300522427 152.38806420673791 0 0 0 0 499.2291578300742 369.95389485408668 0 369.95389485408668 240.63938829869221 0 0 0 0 287.96517970383434 507.00692511980378 0 507.00692511980378 501.93579531784781 0 0 0 0 -139.07072299909987 463.37062976017114 0 463.37062976017114 254.29738840978825 0 0 0 0 -356.50386949588892 254.90601329829587 0 254.90601329829587 328.1259899110446 0 0 0 0 -75.929563636390412 249.89804265723797 0 249.89804265723797 230.68421092117205 0 0 0 0 -1.6501259455010677 -0.36121319208961822 0 -0.36121319208961822 15.267329514595019 0 0 0 0 -322.97414455517423 146.33863055122492 0 146.33863055122492 336.62219940192881 0 0 0 0 -123.63912388700737 95.061188776438939 0 95.061188776438939 326.8060201616463 0 0 0 0 271.47437144141315 712.49313664354122 0 712.49313664354122 1070.1497667142976 0 0 0 0 228.23512873337631 437.83649768563555 0 437.83649768563555 436.09897120161622 0 0 0 0 -475.37869792564584 -684.595706248032 0 -684.595706248032 956.97544246804318 0 0 0 0 70.237741390702467 -15.969496930694731 0 -15.969496930694731 -36.244788628362585 0 0 0 0 -0.72506439136644385 -0.34976555562578682 0 -0.34976555562578682 8.5398109359115608 0 0 0 0 678.79914827274933 -264.42136472766288 0 -264.42136472766288 1676.6992408310507 0 0 0 0 225.45150506730306 652.9945464728662 0 652.9945464728662 1945.357340466202 0 0 0 0 -146.05635686487085 128.43700528593763 0 128.43700528593763 1898.7225782998794 0 0 0 0 358.72698895901203 674.21252854918112 0 674.21252854918112 1411.1539053351589 0 0 0 0 265.75831457179993 219.17847542961681 0 219.17847542961681 617.79578671679701 0 0 0 0 74.893656287646536 158.71659907354478 0 158.71659907354478 1237.8650126074062 0 0 0 0 -235.1112138884796 -151.69437948903942 0 -151.69437948903942 1190.3445200306232 0 0 0 0 -486.21554613950002 -325.79746370335488 0 -325.79746370335488 2029.4080185650382 0 0 0 0 -102.57219408188439 14.91692875323497 0 14.91692875323497 2027.4757720203081 0 0 0 0 -16.734558405478602 -452.58052683557776 0 -452.58052683557776 1847.0204823534878 0 0 0 0 -204.19834079818793 40.56635622367321 0 40.56635622367321 2258.5512356681866 0 0 0 0 -111.18386482228448 -173.60371970324195 0 -173.60371970324195 1370.6477625979678 0 0 0 0 6.4951912314661513 -161.58167751445035 0 -161.58167751445035 738.13119850655494 0 0 0 0 9.5672710347941585 34.331831497061984 0 34.331831497061984 44.150648216894865 0 0 0 0 -1305.3453085066149 1350.4915226708763 0 1350.4915226708763 -754.56726038609668 0 0 0 0 -124.9500923609221 91.398310498614592 0 91.398310498614592 1319.18641413562 0 0 0 0 369.56206963391287 199.72079272576957 0 199.72079272576957 1617.6014637248663 0 0 0 0 -132.01730570675409 -337.25554082833332 0 -337.25554082833332 1916.7213536135459 0 0 0 0 -171.12673785894731 202.93513792107115 0 202.93513792107115 1880.1839365761725 0 0 0 0 493.60148238320062 -395.20977426211175 0 -395.20977426211175 1930.5287504579464 0 0 0 0 221.64532101956129 511.44445198510141 0 511.44445198510141 828.91140556058963 0 0 0 0 460.26964585269434 109.33823005367594 0 109.33823005367594 -99.021348503823901 0 0 0 0 0.23382039815448424 -2.4202613502761903 0 -2.4202613502761903 10.031909030144845 0 0 0 0 480.96706147048911 -764.67482437796411 0 -764.67482437796411 607.06512052744802 0 0 0 0 -98.703676227607502 -259.66397814588709 0 -259.66397814588709 701.76335007517991 0 0 0 0 -85.590631705729265 -304.40567734185242 0 -304.40567734185242 686.23565097803657 0 0 0 0 -133.75628513440071 -422.3438217452217 0 -422.3438217452217 1003.465817442906 0 0 0 0 -293.86618520221009 -120.28893925005832 0 -120.28893925005832 1562.7410980080895 0 0 0 0 -273.16909216251315 -92.238662169926101 0 -92.238662169926101 964.12368390878783 0 0 0 0 -238.73577202297247 -48.070931078713329 0 -48.070931078713329 1019.9201956131001 0 0 0 0 -222.47720015644609 -78.716490150574828 0 -78.716490150574828 807.96172826702968 0 0 0 0 -161.23046855330767 -187.68920497647559 0 -187.68920497647559 674.33711549118743 0 0 0 0 -175.32968581247678 -293.74905069248416 0 -293.74905069248416 975.58340727259929 0 0 0 0 -146.44579691901708 -148.11441246089817 0 -148.11441246089817 637.33386838031583 0 0 0 0 -178.30293906987606 -204.70463415621089 0 -204.70463415621089 721.69719974730106 0 0 0 0 -147.97737292978539 -186.87237680229828 0 -186.87237680229828 618.38405938073993 0 0 0 0 -122.43651690111164 -114.73825186098838 0 -114.73825186098838 658.45232662283888 0 0 0 0 -125.48147153772669 -126.93616921788089 0 -126.93616921788089 624.01101421838393 0 0 0 0 -129.54520726686133 -25.982867537451966 0 -25.982867537451966 749.50584069855358 0 0 0 0 -121.50446056829958 -28.20159115341994 0 -28.20159115341994 635.25615805435518 0 0 0 0 -171.88900527431588 -96.46003387078963 0 -96.46003387078963 813.92890800558962 0 0 0 0 -184.77491749860565 -23.311718224460492 0 -23.311718224460492 860.86416499572806 0 0 0 0 -177.71116303784538 -125.39675724845438 0 -125.39675724845438 716.85319907789381 0 0 0 0 -192.21887300043909 125.88540553728672 0 125.88540553728672 770.66822847043659 0 0 0 0 -58.156564722692934 75.268236929569639 0 75.268236929569639 570.90726923759212 0 0 0 0 -73.203972500366945 200.60084237838601 0 200.60084237838601 618.78876006470091 0 0 0 0 -63.095038554774277 107.37170458150786 0 107.37170458150786 728.68017545632756 0 0 0 0 -77.320933559627065 217.28953854820065 0 217.28953854820065 690.73849599333698 0 0 0 0 -139.06402302736825 229.48595516371324 0 229.48595516371324 1182.3614007281722 0 0 0 0 -186.29012722844732 329.88356761209434 0 329.88356761209434 1300.0223126412093 0 0 0 0 -178.03893984311026 308.06509375710357 0 308.06509375710357 805.75803181590891 0 0 0 0 -209.71111129851806 129.03450857408461 0 129.03450857408461 1085.9959044262068 0 0 0 0 194.80567114859036 -59.145838195963734 0 -59.145838195963734 501.46287361704162 0 0 0 0 224.18438402300785 -104.80788667191882 0 -104.80788667191882 457.99034475579901 0 0 0 0 86.304997050914608 -84.497714280569198 0 -84.497714280569198 519.84390736860587 0 0 0 0 21.840129185582555 -115.78134369892905 0 -115.78134369892905 573.78098593590403 0 0 0 0 57.332868188323459 -141.97189900774538 0 -141.97189900774538 537.13993983602268 0 0 0 0 30.667510964360645 -147.11936901096124 0 -147.11936901096124 536.69769403839018 0 0 0 0 24.34872553815967 -160.59657961169432 0 -160.59657961169432 540.05928505274642 0 0 0 0 -64.001226550713454 -140.67261264498302 0 -140.67261264498302 567.6026934796173 0 0 0 0 -61.956099789088967 -133.12858683599188 0 -133.12858683599188 588.53893505125234 0 0 0 0 -36.277991622306217 -89.491196837734606 0 -89.491196837734606 562.32927331225073 0 0 0 0 -35.362137420552244 -73.071914916770766 0 -73.071914916770766 650.1477300916813 0 0 0 0 -31.001609577195268 0.10557729413267225 0 0.10557729413267225 643.84488271559349 0 0 0 0 75.536191353857248 93.734827388074336 0 93.734827388074336 570.21834097858846 0 0 0 0 135.37021302683161 17.91707201427198 0 17.91707201427198 465.26095265942695 0 0 0 0 9.9062854066669388 -47.305529696754093 0 -47.305529696754093 573.05930727993473 0 0 0 0 66.528327492740345 -55.5385603661598 0 -55.5385603661598 477.16818437477195 0 0 0 0 63.420805548809767 -47.435670590084555 0 -47.435670590084555 474.7559637934537 0 0 0 0 6.0296557319263684 -67.97590465653775 0 -67.97590465653775 516.7805753100547 0 0 0 0 31.338045805671982 -134.99466521462455 0 -134.99466521462455 421.57715929768165 0 0 0 0 49.561848489888689 -58.008722251292056 0 -58.008722251292056 501.59523941963562 0 0 0 0 61.095732958878102 -83.765753055798996 0 -83.765753055798996 126.51244897922152 0 0 0 0 120.92883838059993 -38.678089316545083 0 -38.678089316545083 245.47362628000701 0 0 0 0 213.74674276739233 131.48089542584421 0 131.48089542584421 297.59372405432805 0 0 0 0 129.38584420214806 124.1528431951665 0 124.1528431951665 432.30435592085269 0 0 0 0 122.81695550554059 130.57463647891564 0 130.57463647891564 476.98836526400555 0 0 0 0 132.70700786643704 136.40907651814177 0 136.40907651814177 462.68498746471596 0 0 0 0 70.067651427822511 64.905732426319446 0 64.905732426319446 441.33983441978489 0 0 0 0 115.29770339098778 180.62671681242136 0 180.62671681242136 522.39151562785992 0 0 0 0 143.60274384052218 250.47846615537492 0 250.47846615537492 733.09176080705947 0 0 0 0 192.43390453316169 31.942759331421257 0 31.942759331421257 800.66382427022108 0 0 0 0 95.467406878915426 232.18279422146225 0 232.18279422146225 610.49686185190876 0 0 0 0 97.615355757086263 257.10399389804297 0 257.10399389804297 410.7714207859849 0 0 0 0 -126.1217270360554 -14.083597405620822 0 -14.083597405620822 1232.730424622292 0 0 0 0 332.5877511351772 540.66906872456275 0 540.66906872456275 83.184131217603863 0 0 0 0 76.435188718039853 446.86448264130013 0 446.86448264130013 1129.464073524854 0 0 0 0 -0.73273233210102262 119.31668245212495 0 119.31668245212495 389.05481991238048 0 0 0 0 -55.831747893256079 108.0187881699203 0 108.0187881699203 -66.100871099435608 0 0 0 0 -85.533388635064966 54.935176502545801 0 54.935176502545801 376.79872805485502 0 0 0 0 92.523714470307596 299.70848820227366 0 299.70848820227366 256.19394640524115 0 0 0 0 -14.174614330410122 292.21189065154977 0 292.21189065154977 642.85318099710275 0 0 0 0 -1.8775868810898828 224.9516631777733 0 224.9516631777733 463.9842887168852 0 0 0 0 10.236512627908269 166.28340190762901 0 166.28340190762901 595.22484667933531 0 0 0 0 8.5572813511935237 154.36139264001031 0 154.36139264001031 515.92880223312386 0 0 0 0 -23.437921122900207 122.94577301750542 0 122.94577301750542 497.26391644074829 0 0 0 0 12.560046179871506 149.15410399792927 0 149.15410399792927 512.03829278444027 0 0 0 0 8.0716884258076789 158.84565112865675 0 158.84565112865675 600.03649516445876 0 0 0 0 31.852569456159927 112.52872698481951 0 112.52872698481951 577.78077083421522 0 0 0 0 -21.301812834181419 142.90215893339519 0 142.90215893339519 649.18979998325813 0 0 0 0 -86.47050063069446 64.284058146613461 0 64.284058146613461 567.86573203241278 0 0 0 0 -85.782060348821233 57.606999960924441 0 57.606999960924441 594.54990994213949 0 0 0 0 -126.99227095573451 -11.567426931762384 0 -11.567426931762384 481.1262379978798 0 0 0 0 -240.36875686705662 51.724618521886441 0 51.724618521886441 844.94719102633462 0 0 0 0 153.83718522184836 270.23986149515986 0 270.23986149515986 594.21077133001381 0 0 0 0 74.237874095551092 168.6930150612834 0 168.6930150612834 334.0458093699126 0 0 0 0 -44.20389256057797 95.442062235808407 0 95.442062235808407 459.74887636229687 0 0 0 0 27.802902183540937 11.475314181821886 0 11.475314181821886 151.22510857745146 0 0 0 0 -35.122952190405613 5.5468490823077445 0 5.5468490823077445 363.23883943988102 0 0 0 0 -42.916084103988169 95.102033647369353 0 95.102033647369353 361.83746211881225 0 0 0 0 -76.45565766205641 33.029630749464559 0 33.029630749464559 426.6849089897878 0 0 0 0 -91.10029786943096 49.256963960797293 0 49.256963960797293 597.22976172680683 0 0 0 0 -83.666074647205733 13.5448963394374 0 13.5448963394374 585.88041736121522 0 0 0 0 -120.29181600430729 4.5209600291927927 0 4.5209600291927927 660.17131085810342 0 0 0 0 -46.977567836983326 -134.64894635396922 0 -134.64894635396922 490.14675518142758 0 0 0 0 -31.909371142590999 -71.928314978431445 0 -71.928314978431445 216.3880455479084 0 0 0 0 -54.599835802147027 -25.137414168741088 0 -25.137414168741088 306.28121349784487 0 0 0 0 -57.015964162232194 -135.78951543883886 0 -135.78951543883886 175.08937601414073 0 0 0 0 -45.315898981053579 40.160308676424393 0 40.160308676424393 111.10922329337336 0 0 0 0 -110.68485922532909 -106.68826341605018 0 -106.68826341605018 259.35191496324842 0 0 0 0 -26.299182671529252 22.630237690715148 0 22.630237690715148 197.99779697910708 0 0 0 0 -57.779194322619787 -33.35982481388055 0 -33.35982481388055 433.10934629171334 0 0 0 0 27.057344354366077 -15.458987872087675 0 -15.458987872087675 -4.1803093663113948 0 0 0 0 -17.054046657063736 -68.705142009697738 0 -68.705142009697738 18.741260622031405 0 0 0 0 176.06199934490087 -37.258809401671897 0 -37.258809401671897 -3.3308780397564988 0 0 0 0 43.080127654353419 -42.554809190543892 0 -42.554809190543892 86.454648037135485 0 0 0 0 31.427884286504195 -88.160506666292349 0 -88.160506666292349 1.8079674830587464 0 0 0 0 4.3019040591980229 -80.744585323169304 0 -80.744585323169304 1.8878303226083517 0 0 0 0 47.849909044331071 -50.26594837828452 0 -50.26594837828452 -72.590437203500187 0 0 0 0 0.68146114043430828 -0.71029757140766492 0 -0.71029757140766492 0.70967640969465151 0 0 0 0 -221.12319943105786 -71.308499308819592 0 -71.308499308819592 285.84703758871183 0 0 0 0 60.693252987282904 -86.630751333694207 0 -86.630751333694207 -17.261543183063623 0 0 0 0 50.756973120303883 -69.8847810702282 0 -69.8847810702282 -15.913562224191082 0 0 0 0 46.090154558554786 -54.7262785211351 0 -54.7262785211351 -36.936505406185461 0 0 0 0 62.796165184902748 -75.107655584703025 0 -75.107655584703025 -32.584044163610088 0 0 0 0 20.542043255190492 -50.657150834020285 0 -50.657150834020285 -5.3095398293808103 0 0 0 0 25.312747090654739 -54.547929839303833 0 -54.547929839303833 -5.3757935342291603 0 0 0 0 38.196012803313806 -56.305795021933591 0 -56.305795021933591 0.85069916732027195 0 0 0 0 28.840130635558126 -63.301922788603406 0 -63.301922788603406 12.788048993083066 0 0 0 0 36.044293125454715 -68.384918984258547 0 -68.384918984258547 15.749270293024892 0 0 0 0 6.7255575322496952 -57.923440852435306 0 -57.923440852435306 19.363739099964732 0 0 0 0 40.008309572975122 -74.716943850697135 0 -74.716943850697135 2.5556727194343694 0 0 0 0 42.447208729322483 -73.381426556275983 0 -73.381426556275983 -6.5912539846322034 0 0 0 0 45.556316595581848 -61.90058102603507 0 -61.90058102603507 4.7778596416173968 0 0 0 0 35.507331519668696 -52.454949786355428 0 -52.454949786355428 35.651677065237891 0 0 0 0 43.46547347210344 -51.503767014255573 0 -51.503767014255573 18.386193441046089 0 0 0 0 29.963415303118381 -20.479474497282354 0 -20.479474497282354 63.129614639590727 0 0 0 0 34.063148045690468 -34.945706302802137 0 -34.945706302802137 16.412555572693236 0 0 0 0 2.7949082474524403 -6.8721115473053942 0 -6.8721115473053942 116.30425149787334 0 0 0 0 86.719852984901081 28.93341510836035 0 28.93341510836035 49.833532121607277 0 0 0 0 114.20600326047315 77.561084076834959 0 77.561084076834959 106.27421391230018 0 0 0 0 168.92702860202871 30.710389621101058 0 30.710389621101058 27.957808400446083 0 0 0 0 39.934698256241063 40.032611267775792 0 40.032611267775792 163.66995367519849 0 0 0 0 81.547039861176017 -219.06448333548178 0 -219.06448333548178 39.741399677528534 0 0 0 0 40.078441775500245 81.312781818088638 0 81.312781818088638 77.239784309764218 0 0 0 0 18.718222163018822 245.0462346378099 0 245.0462346378099 91.697356603704975 0 0 0 0 111.64923795586856 -45.994361941433453 0 -45.994361941433453 -199.31472109534661 0 0 0 0 32.03564949034525 -14.343800300017165 0 -14.343800300017165 -2.9129980032835228 0 0 0 0 -14.731946526751926 -13.281036869171658 0 -13.281036869171658 7.3537889878753049 0 0 0 0 23.462275338135761 9.2622523797331411 0 9.2622523797331411 0.84852416311250067 0 0 0 0 201.92048854527471 35.996652375681151 0 35.996652375681151 174.13852999278606 0 0 0 0 -93.187539663956159 72.260805872323544 0 72.260805872323544 707.3024870816007 0 0 0 0 154.10360162253664 -137.53466133501934 0 -137.53466133501934 833.23250316089252 0 0 0 0 -74.330950301358826 72.593285943079536 0 72.593285943079536 877.15567447551439 0 0 0 0 -72.075759778048422 -127.15325396052231 0 -127.15325396052231 636.96274297930358 0 0 0 0 136.81543056262467 67.23131897672647 0 67.23131897672647 65.051198860208387 0 0 0 0 19.12199899226626 7.9768442153175556 0 7.9768442153175556 7.9280076591326925 0 0 0 0 4.7162065897271868 -1.8412348326148873 0 -1.8412348326148873 5.0226537617751035 0 0 0 0 81.268569008664713 245.65815204307364 0 245.65815204307364 660.56515044299158 0 0 0 0 -96.190908035053553 -28.335914879126904 0 -28.335914879126904 910.9950328707564 0 0 0 0 26.19803344238062 -250.68421502353158 0 -250.68421502353158 743.74337206257042 0 0 0 0 -102.80206683701351 42.92139337934168 0 42.92139337934168 952.67258456550189 0 0 0 0 226.46960191264952 -83.275008179829456 0 -83.275008179829456 -31.28879369632341 0 0 0 0 3.399596096424375 -68.352183658480499 0 -68.352183658480499 332.54603717775899 0 0 0 0 145.12692960371169 -165.32039831369184 0 -165.32039831369184 271.21414066796569 0 0 0 0 207.89304916714536 -11.751425204362022 0 -11.751425204362022 -66.986983346960187 0 0 0 0 232.67212618921621 -255.38871887351706 0 -255.38871887351706 234.48789013297937 0 0 0 0 1.9369503928280114 -2.2999117044512332 0 -2.2999117044512332 17.629265256507779 0 0 0 0 34.192942147163194 10.081092846623505 0 10.081092846623505 173.56897948930055 0 0 0 0 -23.301129775525624 -34.868398187834828 0 -34.868398187834828 28.319383768262924 0 0 0 0 17.740154099456429 -16.026715116393063 0 -16.026715116393063 5.0911494499428898 0 0 0 0 -25.094297406712712 -41.292877835028776 0 -41.292877835028776 22.101414523815038 0 0 0 0 2.8826841541849717 -27.858572926925262 0 -27.858572926925262 -34.853076533443527 0 0 0 0 -11.511260352068348 -39.440056622683187 0 -39.440056622683187 12.644953897746745 0 0 0 0 2.9087223987789912 -64.287619748443831 0 -64.287619748443831 12.031506787403487 0 0 0 0 -16.959825370792714 -52.121502857939049 0 -52.121502857939049 23.997521311030141 0 0 0 0 -20.374674622742532 -50.474827446698328 0 -50.474827446698328 4.1767403104313416 0 0 0 0 -104.01444904754828 21.701422871119576 0 21.701422871119576 82.572735417765216 0 0 0 0 -45.568351055433368 -56.987755563928658 0 -56.987755563928658 24.461311581646441 0 0 0 0 1.6774020330551798 -12.119665101711409 0 -12.119665101711409 49.005915790620747 0 0 0 0 -1.7328167568888375 6.711926292089629 0 6.711926292089629 89.106766521777899 0 0 0 0 1.5248082998223254 -23.24919008975121 0 -23.24919008975121 147.10347534449829 0 0 0 0 2.1711995091969767 -7.9781858233569771 0 -7.9781858233569771 54.112424833939514 0 0 0 0 -10.010558791561884 3.3487805989314126 0 3.3487805989314126 13.045675866005098 0 0 0 0 -57.352013523388678 31.681176850266638 0 31.681176850266638 25.1564505109327 0 0 0 0 0.080775029049618752 37.111946984499809 0 37.111946984499809 61.490559297049913 0 0 0 0 -6.5141993114511934 80.597926158581686 0 80.597926158581686 71.981454625689366 0 0 0 0 -84.454168390898644 49.587427902995842 0 49.587427902995842 116.72460835702441 0 0 0 0 26.501779324589279 69.973816819096101 0 69.973816819096101 -121.96306941394141 0 0 0 0 -160.09395054032211 209.79176794768136 0 209.79176794768136 271.30299996116082 0 0 0 0 -15.706306158996995 10.675521828274213 0 10.675521828274213 140.87719416475011 0 0 0 0 -3.0662692071606159 2.5618097190327802 0 2.5618097190327802 -1.6331761974658185 0 0 0 0 217.06482650253838 -236.69638208493052 0 -236.69638208493052 179.57080984079221 0 0 0 0 58.170422543797258 -112.67076074809665 0 -112.67076074809665 181.71542911755387 0 0 0 0 2.5167010398056391 7.3210851645808148 0 7.3210851645808148 17.040663641734426 0 0 0 0 10.371621212207629 -80.849670822278313 0 -80.849670822278313 263.54703992654686 0 0 0 0 30.666437306867564 -61.304082158309939 0 -61.304082158309939 46.85294757840893 0 0 0 0 67.65138855486839 -93.366855147098249 0 -93.366855147098249 55.881628156079387 0 0 0 0 -120.52798045500842 -95.762361058685201 0 -95.762361058685201 180.92015920977428 0 0 0 0 -135.83177757617273 -75.071555003116373 0 -75.071555003116373 62.358246029772999 0 0 0 0 -50.222808577278556 -51.567118546256097 0 -51.567118546256097 12.283189710367878 0 0 0 0 2.1395398160699033 -8.5510112000178466 0 -8.5510112000178466 30.796064443138562 0 0 0 0 -72.147872713652305 -30.765462682404177 0 -30.765462682404177 36.143027700018138 0 0 0 0 -20.141005033397505 -58.859560887140105 0 -58.859560887140105 14.057478639682813 0 0 0 0 9.9343388959516687 -41.567173953279053 0 -41.567173953279053 47.998620310478145 0 0 0 0 -12.85262347779917 -73.265021706949483 0 -73.265021706949483 52.565220653064898 0 0 0 0 -40.565501322791533 -10.665455686401401 0 -10.665455686401401 96.363016449991846 0 0 0 0 -22.520133199895099 -54.368303462870244 0 -54.368303462870244 154.37691676227405 0 0 0 0 -127.31222105431425 -32.436081984225893 0 -32.436081984225893 193.54846082699078 0 0 0 0 -30.951449633236734 -104.21668563474213 0 -104.21668563474213 246.07229835634644 0 0 0 0 -162.78878806739749 -130.63705125795968 0 -130.63705125795968 249.45948141960253 0 0 0 0 -267.969319136791 -69.726844554243144 0 -69.726844554243144 303.31679117129534 0 0 0 0 -409.51985369447584 -184.94600520133099 0 -184.94600520133099 466.06421108552968 0 0 0 0 -165.70120152698337 -109.09913434631017 0 -109.09913434631017 309.81820722443808 0 0 0 0 -259.27848972520735 76.185259886324502 0 76.185259886324502 569.74035495922726 0 0 0 0 -70.245526144764881 74.058578132506227 0 74.058578132506227 107.53082339523826 0 0 0 0 -122.59070620677096 -4.9103282872265481 0 -4.9103282872265481 332.19925322278868 0 0 0 0 137.61059295161976 -98.386802435445134 0 -98.386802435445134 176.94788439160038 0 0 0 0 558.0956375341982 -153.29791466627285 0 -153.29791466627285 -197.99504576037725 0 0 0 0 1.298863354034743 -3.4457202051440525 0 -3.4457202051440525 10.466440973192874 0 0 0 0 -13.701831222766145 182.41349871950297 0 182.41349871950297 315.11909761578136 0 0 0 0 4.1071813772077226 11.879582270257806 0 11.879582270257806 25.482226529861748 0 0 0 0 682.11793838261019 1077.4049059702375 0 1077.4049059702375 1635.5024069833889 0 0 0 0 -141.63118193897662 -1499.7607418575499 0 -1499.7607418575499 -1753.6334385453956 0 0 0 0 -184.62734233219362 -154.66975721484414 0 -154.66975721484414 367.31718591792742 0 0 0 0 102.07839755072382 165.26844248783163 0 165.26844248783163 -162.57141280040378 0 0 0 0 -98.002413667902147 -259.26395966421842 0 -259.26395966421842 254.23183753642661 0 0 0 0 19.378732371849765 -187.95314859029895 0 -187.95314859029895 297.15114907479438 0 0 0 0 29.644678153066707 -312.00511057120457 0 -312.00511057120457 743.23808771848053 0 0 0 0 341.04151755725525 203.60950725209113 0 203.60950725209113 437.60942259481817 0 0 0 0 118.54889418293965 -62.009388174298692 0 -62.009388174298692 121.41577159315057 0 0 0 0 -201.36147631582253 151.05870445444725 0 151.05870445444725 167.04553798581765 0 0 0 0 -151.31042374660683 325.00220765442646 0 325.00220765442646 19.486504304441041 0 0 0 0 4.3357515889325065 12.393794118689989 0 12.393794118689989 26.121930740538176 0 0 0 0 128.4607711526869 -2.5135753768918221 0 -2.5135753768918221 40.100532163647586 0 0 0 0 126.26910721270809 -48.55234701123419 0 -48.55234701123419 77.775445063685765 0 0 0 0 126.59594367647776 1.4713706015731987 0 1.4713706015731987 48.562298314122017 0 0 0 0 122.37331949552299 -1.1683300271688495 0 -1.1683300271688495 57.738702775823185 0 0 0 0 124.17678411070028 -5.1765257830411429 0 -5.1765257830411429 49.108437642935314 0 0 0 0 123.01471739659198 28.149157996711438 0 28.149157996711438 37.917869240496657 0 0 0 0 89.083174875875557 7.5779484549057088 0 7.5779484549057088 57.276343166522565 0 0 0 0 73.606597552089625 12.217647532088449 0 12.217647532088449 39.386215030579478 0 0 0 0 113.72240668733934 19.625828561986509 0 19.625828561986509 40.495924373855814 0 0 0 0 113.76242837498302 19.47304772377629 0 19.47304772377629 29.096349262516014 0 0 0 0 84.25469263674313 11.828104654523486 0 11.828104654523486 32.972872599668335 0 0 0 0 80.935262192453592 22.916725987670361 0 22.916725987670361 46.258897175153834 0 0 0 0 92.467155145326615 8.250918156656553 0 8.250918156656553 39.225786044990855 0 0 0 0 100.32010511667704 -0.59691248603485292 0 -0.59691248603485292 44.74397140549263 0 0 0 0 65.770665254121695 -10.959253317887487 0 -10.959253317887487 41.848403622832848 0 0 0 0 72.700576873166028 -32.044690991046082 0 -32.044690991046082 38.311995900784495 0 0 0 0 42.804849650417509 -59.123516792107694 0 -59.123516792107694 47.914678578832536 0 0 0 0 69.717706040473331 -33.693781605685217 0 -33.693781605685217 51.655243875749875 0 0 0 0 16.329216929219911 -73.599644200367038 0 -73.599644200367038 34.869412605810794 0 0 0 0 35.155462895222627 -46.582124942848168 0 -46.582124942848168 29.896130047702172 0 0 0 0 26.46149609886379 -68.024762623244897 0 -68.024762623244897 88.529724896565313 0 0 0 0 56.04827010135341 -38.766528475913219 0 -38.766528475913219 54.940822049684357 0 0 0 0 46.565475847009111 -71.473846186723677 0 -71.473846186723677 127.33719235431636 0 0 0 0 39.796610491530373 -53.322840238441131 0 -53.322840238441131 86.466744761501104 0 0 0 0 95.108434875963212 -22.348074864399678 0 -22.348074864399678 55.7468295209801 0 0 0 0 76.301861119057321 -62.59576858276705 0 -62.59576858276705 81.459994560296764 0 0 0 0 73.712374906514015 -46.877561240748037 0 -46.877561240748037 88.999920727816061 0 0 0 0 56.902337230093508 -69.600489861550159 0 -69.600489861550159 165.52537156839389 0 0 0 0 84.230095834273925 -51.337650263798423 0 -51.337650263798423 160.25810155949148 0 0 0 0 120.94677408475582 -36.123923545805155 0 -36.123923545805155 89.799928500768146 0 0 0 0 115.0064501097786 -79.608301172207575 0 -79.608301172207575 114.76127403716237 0 0 0 0 -22.571172868085391 -48.959721672105616 0 -48.959721672105616 144.04371289702249 0 0 0 0 24.153498546740593 -85.999303441189113 0 -85.999303441189113 173.39462103151891 0 0 0 0 50.077601616642824 -51.818866234913003 0 -51.818866234913003 127.86348579227342 0 0 0 0 -17.667774468725611 -62.596041984796102 0 -62.596041984796102 183.73824605709524 0 0 0 0 39.410966181570075 -115.64927508743131 0 -115.64927508743131 226.87287080367969 0 0 0 0 59.607526543271888 -48.01885795337148 0 -48.01885795337148 227.95261375608652 0 0 0 0 117.96909082695311 -106.76037276795978 0 -106.76037276795978 245.14336897947942 0 0 0 0 120.00453927109481 -49.11190412565702 0 -49.11190412565702 203.86756335457903 0 0 0 0 97.135902373040153 -27.877959198893222 0 -27.877959198893222 270.80583113224202 0 0 0 0 137.70193961011501 -95.133142240112647 0 -95.133142240112647 278.87737798445596 0 0 0 0 150.48598933367066 -66.649927045953518 0 -66.649927045953518 286.37417578147142 0 0 0 0 186.56294061339941 -105.68200389923004 0 -105.68200389923004 263.16550959024607 0 0 0 0 182.62868315505966 -87.146020764754212 0 -87.146020764754212 260.84282326622633 0 0 0 0 187.23172835000514 -71.147742535194993 0 -71.147742535194993 181.16618182021193 0 0 0 0 155.29309728897715 -48.111745549584157 0 -48.111745549584157 178.32751353808817 0 0 0 0 163.40336584362922 -59.296687267531524 0 -59.296687267531524 129.17233700392535 0 0 0 0 184.84662375043263 -60.626290854954277 0 -60.626290854954277 130.18059818050824 0 0 0 0 185.37271846868134 -31.028921919991262 0 -31.028921919991262 60.36800535245402 0 0 0 0 142.27469486777773 -26.778202542676809 0 -26.778202542676809 112.7970792905835 0 0 0 0 138.24778134012558 -64.713830169377616 0 -64.713830169377616 128.55750792683102 0 0 0 0 29.607032390334098 56.512328901641013 0 56.512328901641013 81.474167757041869 0 0 0 0 173.00697568634132 -42.335527427509078 0 -42.335527427509078 106.8864188123116 0 0 0 0 197.32909876193662 29.196193047064298 0 29.196193047064298 20.342439373765956 0 0 0 0 196.10230682284782 -16.85155006145942 0 -16.85155006145942 130.3685291763104 0 0 0 0 0.51084976337065768 2.6967306758666183 0 2.6967306758666183 8.3587748406874578 0 0 0 0 13.973789667892561 -4.0530352999048773 0 -4.0530352999048773 85.832476944269729 0 0 0 0 117.06781919956939 91.511144266136398 0 91.511144266136398 32.161793724328163 0 0 0 0 243.05116134737364 -131.51117426351993 0 -131.51117426351993 47.386693453423504 0 0 0 0 184.20118601046579 -172.07276799953979 0 -172.07276799953979 232.41723915375769 0 0 0 0 256.52108127622341 -75.906342056085123 0 -75.906342056085123 11.253097124455962 0 0 0 0 240.70461713373334 -118.55824383170693 0 -118.55824383170693 111.84078446884814 0 0 0 0 265.3032824352922 -42.129019806743599 0 -42.129019806743599 137.6804481651634 0 0 0 0 176.50028000199472 19.529423444597342 0 19.529423444597342 54.224885027093478 0 0 0 0 103.88306772007115 105.92591118603013 0 105.92591118603013 181.23832375748316 0 0 0 0 3.9831805066486012 7.7872157602698167 0 7.7872157602698167 8.9707576005843634 0 0 0 0 -0.02977617246688169 61.960874444128422 0 61.960874444128422 41.155592983908718 0 0 0 0 113.86329676276637 130.45588410746132 0 130.45588410746132 59.693438251139014 0 0 0 0 -147.6700907265722 80.45595656995647 0 80.45595656995647 154.5397792834483 0 0 0 0 24.579344961613902 44.483115312404635 0 44.483115312404635 13.708338711041154 0 0 0 0 -5.5197918998726161 -1.6657536286310233 0 -1.6657536286310233 53.935267454689154 0 0 0 0 -28.362412263675594 33.431106265081326 0 33.431106265081326 120.67771138904209 0 0 0 0 -8.9071308961342677 -3.7367869778650942 0 -3.7367869778650942 30.925230015742642 0 0 0 0 21.892104277328599 18.671809096129437 0 18.671809096129437 46.408499067673233 0 0 0 0 15.415150401551442 18.337778562094712 0 18.337778562094712 16.369081215604165 0 0 0 0 21.172429964981347 35.095099873135041 0 35.095099873135041 54.99726100738917 0 0 0 0 -0.93088809824958396 3.614595766558665 0 3.614595766558665 5.4141468694152195 0 0 0 0 72.342504957705387 18.154182384212618 0 18.154182384212618 30.65353888235768 0 0 0 0 23.260120113543508 -10.464638774997866 0 -10.464638774997866 50.641194916708628 0 0 0 0 15.148943702404267 32.654332037160202 0 32.654332037160202 53.586623764975229 0 0 0 0 33.083313199904296 -0.40074174456094624 0 -0.40074174456094624 49.665708220637953 0 0 0 0 1.0353315544837187 5.7090232870341424 0 5.7090232870341424 57.628014977897692 0 0 0 0 -5.8585946680386503 -7.0527829157604174 0 -7.0527829157604174 36.311692725533248 0 0 0 0 8.616438037070111 17.664615002904611 0 17.664615002904611 47.434987813438056 0 0 0 0 85.861525240772608 -3.9962683956036926 0 -3.9962683956036926 47.227754491359519 0 0 0 0 -0.73859283215021998 0.83370357345845036 0 0.83370357345845036 10.173207088528741 0 0 0 0 -7.8787003968697888 15.164731597396894 0 15.164731597396894 76.401734497958387 0 0 0 0 23.660014918251193 28.084854338398145 0 28.084854338398145 53.084105062320305 0 0 0 0 -7.5388944722360254 -4.8012050324003042 0 -4.8012050324003042 38.75896444410364 0 0 0 0 -32.816727359959657 -59.292203645702102 0 -59.292203645702102 29.208772310896165 0 0 0 0 20.931895703129157 16.621193875093013 0 16.621193875093013 48.013456777203828 0 0 0 0 192.70989460145995 17.191877963283332 0 17.191877963283332 -34.592960498332104 0 0 0 0 13.141914528569743 82.13452875798248 0 82.13452875798248 165.95898056631268 0 0 0 0 -19.57801062100458 7.2834544559955248 0 7.2834544559955248 192.28629658587306 0 0 0 0 38.817805912014705 149.52525550764403 0 149.52525550764403 253.64244308108755 0 0 0 0 -0.82351390588260198 3.3646239236776978 0 3.3646239236776978 14.924269633422226 0 0 0 0 47.580175535465855 -24.828761880657112 0 -24.828761880657112 93.505647291633068 0 0 0 0 5.3823199436075733 11.570085075314136 0 11.570085075314136 4.2073983422480978 0 0 0 0 -2.9605201733112532 9.932560079213431 0 9.932560079213431 92.517622442624571 0 0 0 0 -2.949367482733237 16.695856051490409 0 16.695856051490409 91.491123094544832 0 0 0 0 -8.4914286007051487 15.024792305401206 0 15.024792305401206 97.827595323557034 0 0 0 0 0.66581504001149483 13.081500711119588 0 13.081500711119588 94.445510883117095 0 0 0 0 -16.457006718184374 14.695344535612094 0 14.695344535612094 123.91911627273657 0 0 0 0 1.9968936908514081 20.844349806051468 0 20.844349806051468 119.64380330014683 0 0 0 0 -19.725441566987566 34.551552200859078 0 34.551552200859078 129.51048704235291 0 0 0 0 -23.559792915246192 6.9936724180879537 0 6.9936724180879537 145.52870324335527 0 0 0 0 8.6036941796617299 32.930668581044301 0 32.930668581044301 113.67550296284026 0 0 0 0 -20.297199545127178 18.177393862328245 0 18.177393862328245 102.99201788603386 0 0 0 0 -0.25347894920665415 -0.6341577570077277 0 -0.6341577570077277 -0.66682079102080771 0 0 0 0 0.056856498297283876 41.436867327010987 0 41.436867327010987 135.06662997313106 0 0 0 0 8.9216438295147551 26.464309623854433 0 26.464309623854433 149.66693119710544 0 0 0 0 0.036499740605526979 36.885932383323961 0 36.885932383323961 159.13050931477483 0 0 0 0 -5.5055153514774275 -8.328735258474353 0 -8.328735258474353 229.01406109138043 0 0 0 0 -0.00083040932519525858 19.200283884062415 0 19.200283884062415 65.746283642103663 0 0 0 0 0.0031027554477551789 0.40699777098603818 0 0.40699777098603818 0.55848268608099261 0 0 0 0 20.405216196516697 8.7289393836690579 0 8.7289393836690579 14.162478052116057 0 0 0 0 -12.900761260000763 9.1112427879270399 0 9.1112427879270399 136.88110050576688 0 0 0 0 -29.762402288137139 26.065468077606056 0 26.065468077606056 133.49171762123297 0 0 0 0 -2.0721893451840714 7.0207180012776007 0 7.0207180012776007 138.73872870454215 0 0 0 0 0.10334257595075746 0.71323486312653017 0 0.71323486312653017 -0.84024451775408693 0 0 0 0 9.2743433984049375 5.382791418756824 0 5.382791418756824 45.723032271955162 0 0 0 0 -17.906996573659654 8.0974438684497727 0 8.0974438684497727 148.42282155650901 0 0 0 0 3.6303020223398335 -16.589933804170869 0 -16.589933804170869 68.3000247943055 0 0 0 0 -6.0965517960751612 -5.1413051533327234 0 -5.1413051533327234 87.560985853342572 0 0 0 0 -12.560367101431595 -9.5834729506532312 0 -9.5834729506532312 109.38171979621984 0 0 0 0 -2.0414033914162371 0.39673468835863446 0 0.39673468835863446 -1.3151436405392047 0 0 0 0 -2.8299687702074721 10.19838175024779 0 10.19838175024779 84.307219700647693 0 0 0 0 -8.7071681486729631 -3.0320523185146158 0 -3.0320523185146158 105.54207752880757 0 0 0 0 -3.4205787481709402 -0.73882427827351194 0 -0.73882427827351194 15.544243126839547 0 0 0 0 -6.5086609510089204 -16.660645175411446 0 -16.660645175411446 70.183881054690573 0 0 0 0 -16.214568698942038 -7.664756671518262 0 -7.664756671518262 123.27998900433158 0 0 0 0 -0.62857330979211723 0.22793849918477349 0 0.22793849918477349 0.36295431116840859 0 0 0 0 -7.7257804516274646 10.423769597899081 0 10.423769597899081 81.460149137055851 0 0 0 0 2.0908673931529265 -22.576353787539119 0 -22.576353787539119 62.353742678031267 0 0 0 0 -12.360399406572242 -35.508767189785431 0 -35.508767189785431 164.91047393405461 0 0 0 0 -31.812925296610302 29.246184790441475 0 29.246184790441475 148.39853026531637 0 0 0 0 0.17962993421656195 118.5550771241542 0 118.5550771241542 357.80764716395061 0 0 0 0 58.820430992041224 -8.8204314715330838 0 -8.8204314715330838 34.077450229659007 0 0 0 0 150.36277678968298 -192.24171032402955 0 -192.24171032402955 191.38566337507655 0 0 0 0 -0.00066769106282108383 2.0334377732942812 0 2.0334377732942812 1.7564383492863271 0 0 0 0 -0.070768396306309822 0.013362264392384304 0 0.013362264392384304 1.6986404524708973 0 0 0 0 44.733780825922338 -65.867197682131518 0 -65.867197682131518 107.79639230483735 0 0 0 0 61.994177998003579 -48.766684489321051 0 -48.766684489321051 78.179654827443301 0 0 0 0 5.3802360573547503 -35.897094732688856 0 -35.897094732688856 85.014505078826915 0 0 0 0 61.637860432725205 -48.605623204599397 0 -48.605623204599397 42.766428531409474 0 0 0 0 64.694606178791162 -60.831602085039776 0 -60.831602085039776 71.155430655286182 0 0 0 0 22.486735493376273 -25.088551498440211 0 -25.088551498440211 30.957026101295924 0 0 0 0 -1.6269976761222202 0.3228482964586874 0 0.3228482964586874 5.8877757117152214 0 0 0 0 0.15461647423383212 1.2371049886808265 0 1.2371049886808265 3.7660199281352789 0 0 0 0 -18.939456511834805 -38.685155145292811 0 -38.685155145292811 75.431807617933373 0 0 0 0 -15.889594378480979 -38.497663007379742 0 -38.497663007379742 71.303022682637675 0 0 0 0 1.3344505696754414 -12.388948489757652 0 -12.388948489757652 57.087846835819505 0 0 0 0 6.5403976003376458 -25.153675391677993 0 -25.153675391677993 39.527032402039055 0 0 0 0 -16.563287212391742 -15.781414182194567 0 -15.781414182194567 90.135550753431744 0 0 0 0 -22.085748273534819 -33.123591866082279 0 -33.123591866082279 101.98797385240323 0 0 0 0 -9.9996198133383132 -36.169951830757782 0 -36.169951830757782 68.399044267571298 0 0 0 0 6.0103445607716139 -36.937635704060085 0 -36.937635704060085 66.089298047299962 0 0 0 0 22.845778687103948 -46.175177536853653 0 -46.175177536853653 31.331116190529428 0 0 0 0 -3.8436439000297753 -58.038741188444874 0 -58.038741188444874 22.719070803897921 0 0 0 0 -16.609637842023631 -20.395622572243155 0 -20.395622572243155 30.794291342928773 0 0 0 0 -49.624931918834136 -79.242774951879255 0 -79.242774951879255 41.845030317639612 0 0 0 0 -43.809110217588113 -54.698744607914705 0 -54.698744607914705 7.5022512796567753 0 0 0 0 2.5494915926162975 -21.444425837873865 0 -21.444425837873865 42.180196651768796 0 0 0 0 -41.50150931658527 -45.692098278232152 0 -45.692098278232152 73.99605881232128 0 0 0 0 2.0471027456543562 -11.398789583886284 0 -11.398789583886284 55.375966054550275 0 0 0 0 7.1164425911093758 40.407058059188785 0 40.407058059188785 153.74782077197597 0 0 0 0 19.854698647614441 -64.148455601476599 0 -64.148455601476599 47.605170685721532 0 0 0 0 -90.291828816073121 -81.854187873432238 0 -81.854187873432238 61.785893292249966 0 0 0 0 29.355541418471603 -49.032492523023393 0 -49.032492523023393 14.887703931875876 0 0 0 0 -118.72743818240292 -85.678153201733949 0 -85.678153201733949 5.8208945250371471 0 0 0 0 77.464851120526419 -18.9018587133869 0 -18.9018587133869 52.03448438947089 0 0 0 0 22.077822773752814 -78.640323297004215 0 -78.640323297004215 81.848810272611445 0 0 0 0 42.323971988185349 -46.792889873249806 0 -46.792889873249806 216.00416290081921 0 0 0 0 33.164719321081066 12.881639348241151 0 12.881639348241151 104.92242462571085 0 0 0 0 96.615488398446132 43.701325293986883 0 43.701325293986883 200.63888819946442 0 0 0 0 110.64398701014761 -57.170934175424918 0 -57.170934175424918 382.94684819485337 0 0 0 0 119.91759811432524 1.6154970931847856 0 1.6154970931847856 219.47228485016967 0 0 0 0 151.63845262605537 135.26821148156159 0 135.26821148156159 361.48049737173278 0 0 0 0 76.748680428348962 71.270500036873273 0 71.270500036873273 168.46543975201348 0 0 0 0 33.435297902229081 -75.348414544440061 0 -75.348414544440061 54.524971776671009 0 0 0 0 35.048573233843854 -69.846443834823731 0 -69.846443834823731 154.33344886866689 0 0 0 0 144.82173975047726 -25.721508823173281 0 -25.721508823173281 52.798323374052416 0 0 0 0 20.633404704284658 -89.936251463841472 0 -89.936251463841472 27.039956249594979 0 0 0 0 -2.8693516069852194 20.111311354354257 0 20.111311354354257 43.061412015129463 0 0 0 0 135.42393776210702 107.62384421032039 0 107.62384421032039 -163.9556926736841 0 0 0 0 32.011503431983812 -13.714385719272087 0 -13.714385719272087 -4.9011088642701743 0 0 0 0 123.91092192301312 16.797160918358713 0 16.797160918358713 -101.65017874809564 0 0 0 0 94.952803460872019 -24.94111161834735 0 -24.94111161834735 33.098919920914341 0 0 0 0 -36.505683191261596 22.710211739446095 0 22.710211739446095 271.71125430840038 0 0 0 0 2.7740262610301194 0.33037953418876498 0 0.33037953418876498 -0.59101727588895869 0 0 0 0 53.123619394046727 -71.887004366079054 0 -71.887004366079054 -19.212882436833752 0 0 0 0 0.65728364425922337 -9.6213548170708236 0 -9.6213548170708236 54.073773616430117 0 0 0 0 -3.2474966146758106 14.974427636548171 0 14.974427636548171 51.152375973128073 0 0 0 0 -37.188132043693713 6.7386311488971842 0 6.7386311488971842 98.373696265734907 0 0 0 0 7.7276471483879554 1.7313409058156424 0 1.7313409058156424 12.94658796275246 0 0 0 0 2.882066194361645 -7.1110023588573199 0 -7.1110023588573199 27.854721858513898 0 0 0 0 -0.53490300602404983 -12.243743417279816 0 -12.243743417279816 38.740206051729274 0 0 0 0 13.966421124021053 -2.4152413161791628 0 -2.4152413161791628 33.149225795292296 0 0 0 0 10.833431253456411 1.3741331031851587 0 1.3741331031851587 34.541957928637203 0 0 0 0 22.224848471132191 16.31705316760781 0 16.31705316760781 25.464199276742875 0 0 0 0 6.1843234426021052 5.512146099530554 0 5.512146099530554 68.768634257110051 0 0 0 0 5.0095284987836521 -5.521182696284086 0 -5.521182696284086 69.544317647145363 0 0 0 0 -17.901842243286865 -84.133410506176006 0 -84.133410506176006 16.17395883701829 0 0 0 0 -12.651676856547738 -6.120510338616441 0 -6.120510338616441 96.92262389921234 0 0 0 0 2.7085119859721214 -8.8780654265761143 0 -8.8780654265761143 102.98288993270542 0 0 0 0 -20.65089084269573 -53.613176041355473 0 -53.613176041355473 11.136958376448092 0 0 0 0 0.47658247093133466 -14.591204403103092 0 -14.591204403103092 51.635074821833911 0 0 0 0 -34.282166100502764 -41.087743186275475 0 -41.087743186275475 19.938340359774884 0 0 0 0 10.541813365942129 -26.15215496645142 0 -26.15215496645142 40.71837136945112 0 0 0 0 26.468673075446247 -14.642688752454518 0 -14.642688752454518 11.083915632041407 0 0 0 0 54.456949533191619 -49.285593002612586 0 -49.285593002612586 -37.633420472113357 0 0 0 0 7.4011344202049258 -59.760001135302446 0 -59.760001135302446 170.5113291052985 0 0 0 0 35.01779291735329 138.0549527025978 0 138.0549527025978 142.86306791081552 0 0 0 0 -0.50828928310550658 15.162837320584536 0 15.162837320584536 7.9775577584712778 0 0 0 0 -169.0725993246524 51.584401239815634 0 51.584401239815634 376.95799637706114 0 0 0 0 292.44187177438289 122.91792248890852 0 122.91792248890852 -103.90946806374268 0 0 0 0 -212.41100181685397 -173.94792452807451 0 -173.94792452807451 272.82399502268891 0 0 0 0 22.606739496882621 -23.182954694305266 0 -23.182954694305266 52.249872592247044 0 0 0 0 3853.2694127786381 -621.43200632039225 0 -621.43200632039225 1156.6321721068816 0 0 0 0 -163.97757108147562 15.919249054219108 0 15.919249054219108 2964.0872035904904 0 0 0 0 2.335406757865421 42.766865142451053 0 42.766865142451053 76.591774046253022 0 0 0 0 -33.20914949222788 -25.315328565700838 0 -25.315328565700838 125.36885511011315 0 0 0 0 6.6423372170800761 27.699048851446328 0 27.699048851446328 42.042004929171284 0 0 0 0 14.279887698507082 65.400362852265971 0 65.400362852265971 52.249312747273507 0 0 0 0 9.5086983527326083 62.826301752924337 0 62.826301752924337 154.89977118306024 0 0 0 0 0.093762546452410334 9.9234016878694149 0 9.9234016878694149 11.782691887844678 0 0 0 0 -2.9772092802704719 -22.963651890211622 0 -22.963651890211622 90.702722756803269 0 0 0 0 34.163665549208417 54.292926535592414 0 54.292926535592414 67.395072051978786 0 0 0 0 -75.920951262296512 -0.94464286532820552 0 -0.94464286532820552 314.93566408725746 0 0 0 0 44.533738840329534 188.89804842008016 0 188.89804842008016 117.25082940520224 0 0 0 0 -24.803346263948697 139.46038357427824 0 139.46038357427824 348.40046562561474 0 0 0 0 -0.44474477888070396 4.1008089242895949 0 4.1008089242895949 344.59252116918788 0 0 0 0 -88.035848303134117 68.455662855812989 0 68.455662855812989 312.11688391448115 0 0 0 0 -104.0875828020944 -0.71767096003168263 0 -0.71767096003168263 373.77339503953408 0 0 0 0 -33.861845228264428 95.668807564688905 0 95.668807564688905 153.25740609900549 0 0 0 0 -147.49100922186699 124.10579768120078 0 124.10579768120078 296.55574951625022 0 0 0 0 -27.699860999771772 79.299648149812128 0 79.299648149812128 202.05139791589318 0 0 0 0 -263.64279539258632 45.24875886933296 0 45.24875886933296 263.4319800644007 0 0 0 0 327.35947561496323 -632.93364315127747 0 -632.93364315127747 523.3016581226766 0 0 0 0 19.564826588644792 60.623327440349385 0 60.623327440349385 458.54701719983859 0 0 0 0 4.3553872957696314 -6.5500080035176609 0 -6.5500080035176609 10.917089716354525 0 0 0 0 808.7280955025617 1441.7299596748708 0 1441.7299596748708 2842.6196490307593 0 0 0 0 248.3325066945963 -334.21957516714974 0 -334.21957516714974 -268.00870754708012 0 0 0 0 480.62923910854988 162.34653991117011 0 162.34653991117011 1071.6037786205998 0 0 0 0 -456.44340145003298 1681.6481180282208 0 1681.6481180282208 1894.6449618003371 0 0 0 0 -350.06706821878333 3717.9167601506479 0 3717.9167601506479 1125.4619785522809 0 0 0 0 -160.61991344105127 -290.26821726711114 0 -290.26821726711114 -104.89679618278024 0 0 0 0 15.321008688321299 -23.177400584064074 0 -23.177400584064074 28.531788168674481 0 0 0 0 -114.59992186654017 -903.98056060896488 0 -903.98056060896488 2757.4118683515435 0 0 0 0 10.867150119097396 12.908447583784948 0 12.908447583784948 15.812691847726057 0 0 0 0 -57.913045569819843 1733.9104556158156 0 1733.9104556158156 11.68656830531836 0 0 0 0 -830.56134502247824 -55.725926869581599 0 -55.725926869581599 296.04740606678888 0 0 0 0 74.38219173181642 835.62743813661291 0 835.62743813661291 363.8949262396909 0 0 0 0 23.552983714187171 37.203743907983068 0 37.203743907983068 37.301233875268991 0 0 0 0 -250.9913227585439 387.15591976546602 0 387.15591976546602 2225.7755496677219 0 0 0 0 837.72994782841852 -475.95559697088356 0 -475.95559697088356 125.58678552842866 0 0 0 0 -21.275803631487719 11.092326677606302 0 11.092326677606302 17.688857411563788 0 0 0 0 8.4086686312712118 615.11270669574515 0 615.11270669574515 -124.63802194216623 0 0 0 0 11.579775201182201 -1472.8933136669912 0 -1472.8933136669912 3011.0256059478997 0 0 0 0 6.2303093538409442 6.7893459428554941 0 6.7893459428554941 8.7767353540120681 0 0 0 0 -121.1330428367196 -1050.4704429352778 0 -1050.4704429352778 1588.6725794592639 0 0 0 0 60.776024861916085 -699.42581171177517 0 -699.42581171177517 1957.8556972298411 0 0 0 0 -36.603201834859647 36.655033811708563 0 36.655033811708563 172.14396962146202 0 0 0 0 -169.67364099800034 -5.6802496735490422 0 -5.6802496735490422 158.6928313209155 0 0 0 0 17.106450786459391 125.67421347691743 0 125.67421347691743 92.06700562464539 0 0 0 0 -82.173134727863726 1064.4038859101074 0 1064.4038859101074 1209.3361311349036 0 0 0 0 -466.1922289261056 428.25245079133128 0 428.25245079133128 1945.4417586929558 0 0 0 0 -82.492032965874387 209.61614735916737 0 209.61614735916737 1240.3459046573171 0 0 0 0 -18.73198193812798 -2.4813532414843138 0 -2.4813532414843138 5.8973602560849656 0 0 0 0 -455.07982000956918 352.46842140808417 0 352.46842140808417 1337.4080910809571 0 0 0 0 -83.799258163195191 449.20757575074276 0 449.20757575074276 816.19386246950307 0 0 0 0 -92.287712651440415 377.67895040979943 0 377.67895040979943 367.7386543636203 0 0 0 0 -179.28938617941822 555.947060469196 0 555.947060469196 136.5477628858207 0 0 0 0 -1.6190449672699003 2.0366754125861917 0 2.0366754125861917 1.7831709532212336 0 0 0 0 130.84312496354505 127.02212882094591 0 127.02212882094591 41.460415964433196 0 0 0 0 132.23401391711013 107.40384914820424 0 107.40384914820424 -25.197464462456992 0 0 0 0 27.81460266207614 12.940027088263378 0 12.940027088263378 205.33691811919562 0 0 0 0 -287.5542611883393 -22.804801766580567 0 -22.804801766580567 27.551202966678829 0 0 0 0 18.382508246160853 18.808569544630789 0 18.808569544630789 29.696116569335679 0 0 0 0 -171.72495545231345 126.0459455073667 0 126.0459455073667 1573.3399622960351 0 0 0 0 -534.37688679549319 251.74359433501013 0 251.74359433501013 263.7488613655496 0 0 0 0 -193.0139123396184 225.01625129319291 0 225.01625129319291 118.2334636166961 0 0 0 0 -810.40369929033113 179.64868126793954 0 179.64868126793954 -410.45280775856736 0 0 0 0 -911.88106211541162 471.76388893477451 0 471.76388893477451 79.14662896880327 0 0 0 0 -74.943475526919428 475.74015361614147 0 475.74015361614147 -618.39760525520251 0 0 0 0 -617.06060875705771 476.36300360199311 0 476.36300360199311 -19.144689784647198 0 0 0 0 -13.337457012195955 211.28462261389177 0 211.28462261389177 -159.07425354452425 0 0 0 0 -5.1560101200340043 10.00039546532156 0 10.00039546532156 15.082177755398988 0 0 0 0 -716.09057894512807 -132.82075847314991 0 -132.82075847314991 61.908870772439059 0 0 0 0 -227.9100286177927 273.82838447070571 0 273.82838447070571 69.215430452273722 0 0 0 0 -526.48118490072738 243.90445075650132 0 243.90445075650132 219.65867459658693 0 0 0 0 -1.4115089842024275 0.00061105631931823723 0 0.00061105631931823723 0.3630289146457315 0 0 0 0 -180.53771534133375 -243.75157974905051 0 -243.75157974905051 750.53129584666567 0 0 0 0 -490.9084591682622 88.258758265863435 0 88.258758265863435 410.98919218772426 0 0 0 0 -109.40139214617375 -29.078942090641249 0 -29.078942090641249 259.13111708453289 0 0 0 0 -129.8916449962253 -146.38944211766102 0 -146.38944211766102 170.67055412978152 0 0 0 0 -398.17589795128515 -42.984214941072423 0 -42.984214941072423 424.20473997544468 0 0 0 0 -357.38148798137991 46.500563847379453 0 46.500563847379453 175.26723256661717 0 0 0 0 -336.81925640139161 141.44450590634733 0 141.44450590634733 274.85483107920663 0 0 0 0 -374.23821482625908 32.050821693778744 0 32.050821693778744 194.22808669584265 0 0 0 0 15.975034519181463 -113.72296849698887 0 -113.72296849698887 438.79158010927131 0 0 0 0 27.736093167512536 -38.990546028007998 0 -38.990546028007998 406.23103318443827 0 0 0 0 -34.579315382850837 -39.797257200141757 0 -39.797257200141757 684.28974849076258 0 0 0 0 64.569449301910026 -35.495334048758195 0 -35.495334048758195 357.31407457824025 0 0 0 0 53.152652525328904 -3.0372580151743023 0 -3.0372580151743023 245.46128942307041 0 0 0 0 10.746953155397932 -109.94205703565785 0 -109.94205703565785 310.94431010616245 0 0 0 0 17.405198407375792 -17.100382597696807 0 -17.100382597696807 223.14143670330031 0 0 0 0 32.278958229177078 20.741801285514612 0 20.741801285514612 57.208698795766395 0 0 0 0 -4.0144544297172615 -45.00799703247958 0 -45.00799703247958 225.03467049345727 0 0 0 0 8.9402708568441085 -46.149061997014542 0 -46.149061997014542 176.03174450710503 0 0 0 0 -132.75965586157508 -170.76367330548419 0 -170.76367330548419 -96.150331431550512 0 0 0 0 -1.9615004346747824 -0.75464869174667371 0 -0.75464869174667371 0.2869427303234815 0 0 0 0 -29.372978154413431 53.964609337343063 0 53.964609337343063 49.398721232328171 0 0 0 0 -8.0892792487788938 -88.575835225596165 0 -88.575835225596165 33.608926224180323 0 0 0 0 -5.454084373098862 1.491574526812002 0 1.491574526812002 5.2827398163423673 0 0 0 0 20.519768646745433 -16.991990270205861 0 -16.991990270205861 26.931141360736547 0 0 0 0 -113.80761670102765 -12.580687588081673 0 -12.580687588081673 181.47030697697119 0 0 0 0 -249.78529906020776 2.2256025552269421 0 2.2256025552269421 16.505312302731909 0 0 0 0 -146.99048130330357 -135.12732405079532 0 -135.12732405079532 18.565666631007844 0 0 0 0 -219.25944827049716 -87.854494017457 0 -87.854494017457 163.22098401538346 0 0 0 0 -177.63639699829855 -105.04862427772514 0 -105.04862427772514 159.65086029962913 0 0 0 0 -289.52611786706257 3.8160247838059149 0 3.8160247838059149 84.799774368936596 0 0 0 0 507.09492497433985 335.23658469695329 0 335.23658469695329 381.82130678382418 0 0 0 0 -113.56970595830535 -171.55885077693165 0 -171.55885077693165 188.91244032954728 0 0 0 0 -0.52343108407508865 1.7010303288505249 0 1.7010303288505249 7.7233905026208802 0 0 0 0 40.802880964271935 185.47378389397591 0 185.47378389397591 23.615276605931285 0 0 0 0 199.8897488442708 145.02726469924528 0 145.02726469924528 -44.564151945529375 0 0 0 0 233.41487822599083 13.294167690028189 0 13.294167690028189 25.207397783637134 0 0 0 0 168.997465202272 89.016497749677001 0 89.016497749677001 -6.0338056601394783 0 0 0 0 90.45179066431956 86.514433069940424 0 86.514433069940424 37.70948121505262 0 0 0 0 0.37494145227117759 1.228056325662692 0 1.228056325662692 21.463483860088502 0 0 0 0 -82.41449848260163 75.394322343549902 0 75.394322343549902 -8.3925316547702096 0 0 0 0 -354.96310689087795 -89.479249304402572 0 -89.479249304402572 48.012323187802394 0 0 0 0 -130.0159595567311 11.882438438642566 0 11.882438438642566 79.478378843802602 0 0 0 0 -1.2544383156322496 3.6910576160779556 0 3.6910576160779556 6.6279684585536103 0 0 0 0 29.089532102370868 83.031210731807732 0 83.031210731807732 78.428021934392746 0 0 0 0 56.215578333980375 44.883561368107621 0 44.883561368107621 77.501824904775276 0 0 0 0 -1.6377246181162661 8.5554160447363685 0 8.5554160447363685 41.258088881149305 0 0 0 0 -9.8495408956541723 20.824657126168404 0 20.824657126168404 58.234946023712837 0 0 0 0 -5.4039058515153213 20.188510176406282 0 20.188510176406282 63.65417777698525 0 0 0 0 2.8684072073237346 10.814821455417551 0 10.814821455417551 13.657565668824589 0 0 0 0 7.7407625458913571 31.526462451201041 0 31.526462451201041 55.478250506577751 0 0 0 0 -122.64747943359907 72.510122176892764 0 72.510122176892764 86.319138585811743 0 0 0 0 -10.256224317035503 81.817963293104185 0 81.817963293104185 53.131385497792508 0 0 0 0 68.765924100825032 66.822307389290472 0 66.822307389290472 26.98168529686518 0 0 0 0 -94.693521427107044 114.02757650865078 0 114.02757650865078 104.55974979577149 0 0 0 0 -341.23546084539066 112.56666201903045 0 112.56666201903045 115.86599790006585 0 0 0 0 27.594435114136722 50.20359087811012 0 50.20359087811012 49.063763493196447 0 0 0 0 68.008478866191581 97.627016117734456 0 97.627016117734456 33.61896829469697 0 0 0 0 4.8083793241170643 12.615078410377933 0 12.615078410377933 18.554076959808299 0 0 0 0 68.358689588125088 148.34284464940185 0 148.34284464940185 146.60078165668529 0 0 0 0 -9.7989433335897047 61.707726861948686 0 61.707726861948686 71.479266389274926 0 0 0 0 36.469009089506017 60.234180210996783 0 60.234180210996783 66.409681246041146 0 0 0 0 0.41556488032772165 25.009697497057971 0 25.009697497057971 1.4871548721848029 0 0 0 0 -6.0079373194630534 35.889074274742143 0 35.889074274742143 -122.47964589688854 0 0 0 0 17.204961272279888 45.709846406713723 0 45.709846406713723 63.325288726948202 0 0 0 0 202.13968694932919 14.894177843158104 0 14.894177843158104 -122.95800592902197 0 0 0 0 -1.7940951380712633 1.3252104723900828 0 1.3252104723900828 -6.3227903958285765 0 0 0 0 34.94392560299093 77.016657683261656 0 77.016657683261656 29.079860828893288 0 0 0 0 -127.65739000700705 16.866817506670486 0 16.866817506670486 48.029823160926753 0 0 0 0 -34.582688223140849 -268.04838710052763 0 -268.04838710052763 -24.573077179080428 0 0 0 0 174.10468491737629 151.57521661730789 0 151.57521661730789 -193.41063942632172 0 0 0 0 134.26359729380056 -38.682611403066403 0 -38.682611403066403 268.69006328999239 0 0 0 0 -126.57434727936197 382.28719824731888 0 382.28719824731888 618.89599782172991 0 0 0 0 -450.45546286105127 -184.1855684654879 0 -184.1855684654879 735.53665344600449 0 0 0 0 -77.954670805673231 446.34154659939304 0 446.34154659939304 221.55152574222302 0 0 0 0 391.93046737407712 -59.447541729339719 0 -59.447541729339719 82.482393958911416 0 0 0 0 151.88820167892845 111.8151387287071 0 111.8151387287071 408.69401194734382 0 0 0 0 310.4552010383486 -6.8222962348445435 0 -6.8222962348445435 487.28047097073431 0 0 0 0 169.81478018968664 128.53996404704776 0 128.53996404704776 382.67909486951248 0 0 0 0 917.09488270583097 284.70365815530749 0 284.70365815530749 413.62798995825869 0 0 0 0 373.26189096448797 -180.5693605938468 0 -180.5693605938468 916.14550319302361 0 0 0 0 7.6466242352180416 1.1464706328442844 0 1.1464706328442844 497.96323545317864 0 0 0 0 305.73834997582162 347.97681821951801 0 347.97681821951801 317.62899009976172 0 0 0 0 175.47364558600884 187.97031847959033 0 187.97031847959033 -141.63676485128235 0 0 0 0 1.9564394746848848 78.684733746669735 0 78.684733746669735 112.18668542925298 0 0 0 0 44.922100004906497 91.378033911561943 0 91.378033911561943 59.455663062879466 0 0 0 0 -48.848672162877619 287.53895322220069 0 287.53895322220069 52.701575638026043 0 0 0 0 23.299280858628528 62.998250669408129 0 62.998250669408129 79.259945964520909 0 0 0 0 -68.934787403541122 31.393009484643699 0 31.393009484643699 209.23849068565141 0 0 0 0 -90.511220589605841 34.575918745151625 0 34.575918745151625 230.44431638031165 0 0 0 0 -86.888655630132575 87.43500522308841 0 87.43500522308841 140.56568472816434 0 0 0 0 27.498842306726146 57.369026975306042 0 57.369026975306042 86.885480861659744 0 0 0 0 21.473140216187485 62.897538604466654 0 62.897538604466654 78.397457483117677 0 0 0 0 110.59632468485142 -8.3310444149065006 0 -8.3310444149065006 100.16000747593353 0 0 0 0 36.650029342599964 30.436366014162104 0 30.436366014162104 106.68391317818168 0 0 0 0 186.96262127068621 1.5073379000241403 0 1.5073379000241403 82.671605076271589 0 0 0 0 88.813596565117223 67.424828359033199 0 67.424828359033199 101.88700583633909 0 0 0 0 152.53348968486853 -68.974163176516413 0 -68.974163176516413 156.47833874067146 0 0 0 0 40.171991386459013 115.75041561663966 0 115.75041561663966 57.268876489681134 0 0 0 0 132.57064626697502 -6.7962972545792582 0 -6.7962972545792582 135.53990891287503 0 0 0 0 -73.934888756923101 54.818725668912521 0 54.818725668912521 103.18514734820747 0 0 0 0 10.563200772844539 82.635104002398293 0 82.635104002398293 89.884893084454234 0 0 0 0 63.442367698022281 183.67800727726581 0 183.67800727726581 -141.66922710977087 0 0 0 0 22.3508454102077 63.215356521430593 0 63.215356521430593 75.506962033975086 0 0 0 0 18.013953710536953 44.296692513049493 0 44.296692513049493 102.15607780628488 0 0 0 0 191.59902002157742 -180.46517259093162 0 -180.46517259093162 71.079316153372929 0 0 0 0 576.59713680005098 -175.23633926163075 0 -175.23633926163075 12.829000886711583 0 0 0 0 247.60208040632278 -346.49719169314994 0 -346.49719169314994 451.83512880806302 0 0 0 0 19.207214409678272 -23.937144886280294 0 -23.937144886280294 680.1576425938365 0 0 0 0 153.44576115081327 -162.17330692466385 0 -162.17330692466385 117.79637982102577 0 0 0 0 114.41519969553428 -123.88835252236458 0 -123.88835252236458 286.67255383327574 0 0 0 0 43.410252791889434 31.613346521495259 0 31.613346521495259 198.0696804581894 0 0 0 0 74.038013161761228 -24.95582161936909 0 -24.95582161936909 156.95811331128061 0 0 0 0 103.65863579329653 -10.669059427731554 0 -10.669059427731554 108.71473610186513 0 0 0 0 137.75517438100724 -86.346195008896757 0 -86.346195008896757 160.3373858050436 0 0 0 0 84.814200417056327 -40.256232419785192 0 -40.256232419785192 129.24654631071462 0 0 0 0 169.23765311074567 -59.713749678354361 0 -59.713749678354361 161.30590248836234 0 0 0 0 183.53227081436103 -107.31146343751379 0 -107.31146343751379 170.79489393014956 0 0 0 0 171.44599097817536 -75.10084294139233 0 -75.10084294139233 146.26451543131407 0 0 0 0 195.69128036693019 -138.53417566290227 0 -138.53417566290227 51.25622225200641 0 0 0 0 195.37851321048129 -116.66209183279716 0 -116.66209183279716 123.7802368996804 0 0 0 0 176.84624806260399 64.914386742042552 0 64.914386742042552 35.103610183637556 0 0 0 0 0.43388100100249538 1.8700640014781769 0 1.8700640014781769 6.556329598556971 0 0 0 0 268.00087632952182 -170.25471988918434 0 -170.25471988918434 233.79180238547997 0 0 0 0 75.33347521437554 46.433808650046558 0 46.433808650046558 -56.051286049440023 0 0 0 0 -13.312922422382144 115.60879911646043 0 115.60879911646043 -28.824889661049383 0 0 0 0 -67.599242798748492 56.595991663620225 0 56.595991663620225 -10.925557334976475 0 0 0 0 319.77275954235745 -566.6266790915256 0 -566.6266790915256 551.47462951994385 0 0 0 0 -130.59868711584448 -228.496070305893 0 -228.496070305893 742.64709709958697 0 0 0 0 123.22371066512005 -21.054899981538256 0 -21.054899981538256 508.33470356495673 0 0 0 0 508.81830537541464 128.18121317799887 0 128.18121317799887 -21.788920225255424 0 0 0 0 208.53445563944524 -274.88762959290943 0 -274.88762959290943 352.44619078318647 0 0 0 0 37.311418725628755 -5.8630836481024744 0 -5.8630836481024744 25.787196980938461 0 0 0 0 107.42846773263591 -90.19172920667188 0 -90.19172920667188 216.22028154430882 0 0 0 0 268.8923478861343 -95.603854333417985 0 -95.603854333417985 170.08389873823398 0 0 0 0 170.16506093646512 -168.86987143851911 0 -168.86987143851911 312.69574356883095 0 0 0 0 20.677235226549783 -171.68115578074139 0 -171.68115578074139 318.86216605901245 0 0 0 0 8.2614162703501712 3.6563314443625359 0 3.6563314443625359 1.7586915184156169 0 0 0 0 353.44628405761569 -260.50352195799496 0 -260.50352195799496 95.545109219412552 0 0 0 0 135.72120388873805 412.4059273720386 0 412.4059273720386 1500.4429140937937 0 0 0 0 -47.639785070606564 94.354941826001777 0 94.354941826001777 1055.5174514669925 0 0 0 0 242.00342236374772 249.88935250972645 0 249.88935250972645 571.00615487777395 0 0 0 0 20.471944003875535 7.8362727640802206 0 7.8362727640802206 1.8888054922996957 0 0 0 0 301.27584544133788 -1.6992149402431096 0 -1.6992149402431096 -226.26272437542502 0 0 0 0 -90.362807263062621 -126.50656787465414 0 -126.50656787465414 829.39314212953286 0 0 0 0 188.67360031166845 283.70125345542328 0 283.70125345542328 1022.3289958651749 0 0 0 0 82.353464865075694 -21.641540789652936 0 -21.641540789652936 528.01368583412386 0 0 0 0 7.3619925223806604 28.099213422357934 0 28.099213422357934 536.83730148860923 0 0 0 0 188.64192020841983 -151.77871263365523 0 -151.77871263365523 518.6410454770521 0 0 0 0 -54.527682538815498 103.63086229129112 0 103.63086229129112 588.23064139516464 0 0 0 0 1.0941595637975716 -2.3927248697022208 0 -2.3927248697022208 -1.5671016103866293 0 0 0 0 433.67518694418868 379.77707124975132 0 379.77707124975132 -45.049382532663003 0 0 0 0 -89.279083957310831 -164.99614143627878 0 -164.99614143627878 151.09783615550987 0 0 0 0 317.12272038899391 51.380743377645558 0 51.380743377645558 145.91694777340308 0 0 0 0 221.91163079101898 -91.164161386610431 0 -91.164161386610431 265.0222338876265 0 0 0 0 623.16785951104612 154.347754831575 0 154.347754831575 324.09666229997856 0 0 0 0 128.69064318964911 197.33464289548101 0 197.33464289548101 1128.1388118453615 0 0 0 0 589.12260534830784 421.1211354530169 0 421.1211354530169 1061.3827555580065 0 0 0 0 62.762569442243148 -158.800013189335 0 -158.800013189335 1120.273053774946 0 0 0 0 -87.332204675473349 -32.466743960404528 0 -32.466743960404528 1037.5742358257194 0 0 0 0 -150.24514788251281 -152.09218214313842 0 -152.09218214313842 1229.7528548939372 0 0 0 0 44.541921324809664 -77.494713809572204 0 -77.494713809572204 847.72016195527976 0 0 0 0 -12.675106851060264 -343.92097697738063 0 -343.92097697738063 905.48401391775406 0 0 0 0 -148.46155830715725 88.235308644736506 0 88.235308644736506 1839.4542639514875 0 0 0 0 -19.800270476797778 -536.51647074535504 0 -536.51647074535504 1598.4709869524449 0 0 0 0 -156.7498013210643 8.7620951570825127 0 8.7620951570825127 1077.5351730754446 0 0 0 0 52.524201113256368 -101.82096881029702 0 -101.82096881029702 497.44576306204544 0 0 0 0 67.44450265766136 207.99549225178998 0 207.99549225178998 7.2014484682185866 0 0 0 0 37.368817070882351 12.462526634585458 0 12.462526634585458 3.8268689135235547 0 0 0 0 -147.82294646992614 247.49261152181134 0 247.49261152181134 719.92337890907766 0 0 0 0 -150.90832974057594 -87.090776374359848 0 -87.090776374359848 950.8012038918605 0 0 0 0 -8.7683778287209861 -148.68294122248335 0 -148.68294122248335 675.76447064647073 0 0 0 0 -203.65991998395953 55.652949640728821 0 55.652949640728821 1009.795714215441 0 0 0 0 25.959958232883022 9.7938422990473128 0 9.7938422990473128 3.8538960371814142 0 0 0 0 118.65296590306804 -0.67844758227511193 0 -0.67844758227511193 102.39167947589885 0 0 0 0 108.24139564362088 173.26853981148088 0 173.26853981148088 583.51605822271813 0 0 0 0 18.859023414268904 -66.846373191474413 0 -66.846373191474413 249.2854934435527 0 0 0 0 66.562136264738882 95.71715034791805 0 95.71715034791805 419.66331383067882 0 0 0 0 -106.57776937393237 56.936471044657083 0 56.936471044657083 559.83175901365757 0 0 0 0 76.370069700790282 -218.15905452570223 0 -218.15905452570223 504.50106293714816 0 0 0 0 450.15562020823074 -228.85783140547937 0 -228.85783140547937 419.01462808082215 0 0 0 0 95.117521688916156 110.63024391176532 0 110.63024391176532 150.70352687827835 0 0 0 0 41.167572010680956 12.098722814135911 0 12.098722814135911 3.2165070579945052 0 0 0 0 49.949616743728257 -2.5828259746876938 0 -2.5828259746876938 152.33008844399592 0 0 0 0 767.56033253246687 215.91063176348325 0 215.91063176348325 -110.46888120259973 0 0 0 0 0.93976762247757051 3.2011934489325711 0 3.2011934489325711 7.8506225871068409 0 0 0 0 -682.64243199075418 -163.20631492650864 0 -163.20631492650864 1479.0454421691848 0 0 0 0 39.642768405393213 -33.113304220118152 0 -33.113304220118152 1499.9333140053641 0 0 0 0 9.3711445844842594 4.1015379792282687 0 4.1015379792282687 2.6417516981631337 0 0 0 0 311.49257326693692 -230.74180400051773 0 -230.74180400051773 210.47113235022698 0 0 0 0 131.93561594447419 337.24816108964478 0 337.24816108964478 1511.9642794768261 0 0 0 0 504.54072077000194 387.2632353462941 0 387.2632353462941 1127.1050627765126 0 0 0 0 -21.237582797708001 10.676523078331229 0 10.676523078331229 958.67970411958413 0 0 0 0 65.448762865328206 -30.53673429715127 0 -30.53673429715127 174.8733541660622 0 0 0 0 365.16030483521297 225.53266040626113 0 225.53266040626113 327.81173800516262 0 0 0 0 96.912356852635455 13.793997713754379 0 13.793997713754379 160.69207875545544 0 0 0 0 366.201077971308 130.98783159839513 0 130.98783159839513 -103.15991886472329 0 0 0 0 -190.17760079441553 205.00820181227755 0 205.00820181227755 -6.545232247455715 0 0 0 0 -273.25410320687251 180.51026294596159 0 180.51026294596159 160.68283237133812 0 0 0 0 2.3696840294496431 6.3761560133768711 0 6.3761560133768711 13.325083202827074 0 0 0 0 100.81622876114102 61.989527990346687 0 61.989527990346687 502.82396289872122 0 0 0 0 92.238698162588037 27.565122493529998 0 27.565122493529998 565.18679001249257 0 0 0 0 0.42555815958257881 -178.18485779579714 0 -178.18485779579714 170.86042455744723 0 0 0 0 1.2662794051701183 2.7693865269400106 0 2.7693865269400106 5.846095525835409 0 0 0 0 -187.67734972274891 -21.441436579854781 0 -21.441436579854781 818.49468788233935 0 0 0 0 159.53285218327369 312.40255852598057 0 312.40255852598057 736.30229383136339 0 0 0 0 193.54431583242274 24.711178716148424 0 24.711178716148424 619.67037646754761 0 0 0 0 485.08791069343215 459.82976594138563 0 459.82976594138563 106.59647939526621 0 0 0 0 174.99201569443403 431.46266811797614 0 431.46266811797614 732.31400796968228 0 0 0 0 27.679353659354319 191.33024928887971 0 191.33024928887971 354.01953398656042 0 0 0 0 45.694363770875725 209.77787335861285 0 209.77787335861285 393.98164039968833 0 0 0 0 14.451810392650373 11.153762337045919 0 11.153762337045919 355.99667009279801 0 0 0 0 238.50283202289012 168.20136579753307 0 168.20136579753307 261.91310524858272 0 0 0 0 506.90314503373429 227.16744905235646 0 227.16744905235646 390.07609452219185 0 0 0 0 275.35312538586686 103.84258426195811 0 103.84258426195811 373.89498316216441 0 0 0 0 394.08128459535851 23.53059345507063 0 23.53059345507063 446.84215023050456 0 0 0 0 322.98765160828793 125.8877347614125 0 125.8877347614125 344.06499672599602 0 0 0 0 112.7794984050995 27.737609865740524 0 27.737609865740524 470.04686570319609 0 0 0 0 -6.3436123970706149 212.45074569994358 0 212.45074569994358 513.19771656714147 0 0 0 0 48.317853850805022 172.75521517504239 0 172.75521517504239 367.24736269746427 0 0 0 0 -18.725270168072257 160.22954764221504 0 160.22954764221504 387.93790598724445 0 0 0 0 -105.61849853593662 -46.02365502057728 0 -46.02365502057728 1173.7570710222208 0 0 0 0 55.944430445288162 506.93069390967139 0 506.93069390967139 787.2317990082156 0 0 0 0 -90.564079236674388 90.907261284737615 0 90.907261284737615 626.66397597272589 0 0 0 0 -67.892232948327546 92.070588608687103 0 92.070588608687103 434.26912290055589 0 0 0 0 15.153888757713446 192.9050107642006 0 192.9050107642006 553.19349870563019 0 0 0 0 -158.04093930726867 236.18462606207686 0 236.18462606207686 544.01379658953738 0 0 0 0 -127.17641037553176 146.78976695327947 0 146.78976695327947 618.76734004588798 0 0 0 0 -38.231543071472061 188.82377600241307 0 188.82377600241307 619.03172484736569 0 0 0 0 -129.79390480235259 236.96731205547349 0 236.96731205547349 -202.55621484242147 0 0 0 0 -1.4415148765167185 0.44862209363849104 0 0.44862209363849104 0.67686182653005744 0 0 0 0 -44.414338994049103 29.564640507243894 0 29.564640507243894 706.48147367679485 0 0 0 0 -6.4912392138444943 95.486830035313687 0 95.486830035313687 310.91711067823053 0 0 0 0 -169.69222975334151 137.05037832602829 0 137.05037832602829 342.92305497884445 0 0 0 0 3.0113506868336799 61.452342012125882 0 61.452342012125882 135.10551040767314 0 0 0 0 -117.7854345135213 43.42079979909613 0 43.42079979909613 87.136997055427855 0 0 0 0 -125.96931938408568 87.733986918457958 0 87.733986918457958 -0.78365939694049302 0 0 0 0 -84.804867735163043 19.071276824317465 0 19.071276824317465 42.166034649300855 0 0 0 0 49.454532686274206 44.702978311226616 0 44.702978311226616 133.37517768568068 0 0 0 0 -13.364006658573089 15.884152233578789 0 15.884152233578789 430.31220913133984 0 0 0 0 -27.327428051394236 13.579073303350015 0 13.579073303350015 146.60348214688747 0 0 0 0 -4.981226808249632 0.94712519008979257 0 0.94712519008979257 1.181167522248515 0 0 0 0 142.32839897486701 28.681056293919028 0 28.681056293919028 66.62624160174164 0 0 0 0 0.045497469969046023 -0.40890591398647302 0 -0.40890591398647302 -0.42676539784334011 0 0 0 0 17.159517921183124 24.145143411722529 0 24.145143411722529 -9.5966735604015412 0 0 0 0 35.793433941388685 -113.25891907333425 0 -113.25891907333425 150.67954726605967 0 0 0 0 -54.282802654489558 94.302451635885518 0 94.302451635885518 -105.4155137757698 0 0 0 0 -36.018352629119818 23.036576533653715 0 23.036576533653715 -40.786734142078785 0 0 0 0 -81.899943794626097 54.200436726008775 0 54.200436726008775 13.14864239837334 0 0 0 0 -35.568483015208486 18.30887443094889 0 18.30887443094889 4.105809014159604 0 0 0 0 -15.379419089341354 -1.5735205314340419 0 -1.5735205314340419 0.38972445845683978 0 0 0 0 -7.8471898321581506 -0.8767923942574356 0 -0.8767923942574356 1.2373285403731842 0 0 0 0 -24.18144511470382 19.841620285111276 0 19.841620285111276 -10.591390020475956 0 0 0 0 -1.6490595878782628 0.4036683505157157 0 0.4036683505157157 -0.3709818047068012 0 0 0 0 -28.497184110357921 -117.65638924109226 0 -117.65638924109226 124.27130246503202 0 0 0 0 -20.605049182643512 4.7057857145628077 0 4.7057857145628077 -3.5065176520765817 0 0 0 0 1.0659256710739466 -1.604071337249195 0 -1.604071337249195 0.43108714407514981 0 0 0 0 -62.991068950854412 124.61722322760761 0 124.61722322760761 1.4773667739355005 0 0 0 0 2.9181664138689354 14.183659902585568 0 14.183659902585568 25.317244093222001 0 0 0 0 -87.530198630272935 33.841433083434822 0 33.841433083434822 41.426784544892143 0 0 0 0 -12.744518472700108 -2.1078416206442654 0 -2.1078416206442654 5.8469834390924689 0 0 0 0 -78.053428471876032 18.532893832234549 0 18.532893832234549 -16.543725350187742 0 0 0 0 -4.8086669054533786 135.98249364778167 0 135.98249364778167 -25.133090920426184 0 0 0 0 -103.50008156015701 32.04222829441278 0 32.04222829441278 120.67131494230125 0 0 0 0 29.992770105161526 -93.498086768919165 0 -93.498086768919165 -22.78453919988533 0 0 0 0 -108.98727798217578 23.553980654070983 0 23.553980654070983 222.44913575133614 0 0 0 0 3.0236207887759168 8.4059790059545847 0 8.4059790059545847 21.550490369072378 0 0 0 0 19.589924022438709 121.67678259804961 0 121.67678259804961 -39.308176757767797 0 0 0 0 77.412298649893046 34.359086161639425 0 34.359086161639425 -19.246286410672838 0 0 0 0 -177.60281266576567 -58.452473217650549 0 -58.452473217650549 117.95735423141741 0 0 0 0 -215.49464846432556 126.41361952437001 0 126.41361952437001 74.748850895186479 0 0 0 0 69.925225034388177 -23.986514744334272 0 -23.986514744334272 49.065339341352228 0 0 0 0 -69.354880739816508 28.13023138671997 0 28.13023138671997 134.91585410323933 0 0 0 0 -5.906534050929622 42.451404757484852 0 42.451404757484852 -60.26869558789258 0 0 0 0 -2.0948114846127126 2.2465834488806991 0 2.2465834488806991 -0.48985941066437277 0 0 0 0 135.36301710081625 -108.62039244962216 0 -108.62039244962216 -191.74550993335288 0 0 0 0 -441.30095031679321 192.19636333894596 0 192.19636333894596 161.85897348651952 0 0 0 0 -87.752249194454635 -19.097915777354501 0 -19.097915777354501 152.4517605418805 0 0 0 0 -3.2231256823033618 -167.88334661802219 0 -167.88334661802219 136.43200194562087 0 0 0 0 -3.9510412405834359 -18.036219587302185 0 -18.036219587302185 151.20227298337704 0 0 0 0 24.89998531748779 3.7613524372864049 0 3.7613524372864049 -25.487307536735898 0 0 0 0 -443.01981956924374 -398.64321893254237 0 -398.64321893254237 181.69629768922459 0 0 0 0 46.623182786110192 -8.2526434387109475 0 -8.2526434387109475 -23.189711972716395 0 0 0 0 85.27337062624747 -9.4501817447962821 0 -9.4501817447962821 -23.259794336034247 0 0 0 0 60.404914415018993 42.411963604707125 0 42.411963604707125 14.618344868795248 0 0 0 0 19.785227666832157 53.092086635777378 0 53.092086635777378 -13.839751978128334 0 0 0 0 70.70291160858028 46.826341128180502 0 46.826341128180502 -15.674231358134421 0 0 0 0 44.66770607350918 14.805076867254684 0 14.805076867254684 -21.940746541600674 0 0 0 0 89.85009480186045 25.757620974800375 0 25.757620974800375 -19.822771495499182 0 0 0 0 43.260752200189927 18.042744053629576 0 18.042744053629576 -26.684272359678289 0 0 0 0 33.256015226454565 13.274863859609468 0 13.274863859609468 -27.674435088731116 0 0 0 0 5.5349929398137192 22.205156550728134 0 22.205156550728134 -24.927260101569118 0 0 0 0 26.089426169843932 33.003565409246221 0 33.003565409246221 -28.316322548809694 0 0 0 0 52.30210861575415 28.349152370319644 0 28.349152370319644 -27.524800784158288 0 0 0 0 -78.579711731826364 60.891113276913529 0 60.891113276913529 9.669032740071998 0 0 0 0 1.628985993248989 40.420561274382635 0 40.420561274382635 -13.548948834511975 0 0 0 0 -3.9681041711787657 48.948504815169144 0 48.948504815169144 -19.053917046912829 0 0 0 0 -3.0399781038120182 90.839669573681022 0 90.839669573681022 -8.5549442309566075 0 0 0 0 -15.964617859263569 89.411879399547615 0 89.411879399547615 -2.7055036582169123 0 0 0 0 40.822713122536811 48.047690818864794 0 48.047690818864794 16.054741450381698 0 0 0 0 62.616194574468636 85.762286348210182 0 85.762286348210182 -27.73908635515545 0 0 0 0 28.552890419948199 -5.1800268744009372 0 -5.1800268744009372 287.42536829097662 0 0 0 0 81.726649796155698 52.760220323900285 0 52.760220323900285 10.496911076646938 0 0 0 0 87.919685057452227 -34.509516302473457 0 -34.509516302473457 112.69358685563202 0 0 0 0 98.446085846514961 9.3896675639680325 0 9.3896675639680325 27.138537317689043 0 0 0 0 73.600701792046038 42.928445398843905 0 42.928445398843905 172.77417297224747 0 0 0 0 100.95817424388565 37.156339135632152 0 37.156339135632152 73.130918024922721 0 0 0 0 0.63051470240920615 -2.5319527172776031 0 -2.5319527172776031 1.6729700545926676 0 0 0 0 252.1511591738672 -57.958155695901951 0 -57.958155695901951 -114.77154660515953 0 0 0 0 171.1836296413835 46.75782927219916 0 46.75782927219916 274.33904288614576 0 0 0 0 191.26643815753391 109.09515502133354 0 109.09515502133354 77.143922130460851 0 0 0 0 -66.628077647579232 -20.848570995860428 0 -20.848570995860428 661.11534414035123 0 0 0 0 -68.244154268999779 -15.362435980278406 0 -15.362435980278406 699.46373900592152 0 0 0 0 -102.61966126028528 53.241839166017598 0 53.241839166017598 747.45869475074142 0 0 0 0 -110.1624755442819 23.378376942054729 0 23.378376942054729 1252.4012134065997 0 0 0 0 1.3191857095111561 3.1312779118096685 0 3.1312779118096685 8.7227055169585412 0 0 0 0 249.46699044541674 346.25280828809991 0 346.25280828809991 102.05561187069361 0 0 0 0 41.15802330438737 -83.226162049821141 0 -83.226162049821141 -38.082590553691261 0 0 0 0 97.503972208006871 -124.55003042128374 0 -124.55003042128374 130.71829158884793 0 0 0 0 -177.41974862284587 -91.902836207784276 0 -91.902836207784276 767.78955593609862 0 0 0 0 176.6692850487043 -500.67025438436758 0 -500.67025438436758 911.30933484847628 0 0 0 0 -175.25041043280601 -130.71063156177479 0 -130.71063156177479 1270.5109747404604 0 0 0 0 -6.1174265896120801 277.30062041610472 0 277.30062041610472 978.25975420205214 0 0 0 0 32.673257509217933 8.9133367221829047 0 8.9133367221829047 2.841466367504708 0 0 0 0 341.44564628359331 -306.27092027781691 0 -306.27092027781691 -62.447267925766937 0 0 0 0 14.951868687214358 144.12207225622114 0 144.12207225622114 397.86424894386437 0 0 0 0 -109.02387631517939 -22.21272672698251 0 -22.21272672698251 827.84396801360708 0 0 0 0 -110.91942300399415 -76.00116083519606 0 -76.00116083519606 926.03514133252975 0 0 0 0 -654.79092016518052 -169.92271960491053 0 -169.92271960491053 595.93861939167255 0 0 0 0 17.48782692345371 5.4314212318975734 0 5.4314212318975734 3.2520499147940072 0 0 0 0 168.25043054904199 -257.09745097571795 0 -257.09745097571795 909.43477899031132 0 0 0 0 11.299301574407764 -80.263808711566526 0 -80.263808711566526 733.46599068491923 0 0 0 0 -125.76910469056111 -429.05693196377615 0 -429.05693196377615 722.36939005297245 0 0 0 0 55.675125329380535 -671.06598454332925 0 -671.06598454332925 65.931777301368129 0 0 0 0 614.43408361583079 -354.38051048666603 0 -354.38051048666603 -140.51230737650985 0 0 0 0 -420.20322720080867 616.6075828312969 0 616.6075828312969 1070.6492826709946 0 0 0 0 542.33839226446617 165.81656864165416 0 165.81656864165416 579.26042763661826 0 0 0 0 816.21804591504588 -604.89445179321046 0 -604.89445179321046 1547.505807617581 0 0 0 0 685.05276182134185 518.23649350630512 0 518.23649350630512 939.51150315646009 0 0 0 0 371.6108008920628 325.85076891211429 0 325.85076891211429 -229.22639592132509 0 0 0 0 250.5978489985489 -437.40595965625675 0 -437.40595965625675 313.51744096283073 0 0 0 0 -27.95275737178406 199.83904433385533 0 199.83904433385533 55.760710252747231 0 0 0 0 32.968048064123415 38.10089955037752 0 38.10089955037752 42.403498872571774 0 0 0 0 -27.979563631281053 110.29513916379437 0 110.29513916379437 3.7784739219787298 0 0 0 0 -188.59941118949882 223.17151803583874 0 223.17151803583874 -58.2379967349043 0 0 0 0 -46.038823508166388 60.425443863636247 0 60.425443863636247 8.5043028064173996 0 0 0 0 -141.00805774144283 157.79473479005173 0 157.79473479005173 39.975023798528127 0 0 0 0 -16.270900384768538 65.771015753602114 0 65.771015753602114 77.460900758898788 0 0 0 0 36.701229973255096 49.455513148320705 0 49.455513148320705 48.088410393182045 0 0 0 0 29.859677071074657 128.11086956075087 0 128.11086956075087 -53.333739773697744 0 0 0 0 -7.0302694291357533 13.199852477485763 0 13.199852477485763 13.663684038591242 0 0 0 0 -765.73192298236324 -132.3278043444252 0 -132.3278043444252 23.322335419303272 0 0 0 0 40.762050878826813 51.168629942942061 0 51.168629942942061 -179.7926697860712 0 0 0 0 -204.25380949098053 279.01748063875493 0 279.01748063875493 17.948809941251966 0 0 0 0 2.4552528293106661 22.092693437745766 0 22.092693437745766 24.224836690351367 0 0 0 0 71.512629480663009 184.60782908295278 0 184.60782908295278 171.76342349898914 0 0 0 0 -75.749318214036975 -20.572315521589189 0 -20.572315521589189 459.93997901954208 0 0 0 0 -35.165719110448663 175.16961292616907 0 175.16961292616907 447.1401645254482 0 0 0 0 -10.803306902372469 -15.621956531445903 0 -15.621956531445903 336.17744146467157 0 0 0 0 4.7800292073105997 2.5714369346541446 0 2.5714369346541446 2.6711730106820539 0 0 0 0 -32.260004313206082 64.147198951202881 0 64.147198951202881 1458.3050825248974 0 0 0 0 232.95190979872268 182.91559202655117 0 182.91559202655117 539.66649384223274 0 0 0 0 -46.600151111531886 -57.481528302909283 0 -57.481528302909283 771.12607056099296 0 0 0 0 -184.13292220148105 -50.728414533696196 0 -50.728414533696196 1270.6445659563101 0 0 0 0 -121.54299961980178 24.52485899405292 0 24.52485899405292 1263.9086481381746 0 0 0 0 59.43289561764459 -16.939266390600096 0 -16.939266390600096 55.271918416801782 0 0 0 0 -0.51744965345469396 1.0760738401173882 0 1.0760738401173882 6.9742036524637019 0 0 0 0 -7.897481845713628 37.888325605999853 0 37.888325605999853 -34.393170227845985 0 0 0 0 -48.355830656961643 31.706305575937222 0 31.706305575937222 98.8870706335656 0 0 0 0 24.237608383264288 30.450228733251027 0 30.450228733251027 31.894504908563917 0 0 0 0 -161.7736313430778 -7.8294498003506305 0 -7.8294498003506305 1242.8948967652977 0 0 0 0 -23.751936099904924 -104.11531475750962 0 -104.11531475750962 1308.9271020630986 0 0 0 0 -118.91315242685414 110.65241605832853 0 110.65241605832853 1269.1297557123326 0 0 0 0 -24.067303654725038 140.76059736826573 0 140.76059736826573 936.48736598091637 0 0 0 0 -158.76345511069667 20.50805267773103 0 20.50805267773103 1182.0549039853722 0 0 0 0 -137.64336320671794 -55.879039860916237 0 -55.879039860916237 798.51244309770118 0 0 0 0 -152.66901580277772 54.279639125372341 0 54.279639125372341 977.16271850918099 0 0 0 0 -137.64866370764412 40.779980206314576 0 40.779980206314576 977.21554881973134 0 0 0 0 24.561273574353436 -187.67492684059835 0 -187.67492684059835 992.63161030828633 0 0 0 0 -5.4994830560726768 52.135940800821118 0 52.135940800821118 641.64210304534208 0 0 0 0 11.166846628014355 -217.39865256400299 0 -217.39865256400299 472.76015504397583 0 0 0 0 -67.688575968490113 72.868101599910005 0 72.868101599910005 275.29980829414853 0 0 0 0 -65.11923359927232 -136.43590726034472 0 -136.43590726034472 232.12285488442285 0 0 0 0 92.021475178338733 51.303526915484326 0 51.303526915484326 -67.007501441985369 0 0 0 0 140.71561645657263 97.884981509841509 0 97.884981509841509 1273.3779172195282 0 0 0 0 -12.607541861410027 -169.05939116379159 0 -169.05939116379159 1197.4279643687005 0 0 0 0 146.35927991668393 172.6961515317098 0 172.6961515317098 1027.7298657160427 0 0 0 0 55.663459609064375 -332.61936162105485 0 -332.61936162105485 635.36627436164417 0 0 0 0 180.18278267266601 -1.0619758696111603 0 -1.0619758696111603 65.998143476281257 0 0 0 0 5.0953664293410839 62.380513770724065 0 62.380513770724065 62.913966298078776 0 0 0 0 -12.707079134729383 450.10900944357672 0 450.10900944357672 482.96184209506828 0 0 0 0 -0.28470655201125084 1.318077975359472 0 1.318077975359472 5.6882430685621728 0 0 0 0 -107.4892386820602 -76.330963391497789 0 -76.330963391497789 33.342439965927042 0 0 0 0 14.357921463258663 -196.98605742180189 0 -196.98605742180189 151.3840456918042 0 0 0 0 -130.93329790419057 -15.100443691040709 0 -15.100443691040709 26.215462422725977 0 0 0 0 -2.2207607616326142 1.2625548589337185 0 1.2625548589337185 13.111644916186037 0 0 0 0 -39.338404190642905 28.109011473254213 0 28.109011473254213 36.762837333873904 0 0 0 0 -51.327359438044823 -13.20534725780999 0 -13.20534725780999 -0.65418948631850071 0 0 0 0 -28.870556379371919 19.232725856945763 0 19.232725856945763 -78.16202771186363 0 0 0 0 -34.962161303656103 -4.9048637625819538 0 -4.9048637625819538 126.52062967533129 0 0 0 0 -7.4116214894105479 2.9447610648674356 0 2.9447610648674356 7.9775373870170796 0 0 0 0 -9.9147607117473555 -0.41799073616552107 0 -0.41799073616552107 22.115902444475861 0 0 0 0 -14.568692722430569 -13.53547521326982 0 -13.53547521326982 13.913951913524215 0 0 0 0 -16.700079047986428 -21.502279969326423 0 -21.502279969326423 3.615350896488593 0 0 0 0 -24.441615809193451 -16.732090889386921 0 -16.732090889386921 55.400562422606612 0 0 0 0 -38.229911096873515 -75.770376049417109 0 -75.770376049417109 60.167984062730497 0 0 0 0 -20.906802452009288 -37.248342443548609 0 -37.248342443548609 17.684827114833752 0 0 0 0 -28.389827997259999 19.430753952432497 0 19.430753952432497 59.008289550456539 0 0 0 0 -26.255147193136509 -75.882566594293166 0 -75.882566594293166 27.524877778225346 0 0 0 0 -6.5854350053228856 -1.1511967761109787 0 -1.1511967761109787 8.8334190090362625 0 0 0 0 -18.251145751462076 -16.837671546987394 0 -16.837671546987394 54.277206576744064 0 0 0 0 -32.940149346826729 -30.22445864182373 0 -30.22445864182373 94.578898018080508 0 0 0 0 -54.98097048616728 -8.3264825237738478 0 -8.3264825237738478 59.739834476044052 0 0 0 0 11.693369478736713 14.171731799688132 0 14.171731799688132 60.275470465130638 0 0 0 0 -42.991727379669101 23.973395545122912 0 23.973395545122912 188.01275724752122 0 0 0 0 -49.761623947841144 8.5129417864809511 0 8.5129417864809511 87.031987157490221 0 0 0 0 5.533132192953417 -21.779149470828997 0 -21.779149470828997 103.50616192398593 0 0 0 0 8.8020311657155901 38.99777404494921 0 38.99777404494921 111.00022015614377 0 0 0 0 -5.4045511342446844 -19.590803153347224 0 -19.590803153347224 83.989328393090545 0 0 0 0 -1.8750005618726391 -8.2057961245191109 0 -8.2057961245191109 118.46767846911098 0 0 0 0 8.4375998686248472 -20.113168102257404 0 -20.113168102257404 -5.1104573417958363 0 0 0 0 -712.29324078081481 -128.15050073341536 0 -128.15050073341536 392.6017239748312 0 0 0 0 -47.71363860151348 -53.762909934580591 0 -53.762909934580591 29.982768959824494 0 0 0 0 -198.85890439154537 20.823654534520756 0 20.823654534520756 -158.0058116836226 0 0 0 0 46.597478776502612 -124.87643833449692 0 -124.87643833449692 -108.37537650797276 0 0 0 0 137.02368393449797 -119.68882657188078 0 -119.68882657188078 -28.587489184035803 0 0 0 0 130.40270899908501 -12.648146916253609 0 -12.648146916253609 -7.4202358489274047 0 0 0 0 -1.5425392158954416 -4.313066228245475 0 -4.313066228245475 -7.7270048749425797 0 0 0 0 -36.560714151102729 -25.631869356220705 0 -25.631869356220705 -49.542702680759248 0 0 0 0 15.073542048205127 -113.41037036338093 0 -113.41037036338093 -17.635174873794313 0 0 0 0 150.91233718450894 -813.74773497497426 0 -813.74773497497426 -245.27043109368196 0 0 0 0 446.81033574091634 134.01301907925244 0 134.01301907925244 158.63496892739749 0 0 0 0 -12.838098610625362 -20.958654315607369 0 -20.958654315607369 43.215854942855174 0 0 0 0 -22.205692254688074 -32.589650921738212 0 -32.589650921738212 1.1247365711315069 0 0 0 0 -21.561471072823068 -47.039860504152799 0 -47.039860504152799 34.067190685611749 0 0 0 0 -500.20230712918237 -41.996721123085308 0 -41.996721123085308 193.91340827833938 0 0 0 0 -185.51625915306249 131.93335311528449 0 131.93335311528449 25.161813804249505 0 0 0 0 20.342463692584715 58.383001429145224 0 58.383001429145224 251.58248963689266 0 0 0 0 -6.5222037360939211 1.2532046910719616 0 1.2532046910719616 1.1373742752131362 0 0 0 0 -27.35046722757761 26.755917311904341 0 26.755917311904341 94.876930167558385 0 0 0 0 -128.39597703097206 27.783905674927269 0 27.783905674927269 133.22912651053639 0 0 0 0 -117.73883302687318 45.056077274888594 0 45.056077274888594 120.71245182338225 0 0 0 0 -25.612726672337885 -5.7692185973155574 0 -5.7692185973155574 74.250983358768281 0 0 0 0 -3.7104404837482434 -108.27171326154598 0 -108.27171326154598 77.371689656152995 0 0 0 0 -6.8483563554872049 12.446750193721513 0 12.446750193721513 75.096586813997149 0 0 0 0 -9.2621964058489539 -46.087419847313868 0 -46.087419847313868 143.5797843633232 0 0 0 0 2.2498331815604615 18.758083170121608 0 18.758083170121608 65.815574993903283 0 0 0 0 -1.5927921431416863 19.816373764259716 0 19.816373764259716 74.234297030330339 0 0 0 0 9.6584851920079018 14.82531458432095 0 14.82531458432095 41.596013662074256 0 0 0 0 -136.63036294158701 -58.637423813916826 0 -58.637423813916826 61.131478949824213 0 0 0 0 -182.36733354603348 18.54540301578254 0 18.54540301578254 132.21387661500074 0 0 0 0 -42.787467476317943 109.26167495489062 0 109.26167495489062 -2.4083898091157607 0 0 0 0 -153.91877855399071 385.86634331069899 0 385.86634331069899 351.28795608914379 0 0 0 0 0.08076322089678456 22.8484242416509 0 22.8484242416509 77.828594578716391 0 0 0 0 -3.9579391004372155 -16.485129030841563 0 -16.485129030841563 -45.322932328461775 0 0 0 0 -40.403282668299653 77.386258426102358 0 77.386258426102358 11.714593412929389 0 0 0 0 10.430248614618904 32.006314769249002 0 32.006314769249002 49.127594108374069 0 0 0 0 19.405615040428529 24.769710077664968 0 24.769710077664968 -7.1953169446096581 0 0 0 0 63.730962871966767 27.141816088616906 0 27.141816088616906 -7.1785664172166435 0 0 0 0 49.690209369840886 71.060003961507391 0 71.060003961507391 -16.691137529320258 0 0 0 0 96.272041747957701 47.782631876680171 0 47.782631876680171 -52.48199292989375 0 0 0 0 39.651167342359258 51.519725641041987 0 51.519725641041987 -31.567828638741048 0 0 0 0 138.27701903306661 35.871736134102321 0 35.871736134102321 -49.995914473185621 0 0 0 0 85.723183039852302 107.02776123719377 0 107.02776123719377 -52.277105866876809 0 0 0 0 38.519838180378429 86.441525709211419 0 86.441525709211419 -38.604718505918754 0 0 0 0 -4.6402463368540339 150.74276214894417 0 150.74276214894417 -40.223253215786826 0 0 0 0 -220.5366516021204 110.98750627986738 0 110.98750627986738 21.743240632225934 0 0 0 0 -131.59214393119328 81.797492123616394 0 81.797492123616394 -21.255551656591706 0 0 0 0 -28.478578007188844 93.502540506212426 0 93.502540506212426 -26.170043930251268 0 0 0 0 -17.858737058842962 107.94473308281522 0 107.94473308281522 -30.55569488016954 0 0 0 0 59.503732735287485 -55.975437984676319 0 -55.975437984676319 -30.428921572762192 0 0 0 0 -33.573097302601695 -84.648860371807586 0 -84.648860371807586 -12.259385916077008 0 0 0 0 -2.0966825007817533 -75.641363719299989 0 -75.641363719299989 -11.178896338664345 0 0 0 0 -33.044549682716024 -74.768553755766334 0 -74.768553755766334 -2.816291085757257 0 0 0 0 44.104831321748861 -92.708982337886482 0 -92.708982337886482 -23.45166421778049 0 0 0 0 55.830686692937888 -48.913316646940075 0 -48.913316646940075 -16.670733627885056 0 0 0 0 130.569853781235 -42.679275367001537 0 -42.679275367001537 -38.762151454462582 0 0 0 0 128.92812472715013 13.017061216658476 0 13.017061216658476 -46.653796349968616 0 0 0 0 93.790948440924694 7.1248999459720608 0 7.1248999459720608 -38.16189945043152 0 0 0 0 58.267341350601782 13.686829253663745 0 13.686829253663745 -32.458291689552425 0 0 0 0 58.979634197730775 -26.782591391620372 0 -26.782591391620372 -34.331473428712343 0 0 0 0 24.596025516657392 -19.213014103828755 0 -19.213014103828755 -6.0811983877574676 0 0 0 0 65.761659060823149 -18.820674497250366 0 -18.820674497250366 -25.999624855616275 0 0 0 0 25.576457616069092 7.9249066318388941 0 7.9249066318388941 29.208951508124301 0 0 0 0 9.1632351478438068 -16.841889341267233 0 -16.841889341267233 -3.6726539798382873 0 0 0 0 -0.6874463814565388 -18.724021996855299 0 -18.724021996855299 31.159087737254595 0 0 0 0 -27.741941272794065 -43.424868286128913 0 -43.424868286128913 9.3484565929538803 0 0 0 0 22.641072957202596 -39.256119905204059 0 -39.256119905204059 -5.5028243521810509 0 0 0 0 4.8817537990980782 -49.103695727222657 0 -49.103695727222657 -10.809874158578168 0 0 0 0 -45.352741536761187 -78.806622668440468 0 -78.806622668440468 0.74514576345973182 0 0 0 0 -43.334347840893315 -63.719010026896285 0 -63.719010026896285 9.6605585205907119 0 0 0 0 -50.335845186207735 -67.5619918830198 0 -67.5619918830198 9.8876325252467723 0 0 0 0 -68.192850870669645 -68.214734415247221 0 -68.214734415247221 23.934792785905302 0 0 0 0 -26.328762575285509 -52.408513273603603 0 -52.408513273603603 13.940224068159296 0 0 0 0 -56.548385089448857 -64.048033012501037 0 -64.048033012501037 22.456972390486044 0 0 0 0 -54.919467602663644 -43.615061869165402 0 -43.615061869165402 34.102752192877233 0 0 0 0 -13.013873088094272 1.1098743922787797 0 1.1098743922787797 24.969014190929812 0 0 0 0 -88.649841571850629 -63.642986227514484 0 -63.642986227514484 39.969278982694959 0 0 0 0 -79.214828650759955 -48.760605153036522 0 -48.760605153036522 39.092572818677581 0 0 0 0 -44.651605142938934 0.81599735284544295 0 0.81599735284544295 75.112698202188767 0 0 0 0 -23.886341159043695 -30.649257125386612 0 -30.649257125386612 31.853680418185832 0 0 0 0 -32.226958926927182 -5.9068302721352666 0 -5.9068302721352666 78.661942321596143 0 0 0 0 -10.070364944804169 -3.416655871020339 0 -3.416655871020339 13.121791211509844 0 0 0 0 -14.652050763392417 -9.10011003356869 0 -9.10011003356869 37.364206543740423 0 0 0 0 2.1509950538529665 4.0523197899528896 0 4.0523197899528896 72.074163920588035 0 0 0 0 2.1886792053018169 2.6251965267187174 0 2.6251965267187174 21.592693049396416 0 0 0 0 -8.3889490340807242 -4.551948499338323 0 -4.551948499338323 28.786280787592091 0 0 0 0 -20.489719635610527 -12.005751707129093 0 -12.005751707129093 62.789996608846195 0 0 0 0 -8.1357117766856391 -7.6759637640570872 0 -7.6759637640570872 59.811783422170265 0 0 0 0 -28.584111701264192 0.13458077123868861 0 0.13458077123868861 80.365788687426175 0 0 0 0 -20.020894654637232 -7.173835226240044 0 -7.173835226240044 70.982831859440921 0 0 0 0 -19.243104373399547 -8.2317970414369483 0 -8.2317970414369483 71.836849593186344 0 0 0 0 -38.170328911900015 -19.012818093917303 0 -19.012818093917303 66.225969088125566 0 0 0 0 2.2549691766298565 -2.2849646436698094 0 -2.2849646436698094 33.980575362380478 0 0 0 0 -23.643150550471546 -16.971242846098903 0 -16.971242846098903 76.499419179925098 0 0 0 0 2.2955006941165479 -12.102952982551429 0 -12.102952982551429 -11.74839576096349 0 0 0 0 -59.876078187940948 -69.96846801132051 0 -69.96846801132051 58.171832918014843 0 0 0 0 -13.240915919642852 -10.280195999148816 0 -10.280195999148816 55.360873359378814 0 0 0 0 -17.86368388714618 1.1434853140272025 0 1.1434853140272025 75.699659687546045 0 0 0 0 -3.8641692930568752 -48.867426644305851 0 -48.867426644305851 -0.16443833064113278 0 0 0 0 -12.344026704258567 -24.288206453755265 0 -24.288206453755265 94.342904438875848 0 0 0 0 -2.6421111271483824 -27.122727189853322 0 -27.122727189853322 77.220560774228943 0 0 0 0 15.652799288088318 -21.712279412517091 0 -21.712279412517091 91.677862878408632 0 0 0 0 17.088569711028185 11.570016873020904 0 11.570016873020904 -22.952469513635151 0 0 0 0 106.74700757738032 -60.425673133177042 0 -60.425673133177042 52.770139561493124 0 0 0 0 0.74337220040063201 -0.083223290474832012 0 -0.083223290474832012 9.8178168739341629 0 0 0 0 11.955494351203924 -30.59628910086758 0 -30.59628910086758 118.47141614822613 0 0 0 0 -5.9882319019136503 -22.094937346260849 0 -22.094937346260849 92.14773430263449 0 0 0 0 22.298786222124363 -29.056442317509209 0 -29.056442317509209 63.772435120714363 0 0 0 0 28.131360213712426 0.91685094511694842 0 0.91685094511694842 32.0513304121705 0 0 0 0 -1.0012954416804434 12.169543490082106 0 12.169543490082106 28.601597145715559 0 0 0 0 20.593718542241277 18.764345812225656 0 18.764345812225656 -29.854582472966285 0 0 0 0 13.006917298663154 8.8427491978654871 0 8.8427491978654871 -15.318024280510144 0 0 0 0 -1.1108903700469739 3.2708991372730267 0 3.2708991372730267 -1.9049218775219856 0 0 0 0 13.138111040984029 -41.691033988285199 0 -41.691033988285199 97.197836911713239 0 0 0 0 34.039684548291234 49.225042769416177 0 49.225042769416177 -43.21623508783523 0 0 0 0 20.254723208614678 18.733955404401058 0 18.733955404401058 -26.158792656147853 0 0 0 0 -10.725923808908419 15.722074112265545 0 15.722074112265545 -13.38992218374915 0 0 0 0 -48.126313157689594 20.162632735627994 0 20.162632735627994 -6.7703291224024724 0 0 0 0 21.223156925395585 25.757167495070462 0 25.757167495070462 47.172487917297985 0 0 0 0 -38.27450051103574 -49.250550156375539 0 -49.250550156375539 155.63216713409201 0 0 0 0 -24.711134130710889 9.92824471629865 0 9.92824471629865 132.9846275347154 0 0 0 0 -1.2892277113683122 40.011365089783794 0 40.011365089783794 100.50398103048065 0 0 0 0 -12.234956577695584 14.803876982507063 0 14.803876982507063 59.538041942054406 0 0 0 0 -11.468195712359375 2.5649745104274189 0 2.5649745104274189 35.75937568039808 0 0 0 0 1.494094555163163 0.99655635446199398 0 0.99655635446199398 24.702017900823904 0 0 0 0 -3.4999819524533553 0.48020898331565398 0 0.48020898331565398 42.256616344554203 0 0 0 0 44.65759145277616 43.739048458246543 0 43.739048458246543 60.237612474269554 0 0 0 0 -8.7045593190432555 -21.540440252130793 0 -21.540440252130793 23.841477968479012 0 0 0 0 4.9906557702615828 6.9214990981927258 0 6.9214990981927258 30.530751943973883 0 0 0 0 -5.0421100304856168 -2.2336153173535678 0 -2.2336153173535678 28.606291174006401 0 0 0 0 -13.644192968318126 7.3093757269148227 0 7.3093757269148227 76.597765160550949 0 0 0 0 -53.010609783547011 14.79095137153854 0 14.79095137153854 70.808156284023426 0 0 0 0 -36.494965796587373 11.176302624735399 0 11.176302624735399 37.49093342717606 0 0 0 0 -36.662758497735588 15.001014715086058 0 15.001014715086058 36.052298731010524 0 0 0 0 -37.541465998600742 9.8378069905811572 0 9.8378069905811572 58.918745225666498 0 0 0 0 -18.614924362579075 -2.7535034371830989 0 -2.7535034371830989 44.06283552214154 0 0 0 0 -18.972639491493624 0.15821814429364167 0 0.15821814429364167 27.882581070036395 0 0 0 0 -22.22350193595355 -1.929186423712963 0 -1.929186423712963 28.314981487579644 0 0 0 0 -0.37588905238203552 -1.8292761953780428 0 -1.8292761953780428 17.843581383974197 0 0 0 0 -13.73022729857496 6.6736062101554126 0 6.6736062101554126 17.541212329175323 0 0 0 0 -9.6876291570206376 -19.618468902437598 0 -19.618468902437598 57.362826159282122 0 0 0 0 1.3233385711273513 -12.23034862880013 0 -12.23034862880013 32.401739434470073 0 0 0 0 -23.36184594562414 5.6295283721938176 0 5.6295283721938176 80.46151569232461 0 0 0 0 -21.489571632112074 24.508174279464583 0 24.508174279464583 83.92395185764326 0 0 0 0 -33.396732967087701 5.6194280733325286 0 5.6194280733325286 88.326282931026071 0 0 0 0 -33.457409039651886 4.3529097079058374 0 4.3529097079058374 63.050946146278875 0 0 0 0 -43.267279290239458 4.083180135821749 0 4.083180135821749 76.123004631583171 0 0 0 0 -33.704407663033919 13.04011794787948 0 13.04011794787948 73.731788320910709 0 0 0 0 -45.114832609502834 12.840979178145062 0 12.840979178145062 77.397850303277664 0 0 0 0 -38.916512663672052 2.7736135347577147 0 2.7736135347577147 77.981707781858859 0 0 0 0 -37.353544929962482 4.6160761223800364 0 4.6160761223800364 66.992160160254571 0 0 0 0 -28.599219962660882 4.3439764405593451 0 4.3439764405593451 48.390029285350465 0 0 0 0 -32.383465429176681 10.238098572739545 0 10.238098572739545 65.461191512513324 0 0 0 0 -25.206286981787912 11.901079189556185 0 11.901079189556185 63.890160665592703 0 0 0 0 -16.68396022198425 3.9921075753482 0 3.9921075753482 41.413109008804895 0 0 0 0 -17.06056471923182 0.98365657081012614 0 0.98365657081012614 45.386670444058836 0 0 0 0 -30.682333145557948 -17.307079017577053 0 -17.307079017577053 28.650854720006464 0 0 0 0 -36.210186365316133 -6.079950764295063 0 -6.079950764295063 50.792708030104222 0 0 0 0 -14.013869605507381 -5.0961061040742663 0 -5.0961061040742663 28.374325483061156 0 0 0 0 -26.906928848899526 -17.367412979840083 0 -17.367412979840083 67.643385784998827 0 0 0 0 -29.882842770036746 -3.698056895082118 0 -3.698056895082118 33.359484077518573 0 0 0 0 -84.211128887603991 -76.167098180252196 0 -76.167098180252196 25.635137412580661 0 0 0 0 27.224939312830429 19.0035955436324 0 19.0035955436324 114.15623381805926 0 0 0 0 -13.344305726060002 0.076134348964110643 0 0.076134348964110643 69.445053890482143 0 0 0 0 221.62674129510697 220.21439868466587 0 220.21439868466587 -209.41503551942878 0 0 0 0 -72.269348293804796 -75.62851605636024 0 -75.62851605636024 16.957633152633207 0 0 0 0 -72.450919387124941 -73.963551495922047 0 -73.963551495922047 4.580291147409298 0 0 0 0 8.2166348298331968 -0.40369385720259743 0 -0.40369385720259743 22.213467812987801 0 0 0 0 -8.05446292981037 16.326551052901777 0 16.326551052901777 58.316846086971054 0 0 0 0 -15.51181971488711 -13.997101762484817 0 -13.997101762484817 30.39409449251616 0 0 0 0 -5.3583944192538411 -66.772549610757778 0 -66.772549610757778 143.8499645935226 0 0 0 0 -8.1342527076218012 -9.0103099053714573 0 -9.0103099053714573 37.594359687294315 0 0 0 0 -0.77035039187073062 -6.085182929563075 0 -6.085182929563075 0.26575487583835411 0 0 0 0 37.258107256258882 -117.99732917140136 0 -117.99732917140136 265.38331466100135 0 0 0 0 -11.383305257188031 -10.19097450048082 0 -10.19097450048082 93.062273987651622 0 0 0 0 -55.208488600603232 67.973355198995705 0 67.973355198995705 131.97890652892147 0 0 0 0 -222.18609688162724 -174.42021625525695 0 -174.42021625525695 37.533159361042635 0 0 0 0 -86.013946297705843 -58.09416089273509 0 -58.09416089273509 -3.5224114453740185 0 0 0 0 -160.78839859835171 -54.028764314420187 0 -54.028764314420187 25.135120012955667 0 0 0 0 -77.796399575901887 -83.931871796099585 0 -83.931871796099585 6.2346963876298105 0 0 0 0 -118.06214608667506 -113.67249178020757 0 -113.67249178020757 15.652345614726073 0 0 0 0 -16.829753411426282 -113.86668533197371 0 -113.86668533197371 -4.8037759956514492 0 0 0 0 -114.65101606927055 -147.9765821317169 0 -147.9765821317169 41.352985642170097 0 0 0 0 -93.497217791982166 -88.805416005692223 0 -88.805416005692223 39.862300925618911 0 0 0 0 -97.521936597633612 -110.73091941864732 0 -110.73091941864732 -19.730597424879534 0 0 0 0 -108.40499453301572 -161.71191932841884 0 -161.71191932841884 -24.177768950994505 0 0 0 0 -2.6425543958866911 143.96349149000071 0 143.96349149000071 93.787069872450957 0 0 0 0 -7.4482850257996578 -19.265555921207131 0 -19.265555921207131 111.28452762957345 0 0 0 0 -310.77419086418786 -229.0191593534546 0 -229.0191593534546 67.382673050644371 0 0 0 0 -248.99232138792922 -87.822841803868414 0 -87.822841803868414 109.45193208836281 0 0 0 0 -624.32932033091129 -41.494801541430206 0 -41.494801541430206 340.62614904771908 0 0 0 0 8.3675960270957148 -157.77995493659 0 -157.77995493659 62.266376609668441 0 0 0 0 -36.649212255803832 -36.425812132573583 0 -36.425812132573583 178.74851581312032 0 0 0 0 -61.608752130936409 -132.25279361852245 0 -132.25279361852245 53.490735170038533 0 0 0 0 -24.025590074525851 -28.029178212615079 0 -28.029178212615079 14.570943533188256 0 0 0 0 205.65328653130791 24.746579619463773 0 24.746579619463773 24.099308741060668 0 0 0 0 -18.159104522790351 0.50571632644712849 0 0.50571632644712849 21.498344571035943 0 0 0 0 -55.401579092038446 -3.8099887607240817 0 -3.8099887607240817 20.491960563267639 0 0 0 0 132.01885107502676 233.67360858203392 0 233.67360858203392 13.631508685677545 0 0 0 0 -340.32400245226017 678.10030330286463 0 678.10030330286463 592.30389496880525 0 0 0 0 491.32774014488859 199.73373635204189 0 199.73373635204189 16.215338741487358 0 0 0 0 435.55403631547961 5.7672315738309408 0 5.7672315738309408 22.456796084588859 0 0 0 0 -1.0551314710816477 4.820706521405306 0 4.820706521405306 7.2635302759341869 0 0 0 0 -1.2369337113505026 -171.74028310016001 0 -171.74028310016001 771.38569780299076 0 0 0 0 32.211935177874693 -86.62615264019405 0 -86.62615264019405 606.67316513851256 0 0 0 0 -43.577001148227282 -31.188774169851968 0 -31.188774169851968 662.36027228049352 0 0 0 0 -2.1967985910495784 -1.3296690435626175 0 -1.3296690435626175 0.64596016526905942 0 0 0 0 -10.595373630775512 89.440573929787377 0 89.440573929787377 279.13697483230499 0 0 0 0 -11.801128330026586 -19.309864825983823 0 -19.309864825983823 283.64145485537301 0 0 0 0 -3.9264553297834937 162.1414741504268 0 162.1414741504268 822.49714703670725 0 0 0 0 39.888006230755309 74.093233371186216 0 74.093233371186216 349.49672999315953 0 0 0 0 -350.21384523389315 -188.6523003607208 0 -188.6523003607208 165.6988591155532 0 0 0 0 -304.66663087755569 -514.38029445568827 0 -514.38029445568827 124.39353034595842 0 0 0 0 -4.3421677429283374 -22.891243441795499 0 -22.891243441795499 119.60652343016957 0 0 0 0 1034.3054530120507 -315.6381250583072 0 -315.6381250583072 -175.22830531316868 0 0 0 0 -210.59292786802689 -166.46260804250051 0 -166.46260804250051 101.43309611906079 0 0 0 0 -26.410861029534772 88.750649038471238 0 88.750649038471238 109.05471611829125 0 0 0 0 18.948995768759232 -39.797813180812227 0 -39.797813180812227 -91.6635557820955 0 0 0 0 -49.607365754582133 7.00852329818008 0 7.00852329818008 146.81637392214816 0 0 0 0 -165.12657147342725 -99.569723959581097 0 -99.569723959581097 182.57720274308485 0 0 0 0 -148.72556231450108 -116.2825272772352 0 -116.2825272772352 -9.5015051447016958 0 0 0 0 -299.79285549647102 -52.474624473450604 0 -52.474624473450604 147.37689268374015 0 0 0 0 -133.56139044172028 -19.062200469882782 0 -19.062200469882782 240.01306018984906 0 0 0 0 -123.89286544802235 -105.95063921671863 0 -105.95063921671863 122.90319093262769 0 0 0 0 -227.28338697467962 -109.96650231718831 0 -109.96650231718831 190.60718945561894 0 0 0 0 -32.479636269919865 -46.258110667871733 0 -46.258110667871733 143.87122918756995 0 0 0 0 73.040675742839085 99.426728256174101 0 99.426728256174101 250.98126013571346 0 0 0 0 -45.126246488714969 -37.356167594658473 0 -37.356167594658473 173.99121781003851 0 0 0 0 41.811768333229338 76.56140004408644 0 76.56140004408644 262.29949309446965 0 0 0 0 -4.4421682617630722 -31.574276872184782 0 -31.574276872184782 177.65243189940156 0 0 0 0 96.737068279253435 89.189918446110823 0 89.189918446110823 240.95714171601503 0 0 0 0 -14.059441479652151 50.627686822037163 0 50.627686822037163 310.3603152026335 0 0 0 0 31.318427176775003 76.517383520555086 0 76.517383520555086 298.35877168221486 0 0 0 0 93.799644770155282 200.52982390866964 0 200.52982390866964 387.44920376528501 0 0 0 0 145.71793108887869 187.88149726504344 0 187.88149726504344 320.1904186512229 0 0 0 0 73.328995403579029 98.272272028722 0 98.272272028722 318.17630076657258 0 0 0 0 76.264177720990119 112.5011848815775 0 112.5011848815775 384.98206991759434 0 0 0 0 89.125950460887907 110.21490832558084 0 110.21490832558084 289.70076515681649 0 0 0 0 81.726287241583123 -15.532908755108565 0 -15.532908755108565 263.42168415614651 0 0 0 0 36.491754904280242 -100.5201237975798 0 -100.5201237975798 228.60385998934908 0 0 0 0 33.143961568037412 94.021283041027345 0 94.021283041027345 336.34243380584303 0 0 0 0 254.16252386643828 -41.37000323270513 0 -41.37000323270513 287.07253472667981 0 0 0 0 154.32082147251276 -152.87589784123702 0 -152.87589784123702 503.82126771189655 0 0 0 0 8.5257440936525555 -1.5940940913232495 0 -1.5940940913232495 0.58484395448158466 0 0 0 0 110.17111996344829 163.91058406097272 0 163.91058406097272 457.83370150943881 0 0 0 0 117.6538285263432 61.246766930731155 0 61.246766930731155 937.06620887061217 0 0 0 0 484.86900789327956 -350.48324205643166 0 -350.48324205643166 450.93650403392348 0 0 0 0 543.54155939930206 155.01115620142627 0 155.01115620142627 342.96263374003365 0 0 0 0 69.043391041705036 -142.48036774357024 0 -142.48036774357024 881.06735555100022 0 0 0 0 -12.945936752155831 -273.99798652688605 0 -273.99798652688605 526.13156786236505 0 0 0 0 28.945554631060077 4.7566454835650802 0 4.7566454835650802 341.71705305311116 0 0 0 0 339.06891151041782 348.57997773028274 0 348.57997773028274 461.21973998547946 0 0 0 0 126.00336546565632 87.03463231619844 0 87.03463231619844 154.51685132716921 0 0 0 0 -103.60922961551842 -95.689134419522816 0 -95.689134419522816 301.20630702204085 0 0 0 0 740.68354183473093 -65.662397392072307 0 -65.662397392072307 183.33397408155543 0 0 0 0 437.90347664058936 -303.05235306182294 0 -303.05235306182294 637.99130559744754 0 0 0 0 354.45507334523916 118.71851689248425 0 118.71851689248425 102.38635126463487 0 0 0 0 223.94283155586891 29.032142381198355 0 29.032142381198355 40.78067057419139 0 0 0 0 -107.64783985709801 226.31189847399401 0 226.31189847399401 161.51590778770878 0 0 0 0 182.01372427410024 197.63540197478505 0 197.63540197478505 -1.1774802762301988 0 0 0 0 -91.084734563286474 165.91706744913972 0 165.91706744913972 13.827593566911673 0 0 0 0 42.763616972004456 173.57642376522244 0 173.57642376522244 -34.267474710297392 0 0 0 0 -141.83344672351086 158.3129321622946 0 158.3129321622946 -17.266307369614879 0 0 0 0 181.22018773944728 110.49964762159107 0 110.49964762159107 -19.818379408159672 0 0 0 0 268.32386801309804 -1.9758801577604572 0 -1.9758801577604572 -54.307634982986201 0 0 0 0 85.337563631521334 67.020822024545396 0 67.020822024545396 -29.674191979363968 0 0 0 0 118.50834559114628 20.488585947203319 0 20.488585947203319 -51.489771023923822 0 0 0 0 162.74357101537953 -75.635730328945101 0 -75.635730328945101 41.810490488045616 0 0 0 0 147.71139568444778 -42.295275788956133 0 -42.295275788956133 -19.609470331863122 0 0 0 0 80.021924507644144 -64.19788778905604 0 -64.19788778905604 -23.393950855683215 0 0 0 0 -19.24782682505429 -93.690941663939157 0 -93.690941663939157 11.173026442465925 0 0 0 0 95.945664296572431 -132.30084381561028 0 -132.30084381561028 8.203736781661064 0 0 0 0 52.792124451711061 -72.1719689766378 0 -72.1719689766378 71.827488913749221 0 0 0 0 140.23947523497009 -168.79326751339158 0 -168.79326751339158 178.53699861091445 0 0 0 0 250.36060168637414 -39.292942621223119 0 -39.292942621223119 53.057544959543975 0 0 0 0 358.0597059089605 -172.42928732146953 0 -172.42928732146953 203.15323571434783 0 0 0 0 500.78587175868915 -109.89870346541284 0 -109.89870346541284 23.936894600570668 0 0 0 0 581.59901020580662 -348.82116245921952 0 -348.82116245921952 33.749841472599655 0 0 0 0 317.88073015730015 -379.35122653278086 0 -379.35122653278086 294.6673931360242 0 0 0 0 301.54404375056959 -147.23462502864641 0 -147.23462502864641 305.19331915133807 0 0 0 0 1080.6123243590487 -414.55283871282154 0 -414.55283871282154 177.6598361289507 0 0 0 0 306.27522114844942 -234.68735374807511 0 -234.68735374807511 808.98260648900396 0 0 0 0 616.59974807257629 152.8441287796129 0 152.8441287796129 455.41105328812409 0 0 0 0 378.01841443896501 -5.7012715202508844 0 -5.7012715202508844 369.4019139279344 0 0 0 0 288.88350719734643 125.60457608807701 0 125.60457608807701 300.66307705528743 0 0 0 0 206.27425910336774 -213.22363255744858 0 -213.22363255744858 298.76594394959631 0 0 0 0 138.09874944264749 -13.720609646283265 0 -13.720609646283265 242.07384678733069 0 0 0 0 -30.410445344311995 -223.21877268412936 0 -223.21877268412936 97.612397553763003 0 0 0 0 10.79744464287586 131.73606094606475 0 131.73606094606475 103.25024408641184 0 0 0 0 130.86132528125029 -83.005767487054982 0 -83.005767487054982 151.86672342645761 0 0 0 0 263.0388847387552 -243.77598937020321 0 -243.77598937020321 76.408220528872334 0 0 0 0 19.576997245282541 -94.613829605639694 0 -94.613829605639694 90.677377655440068 0 0 0 0 162.36311331490742 -297.26657166999576 0 -297.26657166999576 111.29410450428986 0 0 0 0 42.854675323610408 -92.826964443407633 0 -92.826964443407633 17.991860398269637 0 0 0 0 -90.305511649134715 -21.922299089637818 0 -21.922299089637818 122.39925071207108 0 0 0 0 -255.42050672906902 155.08262867729354 0 155.08262867729354 -27.298202506677626 0 0 0 0 -3.2881232292054325 -1.3485654733258059 0 -1.3485654733258059 0.22130783534882426 0 0 0 0 -127.88801805285982 -19.246504327031289 0 -19.246504327031289 229.05167584072478 0 0 0 0 -184.84282761872845 -99.991713967352553 0 -99.991713967352553 169.16498818637046 0 0 0 0 -107.04225138500749 4.8193796974046563 0 4.8193796974046563 72.718525116246383 0 0 0 0 -3.4188318096634021 -153.71526492021439 0 -153.71526492021439 174.09248445805861 0 0 0 0 27.123658285591034 -38.163100704792669 0 -38.163100704792669 83.611688440854778 0 0 0 0 -34.693691741237672 -51.380448361502204 0 -51.380448361502204 107.04229750460217 0 0 0 0 -52.225962975437156 4.5256354581324558 0 4.5256354581324558 85.834741816099267 0 0 0 0 -98.341415267431728 -10.210804266589548 0 -10.210804266589548 98.070931587564701 0 0 0 0 -77.508164162482331 20.11785700978362 0 20.11785700978362 71.38930357634672 0 0 0 0 -66.513471496846989 20.015199455669062 0 20.015199455669062 40.414683133931248 0 0 0 0 -57.053364529653038 24.396010398424551 0 24.396010398424551 49.213640818517888 0 0 0 0 -37.931432541314052 22.754621244246664 0 22.754621244246664 3.3494927888077655 0 0 0 0 -55.720444767288996 27.023482138931286 0 27.023482138931286 25.915733745219768 0 0 0 0 -55.249610068404763 -2.5056232428760268 0 -2.5056232428760268 76.757141082354792 0 0 0 0 -48.94505718906106 17.442238109826576 0 17.442238109826576 52.172908077900502 0 0 0 0 -36.436385754626912 -22.179800544716272 0 -22.179800544716272 101.40915119269084 0 0 0 0 -38.381624501920811 4.7565535762005311 0 4.7565535762005311 75.082557647827343 0 0 0 0 -21.954289813701109 -13.551354272665776 0 -13.551354272665776 103.88919863567571 0 0 0 0 -56.98979542937002 89.808155726699624 0 89.808155726699624 -43.224512517354015 0 0 0 0 -8.0314408900390131 -4.4905711230560996 0 -4.4905711230560996 -1.8846845884235393 0 0 0 0 5.8706859253379662 -57.977884568481386 0 -57.977884568481386 103.90169461107678 0 0 0 0 -12.108810328100247 -17.154682510645216 0 -17.154682510645216 37.602142822841415 0 0 0 0 -14.576582610453016 -8.8848375515128311 0 -8.8848375515128311 -2.2720676377958853 0 0 0 0 -21.13691497792891 -18.029488714422769 0 -18.029488714422769 37.919635757083597 0 0 0 0 -60.775491086426428 28.570439436050947 0 28.570439436050947 90.490783636683773 0 0 0 0 -87.941413432811032 -55.074396825708391 0 -55.074396825708391 160.44574239299254 0 0 0 0 -82.142932200197606 -8.4866335341012018 0 -8.4866335341012018 191.29054097884364 0 0 0 0 -41.321016807942442 50.571851999666251 0 50.571851999666251 274.95856211585669 0 0 0 0 60.136893358957423 -183.77923080109395 0 -183.77923080109395 64.533670891971269 0 0 0 0 -110.68539310332471 -9.1164750187344907 0 -9.1164750187344907 369.17206917073054 0 0 0 0 -56.650990537749522 51.872638680977616 0 51.872638680977616 309.93918260405917 0 0 0 0 -94.830658107201998 39.114654198278004 0 39.114654198278004 305.67914491787815 0 0 0 0 -5.4503242286555178 -26.386100958618044 0 -26.386100958618044 388.96381738262426 0 0 0 0 -36.367567177010187 8.0037350270758907 0 8.0037350270758907 135.76659922813997 0 0 0 0 -12.5473412607721 -67.044121718972747 0 -67.044121718972747 79.008749710563279 0 0 0 0 -2.1222951796988809 10.014770497134123 0 10.014770497134123 130.3234119292174 0 0 0 0 -12.541775333570058 -65.622545064852602 0 -65.622545064852602 10.235151390144893 0 0 0 0 -247.54070445696016 -167.77569943896742 0 -167.77569943896742 146.76501457473205 0 0 0 0 -166.24319786786054 -81.509841437284194 0 -81.509841437284194 234.35927415309015 0 0 0 0 -98.777189018453555 23.114580352572375 0 23.114580352572375 252.52706371188015 0 0 0 0 -118.89663897128764 32.320104175480083 0 32.320104175480083 271.40218014316633 0 0 0 0 87.868291908906144 226.1809188785337 0 226.1809188785337 299.00728696751685 0 0 0 0 -340.69302448768462 125.49365540347208 0 125.49365540347208 376.64614563012947 0 0 0 0 357.05999802691633 -17.44692481427137 0 -17.44692481427137 136.0402971670992 0 0 0 0 105.66087913307388 -17.131616418848353 0 -17.131616418848353 139.743597432971 0 0 0 0 76.902342430117187 -58.126354276004349 0 -58.126354276004349 91.690443979445263 0 0 0 0 302.10256370458126 -134.83805258300345 0 -134.83805258300345 58.41098928066458 0 0 0 0 267.56704571444368 -245.18354877823185 0 -245.18354877823185 54.909539233929536 0 0 0 0 344.62638787753622 -298.1461610057122 0 -298.1461610057122 63.758131102998959 0 0 0 0 372.67412128232536 -284.49651802166409 0 -284.49651802166409 13.964638516685227 0 0 0 0 418.76793539618575 -289.48555432794456 0 -289.48555432794456 12.749836179980775 0 0 0 0 361.71500220690405 -234.87077650101128 0 -234.87077650101128 17.88404022398754 0 0 0 0 403.43400376908903 34.782607772400297 0 34.782607772400297 167.31728163115622 0 0 0 0 558.22047358922009 -318.93241782054247 0 -318.93241782054247 179.64118590624366 0 0 0 0 683.68570273607611 -235.3035283752597 0 -235.3035283752597 8.9258158466691384 0 0 0 0 396.29222339689454 -424.84016850564876 0 -424.84016850564876 163.84953460517863 0 0 0 0 188.44832558314147 -244.65501642447271 0 -244.65501642447271 92.270759868217283 0 0 0 0 -173.22775060146324 -549.35769214939819 0 -549.35769214939819 887.58420661811397 0 0 0 0 -67.891480409777614 -132.87568757512054 0 -132.87568757512054 223.42623944369552 0 0 0 0 -283.29789495903378 136.63696121645989 0 136.63696121645989 19.309398452813184 0 0 0 0 32.081368045088766 -92.76921064027556 0 -92.76921064027556 49.629694931099948 0 0 0 0 192.77566883230975 -235.63818802701644 0 -235.63818802701644 111.05818731040563 0 0 0 0 207.28307911916909 -183.05026438204004 0 -183.05026438204004 26.957320537650958 0 0 0 0 215.01009659736064 -168.56615886781219 0 -168.56615886781219 53.154462235090023 0 0 0 0 362.18066394016478 -309.76065126476533 0 -309.76065126476533 75.55779987425467 0 0 0 0 360.88466538853027 -283.33279836644942 0 -283.33279836644942 33.88210474371985 0 0 0 0 218.52784163218803 -119.64645006148567 0 -119.64645006148567 49.835293282161729 0 0 0 0 460.71602009197159 -208.7584208854496 0 -208.7584208854496 13.252558361840784 0 0 0 0 -29.231287025760594 5.9112395750526048 0 5.9112395750526048 234.94907092618814 0 0 0 0 -41.55635429087306 -41.163854545393406 0 -41.163854545393406 148.72179112871163 0 0 0 0 -64.961860080267343 -116.11457863817486 0 -116.11457863817486 109.7136764317911 0 0 0 0 -553.38773690745643 318.75637998299499 0 318.75637998299499 -122.08411130082823 0 0 0 0 43.384398440477526 20.835685882317193 0 20.835685882317193 60.81259909914661 0 0 0 0 34.338553214654894 29.117990872251539 0 29.117990872251539 104.58351828493323 0 0 0 0 12.419404262474206 -28.708969635084689 0 -28.708969635084689 45.801702029408887 0 0 0 0 31.821215001579731 4.0770414165235707 0 4.0770414165235707 224.42328022481524 0 0 0 0 104.50794248947113 92.802231293015211 0 92.802231293015211 126.46506872384634 0 0 0 0 -10.620750728434359 203.47130166821262 0 203.47130166821262 684.42015243390779 0 0 0 0 -146.15369000485225 -48.001636894285184 0 -48.001636894285184 217.8288656672521 0 0 0 0 -366.09685181830537 94.767050884966011 0 94.767050884966011 734.88363250346356 0 0 0 0 -280.71210431188706 -108.38706252345764 0 -108.38706252345764 814.79337431755994 0 0 0 0 -156.56091277011046 -37.44623840829081 0 -37.44623840829081 712.85577487671526 0 0 0 0 -3.1151415186648101 -0.86332595877981078 0 -0.86332595877981078 1.1016527139437926 0 0 0 0 10.877845654666544 -412.92835167631301 0 -412.92835167631301 1023.4087745029756 0 0 0 0 -92.705928158148026 46.674290409175228 0 46.674290409175228 688.56953309672099 0 0 0 0 -297.67183934381842 -118.65360604663147 0 -118.65360604663147 990.71530409538536 0 0 0 0 305.14143296102247 582.50602709133818 0 582.50602709133818 1290.9068389392687 0 0 0 0 77.117038223686222 -415.09786097036158 0 -415.09786097036158 1941.2273542272233 0 0 0 0 8.2515476481097956 -10.028553069449014 0 -10.028553069449014 16.818478857479818 0 0 0 0 1075.1525858056593 -851.49121025988279 0 -851.49121025988279 666.92085633092211 0 0 0 0 1416.4250581413783 83.010649084129909 0 83.010649084129909 153.80134057352461 0 0 0 0 976.78447559064966 -1094.6407114720748 0 -1094.6407114720748 788.93871236121049 0 0 0 0 1074.2982962887672 -475.25719702042602 0 -475.25719702042602 28.680160310737847 0 0 0 0 -295.28129077447284 -100.85679575348877 0 -100.85679575348877 177.81760486859275 0 0 0 0 -129.23193745943354 216.43650479189455 0 216.43650479189455 114.77882462328125 0 0 0 0 -41.651425274769281 100.88829349524894 0 100.88829349524894 154.82121315128734 0 0 0 0 -160.25644784290307 -2.2640002014231868 0 -2.2640002014231868 91.339860011372366 0 0 0 0 288.7629004031387 11.851561839464011 0 11.851561839464011 51.196041112300009 0 0 0 0 358.29297277920796 -173.85241927666357 0 -173.85241927666357 269.66775495667389 0 0 0 0 223.52870378601256 -193.86190080695815 0 -193.86190080695815 282.40852006147907 0 0 0 0 444.61532288933387 -429.34859326980705 0 -429.34859326980705 471.68919137138437 0 0 0 0 441.21781604690477 -59.80275071291544 0 -59.80275071291544 135.25447520667512 0 0 0 0 478.51324805328773 -530.12164809862588 0 -530.12164809862588 544.04192938702909 0 0 0 0 617.17931002760133 -536.61346313519425 0 -536.61346313519425 389.70416787396971 0 0 0 0 475.73605214902568 -691.51769097055148 0 -691.51769097055148 549.42347122654974 0 0 0 0 237.37552981805999 -796.20552680275796 0 -796.20552680275796 1261.3823180275285 0 0 0 0 699.85278185899324 -927.83581829329705 0 -927.83581829329705 748.97526440326328 0 0 0 0 140.2915651250371 -819.85347305327195 0 -819.85347305327195 2533.5945670805668 0 0 0 0 5.8706863392571726 -1.3127884952395732 0 -1.3127884952395732 0.99771077032664834 0 0 0 0 -18.809106228815835 -235.65826773860317 0 -235.65826773860317 989.72610721390447 0 0 0 0 665.94510281284329 -412.3950179962485 0 -412.3950179962485 408.7291862482416 0 0 0 0 1167.0915022001554 -1085.7625492545776 0 -1085.7625492545776 846.05103849012812 0 0 0 0 585.60405636876749 -1107.5486473772253 0 -1107.5486473772253 1143.7041175925697 0 0 0 0 414.12382852830376 -446.03278087803847 0 -446.03278087803847 -731.59988329386761 0 0 0 0 332.49017921805017 268.97540700474747 0 268.97540700474747 1096.6556116900465 0 0 0 0 289.98564428815575 14.380964876253529 0 14.380964876253529 -57.704220619525586 0 0 0 0 -386.66064932650602 -399.82660937249602 0 -399.82660937249602 623.8718142534708 0 0 0 0 13.266854894074887 -2.0537874412630401 0 -2.0537874412630401 17.772775660502191 0 0 0 0 -478.90761744377312 -109.97818363604256 0 -109.97818363604256 29.699690297602501 0 0 0 0 -6.0002833545282046 -13.055852298741456 0 -13.055852298741456 9.0949182887282802 0 0 0 0 34.726750278102827 -103.31113217262646 0 -103.31113217262646 20.361261633988761 0 0 0 0 -82.475162703547085 -136.07016684829796 0 -136.07016684829796 13.768251401714224 0 0 0 0 -49.793666900701282 -79.791566945939849 0 -79.791566945939849 58.554272825804219 0 0 0 0 -26.748415261179161 -62.524125800478942 0 -62.524125800478942 69.857251216373697 0 0 0 0 3.6974446985568648 -106.09664862392674 0 -106.09664862392674 133.17518403730583 0 0 0 0 -23.787139784724857 -47.714450612240057 0 -47.714450612240057 51.612153963256333 0 0 0 0 16.260929802122398 32.717976002197339 0 32.717976002197339 82.773769436157238 0 0 0 0 -73.242871989303239 119.77059365285641 0 119.77059365285641 201.40866543411221 0 0 0 0 -152.97127631741569 56.072217230062961 0 56.072217230062961 151.17128827958732 0 0 0 0 -10.11297940747308 -3.3518912478824348 0 -3.3518912478824348 23.254307062477842 0 0 0 0 85.22399043512047 61.948427156632988 0 61.948427156632988 134.56492583271756 0 0 0 0 191.1935847088389 -248.77690857070593 0 -248.77690857070593 378.03611559496494 0 0 0 0 35.34717038604208 -184.1737032281053 0 -184.1737032281053 538.96537398756482 0 0 0 0 423.67813969718702 -479.93023760996584 0 -479.93023760996584 591.22459651375902 0 0 0 0 429.26095850679781 -488.92721077192255 0 -488.92721077192255 516.28957452093164 0 0 0 0 143.67725061494343 -603.29119618020195 0 -603.29119618020195 865.02689990054205 0 0 0 0 353.38683406126688 -778.17319374353974 0 -778.17319374353974 788.60715468138369 0 0 0 0 4.4771154506841615 6.2832708084319826 0 6.2832708084319826 22.532572235474333 0 0 0 0 756.33872096497498 -621.31685043664402 0 -621.31685043664402 569.66475120991163 0 0 0 0 25.259390888466442 128.38004241226554 0 128.38004241226554 -78.794657451424428 0 0 0 0 760.96618349363462 -629.8576584983648 0 -629.8576584983648 503.32318834901525 0 0 0 0 650.66409276187744 -708.18128005387553 0 -708.18128005387553 798.45052967879747 0 0 0 0 811.97981702466552 -846.55091112643277 0 -846.55091112643277 656.54652773062116 0 0 0 0 1465.2315780401336 -889.16812666987607 0 -889.16812666987607 557.46206413270556 0 0 0 0 968.7244414548436 -627.81089317582973 0 -627.81089317582973 449.23635062301037 0 0 0 0 219.62815953398353 -681.16512023783253 0 -681.16512023783253 792.28130854915071 0 0 0 0 512.16809602149146 -701.2646149636239 0 -701.2646149636239 604.72253516912315 0 0 0 0 476.59974229579342 -776.21859074448093 0 -776.21859074448093 644.98552432996075 0 0 0 0 -21.375511838379794 35.331547263394896 0 35.331547263394896 1083.6452580900059 0 0 0 0 496.65572773837806 -871.29371457814705 0 -871.29371457814705 832.88367359144468 0 0 0 0 806.74913372962885 -1006.7615895580366 0 -1006.7615895580366 1303.5724809929525 0 0 0 0 951.38886989206389 -720.33557468292202 0 -720.33557468292202 1241.6883067129475 0 0 0 0 207.65769165507481 -492.07623744745069 0 -492.07623744745069 2221.4525607729993 0 0 0 0 568.58992959994475 -853.40474723396437 0 -853.40474723396437 2484.5727809806594 0 0 0 0 89.303029015042029 -553.3545450492893 0 -553.3545450492893 2675.6445106971187 0 0 0 0 25.630939117365418 -461.77875889852112 0 -461.77875889852112 3499.7895359951763 0 0 0 0 -3.8082606673235704 3.270737127631449 0 3.270737127631449 6.4486894216056143 0 0 0 0 197.1282859243297 -11.920447336764482 0 -11.920447336764482 18.77757428957193 0 0 0 0 122.38395288517833 -729.76033335841203 0 -729.76033335841203 3944.7746736893723 0 0 0 0 159.89392511737424 -503.78543190599908 0 -503.78543190599908 2884.2114568828329 0 0 0 0 -322.91566228944492 -335.1103263699224 0 -335.1103263699224 3499.8716403541694 0 0 0 0 22.973748144865965 -537.02729900241684 0 -537.02729900241684 3142.7175551714063 0 0 0 0 57.358070529208419 -657.93692591821309 0 -657.93692591821309 2953.5822292425291 0 0 0 0 -133.18089519936109 -254.5777323775128 0 -254.5777323775128 2648.5242144021177 0 0 0 0 217.73340315555356 -784.56767461231357 0 -784.56767461231357 2295.524714080384 0 0 0 0 -11.351542640142188 8.8469758848704956 0 8.8469758848704956 12.216633396601516 0 0 0 0 102.64553242510146 58.292037809869726 0 58.292037809869726 32.539437966137484 0 0 0 0 -47.531634695471439 204.9603555037902 0 204.9603555037902 -541.80029307113728 0 0 0 0 -29.490790949108487 -85.338417114617187 0 -85.338417114617187 118.1288805442673 0 0 0 0 -155.44312169658951 -185.79065714255557 0 -185.79065714255557 123.23803590647731 0 0 0 0 142.92819249925287 -203.30824619900523 0 -203.30824619900523 25.020810676262045 0 0 0 0 222.28280324865545 -450.11945318279686 0 -450.11945318279686 520.56056522283211 0 0 0 0 -169.76592423842521 -11.069857081492955 0 -11.069857081492955 493.14432605883121 0 0 0 0 245.96300737321354 -572.82391872946027 0 -572.82391872946027 621.77035335269466 0 0 0 0 263.41553516328383 -465.78582778144846 0 -465.78582778144846 461.6595740877674 0 0 0 0 217.670410021723 -254.01905979999719 0 -254.01905979999719 306.1825844647974 0 0 0 0 409.65306092704077 -523.5749500657821 0 -523.5749500657821 341.72819787084882 0 0 0 0 262.65781461276492 -238.63803838800595 0 -238.63803838800595 161.73096060745593 0 0 0 0 279.60808677970817 -323.36026908984786 0 -323.36026908984786 268.69573068823956 0 0 0 0 202.34875446616388 -302.54921699518309 0 -302.54921699518309 382.30258655708167 0 0 0 0 38.955752085735185 -71.241940002371848 0 -71.241940002371848 105.22359042488824 0 0 0 0 2.6399456645431201 -179.69239205077611 0 -179.69239205077611 239.24058748637617 0 0 0 0 41.35702808290489 -230.22843015501348 0 -230.22843015501348 321.02215688541037 0 0 0 0 15.307150000990077 67.793022806348745 0 67.793022806348745 -37.267210506452102 0 0 0 0 51.64880971148159 57.877490048827894 0 57.877490048827894 -214.59026316506788 0 0 0 0 142.32326364357323 8.546628530297312 0 8.546628530297312 -8.5419582380054635 0 0 0 0 93.752656376311279 -70.479167075311125 0 -70.479167075311125 141.29959993781813 0 0 0 0 271.05286345118753 -72.295211429918709 0 -72.295211429918709 91.441181789079565 0 0 0 0 161.07791258978523 80.358575736338025 0 80.358575736338025 -60.707277323032031 0 0 0 0 -38.149575775525591 26.518576495276648 0 26.518576495276648 91.203422732018225 0 0 0 0 -10.91796219321456 -8.661300784024732 0 -8.661300784024732 15.747286571688896 0 0 0 0 -139.45613315065748 67.30619642336751 0 67.30619642336751 -25.253025583951967 0 0 0 0 35.065193646165426 -84.314210555152385 0 -84.314210555152385 191.19873347340763 0 0 0 0 -89.961577087148726 110.61279750483118 0 110.61279750483118 37.377162221135222 0 0 0 0 -147.46233743540142 15.135296243543053 0 15.135296243543053 -16.818078093849181 0 0 0 0 -25.773639191238544 25.622592301751865 0 25.622592301751865 -9.1179910221253522 0 0 0 0 66.461979902782332 -106.6778670432177 0 -106.6778670432177 178.37415726953623 0 0 0 0 -156.39144091934577 70.45425867967424 0 70.45425867967424 14.228274296248856 0 0 0 0 29.313342830588226 5.4283456943230703 0 5.4283456943230703 -269.9272301681558 0 0 0 0 -59.500350027679815 65.77292691943876 0 65.77292691943876 -2.9239028166484786 0 0 0 0 -116.9601766537744 -26.423667142713384 0 -26.423667142713384 -136.69996785388503 0 0 0 0 -197.7376372295073 -224.27989727168824 0 -224.27989727168824 1410.5666057410126 0 0 0 0 27.80046379565556 -128.69085773317602 0 -128.69085773317602 485.26281998601189 0 0 0 0 -0.62839581066873507 -110.66014474403346 0 -110.66014474403346 1214.3067395471589 0 0 0 0 -348.3408638849769 -537.44465176482845 0 -537.44465176482845 1000.1971640526026 0 0 0 0 46.683030619518831 -480.29574258012872 0 -480.29574258012872 364.92489020222274 0 0 0 0 -269.63986782006941 -395.02301409740176 0 -395.02301409740176 1005.5343489028601 0 0 0 0 1.5480888892693656 -79.449984061269788 0 -79.449984061269788 670.06372582181211 0 0 0 0 -113.97008268868512 -172.92218922021857 0 -172.92218922021857 1136.525805280733 0 0 0 0 13.600381529218339 -57.563785824575461 0 -57.563785824575461 1134.8406849259081 0 0 0 0 -222.22439242272003 -89.666940940420318 0 -89.666940940420318 1934.4468590349788 0 0 0 0 -75.014712024381879 -1.2823497089666489 0 -1.2823497089666489 1505.5602067404689 0 0 0 0 -223.14748218912609 -196.5485769657389 0 -196.5485769657389 1355.8827939227631 0 0 0 0 -136.46156071385826 136.0475218028223 0 136.0475218028223 1674.495833853478 0 0 0 0 -166.36625239861678 -36.60657687454659 0 -36.60657687454659 1732.3780903738261 0 0 0 0 58.944871550431913 -143.0404223822261 0 -143.0404223822261 1377.2631917670369 0 0 0 0 35.90076805672652 -202.28650492819725 0 -202.28650492819725 449.50303715305199 0 0 0 0 -17.109963769981608 11.546034125530873 0 11.546034125530873 12.223434306120716 0 0 0 0 47.431563664817077 -176.5587786725082 0 -176.5587786725082 417.47321349105914 0 0 0 0 -5.9630242700148344 1.4696882553765818 0 1.4696882553765818 0.82603930583945129 0 0 0 0 62.951557571053854 212.28896810066362 0 212.28896810066362 -272.55640471957304 0 0 0 0 -155.14244882516391 -111.30558229491726 0 -111.30558229491726 2012.0794764049933 0 0 0 0 63.638708197120195 -338.88820478267735 0 -338.88820478267735 1670.388836996266 0 0 0 0 -28.533701586068396 -123.19752514964398 0 -123.19752514964398 1628.74537587745 0 0 0 0 -29.511428743256147 -160.31483525819203 0 -160.31483525819203 1654.6026633322981 0 0 0 0 63.760624192782416 -283.35350238287356 0 -283.35350238287356 352.58086557129718 0 0 0 0 -256.05542148441509 110.42691125470446 0 110.42691125470446 98.779933393001556 0 0 0 0 -1.1464934907016868 255.53350513058831 0 255.53350513058831 -161.01839853369165 0 0 0 0 292.65223761633069 -587.5022601011151 0 -587.5022601011151 1464.8671817533614 0 0 0 0 221.01642631310233 -303.69252405557199 0 -303.69252405557199 1335.1421158761623 0 0 0 0 56.469686209618345 -297.52066680864391 0 -297.52066680864391 1623.3752834186889 0 0 0 0 119.12419096411872 -633.5872720417683 0 -633.5872720417683 2007.6598319372715 0 0 0 0 177.46523801809053 -601.7281434799952 0 -601.7281434799952 1572.1133170719113 0 0 0 0 -76.000361063870059 -447.38262882782874 0 -447.38262882782874 2681.5430899806015 0 0 0 0 -287.04999077242917 -299.45525064114554 0 -299.45525064114554 2845.8241490797591 0 0 0 0 -93.254721267479908 -266.91247019186267 0 -266.91247019186267 2128.5084646466275 0 0 0 0 -333.69172263804558 53.663851800876728 0 53.663851800876728 2519.2736476789432 0 0 0 0 -132.07502676347872 -333.42470876187326 0 -333.42470876187326 2166.5482167359733 0 0 0 0 -452.91843595773753 -78.079973313106166 0 -78.079973313106166 2991.9560290636364 0 0 0 0 -601.55825377376937 225.06984700817338 0 225.06984700817338 2774.0260211742652 0 0 0 0 -645.66736174552511 -23.842555806797463 0 -23.842555806797463 3499.692599092301 0 0 0 0 -457.8960496148099 83.730191530583397 0 83.730191530583397 2728.0821658938148 0 0 0 0 -314.54867852077246 51.132401767026749 0 51.132401767026749 2072.4842728885124 0 0 0 0 22.854165192813184 450.04026900859753 0 450.04026900859753 1659.3017644993088 0 0 0 0 -659.91859056768544 162.8243148438487 0 162.8243148438487 3389.9076777353766 0 0 0 0 69.762903832621731 248.81602030016802 0 248.81602030016802 3231.5008559944999 0 0 0 0 -254.35756641585701 391.30127096124488 0 391.30127096124488 3499.1183981784197 0 0 0 0 1.3244952175415632 -3.537739340782295 0 -3.537739340782295 12.324006828626466 0 0 0 0 228.00199909914147 1011.6781428636605 0 1011.6781428636605 2187.2631234012661 0 0 0 0 302.3153600973468 1357.0485189192768 0 1357.0485189192768 3761.467131707388 0 0 0 0 -1.0697468287183516 -9.2680148187123379 0 -9.2680148187123379 31.275270819889812 0 0 0 0 -366.45144314904769 11.975952302345831 0 11.975952302345831 48.50799334065232 0 0 0 0 -344.57191398600014 86.961998718768882 0 86.961998718768882 127.97774659652487 0 0 0 0 1.533741036854849 176.80011146123798 0 176.80011146123798 974.16514079023182 0 0 0 0 -64.898494918403287 152.53777106603593 0 152.53777106603593 981.72724463190116 0 0 0 0 63.606038054763701 241.1009110651903 0 241.1009110651903 537.60537524278334 0 0 0 0 -35.404383001034603 -4.1958003402251052 0 -4.1958003402251052 1065.0018991578399 0 0 0 0 -20.774025838525919 4.9748518874958592 0 4.9748518874958592 22.35647828841293 0 0 0 0 240.18902315569346 91.173164327312406 0 91.173164327312406 178.57054713397338 0 0 0 0 28.693639153709228 -95.386760665263864 0 -95.386760665263864 208.05386438335699 0 0 0 0 6.0910356068889087 -77.479835917911259 0 -77.479835917911259 215.40531654350343 0 0 0 0 12.134952618018019 -34.10940730337461 0 -34.10940730337461 93.256626330097788 0 0 0 0 -7.730880019982397 -36.36872027858206 0 -36.36872027858206 60.290409155616118 0 0 0 0 -52.684002847440297 -41.403834903554525 0 -41.403834903554525 97.762106483409298 0 0 0 0 -8.9353725480772717 -14.343301397909897 0 -14.343301397909897 18.01263230022056 0 0 0 0 1.4894993758399773 -4.3625960183454708 0 -4.3625960183454708 14.46339177666222 0 0 0 0 10.456708449792359 -13.980561711443443 0 -13.980561711443443 -3.5869349164568121 0 0 0 0 -340.63784802239172 154.32615565929882 0 154.32615565929882 55.949085376179937 0 0 0 0 -426.74481335526139 74.741678357269848 0 74.741678357269848 70.443722486015758 0 0 0 0 -92.043603212532162 -40.974147672081017 0 -40.974147672081017 30.025779402451008 0 0 0 0 -47.547887711942963 81.237607059629454 0 81.237607059629454 58.031521664181128 0 0 0 0 -32.72815343273578 36.684179584310186 0 36.684179584310186 55.119588097617452 0 0 0 0 46.079681663580232 64.209552589830309 0 64.209552589830309 13.001189535847516 0 0 0 0 155.0575659601592 104.60456257571309 0 104.60456257571309 -39.6940200044628 0 0 0 0 46.711141259179385 84.857774172044628 0 84.857774172044628 73.952826392365751 0 0 0 0 81.471494005530985 64.664910925634103 0 64.664910925634103 41.658745135793652 0 0 0 0 108.61623023914581 62.308049956424838 0 62.308049956424838 26.955950221548846 0 0 0 0 33.012699180147735 59.655965802667673 0 59.655965802667673 55.485585987320519 0 0 0 0 32.983846467674447 62.642818457471108 0 62.642818457471108 60.749018975082436 0 0 0 0 -31.867032707956241 73.172684679422673 0 73.172684679422673 65.460727197691085 0 0 0 0 -32.556963366314449 67.175564091447086 0 67.175564091447086 88.169924950125278 0 0 0 0 -21.555344310370629 49.409627230608749 0 49.409627230608749 86.037104879534127 0 0 0 0 -17.588590256127759 57.825260375453581 0 57.825260375453581 61.467400899313361 0 0 0 0 -15.728548963266491 71.623454950395853 0 71.623454950395853 81.050124316658184 0 0 0 0 44.893763697263694 71.436006268223537 0 71.436006268223537 42.094637174790478 0 0 0 0 33.353674802043315 26.330653964398152 0 26.330653964398152 34.347190207997983 0 0 0 0 -1.608688697752374 17.495267281810698 0 17.495267281810698 25.475741568516636 0 0 0 0 50.645689002950903 42.480422508551413 0 42.480422508551413 29.604304388081321 0 0 0 0 67.078809720831487 85.847561858577365 0 85.847561858577365 152.15461500735034 0 0 0 0 -12.245058843070069 81.934366802366185 0 81.934366802366185 40.517910287820996 0 0 0 0 0.48136764204548399 56.342031232882618 0 56.342031232882618 -14.812334725496839 0 0 0 0 39.912923807974266 -30.483874387168953 0 -30.483874387168953 336.57210575625004 0 0 0 0 34.134393341891688 25.138285709937975 0 25.138285709937975 18.965805881703623 0 0 0 0 75.474047610596244 -170.77895254466023 0 -170.77895254466023 344.50641517177655 0 0 0 0 24.22617406702193 -171.45311783894886 0 -171.45311783894886 358.4569643399368 0 0 0 0 209.38620230394554 -162.05475739601206 0 -162.05475739601206 331.18296627924065 0 0 0 0 122.82841456132883 -195.54728488750152 0 -195.54728488750152 323.9121530724251 0 0 0 0 262.73379871250881 -8.474747341694524 0 -8.474747341694524 329.91511106608505 0 0 0 0 11.730930871573946 99.46496437419728 0 99.46496437419728 361.7697503787939 0 0 0 0 -102.50268284710523 33.316131574423252 0 33.316131574423252 21.232362046855997 0 0 0 0 -78.006214130100489 157.81030560526415 0 157.81030560526415 -45.446933444952037 0 0 0 0 153.69676392758356 54.369587680915174 0 54.369587680915174 -148.75857915392589 0 0 0 0 320.20897049706036 244.02872918845787 0 244.02872918845787 32.197490980611292 0 0 0 0 232.66444247982463 401.34423268133742 0 401.34423268133742 183.86470913759331 0 0 0 0 2023.152266476267 -403.40456037838885 0 -403.40456037838885 592.34469498314138 0 0 0 0 1131.7921982870298 1366.2325782389689 0 1366.2325782389689 -303.93330854184023 0 0 0 0 798.71090858405114 138.84373580126885 0 138.84373580126885 -140.6464654665732 0 0 0 0 -102.76235402151929 -129.67225697864512 0 -129.67225697864512 1122.2135985808627 0 0 0 0 17.999280210648116 -7.1865285109937567 0 -7.1865285109937567 3.9910144824751193 0 0 0 0 11.193923686802723 8.9250249480802459 0 8.9250249480802459 7.6749256649113775 0 0 0 0 114.84143785608831 235.16450815326061 0 235.16450815326061 361.71158954235261 0 0 0 0 147.06882870089612 105.07544631270503 0 105.07544631270503 267.80174904394698 0 0 0 0 12.190107783231333 -7.3341040999034099 0 -7.3341040999034099 5.5456956080149986 0 0 0 0 -563.15168171552432 184.71545967902966 0 184.71545967902966 453.02615863263418 0 0 0 0 -1288.5631585030405 1005.3183339969546 0 1005.3183339969546 618.8471328671003 0 0 0 0 -205.2078594217528 2573.7895128662694 0 2573.7895128662694 113.49374701914849 0 0 0 0 49.529154288115024 76.571608913339333 0 76.571608913339333 321.31966276766252 0 0 0 0 -43.199774105965844 -37.90458924262748 0 -37.90458924262748 169.05413160765966 0 0 0 0 116.38441436093444 -141.72669296225695 0 -141.72669296225695 4.4143674842598557 0 0 0 0 249.30358384993997 149.88961260007818 0 149.88961260007818 166.29418035831554 0 0 0 0 205.1890930251875 201.0551286723346 0 201.0551286723346 357.78291415157946 0 0 0 0 172.83822193291417 74.382259668067491 0 74.382259668067491 255.09069980104323 0 0 0 0 -84.788243073700869 122.69162597609102 0 122.69162597609102 460.3851857774057 0 0 0 0 4.0764000415238115 155.9891934301977 0 155.9891934301977 298.0889111317083 0 0 0 0 -13.512945401405887 195.17459069505639 0 195.17459069505639 246.13199694228388 0 0 0 0 1.7615842796294601 278.15074015090977 0 278.15074015090977 123.65033592666077 0 0 0 0 -131.69266503711697 512.57715569663378 0 512.57715569663378 182.79018122278103 0 0 0 0 41.923278813086654 750.51210536148119 0 750.51210536148119 296.75120987180708 0 0 0 0 -244.86726541284952 237.00644561645458 0 237.00644561645458 392.29835437680231 0 0 0 0 30.276428926979861 42.74388940546487 0 42.74388940546487 394.2830152423121 0 0 0 0 -85.797123706710408 -153.55952762978268 0 -153.55952762978268 -17.090324781715026 0 0 0 0 -8.8201628587186018 -30.130168261485991 0 -30.130168261485991 110.66980786373338 0 0 0 0 -193.04426904927459 36.116202324596088 0 36.116202324596088 132.13674732247273 0 0 0 0 -290.59885088427291 -60.618803440711417 0 -60.618803440711417 149.15869860496423 0 0 0 0 -241.73702532674724 -155.76597092524025 0 -155.76597092524025 203.29514632336213 0 0 0 0 67.788168686587596 260.02986285516818 0 260.02986285516818 626.37977887708075 0 0 0 0 -383.52374327944199 220.97869193666884 0 220.97869193666884 362.96044864060241 0 0 0 0 119.07492459418609 -232.16579086525826 0 -232.16579086525826 -100.69489696201708 0 0 0 0 -4.6078714030974055 1.8090514250833216 0 1.8090514250833216 18.084060079106532 0 0 0 0 2.1757979247006247 -2.1261351621949842 0 -2.1261351621949842 2.6551880790566607 0 0 0 0 -232.57196233841023 12.520373570994707 0 12.520373570994707 487.8466255510275 0 0 0 0 2.9172627412359873 -12.148104130239442 0 -12.148104130239442 -10.831996179613711 0 0 0 0 -64.547288740213844 99.757598244865221 0 99.757598244865221 462.34316650793016 0 0 0 0 -1.5305657248791249 140.85097652372133 0 140.85097652372133 121.64009573312069 0 0 0 0 -58.483354032128887 -23.180479349620214 0 -23.180479349620214 264.6603706821079 0 0 0 0 -6.6394238882057834 39.958500147609811 0 39.958500147609811 224.64475964577832 0 0 0 0 91.413958749117228 91.965255200971114 0 91.965255200971114 248.16373404772457 0 0 0 0 40.698219151569901 16.422219623240835 0 16.422219623240835 445.9275767314175 0 0 0 0 144.50779966556547 85.224569087422424 0 85.224569087422424 185.46100727195881 0 0 0 0 56.89829463379283 74.232087492704522 0 74.232087492704522 184.38454815756177 0 0 0 0 54.071459271534422 13.790052854813894 0 13.790052854813894 52.827229407135746 0 0 0 0 10.446672233485515 114.67791440515248 0 114.67791440515248 -3.4120744955862392 0 0 0 0 -1.5195440752095237 150.57466253519624 0 150.57466253519624 110.24232902956646 0 0 0 0 -93.049846592341055 248.12644189815546 0 248.12644189815546 -37.48574903224835 0 0 0 0 9.1416429220553255 220.39463104946117 0 220.39463104946117 -83.70098358442192 0 0 0 0 26.907934460049638 23.988058066519542 0 23.988058066519542 30.114720373136048 0 0 0 0 -23.587386085460821 97.589664763667315 0 97.589664763667315 20.445431026662845 0 0 0 0 -194.6702640618314 119.67365052050991 0 119.67365052050991 17.912780737358844 0 0 0 0 -14.68276264306769 100.26484148383679 0 100.26484148383679 83.461805900977197 0 0 0 0 -66.366595650116324 213.60954583113562 0 213.60954583113562 38.310866242165503 0 0 0 0 87.472801200497997 16.070527379108171 0 16.070527379108171 154.66983627638547 0 0 0 0 79.562776253511402 61.350021139553064 0 61.350021139553064 125.14831749551558 0 0 0 0 130.05242123050493 199.94581541481921 0 199.94581541481921 166.71344237957237 0 0 0 0 63.593029093874065 122.72871354896415 0 122.72871354896415 78.341712470630227 0 0 0 0 53.566258750744964 96.078283479422225 0 96.078283479422225 223.83646318551109 0 0 0 0 58.269215093596358 109.11355219910092 0 109.11355219910092 259.0148090926923 0 0 0 0 113.6034205535434 58.651392739277071 0 58.651392739277071 149.21069685289876 0 0 0 0 83.576483545792144 17.754100405640202 0 17.754100405640202 278.76496001967553 0 0 0 0 100.15138119630956 50.186511113468441 0 50.186511113468441 30.818490915288294 0 0 0 0 101.39318927135128 -14.087844196889819 0 -14.087844196889819 53.645189049519104 0 0 0 0 110.20844793439664 42.320831506809554 0 42.320831506809554 39.285092633613431 0 0 0 0 104.88171521661934 40.263101532228575 0 40.263101532228575 39.719171947450377 0 0 0 0 235.18852386277376 80.522987393893345 0 80.522987393893345 -61.707828081560251 0 0 0 0 112.2053027429638 4.3621228321771923 0 4.3621228321771923 -66.11593413472292 0 0 0 0 80.82840048223261 3.1926824767415383 0 3.1926824767415383 -55.317343196620641 0 0 0 0 -91.002349638901251 94.666240399263188 0 94.666240399263188 -38.049976210182649 0 0 0 0 87.60242962334496 -55.819590822453392 0 -55.819590822453392 -79.08498194738786 0 0 0 0 174.90383963334352 165.28074010801174 0 165.28074010801174 -25.434364276581618 0 0 0 0 447.02098423985899 124.51085811616394 0 124.51085811616394 -103.14961453973297 0 0 0 0 258.048378787822 217.32971005345462 0 217.32971005345462 -39.128092850616667 0 0 0 0 92.630246996333085 27.020059154352566 0 27.020059154352566 -39.375448432947451 0 0 0 0 -12.921770691638812 30.021045701970252 0 30.021045701970252 -148.98426371865935 0 0 0 0 -23.457330707173242 189.66204529122115 0 189.66204529122115 -178.12601251817432 0 0 0 0 23.887975266044297 21.161551801199888 0 21.161551801199888 17.089949092325782 0 0 0 0 136.62576725640122 238.73895110649573 0 238.73895110649573 355.9127063834967 0 0 0 0 -1.7233437669717193 -0.85340530631510703 0 -0.85340530631510703 11.663528432090985 0 0 0 0 1717.0227113924238 -1486.7170505486979 0 -1486.7170505486979 1405.6921442022176 0 0 0 0 107.85869550838095 -101.51118257253438 0 -101.51118257253438 41.334128777340084 0 0 0 0 954.56980320982973 -1025.5263780709993 0 -1025.5263780709993 2269.3064103521174 0 0 0 0 644.91639032516866 -758.74325723627044 0 -758.74325723627044 2193.9189681641665 0 0 0 0 789.31645322228678 -885.98044425165335 0 -885.98044425165335 2237.5926868087336 0 0 0 0 731.01387645883119 -1291.9086566455389 0 -1291.9086566455389 1274.7591274713977 0 0 0 0 543.29719326442114 -1414.8238374025268 0 -1414.8238374025268 3158.9909449438455 0 0 0 0 598.59922816818153 -1371.1606308862119 0 -1371.1606308862119 2445.622949483397 0 0 0 0 240.74421495105543 -1035.1755899431864 0 -1035.1755899431864 3498.9398844857187 0 0 0 0 533.62553890016966 517.55713548007952 0 517.55713548007952 286.92580850891682 0 0 0 0 238.43465229750882 22.753204702314179 0 22.753204702314179 912.77229944392093 0 0 0 0 668.2464751239462 -533.54114044362177 0 -533.54114044362177 810.19716597820502 0 0 0 0 -100.00697311753083 -627.67488368072736 0 -627.67488368072736 1439.106924857846 0 0 0 0 9.2630702592049765 8.6326445396182692 0 8.6326445396182692 8.8388176852349574 0 0 0 0 1020.3580407656179 -1324.473232158678 0 -1324.473232158678 4613.4346670088999 0 0 0 0 1874.6024876636848 -2110.6538185220234 0 -2110.6538185220234 3500.1571054118181 0 0 0 0 1286.5770568670607 -1553.4541084132052 0 -1553.4541084132052 1723.3926289978845 0 0 0 0 9.5375278092177922 -5.9532049685344752 0 -5.9532049685344752 2.0254993140635955 0 0 0 0 -107.60011149498426 263.28583258521576 0 263.28583258521576 3501.8759244060102 0 0 0 0 875.67848683483044 688.81517510890444 0 688.81517510890444 -626.84460799735098 0 0 0 0 -273.65632670328387 -924.29580045362945 0 -924.29580045362945 1306.6931071232757 0 0 0 0 15.704915821334948 -19.987781519138569 0 -19.987781519138569 10.405831309762663 0 0 0 0 66.899607388544609 -364.9731360999358 0 -364.9731360999358 -471.94036478884038 0 0 0 0 -8.653672365233092 69.499523742344536 0 69.499523742344536 3274.3434773484423 0 0 0 0 35.750663063265648 -250.43522106885212 0 -250.43522106885212 3227.7912361642839 0 0 0 0 -102.75662776777972 -695.89609870672939 0 -695.89609870672939 -216.8172134010365 0 0 0 0 72.037271602872352 -147.78942283990636 0 -147.78942283990636 3499.8043049148841 0 0 0 0 50.141442758370573 103.57386238232903 0 103.57386238232903 3627.1136813715775 0 0 0 0 1.4738181472500924 2.6023226628916944 0 2.6023226628916944 -2.7318685006766863 0 0 0 0 -145.67299294129589 113.37936949221512 0 113.37936949221512 239.32457421732033 0 0 0 0 -505.88412710149225 -327.50806198822193 0 -327.50806198822193 162.47557346428948 0 0 0 0 -2.446823111759941 0.22696671622459519 0 0.22696671622459519 1.5478407460600323 0 0 0 0 55.121598196928062 154.11156014274638 0 154.11156014274638 202.70867717246529 0 0 0 0 -383.16362810923511 -14.03200417658627 0 -14.03200417658627 704.44092640332929 0 0 0 0 -62.121739548134428 551.02844852706039 0 551.02844852706039 1363.1009433170195 0 0 0 0 -286.58888247001869 53.478877588881005 0 53.478877588881005 343.54680138248295 0 0 0 0 75.598219211289688 393.3203691011513 0 393.3203691011513 379.26848223275169 0 0 0 0 13.428864423118284 214.54553344463966 0 214.54553344463966 100.01085110357337 0 0 0 0 -125.53015459334074 132.93534638632082 0 132.93534638632082 94.543480700147484 0 0 0 0 -146.24917726478543 137.72361976682441 0 137.72361976682441 76.999987966970366 0 0 0 0 -85.772542705038177 110.32964798642024 0 110.32964798642024 13.248175198217723 0 0 0 0 -72.98244265464109 112.43455188192456 0 112.43455188192456 68.494288034715282 0 0 0 0 -51.393467739654852 128.90421063950043 0 128.90421063950043 74.608581874435913 0 0 0 0 -29.762475601165761 52.797090781090446 0 52.797090781090446 102.72562178360749 0 0 0 0 -104.22524923741128 58.613299632001144 0 58.613299632001144 117.74308356326947 0 0 0 0 40.143695740357543 92.668199093553994 0 92.668199093553994 68.301217648120655 0 0 0 0 43.732939593243827 106.24960451658626 0 106.24960451658626 -1.4583563250816951 0 0 0 0 139.26603068639452 140.49409860102423 0 140.49409860102423 10.253328420993057 0 0 0 0 23.820788144283142 24.4132154572128 0 24.4132154572128 49.156991596057196 0 0 0 0 30.990223568267538 22.153460117062423 0 22.153460117062423 33.276699958760219 0 0 0 0 -13.025010827430696 0.59022224962484771 0 0.59022224962484771 30.949505868487279 0 0 0 0 -8.4798187859235554 26.293790283578346 0 26.293790283578346 152.35941946307867 0 0 0 0 -18.592717771034188 72.730742742223811 0 72.730742742223811 32.933106256845349 0 0 0 0 2.1343613697295041 49.432951124379542 0 49.432951124379542 86.603153702705185 0 0 0 0 -21.832283942355389 59.936994385519938 0 59.936994385519938 92.341454843925021 0 0 0 0 -4.6856502937588669 0.95415421617685681 0 0.95415421617685681 9.1617738184245354 0 0 0 0 -191.93345012384171 6.2665746118368588 0 6.2665746118368588 55.282521487293707 0 0 0 0 -2.6884960478736444 5.4542302041823021 0 5.4542302041823021 6.7974069722805694 0 0 0 0 7.575115360736163 19.068961181013947 0 19.068961181013947 63.902738721531932 0 0 0 0 19.540938508510635 36.395129548596742 0 36.395129548596742 29.705741493788082 0 0 0 0 17.656441395076879 26.04830378271437 0 26.04830378271437 28.6319112301953 0 0 0 0 21.039343729721239 49.934742059089785 0 49.934742059089785 51.152947394552029 0 0 0 0 25.108514328101592 21.990266970859011 0 21.990266970859011 49.626497128704614 0 0 0 0 44.654502541307465 28.548588844889309 0 28.548588844889309 56.359144280966575 0 0 0 0 -7.6364383241721043 1.4982533866614176 0 1.4982533866614176 63.048032300913292 0 0 0 0 15.463177141183678 40.665323664961761 0 40.665323664961761 132.43123151496729 0 0 0 0 32.169552120477448 22.1088527623142 0 22.1088527623142 76.108277216761053 0 0 0 0 22.512366149377613 48.198609580949778 0 48.198609580949778 89.940540651041374 0 0 0 0 22.978913249706693 18.57576447737847 0 18.57576447737847 123.77805537511085 0 0 0 0 38.589010757955293 27.490160024452052 0 27.490160024452052 61.976949796791359 0 0 0 0 42.354942245007351 65.295133498962173 0 65.295133498962173 107.51734212681913 0 0 0 0 28.928119850870644 16.843320290223346 0 16.843320290223346 154.76032064384344 0 0 0 0 87.174966550454855 381.37252041888746 0 381.37252041888746 3892.3352897805635 0 0 0 0 -6.4094418183451154 26.329072279120737 0 26.329072279120737 155.64768004184839 0 0 0 0 3.5751838481484945 3.7067202090533442 0 3.7067202090533442 11.293538037662508 0 0 0 0 5.4238791616290891 -33.031790833025951 0 -33.031790833025951 14.916273184647475 0 0 0 0 -11.06209804605669 7.8496846534380893 0 7.8496846534380893 165.92289691863334 0 0 0 0 -145.69393188420503 75.309273739253968 0 75.309273739253968 193.50740968625109 0 0 0 0 2.9549620761214808 -10.788264477881679 0 -10.788264477881679 25.919904274880679 0 0 0 0 121.07529340324487 777.63041121240883 0 777.63041121240883 3500.8774726196507 0 0 0 0 7.1769785788423439 -11.377563730643162 0 -11.377563730643162 9.0361269462667781 0 0 0 0 -2.7292036723759914 -23.565106455983489 0 -23.565106455983489 18.997864548159477 0 0 0 0 16.639857023448712 1.4812748622753134 0 1.4812748622753134 48.848769229985919 0 0 0 0 -39.984335086174497 108.00052328895845 0 108.00052328895845 1604.2964426519375 0 0 0 0 635.63257278587582 1531.0902286667479 0 1531.0902286667479 2155.9675783764815 0 0 0 0 -781.1637727106322 -102.82296990067664 0 -102.82296990067664 2903.3989749898728 0 0 0 0 -605.06949237519075 -103.70338622469785 0 -103.70338622469785 2534.2587018587592 0 0 0 0 -614.24258459010116 67.151164632224663 0 67.151164632224663 2528.7028773897673 0 0 0 0 391.98895749134135 -1112.1182411853626 0 -1112.1182411853626 2246.8801970466184 0 0 0 0 -32.244416140424732 221.67348711887269 0 221.67348711887269 555.39804893811606 0 0 0 0 -796.32627823535722 -136.6057158947599 0 -136.6057158947599 3416.5086085094945 0 0 0 0 70.101096697940605 -398.41226848149836 0 -398.41226848149836 3494.7224939156413 0 0 0 0 563.05989997416623 528.68987039871354 0 528.68987039871354 644.12340306519764 0 0 0 0 4.5435386432649318 -0.64076394943328729 0 -0.64076394943328729 9.031819365965962 0 0 0 0 258.35361920780963 -884.82928198470881 0 -884.82928198470881 3209.6841537586947 0 0 0 0 578.40265520632192 -798.70506683663712 0 -798.70506683663712 485.46273884975221 0 0 0 0 4.4457106805585145 0.35627046930348794 0 0.35627046930348794 5.2185474151301525 0 0 0 0 2.4425081365673691 -6.361684250542794 0 -6.361684250542794 66.459871381443918 0 0 0 0 -527.07701683910363 319.75310751229949 0 319.75310751229949 -24.429617952167632 0 0 0 0 641.09419541331465 -357.42650770462126 0 -357.42650770462126 345.16574808863811 0 0 0 0 -219.79005998604464 -457.99998946098003 0 -457.99998946098003 -435.88387235932896 0 0 0 0 12.69980025563062 -0.048893298243040118 0 -0.048893298243040118 20.064427454432696 0 0 0 0 8.3712936116572241 -7.1915384580569608 0 -7.1915384580569608 17.758559597357252 0 0 0 0 -2.4872931504924054 -4.043058363919954 0 -4.043058363919954 17.872270390842459 0 0 0 0 5.7402040654382995 -4.8157835550299737 0 -4.8157835550299737 34.924804713178787 0 0 0 0 -3.5422154624257018 -4.0408131001386209 0 -4.0408131001386209 20.306869094900321 0 0 0 0 6.8371468367522379 -8.520318741979807 0 -8.520318741979807 31.377478482627687 0 0 0 0 -0.027971007000047621 4.047772722214674 0 4.047772722214674 36.96591030442255 0 0 0 0 14.6441002413776 -5.7311981970733541 0 -5.7311981970733541 21.839129075314304 0 0 0 0 -2.5843636183053604 -3.4917951675506629 0 -3.4917951675506629 14.778500693719252 0 0 0 0 -0.24203463263620506 -0.3807536885033187 0 -0.3807536885033187 11.314164840965532 0 0 0 0 2.7329474163631371 -14.078198882252428 0 -14.078198882252428 39.976405099514828 0 0 0 0 9.6344179691092044 -0.41362955516840305 0 -0.41362955516840305 29.273943363333238 0 0 0 0 6.4463965795772378 -10.62760520554809 0 -10.62760520554809 26.861338864483962 0 0 0 0 18.598751747678762 -5.290993062290795 0 -5.290993062290795 21.826481650502558 0 0 0 0 19.358615521781758 -6.328260229166645 0 -6.328260229166645 22.659707828420323 0 0 0 0 10.534432901975521 -3.5461877653393126 0 -3.5461877653393126 20.687154541702412 0 0 0 0 5.3848891519602766 -0.74695071910457145 0 -0.74695071910457145 25.903389028464431 0 0 0 0 10.584940638385888 -2.8841756496512971 0 -2.8841756496512971 29.366557044244473 0 0 0 0 -5.4014399968533287 -16.037070646254705 0 -16.037070646254705 28.56908908098784 0 0 0 0 15.549611434327431 38.696758916215913 0 38.696758916215913 100.99466744561141 0 0 0 0 23.001077520963918 -11.228711911976461 0 -11.228711911976461 45.283998973947746 0 0 0 0 7.1121065922807922 -10.352612050964805 0 -10.352612050964805 12.763317950832052 0 0 0 0 0.27656385162936203 0.96269585011850722 0 0.96269585011850722 61.57665853769231 0 0 0 0 18.950510246733415 44.933521690898488 0 44.933521690898488 73.62727986950631 0 0 0 0 212.3776028114213 351.56085515661425 0 351.56085515661425 -26.267046893110091 0 0 0 0 4.1755273405594364 4.106574023448422 0 4.106574023448422 6.3076023415953202 0 0 0 0 439.67466652757128 1035.5847600965158 0 1035.5847600965158 1837.573219282971 0 0 0 0 -431.07922858392033 -581.44459555490175 0 -581.44459555490175 3491.1340862699531 0 0 0 0 336.30324828317066 400.22947953997027 0 400.22947953997027 782.17453501099408 0 0 0 0 10.0445940763524 6.5606966073905184 0 6.5606966073905184 19.512989899035659 0 0 0 0 491.38136642214164 757.5732149095802 0 757.5732149095802 852.72892451898042 0 0 0 0 -110.50097819488656 -43.618900243819553 0 -43.618900243819553 63.977364426049462 0 0 0 0 11.477596615268629 -14.486046534366661 0 -14.486046534366661 16.073922930997682 0 0 0 0 19.189100681565833 -8.4551808774031088 0 -8.4551808774031088 18.717110657167723 0 0 0 0 13.915895106112885 0.44883480964290356 0 0.44883480964290356 57.619301499882567 0 0 0 0 10.262113369059747 -7.7182442276653447 0 -7.7182442276653447 13.877578118888064 0 0 0 0 18.801931713061549 -4.885668886989432 0 -4.885668886989432 21.670436904912592 0 0 0 0 23.669227568730427 -16.248448817697778 0 -16.248448817697778 2.700735725908034 0 0 0 0 -37.404637996210568 -160.5002617321461 0 -160.5002617321461 153.66928698251149 0 0 0 0 195.22982984736859 42.537246508290082 0 42.537246508290082 -13.951258326691459 0 0 0 0 22.819963423211448 -4.6534593024657624 0 -4.6534593024657624 5.754883500454298 0 0 0 0 9.7136833552397377 -2.8699002945621253 0 -2.8699002945621253 7.5368458875254642 0 0 0 0 18.186840688704251 -9.9647185530125171 0 -9.9647185530125171 16.937742632973823 0 0 0 0 18.13223427632807 -5.4563383824150158 0 -5.4563383824150158 2.9896903001060835 0 0 0 0 16.753869090931403 -18.185165305610099 0 -18.185165305610099 32.843369201084556 0 0 0 0 21.608349539195842 6.1504294174931147 0 6.1504294174931147 21.511022751253108 0 0 0 0 13.579139586911698 -2.1533366227244102 0 -2.1533366227244102 9.6407185982059609 0 0 0 0 17.360552883106056 -0.73724956613957104 0 -0.73724956613957104 5.6249129987114248 0 0 0 0 13.33159671793927 1.0275817296358032 0 1.0275817296358032 11.910515315645297 0 0 0 0 38.365709902481306 19.85449610159937 0 19.85449610159937 17.97912490985653 0 0 0 0 102.19856339008402 45.678258106598264 0 45.678258106598264 -158.78999151443782 0 0 0 0 30.598631732211789 -17.879600571541591 0 -17.879600571541591 9.2508028144154686 0 0 0 0 12.522803284835391 -43.888026620588789 0 -43.888026620588789 26.112247507477605 0 0 0 0 34.909899370722087 -46.616058146899519 0 -46.616058146899519 -29.343948649003323 0 0 0 0 34.436747836734867 -31.334818417465613 0 -31.334818417465613 32.184138573453993 0 0 0 0 -5.7094881233107486 -2.8075557651492868 0 -2.8075557651492868 9.2162554915508572 0 0 0 0 0.95942805231607053 -25.557129243885583 0 -25.557129243885583 36.662157349519475 0 0 0 0 14.885219423984381 -35.147947350378217 0 -35.147947350378217 42.261179947874552 0 0 0 0 25.603150507588907 24.795926888893064 0 24.795926888893064 64.15004510921699 0 0 0 0 0.32643032147736206 8.25095851669289 0 8.25095851669289 12.56106562574068 0 0 0 0 16.56322977519967 18.311255514877637 0 18.311255514877637 25.765191420498695 0 0 0 0 11.423707271313106 7.9085352702777527 0 7.9085352702777527 29.631801899195125 0 0 0 0 40.634001103589071 19.535403766764489 0 19.535403766764489 28.650202056120179 0 0 0 0 18.934539909937858 11.864787434182508 0 11.864787434182508 15.461704599572681 0 0 0 0 10.782998603805027 9.7367446138669038 0 9.7367446138669038 27.110053077805787 0 0 0 0 12.859515956174128 8.3742214403978661 0 8.3742214403978661 23.609689917086556 0 0 0 0 36.451929809034482 -4.0297167181852274 0 -4.0297167181852274 7.2273630751930966 0 0 0 0 20.959281890998682 0.87517265151063839 0 0.87517265151063839 51.165111641575095 0 0 0 0 14.108501389211728 2.2869944475453856 0 2.2869944475453856 15.460806136058775 0 0 0 0 24.299293567134292 1.4147805727716012 0 1.4147805727716012 13.002997335727034 0 0 0 0 5.613373740005045 4.3055435085666431 0 4.3055435085666431 2.0881123533872596 0 0 0 0 14.423314605349461 3.022728289470928 0 3.022728289470928 9.6894546883836341 0 0 0 0 18.469203440057754 -4.1238251931686563 0 -4.1238251931686563 20.966054940756379 0 0 0 0 15.096759284533618 -5.3636415592973208 0 -5.3636415592973208 25.346403808693594 0 0 0 0 61.003626248664659 51.391034718482842 0 51.391034718482842 66.540542965711211 0 0 0 0 6.5798869542444507 -0.72349829871759219 0 -0.72349829871759219 0.013466108757313577 0 0 0 0 51.417745302152071 7.5214094748826028 0 7.5214094748826028 32.355355523190156 0 0 0 0 35.476137517134703 29.895269430219741 0 29.895269430219741 43.733991035545159 0 0 0 0 45.209817132443277 18.65956061508723 0 18.65956061508723 19.716738508504022 0 0 0 0 30.994498531061254 6.048055959148769 0 6.048055959148769 67.963821016881326 0 0 0 0 28.787810520475432 15.35004868315491 0 15.35004868315491 44.162480600820345 0 0 0 0 33.2142169939616 17.348794549341619 0 17.348794549341619 43.594480703664885 0 0 0 0 37.190176182238446 30.324358978858029 0 30.324358978858029 20.911601392027656 0 0 0 0 37.326705218132702 31.011320912758379 0 31.011320912758379 18.852829865734748 0 0 0 0 73.536212251742199 137.1827053416813 0 137.1827053416813 549.29349968021825 0 0 0 0 -632.1648951108109 -182.55922715542295 0 -182.55922715542295 369.23814578356939 0 0 0 0 9.9978467350735727 11.023614725777236 0 11.023614725777236 1.5034935554435249 0 0 0 0 224.86306554063776 296.07216650350279 0 296.07216650350279 -160.23456491771174 0 0 0 0 1396.7281059911547 730.42203684164929 0 730.42203684164929 14.592725528261496 0 0 0 0 123.04734982478112 62.500356381219362 0 62.500356381219362 -262.79848637285477 0 0 0 0 42.459177357140561 -41.706305589980808 0 -41.706305589980808 -135.74597828539413 0 0 0 0 6.6602691678053816 284.34543387967119 0 284.34543387967119 -159.89913477540665 0 0 0 0 76.538995956472718 -165.66588000243826 0 -165.66588000243826 228.7512235666058 0 0 0 0 258.63697790397418 -32.528585964472484 0 -32.528585964472484 -197.50150716742553 0 0 0 0 24.728591433573456 -45.144340073797878 0 -45.144340073797878 -29.532219912832424 0 0 0 0 -16.539033951412421 -84.022405909559836 0 -84.022405909559836 61.772179892980489 0 0 0 0 -294.74566590026006 -13.721448882397681 0 -13.721448882397681 304.49310878153346 0 0 0 0 -141.57879963637242 172.09302318701248 0 172.09302318701248 288.94998332419641 0 0 0 0 527.44474249504128 -535.8937751313681 0 -535.8937751313681 -700.92842829151766 0 0 0 0 -4.9977064051325755 -0.26146217084535905 0 -0.26146217084535905 -0.34693474859962553 0 0 0 0 490.7799203924551 -1004.5024086331073 0 -1004.5024086331073 631.16391082628297 0 0 0 0 242.98743660767104 821.221466223981 0 821.221466223981 239.86355834804453 0 0 0 0 -211.09931522572151 -265.4970473757503 0 -265.4970473757503 1491.2546097997283 0 0 0 0 75.142369185465213 707.88829446752334 0 707.88829446752334 1027.8255359474722 0 0 0 0 -33.605709815721639 404.600201370891 0 404.600201370891 262.92309130825015 0 0 0 0 94.870573852676898 291.65132950177156 0 291.65132950177156 340.97100192653579 0 0 0 0 395.43463149747186 424.53717591489021 0 424.53717591489021 256.34907957864812 0 0 0 0 253.46567941466128 294.36286888935138 0 294.36286888935138 138.18377107254582 0 0 0 0 378.72949892327233 518.5951343756501 0 518.5951343756501 -247.01667685597295 0 0 0 0 -81.188010866560944 -233.66642672780006 0 -233.66642672780006 299.3233914960681 0 0 0 0 -79.098541478946572 -66.716884957663751 0 -66.716884957663751 118.40052900615865 0 0 0 0 13.255934832232015 -212.21630613905222 0 -212.21630613905222 385.5039964773905 0 0 0 0 -156.51538992393034 -219.76074168182913 0 -219.76074168182913 397.74504499427712 0 0 0 0 -136.71467040866628 -205.24198741897874 0 -205.24198741897874 636.88548077727182 0 0 0 0 230.54246311507814 -780.81035369160759 0 -780.81035369160759 645.81826842332066 0 0 0 0 1.0580963542923918 4.9324602300064129 0 4.9324602300064129 24.292805195238348 0 0 0 0 -281.89023741505662 649.03027355254585 0 649.03027355254585 1849.6214739539687 0 0 0 0 -52.415901205818955 -151.49385219146598 0 -151.49385219146598 478.3168970352574 0 0 0 0 591.49261452739484 -360.35657915087108 0 -360.35657915087108 -570.38676866636251 0 0 0 0 -0.85055820424057771 -3.056275253448832 0 -3.056275253448832 1.6373269859455108 0 0 0 0 523.09725147359495 105.41103953179891 0 105.41103953179891 2.6468292906943134 0 0 0 0 124.60783788336994 3.2838074637511454 0 3.2838074637511454 -16.36721077888933 0 0 0 0 -4.1835336007907955 -2.9513590688131321 0 -2.9513590688131321 1.004776349950192 0 0 0 0 -71.194199461206154 -42.624303626549136 0 -42.624303626549136 110.12818637101554 0 0 0 0 -122.23017086939899 -156.27653220795492 0 -156.27653220795492 -84.356268673054728 0 0 0 0 244.46620779435762 147.02290530998744 0 147.02290530998744 188.08939068487598 0 0 0 0 -278.35236186170459 -67.879852153448155 0 -67.879852153448155 411.73997686604071 0 0 0 0 357.82592880321863 -147.39562440934424 0 -147.39562440934424 327.08743109578063 0 0 0 0 111.75837824964719 -168.68626340473094 0 -168.68626340473094 534.45363775071382 0 0 0 0 124.15897294516617 -34.91925860304309 0 -34.91925860304309 413.71037336853988 0 0 0 0 377.62612296291263 87.081083953346024 0 87.081083953346024 298.14891653608947 0 0 0 0 87.090524452526097 -12.235830507022854 0 -12.235830507022854 402.4946026461148 0 0 0 0 64.557413066140725 -24.924124900572224 0 -24.924124900572224 395.57735174529762 0 0 0 0 55.219451538265275 179.98898739440483 0 179.98898739440483 271.42751095348331 0 0 0 0 -44.471337275506812 105.7349771960819 0 105.7349771960819 224.9957125093797 0 0 0 0 20.861343396027223 157.32400243134612 0 157.32400243134612 153.36124584246136 0 0 0 0 -44.708229887935886 -99.201308763054769 0 -99.201308763054769 24.374975368237656 0 0 0 0 55.855168264080021 -0.95433955780436008 0 -0.95433955780436008 -40.363353382393143 0 0 0 0 73.219560474383798 100.30343686515104 0 100.30343686515104 110.08214916559336 0 0 0 0 311.64470862567396 -0.16869959105815724 0 -0.16869959105815724 -45.276158857759583 0 0 0 0 -0.65924869933515851 -1.2809015503407295 0 -1.2809015503407295 5.96869249618201 0 0 0 0 -13.040407916454569 26.181318790688692 0 26.181318790688692 457.20259144329816 0 0 0 0 -107.26198163800291 5.2522473822814391 0 5.2522473822814391 93.73660588221469 0 0 0 0 12.079699128317777 -7.2204795202602252 0 -7.2204795202602252 3.2423943123020531 0 0 0 0 201.86068337045253 -118.28117938602668 0 -118.28117938602668 69.476923375637398 0 0 0 0 13.833207371568278 -42.458114704083528 0 -42.458114704083528 -31.877137333439578 0 0 0 0 -14.647833253457065 -59.172064799725959 0 -59.172064799725959 -86.757413170755768 0 0 0 0 -18.178345317977445 -7.1177680412514519 0 -7.1177680412514519 5.30574553387883 0 0 0 0 -46.774918408911617 -24.248662842573118 0 -24.248662842573118 92.171817797872606 0 0 0 0 1.2210590030187625 -6.1291872397810394 0 -6.1291872397810394 10.528717470676733 0 0 0 0 21.400886611570513 -28.571257525430269 0 -28.571257525430269 -11.868745530957312 0 0 0 0 18.925722221816613 -36.011054573631327 0 -36.011054573631327 -0.4199396040994543 0 0 0 0 24.497193531330808 -24.370124773236654 0 -24.370124773236654 10.855443189629636 0 0 0 0 15.8937465792078 -19.01565345959898 0 -19.01565345959898 0.27628671765327795 0 0 0 0 -5.8266207359811233 -33.440727956408182 0 -33.440727956408182 25.979482114995335 0 0 0 0 -9.9806997468913323 -43.597744710120651 0 -43.597744710120651 3.1030430591331424 0 0 0 0 0.058065245160502599 -0.73035134017630732 0 -0.73035134017630732 2.9444485709813648 0 0 0 0 340.15090930845508 -11.086670789757363 0 -11.086670789757363 -77.078646025835496 0 0 0 0 -54.654065242082652 240.17553857970393 0 240.17553857970393 80.380822905384846 0 0 0 0 148.10284111055535 69.989833258473482 0 69.989833258473482 -87.942977307303408 0 0 0 0 4.9749753611738115 -1.0498928153416927 0 -1.0498928153416927 0.39725172719894886 0 0 0 0 712.46527486700506 35.332058321691875 0 35.332058321691875 62.399743427482008 0 0 0 0 -93.230677071528589 -193.18100888926278 0 -193.18100888926278 661.86623663804403 0 0 0 0 136.57553889935843 -91.011643078677025 0 -91.011643078677025 117.72016183030291 0 0 0 0 -325.64310860290288 -403.89700150727589 0 -403.89700150727589 220.35518062261599 0 0 0 0 -29.03430522308372 135.38541024592121 0 135.38541024592121 497.117511460483 0 0 0 0 -31.917500919776103 -354.17821846986817 0 -354.17821846986817 13.167268351704479 0 0 0 0 205.98933231026058 -212.84688224115439 0 -212.84688224115439 146.07802563877704 0 0 0 0 -67.458415245404467 -414.5844963892514 0 -414.5844963892514 524.42967018546017 0 0 0 0 -238.21852884552936 -38.994563636571456 0 -38.994563636571456 101.95468247181316 0 0 0 0 1.0592867498749001 -20.066003150203869 0 -20.066003150203869 89.297868328747427 0 0 0 0 19.245533463721586 -28.113988156344931 0 -28.113988156344931 90.660536279247026 0 0 0 0 12.913175345179113 -24.955953685914807 0 -24.955953685914807 55.606770323276457 0 0 0 0 -11.094363505717865 -99.70039009247796 0 -99.70039009247796 -27.488463917806712 0 0 0 0 19.358058707616628 -17.304484022142233 0 -17.304484022142233 18.703291682684004 0 0 0 0 90.239414752202919 22.380578123973464 0 22.380578123973464 -31.680447749560699 0 0 0 0 14.254572760438812 -6.5527251528786437 0 -6.5527251528786437 10.88222521725374 0 0 0 0 149.78541066541868 -101.99996465412551 0 -101.99996465412551 -101.17098769375662 0 0 0 0 30.804927741563006 -28.880366483231683 0 -28.880366483231683 45.605830459079243 0 0 0 0 4.5357005228088383 -24.27213733369922 0 -24.27213733369922 45.001558280284371 0 0 0 0 20.798477129021194 -35.45749643744557 0 -35.45749643744557 28.464062150104837 0 0 0 0 57.252739718094745 -7.2972217683195595 0 -7.2972217683195595 35.65490981558105 0 0 0 0 19.722768344003299 -5.8602060641862295 0 -5.8602060641862295 44.034640936645701 0 0 0 0 57.59181483645807 -30.937716742970224 0 -30.937716742970224 129.18349257892987 0 0 0 0 5.6178368982120279 -4.9300961754853585 0 -4.9300961754853585 6.5168549110911869 0 0 0 0 83.948050275636888 -34.078637055779836 0 -34.078637055779836 -6.0441277379409257 0 0 0 0 22.24411280818822 -9.497448525665277 0 -9.497448525665277 13.950859901394324 0 0 0 0 33.097681630035368 -35.214468728986731 0 -35.214468728986731 59.923936678873361 0 0 0 0 -8.3426978899442474 40.815917860314585 0 40.815917860314585 23.933643980410125 0 0 0 0 0.9534823463623141 2.8726586311715026 0 2.8726586311715026 -2.2923628801777589 0 0 0 0 22.733683391827071 -30.102506963588439 0 -30.102506963588439 71.360728520508928 0 0 0 0 26.977148100629627 -8.2623773117569534 0 -8.2623773117569534 -1.9379588802434355 0 0 0 0 52.708459439798787 186.11843584269036 0 186.11843584269036 -227.05312525199497 0 0 0 0 24.206161937582568 -12.411096567198094 0 -12.411096567198094 8.755184657595068 0 0 0 0 13.033089477856265 -18.813847324554899 0 -18.813847324554899 60.028085610176277 0 0 0 0 152.96372779455285 -82.313510403475448 0 -82.313510403475448 -119.08510575882701 0 0 0 0 84.37903299805879 -52.313191049725901 0 -52.313191049725901 79.499483453297216 0 0 0 0 5.8250515123329718 0.92971987391414501 0 0.92971987391414501 -1.8687558079750275 0 0 0 0 -9.2169097312346366 82.956701033612262 0 82.956701033612262 -78.578411431379209 0 0 0 0 25.057686586366145 -15.072241176334199 0 -15.072241176334199 9.258690258123643 0 0 0 0 18.351806972703343 -9.4468240411224542 0 -9.4468240411224542 -9.2472444200902828 0 0 0 0 315.73802557325058 506.52820484482436 0 506.52820484482436 -210.02722150041518 0 0 0 0 15.817413026747708 1.3974851921546936 0 1.3974851921546936 8.9887953147713766 0 0 0 0 22.695902126107967 -13.313794930301356 0 -13.313794930301356 23.956485030403201 0 0 0 0 31.198005714339686 -14.702894902023953 0 -14.702894902023953 3.0483179757120453 0 0 0 0 3.2478084976109445 -0.20118397958637146 0 -0.20118397958637146 8.3920323347528267 0 0 0 0 360.72095175755237 -910.42948579899121 0 -910.42948579899121 541.93535802930273 0 0 0 0 -174.75288770918579 -1037.7016829125319 0 -1037.7016829125319 2529.5521111813759 0 0 0 0 -873.44306116498331 649.15991987366579 0 649.15991987366579 3486.346424538734 0 0 0 0 -61.93155743046232 134.19313252180291 0 134.19313252180291 1382.8521876111135 0 0 0 0 75.458409795946039 -121.14736917304162 0 -121.14736917304162 346.26714992982124 0 0 0 0 265.75695876799307 -18.221138376404269 0 -18.221138376404269 -35.964960516146675 0 0 0 0 43.136676296991254 -137.05503109597612 0 -137.05503109597612 96.03856809167155 0 0 0 0 13.134187312512648 -14.702107255934507 0 -14.702107255934507 28.634528678673149 0 0 0 0 -120.95406260013971 -92.913312797976687 0 -92.913312797976687 101.85518501676052 0 0 0 0 19.558474264051256 -13.104620172851355 0 -13.104620172851355 27.784964214478805 0 0 0 0 1.8113015971954847 2.1072394079462313 0 2.1072394079462313 9.9651210513312805 0 0 0 0 6.5912886674214466 2.2189457299346032 0 2.2189457299346032 3494.8337726658356 0 0 0 0 6.6028240369729705 2.2315228949973971 0 2.2315228949973971 3494.8392807550663 0 0 0 0 78.798523274463207 191.43042136997246 0 191.43042136997246 98.619965452392293 0 0 0 0 9.1852136488118052 65.459655018135891 0 65.459655018135891 3457.4809098192636 0 0 0 0 175.44789533898111 -270.73663378318633 0 -270.73663378318633 141.16371549294854 0 0 0 0 160.4727100566738 -198.47540768181261 0 -198.47540768181261 -90.471905836591759 0 0 0 0 0.66565938469942321 -3.8265315687666757 0 -3.8265315687666757 8.0696881262448343 0 0 0 0 44.75679201008586 -68.498421529511688 0 -68.498421529511688 337.93652231492888 0 0 0 0 154.50557468366577 171.97670994825785 0 171.97670994825785 190.18600352896283 0 0 0 0 67.668730002623448 49.785587725509686 0 49.785587725509686 18.458720160446319 0 0 0 0 -85.062252916866441 22.534672035910262 0 22.534672035910262 119.94188713352378 0 0 0 0 511.02859319836887 1443.302814664803 0 1443.302814664803 3499.3385364505739 0 0 0 0 22.040595904527777 25.759115428112636 0 25.759115428112636 -6.3152113283213112 0 0 0 0 106.87644852097306 951.65491241983909 0 951.65491241983909 2487.6882169256096 0 0 0 0 98.633587851282499 876.89097229136678 0 876.89097229136678 2822.141298318129 0 0 0 0 2.1283789391752581 -12.477881700919383 0 -12.477881700919383 14.332842291804596 0 0 0 0 -507.13888797150821 322.64186819243696 0 322.64186819243696 3498.6124397407184 0 0 0 0 -435.86858824392345 -40.168315927121512 0 -40.168315927121512 2284.3076727799853 0 0 0 0 19.698276022344999 -2.0650366184709128 0 -2.0650366184709128 102.26031263189725 0 0 0 0 36.563003500280622 -80.962838994575577 0 -80.962838994575577 1582.3458702244607 0 0 0 0 5.1591947705200312 -15.705610381781291 0 -15.705610381781291 23.087849331020585 0 0 0 0 -210.48006154798503 -24.335915653768097 0 -24.335915653768097 2270.6487061726948 0 0 0 0 -1.6374012382020542 1.5113061125239966 0 1.5113061125239966 7.3596370270925462 0 0 0 0 11.700557663267318 15.139179715060891 0 15.139179715060891 59.74552857164781 0 0 0 0 11.183726418649712 38.245647108597041 0 38.245647108597041 86.986681906346348 0 0 0 0 9.4707955485192272 17.527175976310012 0 17.527175976310012 34.048606000279321 0 0 0 0 -47.192353594539156 -35.801262737109028 0 -35.801262737109028 59.144092654289125 0 0 0 0 1.2336383898712739 0.71114271685233632 0 0.71114271685233632 7.0013636805542845 0 0 0 0 -13.242110748162986 5.5740719126224576 0 5.5740719126224576 108.36430873022982 0 0 0 0 8.7764239825701225 -8.3479419765717466 0 -8.3479419765717466 99.496344317027251 0 0 0 0 15.310316167287965 -47.374565278416412 0 -47.374565278416412 4.5298504833854167 0 0 0 0 107.62446291298875 -91.324768240490812 0 -91.324768240490812 24.539318210925558 0 0 0 0 -27.812521358551066 -91.397091444165198 0 -91.397091444165198 76.888396729089436 0 0 0 0 -14.134459893246458 -75.085900967673297 0 -75.085900967673297 62.085457564731769 0 0 0 0 -149.50152596335192 9.5971421173744602 0 9.5971421173744602 173.07190894657106 0 0 0 0 219.45474037853478 -220.37856931902934 0 -220.37856931902934 151.13807477974115 0 0 0 0 -2.4671208052605262 -8.4762701794125519 0 -8.4762701794125519 36.908282179630362 0 0 0 0 -11.612284288748697 7.3067890748679929 0 7.3067890748679929 62.373502563059446 0 0 0 0 -23.472076218617531 20.678805564693903 0 20.678805564693903 86.779238836403238 0 0 0 0 -54.930500992885754 6.0695276353508234 0 6.0695276353508234 72.096362157826661 0 0 0 0 -29.575371340495622 -30.760774694143038 0 -30.760774694143038 64.296324813083629 0 0 0 0 -72.819768727522387 -42.083168941331678 0 -42.083168941331678 63.111564987655584 0 0 0 0 -57.967541518544749 -36.64228422495944 0 -36.64228422495944 60.798475770076038 0 0 0 0 -82.198568395009715 -43.088954594924871 0 -43.088954594924871 66.278194332415296 0 0 0 0 -129.18364252240781 75.324132002166152 0 75.324132002166152 -39.72063715110562 0 0 0 0 -112.31854964651211 -14.831384358200012 0 -14.831384358200012 61.931795300493832 0 0 0 0 -108.5580107905636 38.191145680172895 0 38.191145680172895 8.4439936943672365 0 0 0 0 -91.50328735459334 -37.137499950855272 0 -37.137499950855272 64.806279678616193 0 0 0 0 -76.216341238644873 -34.557949214333348 0 -34.557949214333348 63.294899993663421 0 0 0 0 -16.182165063086813 -3.8095948184736699 0 -3.8095948184736699 74.291481378255412 0 0 0 0 -56.584968346157439 -16.087259515457845 0 -16.087259515457845 56.230855776942917 0 0 0 0 13.148776487193572 57.338339443886071 0 57.338339443886071 64.979586410685442 0 0 0 0 -175.19026653093897 -133.38212795348954 0 -133.38212795348954 -102.45013695009038 0 0 0 0 -72.601025653715851 9.2162889157243626 0 9.2162889157243626 19.747312654973939 0 0 0 0 -1.8152999130144529 3.2264035298064933 0 3.2264035298064933 4.1736137424853723 0 0 0 0 25.000879181998698 -11.991054041041934 0 -11.991054041041934 17.416839221754344 0 0 0 0 9.004354584016907 10.15165737873857 0 10.15165737873857 29.765430356749633 0 0 0 0 4.3101302731777942 6.1738179269746496 0 6.1738179269746496 12.600815965632819 0 0 0 0 1.4620876431713441 -26.838831307970395 0 -26.838831307970395 76.087357652802893 0 0 0 0 -215.95639629513562 233.97136591178423 0 233.97136591178423 40.962467593912152 0 0 0 0 -63.727655888210393 51.447911476410809 0 51.447911476410809 -144.75319772738658 0 0 0 0 -28.35983829901943 2.5456784983252874 0 2.5456784983252874 99.866647345908859 0 0 0 0 -23.408649418242021 19.466603130586009 0 19.466603130586009 67.878320178522699 0 0 0 0 -0.27941973833466882 7.3150502876754118 0 7.3150502876754118 28.027857809485837 0 0 0 0 -1.035350920208657 11.291050153993638 0 11.291050153993638 29.479867515488877 0 0 0 0 -199.02095065229378 -144.13168434016552 0 -144.13168434016552 465.34352067200962 0 0 0 0 -147.33841703261032 19.887616329462617 0 19.887616329462617 158.76656688207004 0 0 0 0 -335.57028553619284 192.30955800946322 0 192.30955800946322 312.09679956253967 0 0 0 0 366.82112627679635 312.53016574392313 0 312.53016574392313 172.54699675804659 0 0 0 0 -18.65070798665181 -100.61294447228647 0 -100.61294447228647 -261.14667109792208 0 0 0 0 230.83642039916481 -199.8611130915433 0 -199.8611130915433 70.04514686892071 0 0 0 0 -40.873839039267295 -25.978032406130296 0 -25.978032406130296 323.54985963243416 0 0 0 0 5.729245726804522 -1.3498441173518856 0 -1.3498441173518856 -0.54570080868073134 0 0 0 0 33.001732095721309 9.0567141267056286 0 9.0567141267056286 94.662155528943458 0 0 0 0 -71.480142762275591 118.57283514694882 0 118.57283514694882 79.537211470662442 0 0 0 0 0.70852936411631262 0.36283675150539096 0 0.36283675150539096 -0.73785275552741858 0 0 0 0 84.939996303240832 88.316650424359977 0 88.316650424359977 37.746349777173236 0 0 0 0 17.259480307409149 80.201467503997264 0 80.201467503997264 95.795269495119101 0 0 0 0 -12.310893984568168 40.744607534890747 0 40.744607534890747 43.497130367242789 0 0 0 0 238.20267868629705 19.304587928367823 0 19.304587928367823 44.268801894591888 0 0 0 0 183.08072685194793 232.41967644055694 0 232.41967644055694 -110.27542044698021 0 0 0 0 8.3142548692483693 4.5673827683471018 0 4.5673827683471018 2.2689503806242648 0 0 0 0 -59.6240623469144 -34.0269429013224 0 -34.0269429013224 193.11041995142295 0 0 0 0 -95.788760304130719 779.93532874280936 0 779.93532874280936 3723.3507005617139 0 0 0 0 -466.07946056196494 382.36578362234286 0 382.36578362234286 3313.9974327584787 0 0 0 0 -457.77622235170094 601.82519990717992 0 601.82519990717992 3501.0659413835056 0 0 0 0 975.17856093623197 -374.54547305263259 0 -374.54547305263259 4155.2082563375443 0 0 0 0 -223.09469163980253 -95.893202026312792 0 -95.893202026312792 1578.8642966201005 0 0 0 0 259.33030745128826 1280.1017228565797 0 1280.1017228565797 3377.8310513726246 0 0 0 0 153.50806935862056 49.693377528165001 0 49.693377528165001 73.839820326596964 0 0 0 0 16.021865421038946 10.37904448969185 0 10.37904448969185 11.198227731277065 0 0 0 0 -1.2753492039455523 67.078264130890602 0 67.078264130890602 84.685503547350891 0 0 0 0 1078.8064915518041 645.29359053463122 0 645.29359053463122 313.652344809434 0 0 0 0 7.3405307322011648 6.6567495724523837 0 6.6567495724523837 12.230907629091107 0 0 0 0 477.07991128305559 -1197.283054527019 0 -1197.283054527019 2936.5746937193107 0 0 0 0 792.46457362442402 1125.5181065357847 0 1125.5181065357847 1029.8212370699985 0 0 0 0 2185.0101969822713 940.81716376011173 0 940.81716376011173 4411.2260531440988 0 0 0 0 171.65131958751974 -414.14280912375216 0 -414.14280912375216 3500.3668972667656 0 0 0 0 -534.89776284086702 -14.466954886222084 0 -14.466954886222084 3276.6817914804997 0 0 0 0 8.4570669984987035 11.183477522652538 0 11.183477522652538 46.542343121891463 0 0 0 0 12.870963017515617 8.5369487724570803 0 8.5369487724570803 23.544387488424896 0 0 0 0 302.13379825259324 -7.4312627672788949 0 -7.4312627672788949 168.63144077348261 0 0 0 0 483.6772654589542 -1081.9386184925206 0 -1081.9386184925206 1952.7348782376575 0 0 0 0 12.67576968691615 15.349245043380861 0 15.349245043380861 37.909126474602829 0 0 0 0 -6.5773760457728123 -4.5533573879167903 0 -4.5533573879167903 18.797013144356114 0 0 0 0 -186.53429400193272 -205.73493754582887 0 -205.73493754582887 180.43609363977521 0 0 0 0 3.7065427735265137 6.3579923432893892 0 6.3579923432893892 32.957727817887161 0 0 0 0 6.7796168346221748 16.334437771020021 0 16.334437771020021 66.170477299980121 0 0 0 0 9.3328598322384746 20.194863713923219 0 20.194863713923219 60.185135855235615 0 0 0 0 -4.0183123299460153 -2.6606377617523691 0 -2.6606377617523691 35.649090516343847 0 0 0 0 -1.1537355378028558 -5.3919076729801247 0 -5.3919076729801247 45.987809197381566 0 0 0 0 -8.3989414535935794 -10.653470866469434 0 -10.653470866469434 35.874927737168036 0 0 0 0 -0.43223296187215965 2.3642446309240768 0 2.3642446309240768 30.258025041672227 0 0 0 0 0.83967017446411774 -1.1495276714558713 0 -1.1495276714558713 24.451426044659456 0 0 0 0 2.7300579233099169 11.318595634761984 0 11.318595634761984 38.581067594129941 0 0 0 0 3.46599562467485 5.7803473165986148 0 5.7803473165986148 26.639266008124636 0 0 0 0 10.289129606064307 9.1470841137343086 0 9.1470841137343086 36.578652994496224 0 0 0 0 10.4590626238396 10.132608494604938 0 10.132608494604938 41.086734915446868 0 0 0 0 7.7600949405480453 8.6195565061143782 0 8.6195565061143782 23.914770135237106 0 0 0 0 16.693761046918091 12.435876650549773 0 12.435876650549773 14.097890476227377 0 0 0 0 43.839871868053251 31.985835294763092 0 31.985835294763092 90.710479668676271 0 0 0 0 2.0483168554220264 -3.7048515268307867 0 -3.7048515268307867 20.68595892428803 0 0 0 0 11.104678224419331 8.0432242060705903 0 8.0432242060705903 50.953686451663089 0 0 0 0 7.7567297549280738 10.796267310419353 0 10.796267310419353 50.207101040818088 0 0 0 0 -0.21526503864178181 -10.615007298383105 0 -10.615007298383105 21.75980030058399 0 0 0 0 1.5942730685122459 -14.463848682314534 0 -14.463848682314534 14.673522509530443 0 0 0 0 -93.670170941102242 17.933159705753496 0 17.933159705753496 147.45146144693717 0 0 0 0 -19.885337034578697 -9.5021112056965649 0 -9.5021112056965649 121.27785327800302 0 0 0 0 3.7806723835379756 -9.2515648315982801 0 -9.2515648315982801 17.34244261501766 0 0 0 0 10.186857731814598 3.9410925494303228 0 3.9410925494303228 38.187178940599551 0 0 0 0 12.502878277611103 2.8171096150695121 0 2.8171096150695121 45.900772219873033 0 0 0 0 -18.863330344925998 1.0064535223355051 0 1.0064535223355051 40.884080556512345 0 0 0 0 10.432186070019402 3.8586956090346547 0 3.8586956090346547 14.396706827924589 0 0 0 0 -30.179158307590569 -52.815091948265035 0 -52.815091948265035 -13.602527347611613 0 0 0 0 8.1423001040086476 -9.2446011160140102 0 -9.2446011160140102 9.5339453206370735 0 0 0 0 1.2149412048695503 -3.7637871745838964 0 -3.7637871745838964 6.1298698217663201 0 0 0 0 18.030105989567801 -1.6081167962620384 0 -1.6081167962620384 10.015644522412913 0 0 0 0 87.851811030882345 19.470249199017417 0 19.470249199017417 10.46347968353075 0 0 0 0 50.513245366626904 86.83506001391288 0 86.83506001391288 104.07568324072054 0 0 0 0 57.962979504205578 -78.964236330190033 0 -78.964236330190033 167.82421718642581 0 0 0 0 -21.366851640862933 -69.275808936876274 0 -69.275808936876274 37.18287541290556 0 0 0 0 -84.379391484744019 -75.972187216621023 0 -75.972187216621023 188.31018373087863 0 0 0 0 122.26741899225271 -76.310971825563684 0 -76.310971825563684 99.143157012418669 0 0 0 0 375.69949134355193 -217.34645161649678 0 -217.34645161649678 169.43894839673885 0 0 0 0 3.4482829538992092 -3.1759968613577314 0 -3.1759968613577314 -1.5008787622816797 0 0 0 0 256.87806121581434 -9.8393254458860611 0 -9.8393254458860611 -33.267026620684192 0 0 0 0 -294.38795549737097 60.151364501820353 0 60.151364501820353 398.87524098375434 0 0 0 0 79.76844456831941 -52.666096147240751 0 -52.666096147240751 -45.597115843143911 0 0 0 0 214.57309195077505 157.57975338129472 0 157.57975338129472 61.242387366073672 0 0 0 0 90.759805416237214 -38.409285638990696 0 -38.409285638990696 54.395185328292428 0 0 0 0 -23.651064716073961 26.201235054213612 0 26.201235054213612 56.778186911527882 0 0 0 0 120.29310922431705 45.692666479826585 0 45.692666479826585 11.284154321569076 0 0 0 0 10.298817687831615 -25.125830183067592 0 -25.125830183067592 6.494093801597046 0 0 0 0 34.256945668770641 23.407148186961422 0 23.407148186961422 75.694887821573957 0 0 0 0 -2.9552788283308473 32.955310105840908 0 32.955310105840908 141.79829196171704 0 0 0 0 8.713751675552281 2.2163949089873256 0 2.2163949089873256 15.11920138851178 0 0 0 0 9.7044635001675488 9.6425528413838038 0 9.6425528413838038 56.755524820418941 0 0 0 0 43.214973072567773 39.546528494521226 0 39.546528494521226 29.971620250245905 0 0 0 0 -7.7819272348765605 -1.7860826883001515 0 -1.7860826883001515 40.228415084895374 0 0 0 0 -6.1603896156630071 5.5015547282328043 0 5.5015547282328043 49.962941522797337 0 0 0 0 -15.702701029816881 -5.604044009280301 0 -5.604044009280301 18.539559699229315 0 0 0 0 -8.3410175448807422 -2.5529376861777564 0 -2.5529376861777564 60.704989059049694 0 0 0 0 -7.8543924693351528 9.2360283185989829 0 9.2360283185989829 92.479268046208745 0 0 0 0 11.819894768237191 16.893282925614585 0 16.893282925614585 105.57226707409791 0 0 0 0 81.422565763041803 14.837625064083113 0 14.837625064083113 105.58438330043401 0 0 0 0 9.9491032177297711 4.8691178711569592 0 4.8691178711569592 217.94810640626383 0 0 0 0 -47.991222789683206 14.969687794000492 0 14.969687794000492 120.87714072855306 0 0 0 0 23.490839499363574 -11.913421497683885 0 -11.913421497683885 127.2260162679886 0 0 0 0 31.586017101887421 -1.7672591213595297 0 -1.7672591213595297 55.288758295464504 0 0 0 0 -23.757628196905578 -3.2296061644985308 0 -3.2296061644985308 77.386390682204677 0 0 0 0 -46.60810315525589 -36.603559566368858 0 -36.603559566368858 75.310721338053554 0 0 0 0 21.615469955672779 11.49562956385671 0 11.49562956385671 94.961100926542713 0 0 0 0 45.310840764417662 -23.545194393078418 0 -23.545194393078418 63.076590507327637 0 0 0 0 -19.478770830460491 -6.7052555923840025 0 -6.7052555923840025 93.061606402475803 0 0 0 0 47.362312103209661 33.068870000697643 0 33.068870000697643 97.675563524833251 0 0 0 0 -70.796715944828975 -49.78441082811878 0 -49.78441082811878 143.57136497825559 0 0 0 0 47.493754714704664 33.551283057735418 0 33.551283057735418 99.02319999878091 0 0 0 0 50.482700159757769 53.783412176506317 0 53.783412176506317 72.392513977552881 0 0 0 0 48.491129569165423 46.554774684242147 0 46.554774684242147 68.709207386396884 0 0 0 0 98.125691591993018 19.788482636842673 0 19.788482636842673 56.161219870104105 0 0 0 0 69.099543961733616 66.195885576617002 0 66.195885576617002 -17.172189117656671 0 0 0 0 2.0734105212278964 1.5310342832969042 0 1.5310342832969042 1.3388253421786089 0 0 0 0 -8.347356783507621 -254.451139227569 0 -254.451139227569 255.00258870504331 0 0 0 0 -153.03440279939059 128.14544397004283 0 128.14544397004283 169.73005968001235 0 0 0 0 -23.685881913791491 151.58794532351385 0 151.58794532351385 161.76206897933662 0 0 0 0 5.0983446460118103 180.97209561634918 0 180.97209561634918 193.31091209702936 0 0 0 0 632.68480508950961 -25.308221024715749 0 -25.308221024715749 -65.186777021110174 0 0 0 0 -23.548116072410494 109.84212905128641 0 109.84212905128641 -75.946338707426548 0 0 0 0 9.4007887394943719 -26.970523061788171 0 -26.970523061788171 68.240817787681777 0 0 0 0 -70.246883354607235 -8.2150256038330554 0 -8.2150256038330554 38.758809820661554 0 0 0 0 23.028078142195682 -43.748379637061589 0 -43.748379637061589 51.714299920684425 0 0 0 0 4.0102078681411513 -29.391188442892599 0 -29.391188442892599 103.50891581624228 0 0 0 0 38.918762780309635 56.225435585787409 0 56.225435585787409 -93.973280453024927 0 0 0 0 34.733714412094741 -51.112486606061793 0 -51.112486606061793 -74.005116871972859 0 0 0 0 -104.11113241785688 13.530971949421655 0 13.530971949421655 40.783094033055022 0 0 0 0 -4.214845630746864 3.8070995792099041 0 3.8070995792099041 25.895329411977613 0 0 0 0 -45.420116487591258 14.91728242481804 0 14.91728242481804 33.272260751193244 0 0 0 0 111.22797639440023 287.94727678302661 0 287.94727678302661 -225.77781132572113 0 0 0 0 -44.208550503276001 30.108759627033578 0 30.108759627033578 143.32485445128077 0 0 0 0 4.420541774161709 5.0742039374374812 0 5.0742039374374812 5.1305996101843121 0 0 0 0 50.4144156176053 -127.00165165373619 0 -127.00165165373619 54.9407672655434 0 0 0 0 19.205797663825592 52.165413382517727 0 52.165413382517727 -6.3583597550386912 0 0 0 0 -6.0918814984870551 -0.19764078634398174 0 -0.19764078634398174 43.782333599938283 0 0 0 0 -5.6843920826726801 5.4772288451542721 0 5.4772288451542721 23.147930270103991 0 0 0 0 -2.9145403058544161 6.278018861748933 0 6.278018861748933 33.470501341260388 0 0 0 0 -1.0222934269976811 -0.32087979098405128 0 -0.32087979098405128 9.5519588985549078 0 0 0 0 -3.9845202793327843 -3.091145807094108 0 -3.091145807094108 44.416304691407277 0 0 0 0 -0.40838020133276842 -9.9670211167884162 0 -9.9670211167884162 -0.38617838186735298 0 0 0 0 -26.50351283863165 -20.288378500405088 0 -20.288378500405088 137.56970594027825 0 0 0 0 56.554643519166348 50.069917779983143 0 50.069917779983143 -54.603239448195382 0 0 0 0 46.548282738550597 -115.24185248356116 0 -115.24185248356116 256.06279140020342 0 0 0 0 26.821058585116589 25.759899780932756 0 25.759899780932756 53.03488359147741 0 0 0 0 -1.2812163272415233 -1.4973638521333896 0 -1.4973638521333896 4.8414090345992875 0 0 0 0 -0.11941132160544488 -2.0942186623899524 0 -2.0942186623899524 3.8777171463693918 0 0 0 0 -90.789110821241593 11.043661248673743 0 11.043661248673743 271.96410018889583 0 0 0 0 -30.369308440934219 -22.22496868799135 0 -22.22496868799135 57.891361992515158 0 0 0 0 84.813169679496696 4.5218342422194837 0 4.5218342422194837 128.46823196042533 0 0 0 0 -81.734023391140909 -46.017257557956327 0 -46.017257557956327 115.35154568186408 0 0 0 0 -15.244294686442572 16.138757400911345 0 16.138757400911345 87.779897361153417 0 0 0 0 50.522572164893063 42.613799974995345 0 42.613799974995345 90.779858042577416 0 0 0 0 -28.184230248081349 3.2112107389075391 0 3.2112107389075391 176.88871372333233 0 0 0 0 -37.042381427684859 21.180609102933886 0 21.180609102933886 150.09334333157312 0 0 0 0 -150.85922085550601 46.218939517300896 0 46.218939517300896 154.75157915551154 0 0 0 0 -8.2450975949946042 119.15804557904448 0 119.15804557904448 76.876784627358575 0 0 0 0 -279.93713049869069 125.39505593175045 0 125.39505593175045 112.09380157535634 0 0 0 0 130.56322213332191 -81.675599238818904 0 -81.675599238818904 242.5135399519786 0 0 0 0 371.38653762547665 203.64218576701387 0 203.64218576701387 58.061834105665184 0 0 0 0 -69.132250978112097 18.821196814635186 0 18.821196814635186 778.80025460156503 0 0 0 0 4.6066644804841417 -33.071409672746086 0 -33.071409672746086 -102.44418041103927 0 0 0 0 -21.771959521329336 -15.419549214861036 0 -15.419549214861036 69.581475232538651 0 0 0 0 -92.875234849145272 -92.782200029832893 0 -92.782200029832893 10.277788510087703 0 0 0 0 -91.641548847587728 -8.9512630816461751 0 -8.9512630816461751 55.522388033186871 0 0 0 0 -198.33519531567799 -109.34502709856315 0 -109.34502709856315 2.9389281881303759 0 0 0 0 -115.39833366398398 -126.05480045251534 0 -126.05480045251534 -109.71663895821985 0 0 0 0 -2.9826981715074528 0.14650992524529016 0 0.14650992524529016 7.9637044886453872 0 0 0 0 -222.28057536600579 -135.52940887125988 0 -135.52940887125988 -24.148615600483026 0 0 0 0 -4.7053199786496407 -55.149849893103237 0 -55.149849893103237 -93.923733143470599 0 0 0 0 -2.2601710678824993 -0.28133386475239774 0 -0.28133386475239774 7.4290087920713219 0 0 0 0 93.535637467359919 95.584161230086465 0 95.584161230086465 116.90912980498979 0 0 0 0 -4.4963623257362997 -5.2702995632116654 0 -5.2702995632116654 38.113668991496525 0 0 0 0 4.428225202406793 -6.777458394590667 0 -6.777458394590667 62.118171600654023 0 0 0 0 -6.1315739579791382 0.69322626204126436 0 0.69322626204126436 36.393022256735108 0 0 0 0 -4.6336600420204137 -8.6308428734776594 0 -8.6308428734776594 39.783528595062677 0 0 0 0 29.455565200331648 -63.460092935479224 0 -63.460092935479224 -2.7819326983590145 0 0 0 0 1.9371432268152216 -17.382977809852122 0 -17.382977809852122 30.83985577252222 0 0 0 0 5.8735697429657705 -51.4902253710178 0 -51.4902253710178 1.2639587906814995 0 0 0 0 -26.313405792162484 -82.165138461401511 0 -82.165138461401511 86.748653709859354 0 0 0 0 -53.069168212124168 -45.912404461829283 0 -45.912404461829283 101.68550800717094 0 0 0 0 -34.500232746297115 -26.114579965978919 0 -26.114579965978919 91.657639601675328 0 0 0 0 -33.336505622187815 -22.897465440384622 0 -22.897465440384622 100.43793403392192 0 0 0 0 -49.410349277911337 -34.872897158649721 0 -34.872897158649721 134.1408452140895 0 0 0 0 50.020463048050971 48.759582475061507 0 48.759582475061507 186.28841382636165 0 0 0 0 -165.28886210673954 -2.0683092186918657 0 -2.0683092186918657 283.77706686739111 0 0 0 0 -18.608347820076688 -119.95366222649318 0 -119.95366222649318 256.90399874132709 0 0 0 0 9.1508735950495534 -29.461980030845666 0 -29.461980030845666 68.488376991353846 0 0 0 0 -281.63708452555147 2.8264256001916692 0 2.8264256001916692 141.32665573513441 0 0 0 0 -171.48934484275014 -0.2100990331327921 0 -0.2100990331327921 60.000456344788745 0 0 0 0 -244.95383945644244 182.87575758107141 0 182.87575758107141 125.30346195477523 0 0 0 0 57.407316221801921 -74.306716808241617 0 -74.306716808241617 1.641915597498155 0 0 0 0 67.296443737381196 126.61779444188687 0 126.61779444188687 61.996821840146367 0 0 0 0 -56.474832878924644 -34.31770720192344 0 -34.31770720192344 49.940746769727411 0 0 0 0 -13.36925311346063 -1.4018785977736066 0 -1.4018785977736066 17.163736743949773 0 0 0 0 -65.67561557607587 1.7626084975972844 0 1.7626084975972844 118.18157402766042 0 0 0 0 -63.645514562336757 9.2214247958490887 0 9.2214247958490887 58.569313175588832 0 0 0 0 38.18103314964992 2.2486402055410508 0 2.2486402055410508 92.318654123308079 0 0 0 0 0.64205139602427153 -32.227899720556707 0 -32.227899720556707 261.34621176031578 0 0 0 0 -51.310754502481359 61.742447649556198 0 61.742447649556198 289.7499273819858 0 0 0 0 59.479256588674616 106.06503966469791 0 106.06503966469791 168.35978639728637 0 0 0 0 20.847974856006431 -19.299543611395165 0 -19.299543611395165 91.694193353909213 0 0 0 0 -46.321137217337991 85.987522288422497 0 85.987522288422497 287.20855358418339 0 0 0 0 3.8194752716052465 -15.461814568147236 0 -15.461814568147236 46.731866655420312 0 0 0 0 1.3098280931656063 -21.684155886154258 0 -21.684155886154258 97.54074403804043 0 0 0 0 -191.86668899928543 -57.677850446079901 0 -57.677850446079901 53.324075202993299 0 0 0 0 11.652794569792604 -2.3873341371563583 0 -2.3873341371563583 94.998245425498681 0 0 0 0 6.1883339054388493 -0.52799421851075223 0 -0.52799421851075223 13.307238599536451 0 0 0 0 1.1258358700110316 -0.65331058645975304 0 -0.65331058645975304 0.73725789182975632 0 0 0 0 -392.64221363631532 268.55608991769259 0 268.55608991769259 743.50914120123525 0 0 0 0 -72.637457212433219 -97.794982450814132 0 -97.794982450814132 -215.72253818904937 0 0 0 0 -186.42957313344141 -94.210375882697917 0 -94.210375882697917 -95.150484795118246 0 0 0 0 -138.65447221755971 -29.452614171412279 0 -29.452614171412279 -8.612114038252912 0 0 0 0 -102.40386836098605 -35.717850661356351 0 -35.717850661356351 89.962548343668459 0 0 0 0 -11.102822088655557 0.95844089618185535 0 0.95844089618185535 -185.14170990807906 0 0 0 0 -69.150960596288314 -76.525727828709933 0 -76.525727828709933 -112.10800797434786 0 0 0 0 -62.629885407036909 45.781656515951909 0 45.781656515951909 -36.344076723959006 0 0 0 0 -227.98890502656923 57.76339798236404 0 57.76339798236404 772.38038099977894 0 0 0 0 -121.05210396880102 -16.273460693733796 0 -16.273460693733796 384.03372470007162 0 0 0 0 -31.106461053394924 -73.145481267263676 0 -73.145481267263676 91.626214721175302 0 0 0 0 -127.36478172019633 -61.008274901563709 0 -61.008274901563709 226.98540375802258 0 0 0 0 -136.90602529998796 -233.18464717324969 0 -233.18464717324969 327.74768275257156 0 0 0 0 -71.492467879927972 131.4038740468568 0 131.4038740468568 397.00019076668309 0 0 0 0 3.0626287126289236 -9.9763515234889297 0 -9.9763515234889297 27.643900825131865 0 0 0 0 -324.51423151098652 -122.65919756537551 0 -122.65919756537551 171.23776236942649 0 0 0 0 56.514513795370021 111.89665348106246 0 111.89665348106246 216.17907062551967 0 0 0 0 -101.46400495870967 -67.180763558586477 0 -67.180763558586477 -17.371626677546374 0 0 0 0 -141.66551564470319 -182.88390463361065 0 -182.88390463361065 84.22835663440128 0 0 0 0 609.00294633877843 681.22329791177253 0 681.22329791177253 510.72557553494698 0 0 0 0 168.86454873384901 148.85523461740013 0 148.85523461740013 195.44172145824814 0 0 0 0 444.74307950710659 277.75948181000149 0 277.75948181000149 255.02017531912861 0 0 0 0 52.883634027090011 309.75756903043293 0 309.75756903043293 513.30065828236548 0 0 0 0 63.684732119468777 199.32477451238651 0 199.32477451238651 377.27981103815546 0 0 0 0 -0.44023037143499 -0.93875471394777321 0 -0.93875471394777321 0.17887756516803677 0 0 0 0 49.011019599349311 -450.83004807895304 0 -450.83004807895304 -595.99542516255315 0 0 0 0 0.51332371282334099 -2.4437258701251778 0 -2.4437258701251778 10.133684641262178 0 0 0 0 -114.12557279508428 -167.93689273512973 0 -167.93689273512973 -322.14051663268037 0 0 0 0 -398.60567734996096 -279.47376173384146 0 -279.47376173384146 -70.206618055570289 0 0 0 0 -170.69406388446126 -449.12017264616202 0 -449.12017264616202 704.50208909030698 0 0 0 0 161.72416163326034 -139.09351858102491 0 -139.09351858102491 1177.0708694361238 0 0 0 0 899.94546996065628 -196.65872356440195 0 -196.65872356440195 -20.954464877104328 0 0 0 0 355.28077177560954 295.28534367399698 0 295.28534367399698 323.41342962706403 0 0 0 0 -64.203157063419098 260.69407052723545 0 260.69407052723545 631.83888672644389 0 0 0 0 -95.24511098852804 83.826060564908857 0 83.826060564908857 420.77211923942377 0 0 0 0 127.65918831711951 229.92866427827175 0 229.92866427827175 501.44752220076589 0 0 0 0 166.89671473892849 608.24792561984941 0 608.24792561984941 888.41160800497892 0 0 0 0 73.099679648255915 240.10241932654026 0 240.10241932654026 272.7061231242551 0 0 0 0 -105.62791453811224 -56.624184816828347 0 -56.624184816828347 279.42336503079423 0 0 0 0 -413.2261215336639 -226.84697217272696 0 -226.84697217272696 259.96960201819229 0 0 0 0 -304.48904202441372 -9.6285177222962375 0 -9.6285177222962375 606.22914799476666 0 0 0 0 -136.11857336578032 -76.335199350367475 0 -76.335199350367475 295.57398062200809 0 0 0 0 -144.58224764878105 -58.796087391227047 0 -58.796087391227047 391.64093196809699 0 0 0 0 -61.773079999553374 -162.11887324689815 0 -162.11887324689815 13.726017686415844 0 0 0 0 -82.094995012837899 -121.38342963909599 0 -121.38342963909599 115.80792408635898 0 0 0 0 -91.873101819732256 -27.732216463293298 0 -27.732216463293298 255.78767893558324 0 0 0 0 -187.19308474801437 -82.71065528071631 0 -82.71065528071631 277.37616283025272 0 0 0 0 -104.17885134004246 80.039744449830323 0 80.039744449830323 434.8652119125145 0 0 0 0 -113.76527371302473 25.205804977907974 0 25.205804977907974 320.52220211377426 0 0 0 0 -125.71132369989573 14.029782592326228 0 14.029782592326228 338.73343101650244 0 0 0 0 -96.161956930727683 55.876881420706923 0 55.876881420706923 288.20513799467881 0 0 0 0 -116.66251396911912 -29.139600947438339 0 -29.139600947438339 218.03915317289648 0 0 0 0 -131.55283601958763 63.852481061050639 0 63.852481061050639 388.18199140654178 0 0 0 0 -100.23768448163446 57.222749503860541 0 57.222749503860541 331.55492529865296 0 0 0 0 -66.744832096119353 56.785699552645383 0 56.785699552645383 228.62406517137129 0 0 0 0 -10.630108203757118 74.287267891777446 0 74.287267891777446 86.381319239324512 0 0 0 0 -33.199994297279773 89.944101760138437 0 89.944101760138437 140.22492235800019 0 0 0 0 -2.3724675883604505 -11.273737712188449 0 -11.273737712188449 19.682552168931579 0 0 0 0 -67.066518377683678 52.897730422817403 0 52.897730422817403 228.96683421659691 0 0 0 0 -60.774200496998674 3.5121047103457386 0 3.5121047103457386 165.10926896129968 0 0 0 0 -59.385533478132857 -8.3834686902482645 0 -8.3834686902482645 131.54334794908937 0 0 0 0 -33.015667541418225 93.543273230083287 0 93.543273230083287 210.21308433021477 0 0 0 0 17.366590406427349 43.290731002496614 0 43.290731002496614 113.23220310717443 0 0 0 0 -51.360842057263653 65.642329922498902 0 65.642329922498902 250.83982640117756 0 0 0 0 -29.091522992537648 112.63275017101114 0 112.63275017101114 277.14167094736331 0 0 0 0 -34.447414300237142 88.69577802585809 0 88.69577802585809 208.71366389271861 0 0 0 0 -66.283680256987282 63.916963086678152 0 63.916963086678152 275.95533857875489 0 0 0 0 -77.932512494004186 93.341453211480257 0 93.341453211480257 332.39891498272664 0 0 0 0 -57.344968817348672 99.083227373110731 0 99.083227373110731 304.0341369964226 0 0 0 0 -38.611797538395876 16.373219687121491 0 16.373219687121491 424.27332804928301 0 0 0 0 -55.143307644268134 91.691968314527912 0 91.691968314527912 285.683959740094 0 0 0 0 -45.150392034098331 78.825731201999588 0 78.825731201999588 328.26093384062187 0 0 0 0 -46.432560909852327 121.32498768921505 0 121.32498768921505 308.83244745360207 0 0 0 0 -17.364469600730445 169.15166687072997 0 169.15166687072997 367.15148662502179 0 0 0 0 -14.889175400041267 157.07984818876457 0 157.07984818876457 343.90780882125546 0 0 0 0 -71.027126607034006 108.49344561429098 0 108.49344561429098 367.02999032498519 0 0 0 0 -84.206907049472647 162.54861746793176 0 162.54861746793176 485.86173926368429 0 0 0 0 -86.622577077258029 112.57049185666983 0 112.57049185666983 386.30056918837363 0 0 0 0 -83.226464685751125 85.183594458834705 0 85.183594458834705 312.39476630463469 0 0 0 0 -71.044337997705952 114.28785157800394 0 114.28785157800394 350.32111145118688 0 0 0 0 -19.305882452261045 -19.118787328189825 0 -19.118787328189825 99.043306819450649 0 0 0 0 3.6965357582103024 19.729016447701724 0 19.729016447701724 187.79785814959178 0 0 0 0 -13.646678890385832 -52.13833296095973 0 -52.13833296095973 70.948716448569698 0 0 0 0 -6.7640345211129898 -43.947265270500793 0 -43.947265270500793 120.82919653049612 0 0 0 0 5.035691094872087 -2.5985608144302148 0 -2.5985608144302148 32.882475046345391 0 0 0 0 23.568187534489425 42.115643314667523 0 42.115643314667523 123.68198066346667 0 0 0 0 2.92676609977525 12.062219089855716 0 12.062219089855716 148.59215789648442 0 0 0 0 22.750295433409974 45.05074100935326 0 45.05074100935326 127.19637299858732 0 0 0 0 1.700467802388232 44.109387936719713 0 44.109387936719713 85.699598476552637 0 0 0 0 -7.2836884918796159 -15.883131552609484 0 -15.883131552609484 130.5354121299024 0 0 0 0 -64.617982839731212 -27.485249012070199 0 -27.485249012070199 148.03122701002576 0 0 0 0 -81.168827258387864 16.907249834532195 0 16.907249834532195 288.46649172981051 0 0 0 0 6.1186704203301536 -6.2980690990042234 0 -6.2980690990042234 5.028589278443313 0 0 0 0 50.265559702160317 -96.862625193833082 0 -96.862625193833082 -37.962219901199205 0 0 0 0 -37.298123059139868 -240.53765241865585 0 -240.53765241865585 568.16098485985276 0 0 0 0 -16.908942624418387 26.423240057218209 0 26.423240057218209 184.01375841697882 0 0 0 0 39.149472543132106 58.890656289986509 0 58.890656289986509 154.11117528751856 0 0 0 0 3.6731495877645095 -4.4567184376564413 0 -4.4567184376564413 2.7904196781692931 0 0 0 0 15.500011644966435 52.686673221411183 0 52.686673221411183 320.29471060468495 0 0 0 0 55.004454956138375 -106.03593727301177 0 -106.03593727301177 -220.28292205957405 0 0 0 0 35.414995975763759 82.413283312522708 0 82.413283312522708 208.03152962337481 0 0 0 0 147.09078701806538 216.92895903079625 0 216.92895903079625 -127.83281414772136 0 0 0 0 -35.299139729059334 78.801149641058146 0 78.801149641058146 286.75929184855522 0 0 0 0 -71.083167271951424 59.050252053644726 0 59.050252053644726 593.24117949749052 0 0 0 0 -87.34208253617021 -69.900043567579814 0 -69.900043567579814 188.84205406469846 0 0 0 0 43.531779707560304 333.96715482429067 0 333.96715482429067 127.8918686787365 0 0 0 0 -2.3381647807057799 0.99671888803704434 0 0.99671888803704434 6.5995242245586851 0 0 0 0 -212.42419255142295 109.10618014012471 0 109.10618014012471 -52.377400012070211 0 0 0 0 116.70250425032805 -323.0891900976867 0 -323.0891900976867 -236.22659034281969 0 0 0 0 107.3120193201753 -126.14598162965376 0 -126.14598162965376 183.99202937042173 0 0 0 0 -236.29111323644065 211.2561538056907 0 211.2561538056907 721.40457698278453 0 0 0 0 -347.02467686634327 -12.368590488506015 0 -12.368590488506015 373.5791482482291 0 0 0 0 -7.317224016435917 5.897473458341171 0 5.897473458341171 44.11464369130266 0 0 0 0 2.9341533314594992 0.31835857400676737 0 0.31835857400676737 4.5281446574974638 0 0 0 0 152.94427526405298 237.36222857647772 0 237.36222857647772 220.15312878147233 0 0 0 0 -7.0853234291726039 43.366442912387356 0 43.366442912387356 136.92057881432629 0 0 0 0 32.906884665848793 111.77815015986107 0 111.77815015986107 186.91100690006715 0 0 0 0 10.754614333199243 21.305707924090711 0 21.305707924090711 46.867137420980725 0 0 0 0 -0.31902515304939882 13.224349881834108 0 13.224349881834108 10.35379619451178 0 0 0 0 2.625837056526052 16.005948741680186 0 16.005948741680186 88.944005374170956 0 0 0 0 4.5338077420782383 12.835166520151688 0 12.835166520151688 99.565498192489031 0 0 0 0 -2.0130802496128375 3.6734159547569334 0 3.6734159547569334 30.115285919434527 0 0 0 0 18.018416073465232 27.363054999281303 0 27.363054999281303 49.469531932925747 0 0 0 0 3.4835727287568261 -0.044775021215173183 0 -0.044775021215173183 141.26775131433533 0 0 0 0 -10.276771956445657 45.4522608828579 0 45.4522608828579 173.00434523049262 0 0 0 0 -2.1516706932376639 28.030361990612771 0 28.030361990612771 92.654252254570935 0 0 0 0 -4.2442589383890663 21.180833644604718 0 21.180833644604718 96.621383517980576 0 0 0 0 -25.53178187958747 81.889498100164928 0 81.889498100164928 248.92550571002357 0 0 0 0 -25.015343385350644 11.652375940371911 0 11.652375940371911 25.365203013629596 0 0 0 0 -117.7405870910643 -36.911940463905921 0 -36.911940463905921 307.14727481717637 0 0 0 0 21.637646398343804 86.996233322442095 0 86.996233322442095 196.02258339828404 0 0 0 0 -37.187442286179248 32.566718522008159 0 32.566718522008159 179.19351610174635 0 0 0 0 -12.020799426392841 32.962653192804282 0 32.962653192804282 55.602273101440005 0 0 0 0 -10.925487450553419 70.041722881534952 0 70.041722881534952 196.18955897665001 0 0 0 0 5.4151204269116455 23.40942862733619 0 23.40942862733619 35.498667388554509 0 0 0 0 -0.62077395550818437 36.703928773365988 0 36.703928773365988 63.614754494105 0 0 0 0 1.648912650238616 36.82426638210606 0 36.82426638210606 75.811522150934934 0 0 0 0 -27.129523763238513 15.094482068227009 0 15.094482068227009 125.20502465144395 0 0 0 0 -19.008691498532698 8.3205411989474669 0 8.3205411989474669 93.581912715773797 0 0 0 0 15.063338474938064 8.5692724676628131 0 8.5692724676628131 199.49870786651809 0 0 0 0 -35.516720737253344 31.659093795942802 0 31.659093795942802 125.52229724808518 0 0 0 0 -19.816982428820829 16.362868683336572 0 16.362868683336572 28.018401027363723 0 0 0 0 -42.442552388909462 26.381807603174821 0 26.381807603174821 61.550968488154467 0 0 0 0 -79.342491936320585 89.174876282748301 0 89.174876282748301 327.83147540368373 0 0 0 0 -14.386888890985574 -3.7813401554012671 0 -3.7813401554012671 79.885284684685757 0 0 0 0 -17.244044146691511 -7.1920136240296273 0 -7.1920136240296273 93.713162176264177 0 0 0 0 -68.482678105656305 -2.752472563093761 0 -2.752472563093761 99.048102819288033 0 0 0 0 -1.5437740218014877 1.1222062477200438 0 1.1222062477200438 27.894525295682755 0 0 0 0 75.121893666382675 74.622813530178973 0 74.622813530178973 219.98478459054604 0 0 0 0 -5.731575432836836 4.483173054183851 0 4.483173054183851 81.819127755366125 0 0 0 0 2.0180367406574078 18.001702909066807 0 18.001702909066807 85.061998042570849 0 0 0 0 -47.094800428792951 -14.985583459507325 0 -14.985583459507325 151.72263177293644 0 0 0 0 -31.089650337809871 4.6866945905203465 0 4.6866945905203465 49.168759662657976 0 0 0 0 -18.039879802739271 11.466154604211901 0 11.466154604211901 66.670947040357845 0 0 0 0 -26.105333901262153 3.903354596923613 0 3.903354596923613 86.522738802417393 0 0 0 0 40.718561646128364 21.909826479877665 0 21.909826479877665 105.4855822859281 0 0 0 0 -85.496815399797924 6.450868615800573 0 6.450868615800573 171.43032139295428 0 0 0 0 -25.740667819060036 -62.173156997872866 0 -62.173156997872866 139.88870916259475 0 0 0 0 -9.1141842865810645 3.3684240029648791 0 3.3684240029648791 14.586035974682723 0 0 0 0 -10.96993692054129 26.618844125592418 0 26.618844125592418 52.162666812122424 0 0 0 0 106.97314243647998 55.569387410083436 0 55.569387410083436 163.08054575024289 0 0 0 0 -30.890762149216961 13.98080055421736 0 13.98080055421736 70.703895098618617 0 0 0 0 3.3127736173373705 29.497144677199685 0 29.497144677199685 100.39087959128665 0 0 0 0 -12.222538603362409 71.229767627461115 0 71.229767627461115 198.64557917859565 0 0 0 0 -23.180785520793506 14.873116244532866 0 14.873116244532866 83.734245573621592 0 0 0 0 -13.234446245351137 6.9662582348292403 0 6.9662582348292403 55.482243612482591 0 0 0 0 -13.518461751178364 31.352392899296134 0 31.352392899296134 64.033515236775045 0 0 0 0 -12.220248652585724 9.3594245977583341 0 9.3594245977583341 68.012654916303291 0 0 0 0 -14.098763853164201 2.9927146624831948 0 2.9927146624831948 67.544246892593947 0 0 0 0 -14.94894873670637 15.463325694290688 0 15.463325694290688 47.266374988248572 0 0 0 0 -12.22361535592275 16.788891547445417 0 16.788891547445417 54.355214126649827 0 0 0 0 -13.001057238493338 19.073682120879155 0 19.073682120879155 91.394232822385945 0 0 0 0 -13.41977285977373 4.4829514008306433 0 4.4829514008306433 61.605104395217495 0 0 0 0 -19.967011530974897 -2.7899515385559539 0 -2.7899515385559539 82.242365051705406 0 0 0 0 -21.357675807713406 13.808799726031388 0 13.808799726031388 56.207408375230017 0 0 0 0 -13.617349699781244 4.5832465062958363 0 4.5832465062958363 63.221324920334155 0 0 0 0 -5.7466804606613611 16.195760197786711 0 16.195760197786711 109.01402506737854 0 0 0 0 -9.0897792469366507 34.707864908622795 0 34.707864908622795 90.85797830896766 0 0 0 0 -12.760152999330785 1.699101289457758 0 1.699101289457758 44.287407020514365 0 0 0 0 -14.330460151861189 0.85691386618418619 0 0.85691386618418619 59.574965268868254 0 0 0 0 126.81192141373276 267.95474545448451 0 267.95474545448451 125.54200267134365 0 0 0 0 -67.27162390372132 36.094447483300428 0 36.094447483300428 192.7890194312713 0 0 0 0 -9.5999628584789694 20.81045147968721 0 20.81045147968721 83.22961983943155 0 0 0 0 -134.20907015615603 170.05228331866965 0 170.05228331866965 -135.68910734321616 0 0 0 0 -14.14364179226803 7.9826000178608467 0 7.9826000178608467 7.6703366979984295 0 0 0 0 2.7828577829077403 55.119231921620667 0 55.119231921620667 164.79905121422053 0 0 0 0 -1.6763524442689297 3.5922321939412409 0 3.5922321939412409 9.7000235376319921 0 0 0 0 -241.26254147047553 29.15641471156232 0 29.15641471156232 149.91726519477379 0 0 0 0 -13.64137814774012 3.4496997453674325 0 3.4496997453674325 16.754970625685473 0 0 0 0 -59.719940074992337 11.105089157274051 0 11.105089157274051 154.10325061749973 0 0 0 0 -6.2323652139247052 55.098643767525573 0 55.098643767525573 164.82510623177586 0 0 0 0 -44.316263058155528 16.555542960275488 0 16.555542960275488 145.32057567481388 0 0 0 0 -47.411465994868195 9.3171710921160411 0 9.3171710921160411 154.35141823860613 0 0 0 0 -66.825513197530654 -10.012368663612506 0 -10.012368663612506 141.98044610914803 0 0 0 0 -88.560472362041764 -2.147246639149671 0 -2.147246639149671 169.01631611263292 0 0 0 0 -62.799828158138553 -9.4011924134974834 0 -9.4011924134974834 132.70099864965596 0 0 0 0 -118.50243262729873 -20.956060320835604 0 -20.956060320835604 139.89206336529242 0 0 0 0 -64.03558669874019 -45.716081404869328 0 -45.716081404869328 95.122181174265279 0 0 0 0 -53.049741094027922 -21.085435117782254 0 -21.085435117782254 119.53101955751845 0 0 0 0 0.082735498288062814 21.993140401832825 0 21.993140401832825 59.949083823828033 0 0 0 0 29.715336245885737 94.795853917801651 0 94.795853917801651 69.974825466939365 0 0 0 0 152.78384167427794 -100.1030561278676 0 -100.1030561278676 91.590841015332444 0 0 0 0 -0.92463692247560081 20.437627238031617 0 20.437627238031617 7.1097282420809904 0 0 0 0 33.037871559197811 168.5613799944731 0 168.5613799944731 51.977494672537432 0 0 0 0 1.1369069517360373 23.677257019594002 0 23.677257019594002 78.613653394262883 0 0 0 0 -26.50435479767134 -13.810175649903613 0 -13.810175649903613 119.26553025386238 0 0 0 0 -106.69236911517964 48.621765122214128 0 48.621765122214128 124.02267476221277 0 0 0 0 15.563264586569858 18.272652026698779 0 18.272652026698779 85.048457086044095 0 0 0 0 -7.257120261825607 3.2639285276245715 0 3.2639285276245715 68.55796388833582 0 0 0 0 -7.1939248962442779 8.013112338958166 0 8.013112338958166 58.059864094254408 0 0 0 0 15.27092202042968 20.954122179166006 0 20.954122179166006 61.743156707438175 0 0 0 0 -45.759616319764973 -19.65806909208186 0 -19.65806909208186 106.50047635799274 0 0 0 0 14.490523531672807 54.622642794165586 0 54.622642794165586 55.479518522028229 0 0 0 0 10.729257258751698 44.097932525871045 0 44.097932525871045 51.3126670719831 0 0 0 0 31.641497597625857 83.752440771582769 0 83.752440771582769 65.082000393289491 0 0 0 0 1.3908271606198426 13.957487008151546 0 13.957487008151546 14.370663318224672 0 0 0 0 215.20548872129802 34.298899497181992 0 34.298899497181992 63.355923466733657 0 0 0 0 14.073899323026129 14.295492412738113 0 14.295492412738113 56.852844437534941 0 0 0 0 -4.7432224077259519 1.5446647648221017 0 1.5446647648221017 12.031847482641723 0 0 0 0 -233.89459515750787 97.930593723402126 0 97.930593723402126 -60.556866541461204 0 0 0 0 -78.51829828621976 -82.242406396399019 0 -82.242406396399019 116.75001485157554 0 0 0 0 -160.55004428262419 -118.20052713038604 0 -118.20052713038604 115.4071647565288 0 0 0 0 -163.56794104603063 205.62753631946543 0 205.62753631946543 70.155846756242681 0 0 0 0 38.851708450998331 125.44763704092838 0 125.44763704092838 95.421730966860196 0 0 0 0 -218.97417604464408 -68.412699390813941 0 -68.412699390813941 144.71526031731628 0 0 0 0 -51.230793032275869 -51.135162647638936 0 -51.135162647638936 -43.651389557700895 0 0 0 0 -67.57450274457824 -22.079147847543936 0 -22.079147847543936 150.09541739808628 0 0 0 0 -92.73309674394568 2.9867082737036981 0 2.9867082737036981 253.47662567117368 0 0 0 0 -78.96539891617067 -61.786714196889079 0 -61.786714196889079 246.76417124457657 0 0 0 0 164.59740922117089 130.46988199555926 0 130.46988199555926 105.76977586588691 0 0 0 0 151.5688486393683 166.20924377627125 0 166.20924377627125 40.165484569515684 0 0 0 0 1.8540354761307221 -2.6492230820102236 0 -2.6492230820102236 -0.11257410245208987 0 0 0 0 28.445234913669083 10.99072891688138 0 10.99072891688138 0.87376033432155964 0 0 0 0 129.94587671903446 97.991780959181597 0 97.991780959181597 -111.33984007917024 0 0 0 0 3.6420177963336755 141.08270858782817 0 141.08270858782817 322.08300862099168 0 0 0 0 2.1342696127740055 92.146248439064948 0 92.146248439064948 268.62420786131588 0 0 0 0 5.2583166054719186 96.995957277280468 0 96.995957277280468 258.72495233015798 0 0 0 0 3.799856229501529 98.198904325403419 0 98.198904325403419 265.25848602752194 0 0 0 0 -1.0396245077808679 -2.0151693683401817 0 -2.0151693683401817 1.2944593858825044 0 0 0 0 176.39861578047748 85.091830598234083 0 85.091830598234083 39.406530651467619 0 0 0 0 40.844554093529496 59.771170189072109 0 59.771170189072109 166.79767195562999 0 0 0 0 -3.5655185603108031 -1.7806086648087884 0 -1.7806086648087884 1.7882220657362176 0 0 0 0 -21.609325623383484 27.717944393865764 0 27.717944393865764 212.22719226518166 0 0 0 0 187.96315989146387 223.36834078576794 0 223.36834078576794 192.91394796789973 0 0 0 0 27.097249181342477 55.937189131986088 0 55.937189131986088 161.6498209597703 0 0 0 0 260.39826440413208 86.698370451534174 0 86.698370451534174 87.825899231407675 0 0 0 0 35.664006328178417 67.843924275925929 0 67.843924275925929 163.05506633629557 0 0 0 0 15.822592205105138 -67.577328479146672 0 -67.577328479146672 -6.4351779537100811 0 0 0 0 -400.76593837685141 347.60057302049972 0 347.60057302049972 249.57013219574947 0 0 0 0 -116.28252049874754 -81.71851096451428 0 -81.71851096451428 94.692768812987197 0 0 0 0 -31.487972620087021 142.42922037220706 0 142.42922037220706 89.081510708620044 0 0 0 0 -4.4542972812185901 0.22294231691540034 0 0.22294231691540034 -0.9723547638439598 0 0 0 0 588.41995058564817 -183.89817004435099 0 -183.89817004435099 -380.60574089075817 0 0 0 0 -0.31044370149709266 45.695848755101906 0 45.695848755101906 192.83740760943328 0 0 0 0 -7.9041132959274814 -1.4517028843853126 0 -1.4517028843853126 -0.34033927258758823 0 0 0 0 193.87242937872679 -292.90018143300767 0 -292.90018143300767 18.867314943380734 0 0 0 0 -293.56603102096187 188.59296430564427 0 188.59296430564427 347.3011327924487 0 0 0 0 37.828040127355962 -11.356090732777375 0 -11.356090732777375 -6.2110594695933514 0 0 0 0 -9.2063738311376255 -53.036681772071461 0 -53.036681772071461 129.14447708688022 0 0 0 0 -2.5523162413793443 24.120565998324309 0 24.120565998324309 23.111772448995907 0 0 0 0 -35.761659681964375 10.809320764770746 0 10.809320764770746 81.299161948496476 0 0 0 0 -18.124248636078846 -32.60408956259198 0 -32.60408956259198 115.09795118533657 0 0 0 0 -0.18067795648482843 -16.830726710757517 0 -16.830726710757517 83.986045930971159 0 0 0 0 6.2621018577892755 -13.474124949236284 0 -13.474124949236284 49.09467290322209 0 0 0 0 88.667764156420304 -11.073167231224943 0 -11.073167231224943 83.764345483767784 0 0 0 0 -53.930881968581843 -32.439112718053366 0 -32.439112718053366 122.07839696461451 0 0 0 0 -10.576531943527698 91.335500753713859 0 91.335500753713859 156.97375859298336 0 0 0 0 15.696578022099402 0.13924714550466888 0 0.13924714550466888 98.8344478320505 0 0 0 0 41.617975502711488 -7.2570107594510773 0 -7.2570107594510773 58.975387579388098 0 0 0 0 34.022623460970863 -2.9860260315763298 0 -2.9860260315763298 96.975542993840008 0 0 0 0 7.8045980314861936 13.670625628958078 0 13.670625628958078 119.85251619330666 0 0 0 0 -36.978407922419137 -59.625273268124147 0 -59.625273268124147 54.285362869610253 0 0 0 0 98.498384562105457 43.267997631133767 0 43.267997631133767 85.019609239314377 0 0 0 0 56.384411148982537 -103.82543559071564 0 -103.82543559071564 175.72446574664355 0 0 0 0 325.03788021227638 17.579562068494852 0 17.579562068494852 70.078234412198071 0 0 0 0 64.967838446208361 20.992938782873352 0 20.992938782873352 70.242248354028561 0 0 0 0 -53.642050524542995 -21.445697630175346 0 -21.445697630175346 141.90620398918691 0 0 0 0 -254.84765385121182 175.25513473813044 0 175.25513473813044 218.28145744693029 0 0 0 0 -41.252650297228115 39.452331952310487 0 39.452331952310487 63.372508579396708 0 0 0 0 -86.580022354939047 -7.9812147131597158 0 -7.9812147131597158 208.46602913682818 0 0 0 0 237.26635750842388 -240.44520364827622 0 -240.44520364827622 365.35777112403593 0 0 0 0 536.55315122238858 328.72032057575507 0 328.72032057575507 318.53257107885292 0 0 0 0 100.96621197129298 90.176009012064242 0 90.176009012064242 132.28993028055265 0 0 0 0 109.42526480500601 122.53549846535316 0 122.53549846535316 219.17807470185653 0 0 0 0 51.200532379523793 83.927204527026333 0 83.927204527026333 132.21363326022401 0 0 0 0 -91.379625694513379 85.811308337335504 0 85.811308337335504 298.28390851506447 0 0 0 0 -1.4500368590488506 147.77990866664004 0 147.77990866664004 258.53391541577002 0 0 0 0 -83.322690181923463 -7.5168176838487852 0 -7.5168176838487852 196.44755045108832 0 0 0 0 -120.20112628796232 45.341759368377097 0 45.341759368377097 251.95043980647097 0 0 0 0 -2.0065922326848522 41.024752719977187 0 41.024752719977187 189.23468642729495 0 0 0 0 -5.9111638074045914 -3.9961490293499082 0 -3.9961490293499082 192.5654524003694 0 0 0 0 -47.081352553146644 41.339251729603347 0 41.339251729603347 166.23621065389716 0 0 0 0 -48.093097538369875 85.700995609558959 0 85.700995609558959 180.01648493131142 0 0 0 0 -24.698218274084866 47.130761822097156 0 47.130761822097156 89.472201839202171 0 0 0 0 3.7394163494501527 -2.477857658057232 0 -2.477857658057232 -0.15650668480404928 0 0 0 0 48.954028131458472 22.765078870452271 0 22.765078870452271 -29.783105066276221 0 0 0 0 -41.410361359490707 30.411329087903141 0 30.411329087903141 130.90244400726624 0 0 0 0 89.733525658564758 146.59994169680795 0 146.59994169680795 107.54419251470244 0 0 0 0 -42.147540542493516 148.29350701344811 0 148.29350701344811 300.26354059640289 0 0 0 0 3.4900631657910708 91.81323363249976 0 91.81323363249976 263.25411772769439 0 0 0 0 291.50514286361067 15.721597003777788 0 15.721597003777788 18.429214401305217 0 0 0 0 2.1729182158915421 -2.9385359694554936 0 -2.9385359694554936 -0.19282075770900597 0 0 0 0 244.01210362241545 -61.445606330406008 0 -61.445606330406008 -104.91879704977691 0 0 0 0 107.73322996996285 117.47338138057421 0 117.47338138057421 224.2220201936143 0 0 0 0 302.07524895877106 53.068939403045277 0 53.068939403045277 109.15291054133559 0 0 0 0 300.21321773201015 -13.652710367097654 0 -13.652710367097654 79.859829938570329 0 0 0 0 214.54785830852779 34.617113545202301 0 34.617113545202301 116.05309826461962 0 0 0 0 270.67730698474043 -8.6278058975785825 0 -8.6278058975785825 102.36176674882881 0 0 0 0 128.90513893399111 27.254724407846879 0 27.254724407846879 145.17203518525639 0 0 0 0 105.05879311510762 -27.105846796697733 0 -27.105846796697733 158.59912287691259 0 0 0 0 242.42959859078474 -4.638662861811099 0 -4.638662861811099 101.90778157504974 0 0 0 0 201.48328327113268 -23.274150578421541 0 -23.274150578421541 146.75739591243473 0 0 0 0 249.29854802961927 -33.694312206662289 0 -33.694312206662289 173.68053458346412 0 0 0 0 291.34538959289421 -5.5807843317270454 0 -5.5807843317270454 100.68894739234383 0 0 0 0 -0.76767257613363427 -1.0013163978924666 0 -1.0013163978924666 41.263999235526711 0 0 0 0 121.22759105573277 102.33808363126445 0 102.33808363126445 193.82902944808302 0 0 0 0 -4.3637143184789267 -25.654275835071346 0 -25.654275835071346 111.51857518587136 0 0 0 0 12.541717486401467 -29.809042495744507 0 -29.809042495744507 158.51564297635196 0 0 0 0 -48.908647165119874 -19.279164959860225 0 -19.279164959860225 154.43888838800831 0 0 0 0 -38.083993367890798 -44.417101687882678 0 -44.417101687882678 178.61398382416337 0 0 0 0 153.40483326425237 -10.867496048893372 0 -10.867496048893372 78.789736364265991 0 0 0 0 73.549875457116286 36.7325189632611 0 36.7325189632611 100.66665423858467 0 0 0 0 241.4868030216021 -30.905595427269873 0 -30.905595427269873 91.981341242921189 0 0 0 0 165.86222609847027 19.841858818108449 0 19.841858818108449 104.55188510310518 0 0 0 0 -66.197697951931332 0.19973994579822829 0 0.19973994579822829 107.11584326938782 0 0 0 0 -53.216517125361861 13.730401753299702 0 13.730401753299702 118.94994130196392 0 0 0 0 -26.088820505303374 -17.465545609131425 0 -17.465545609131425 109.79230902664563 0 0 0 0 -37.185115958884126 2.5849454546171273 0 2.5849454546171273 115.7097410322317 0 0 0 0 -20.258784388166532 4.5768889335004133 0 4.5768889335004133 142.23850850860526 0 0 0 0 -8.0366158120741602 -33.274266270134831 0 -33.274266270134831 137.04495342866653 0 0 0 0 -34.118995779364923 -16.195113593867404 0 -16.195113593867404 77.978621977470084 0 0 0 0 -44.877132153160346 -0.44584037476749927 0 -0.44584037476749927 60.529033741650892 0 0 0 0 -46.182031094485865 11.651490616486853 0 11.651490616486853 103.9676189918155 0 0 0 0 -59.644298981813336 13.07506147212689 0 13.07506147212689 101.70059802225398 0 0 0 0 20.909487163895392 79.720004633169992 0 79.720004633169992 91.259378699060562 0 0 0 0 -225.58913233421481 93.51112141526346 0 93.51112141526346 255.04992826681246 0 0 0 0 -390.51397208779235 47.364732494259442 0 47.364732494259442 242.79999234317938 0 0 0 0 -2.6493323335759129 -8.9773506201303519 0 -8.9773506201303519 83.03949129173418 0 0 0 0 -39.359510474889248 -74.547888448763842 0 -74.547888448763842 121.76428132597607 0 0 0 0 -199.81968694744319 14.26392456377846 0 14.26392456377846 149.28067424153778 0 0 0 0 -6.2121881126803373 -10.249429572504845 0 -10.249429572504845 9.4287618710825463 0 0 0 0 -121.05938794848043 -87.547987997970267 0 -87.547987997970267 75.792483457082199 0 0 0 0 350.53214352329815 -175.16743295317588 0 -175.16743295317588 158.65075559121397 0 0 0 0 239.35835019684691 -312.17394487263527 0 -312.17394487263527 35.052908637504515 0 0 0 0 3.578375357409719 15.729649797261466 0 15.729649797261466 53.974117298196525 0 0 0 0 -3.8631593646573492 7.8968787862893848 0 7.8968787862893848 7.9549041351891745 0 0 0 0 -152.92579609090171 40.927500209598293 0 40.927500209598293 -115.90382191063691 0 0 0 0 -313.45416287229455 -67.878514644202369 0 -67.878514644202369 155.25202759918648 0 0 0 0 -363.895902883909 -159.53607126429597 0 -159.53607126429597 266.83307616954517 0 0 0 0 34.954761872439121 131.53227369039314 0 131.53227369039314 173.72309173893154 0 0 0 0 -6.2256934922806977 46.348935026098388 0 46.348935026098388 100.77904024816235 0 0 0 0 123.25138427065394 -401.41823741360349 0 -401.41823741360349 308.17043489393836 0 0 0 0 -137.31999397392792 55.063637201190431 0 55.063637201190431 430.04937962778058 0 0 0 0 -153.17590402276801 -106.0182357238325 0 -106.0182357238325 87.094504522592615 0 0 0 0 -1.7796316118540361 -2.4470623364876189 0 -2.4470623364876189 4.2259576981070275 0 0 0 0 -606.77855107837968 -49.416108961467216 0 -49.416108961467216 269.11428638824691 0 0 0 0 150.7799914362422 -192.40314883611632 0 -192.40314883611632 -333.31472416438191 0 0 0 0 -287.36212133722438 62.695041267846136 0 62.695041267846136 -281.31582763386723 0 0 0 0 178.30314938245647 -32.305170324507344 0 -32.305170324507344 131.06012130916861 0 0 0 0 148.66131727464381 27.564992260653526 0 27.564992260653526 82.995057358370104 0 0 0 0 83.738688417743106 -13.909270590871529 0 -13.909270590871529 105.62335164904653 0 0 0 0 12.41814265272842 14.396310325941158 0 14.396310325941158 126.92471862520324 0 0 0 0 5.1475302973922226 -17.988932017677143 0 -17.988932017677143 106.31011615209718 0 0 0 0 48.454559532947314 11.770057778721821 0 11.770057778721821 67.025281619215093 0 0 0 0 49.145189998947899 18.298887848599406 0 18.298887848599406 113.03138017382116 0 0 0 0 2.0629201701121929 33.403236903832294 0 33.403236903832294 91.141339674777555 0 0 0 0 52.31731326033696 -26.927635629746874 0 -26.927635629746874 61.197519105653555 0 0 0 0 154.92868719204489 -6.7542139564566241 0 -6.7542139564566241 57.66467175667276 0 0 0 0 193.26871878633028 54.583703388565482 0 54.583703388565482 117.28177876283098 0 0 0 0 190.53311124390621 -5.2816693040416567 0 -5.2816693040416567 82.19399984714255 0 0 0 0 188.6869947140799 7.0793527728282015 0 7.0793527728282015 25.823193708929466 0 0 0 0 4.947064190386854 10.258434611851428 0 10.258434611851428 26.768439657345603 0 0 0 0 644.36072560182583 -322.22165298966638 0 -322.22165298966638 -147.90504497516667 0 0 0 0 35.351194791102898 33.017756358713086 0 33.017756358713086 80.609791306098487 0 0 0 0 -44.815690029347024 138.82194995386817 0 138.82194995386817 102.87215584228738 0 0 0 0 218.78933903578218 -29.22338186090019 0 -29.22338186090019 45.955424092911926 0 0 0 0 -834.91059706278611 305.39757444011138 0 305.39757444011138 128.71094560236907 0 0 0 0 -86.386378221108316 207.87159903144493 0 207.87159903144493 79.414185203893794 0 0 0 0 0.81889283717200811 9.766151026405133 0 9.766151026405133 2.9741262495521852 0 0 0 0 -1.8955620916511364 18.55792251011065 0 18.55792251011065 83.581316071675715 0 0 0 0 -229.1994745003841 245.86981491490849 0 245.86981491490849 6.9765064251914737 0 0 0 0 -103.78915122460694 212.72538584409585 0 212.72538584409585 -78.910950276604126 0 0 0 0 -329.11995038870373 7.134237647676855 0 7.134237647676855 -118.08371191961305 0 0 0 0 -690.54683590881359 -12.450554577555067 0 -12.450554577555067 216.00923859691466 0 0 0 0 -176.11609766782203 -297.13842886400926 0 -297.13842886400926 332.07871186825287 0 0 0 0 -286.71658833811671 146.72842078130452 0 146.72842078130452 329.22889981267247 0 0 0 0 -920.880110275677 -56.13922657495732 0 -56.13922657495732 194.89604222319394 0 0 0 0 -339.47013310253897 -378.47025058125746 0 -378.47025058125746 187.00519117067415 0 0 0 0 -8.6200493509841962 -9.4591478134839235 0 -9.4591478134839235 10.690340466103436 0 0 0 0 -984.37843078029255 483.28902612386173 0 483.28902612386173 76.470634662191969 0 0 0 0 -485.36436595896521 290.36683176506767 0 290.36683176506767 155.3280206452655 0 0 0 0 -181.989811436335 81.507401315329844 0 81.507401315329844 17.404776485749608 0 0 0 0 0.48702513500138167 19.648560307578954 0 19.648560307578954 85.938709363037333 0 0 0 0 -156.83028815572925 188.5641362246065 0 188.5641362246065 -66.49818036812394 0 0 0 0 -169.45338365830321 218.56308891597837 0 218.56308891597837 321.92988352684552 0 0 0 0 -343.23798074495426 -129.28987791481359 0 -129.28987791481359 87.902623565176327 0 0 0 0 -877.59366077209324 -198.8546617293938 0 -198.8546617293938 93.903164800405648 0 0 0 0 -141.73520013511006 347.55353612663657 0 347.55353612663657 -108.29721579440775 0 0 0 0 -1106.5532979925883 481.66405035930643 0 481.66405035930643 536.66561443328283 0 0 0 0 0.3563958503308271 11.29977874316463 0 11.29977874316463 65.081311129214555 0 0 0 0 -583.96519959167199 24.35144769092949 0 24.35144769092949 325.66444586783837 0 0 0 0 -335.95715437931358 88.382174106841376 0 88.382174106841376 197.32246560769636 0 0 0 0 -77.163595074289333 -118.58602681118191 0 -118.58602681118191 279.41647051698419 0 0 0 0 -209.88897235302829 -182.51191806151473 0 -182.51191806151473 321.63217977395107 0 0 0 0 -226.38578844592485 34.609761261879612 0 34.609761261879612 315.38826568440163 0 0 0 0 504.32439942360634 252.14848896701733 0 252.14848896701733 130.20506386557281 0 0 0 0 873.33710411131324 -453.48284428943316 0 -453.48284428943316 117.30849316760759 0 0 0 0 3.1127440087639329 3.9613252383685733 0 3.9613252383685733 7.3836611594489057 0 0 0 0 -255.83822748641978 -104.67815515825987 0 -104.67815515825987 850.6893119768738 0 0 0 0 -333.19390352377377 -54.014653919759439 0 -54.014653919759439 -30.482873286186987 0 0 0 0 421.59712156338173 635.36332497745138 0 635.36332497745138 535.4932650111441 0 0 0 0 897.55972571962502 28.338523127841427 0 28.338523127841427 198.65038199437367 0 0 0 0 279.93833420366173 -89.677015877895883 0 -89.677015877895883 623.62931980650865 0 0 0 0 225.55989093745666 31.165551294729994 0 31.165551294729994 432.1971688877552 0 0 0 0 203.61790356451638 155.81445787928442 0 155.81445787928442 313.89705162279279 0 0 0 0 204.25156292195607 267.51908037431986 0 267.51908037431986 611.90470697946694 0 0 0 0 181.21312175384992 222.04106096867235 0 222.04106096867235 365.99946627335703 0 0 0 0 191.07430091548667 175.90931020088283 0 175.90931020088283 426.72775271490536 0 0 0 0 236.93402715168395 11.673112250500481 0 11.673112250500481 175.67232293919187 0 0 0 0 -137.76810489654417 48.315667915378071 0 48.315667915378071 197.24119940833043 0 0 0 0 5.1096340888747491 2.2813322677393728 0 2.2813322677393728 0.2583645148931879 0 0 0 0 -139.83466095225049 114.26124734230052 0 114.26124734230052 5.3688901164332492 0 0 0 0 -5.1297553573135701 -30.606359182496362 0 -30.606359182496362 339.66920700197079 0 0 0 0 -18.450156443646847 -19.413289112537313 0 -19.413289112537313 332.57028036207703 0 0 0 0 3.4031006304797486 0.062959435015280008 0 0.062959435015280008 -0.67444667825109761 0 0 0 0 176.19976964705347 288.03319824128903 0 288.03319824128903 -211.08558553866897 0 0 0 0 1.1169015730083629 -158.41478695506703 0 -158.41478695506703 836.5333839908526 0 0 0 0 271.02396074448916 282.57383421736995 0 282.57383421736995 481.69845359095416 0 0 0 0 -52.022413121638237 145.50514076467607 0 145.50514076467607 421.82746590493844 0 0 0 0 -1.88118280250346 -2.1422553620991138 0 -2.1422553620991138 1.6804368744094162 0 0 0 0 67.256712331596646 187.80421128161379 0 187.80421128161379 221.59224500222263 0 0 0 0 54.697456112879081 108.78790456583647 0 108.78790456583647 123.83213949832498 0 0 0 0 -1.7345174754623258 43.395981111864103 0 43.395981111864103 327.45953255234053 0 0 0 0 255.8838032920321 126.70409672495407 0 126.70409672495407 162.09118196787313 0 0 0 0 136.34827962642339 19.707058723167393 0 19.707058723167393 181.35826538428955 0 0 0 0 262.33796353265279 -5.9741849804304366 0 -5.9741849804304366 19.621867431835426 0 0 0 0 336.52378517841134 70.308855443692664 0 70.308855443692664 57.187410902900865 0 0 0 0 220.9695378046963 132.45353341996997 0 132.45353341996997 319.86002153720256 0 0 0 0 236.93712566405884 117.22493852372099 0 117.22493852372099 212.62486863750519 0 0 0 0 194.7229195878167 58.456076364528371 0 58.456076364528371 349.89147459335072 0 0 0 0 -14.952476042906291 125.69424690469168 0 125.69424690469168 -72.621587199770147 0 0 0 0 -241.10022331210058 70.640589163223922 0 70.640589163223922 188.03500773054657 0 0 0 0 700.26012589359971 255.56686246919708 0 255.56686246919708 -408.35205986052461 0 0 0 0 548.39187941658929 377.42460808219766 0 377.42460808219766 -70.667458646534214 0 0 0 0 -94.068788286629115 120.36318975385984 0 120.36318975385984 -10.612498987495201 0 0 0 0 -340.89067430195848 807.43640826060437 0 807.43640826060437 -373.32739007860073 0 0 0 0 6.2302794831922625 13.648591877798864 0 13.648591877798864 23.883975681835466 0 0 0 0 -465.83882555796936 -263.76902103523753 0 -263.76902103523753 -102.11004347317976 0 0 0 0 199.04220644868838 464.64632786143193 0 464.64632786143193 695.87650652129378 0 0 0 0 129.29465165453524 -193.83486631624191 0 -193.83486631624191 431.87312276585726 0 0 0 0 557.52427349386062 370.35290512689971 0 370.35290512689971 961.44706618593773 0 0 0 0 52.2309133743247 421.81041029737389 0 421.81041029737389 2393.6436961358559 0 0 0 0 273.29521119830611 221.99827894517512 0 221.99827894517512 1180.7814449423895 0 0 0 0 163.47320917649267 -44.900422810824239 0 -44.900422810824239 912.88034036831232 0 0 0 0 -583.99929778914839 68.319169768379652 0 68.319169768379652 2929.7109165493166 0 0 0 0 -287.30683648282593 -160.56212599895662 0 -160.56212599895662 -36.146149225685804 0 0 0 0 -131.92891219079445 217.19610663485219 0 217.19610663485219 26.455698903646407 0 0 0 0 -1027.0188339418369 892.16901950212377 0 892.16901950212377 881.4531056170963 0 0 0 0 2.9185717149241182 11.578791189043613 0 11.578791189043613 27.233763838369441 0 0 0 0 0.26525106163335854 -15.265016467138594 0 -15.265016467138594 1233.0470892328303 0 0 0 0 0.055325963250808741 2.935514148072258 0 2.935514148072258 13.947888279888446 0 0 0 0 182.99532215717164 -1226.3107852262801 0 -1226.3107852262801 1258.4461227477223 0 0 0 0 -1058.7575755634898 -987.97019164291123 0 -987.97019164291123 2130.9234121527334 0 0 0 0 -312.31068093768874 686.90386753572966 0 686.90386753572966 1570.0039247728819 0 0 0 0 127.92691823592362 448.42925670647855 0 448.42925670647855 1445.9464862808964 0 0 0 0 -758.39083178033434 1059.7925575473564 0 1059.7925575473564 3485.666585341889 0 0 0 0 237.09255175173666 -1475.7900018303462 0 -1475.7900018303462 3492.4981262978035 0 0 0 0 -187.05045849402737 -273.75989912149089 0 -273.75989912149089 896.23051642910173 0 0 0 0 -486.08613153664453 1612.4103965137874 0 1612.4103965137874 370.08871421671938 0 0 0 0 -0.34015405459416354 3.0742186838253929 0 3.0742186838253929 16.73252431695272 0 0 0 0 -1208.3508368047608 -162.27039592684741 0 -162.27039592684741 735.46158210164867 0 0 0 0 -46.270400538287277 7.2672130433129496 0 7.2672130433129496 904.42725635417446 0 0 0 0 -6.1824213806985355 5.6882340811376082 0 5.6882340811376082 36.333031325263732 0 0 0 0 -1435.4193123043244 197.15117052434653 0 197.15117052434653 420.06249049263715 0 0 0 0 -1225.9690075341621 -515.08712191304221 0 -515.08712191304221 -158.96680387081869 0 0 0 0 -1198.3953102411849 -346.62982888049737 0 -346.62982888049737 867.56614249031554 0 0 0 0 -523.05613113262621 -76.754972802003977 0 -76.754972802003977 453.67954718638794 0 0 0 0 -1222.7517117886587 -1773.775245428279 0 -1773.775245428279 -760.3857535970601 0 0 0 0 76.93887086675295 1492.9189189937824 0 1492.9189189937824 3527.0836885652643 0 0 0 0 -1.8392401334016668 -2.6471767760586431 0 -2.6471767760586431 5.7323311602842182 0 0 0 0 116.70913652088802 293.00230900050519 0 293.00230900050519 1517.4031129895156 0 0 0 0 -51.013329856441032 444.84704011589565 0 444.84704011589565 2712.4274753047794 0 0 0 0 -4.9675787410723231 0.53849005586765486 0 0.53849005586765486 9.2643427069453992 0 0 0 0 -7.8743326868594661 -6.2004334869255899 0 -6.2004334869255899 20.613225509182143 0 0 0 0 290.02910630645761 701.06608300932385 0 701.06608300932385 2061.4155177176872 0 0 0 0 902.95088363839477 820.97443782408664 0 820.97443782408664 1717.6690413686883 0 0 0 0 871.53706296429118 12.294663689572189 0 12.294663689572189 1486.3737751189692 0 0 0 0 307.7004234852011 832.15150682776584 0 832.15150682776584 2233.3395508097601 0 0 0 0 1348.8513752824419 1111.7669149188987 0 1111.7669149188987 584.19448880359414 0 0 0 0 167.86476087530673 484.88095789826184 0 484.88095789826184 1374.4291475442296 0 0 0 0 291.19412918548096 655.14184495333757 0 655.14184495333757 1094.2839704387879 0 0 0 0 265.94925213606439 765.70894934116222 0 765.70894934116222 1154.2568227441297 0 0 0 0 203.46847827880265 622.39001043291137 0 622.39001043291137 881.47306285795639 0 0 0 0 -16.251972977921589 5.2922256250471094 0 5.2922256250471094 12.11411364142009 0 0 0 0 576.46401899426291 344.35827985268406 0 344.35827985268406 478.3324324907253 0 0 0 0 71.006831174021841 -79.018759699036309 0 -79.018759699036309 186.29679172006581 0 0 0 0 -5.4953496809879994 484.77681470105017 0 484.77681470105017 1000.9253955596869 0 0 0 0 -10.329014749202232 -1.7637723046064764 0 -1.7637723046064764 10.564847827795859 0 0 0 0 79.174931303828998 557.56408742389613 0 557.56408742389613 871.01090182257758 0 0 0 0 50.296770684138451 78.12478357144073 0 78.12478357144073 1630.7767908159294 0 0 0 0 -91.227200883553508 520.94406304625591 0 520.94406304625591 1763.4234730376629 0 0 0 0 -524.79083728610556 201.43090754015793 0 201.43090754015793 3500.8222298704859 0 0 0 0 -213.38775284607294 -385.89424291562318 0 -385.89424291562318 2068.0559074613411 0 0 0 0 -950.30219519462094 -87.025475892467512 0 -87.025475892467512 1721.1773269191617 0 0 0 0 -760.63745691989016 276.06350683184064 0 276.06350683184064 2124.7847083134548 0 0 0 0 -287.22701379815334 685.23625767078715 0 685.23625767078715 2467.0791524311644 0 0 0 0 -565.5869773857371 -429.35644729984779 0 -429.35644729984779 539.44484466451104 0 0 0 0 -289.49838984016088 652.81806199127459 0 652.81806199127459 3499.3228034512649 0 0 0 0 -4.9811165696503874 -1.1865372096254418 0 -1.1865372096254418 8.0780990570326594 0 0 0 0 184.8999277904874 1247.2290142759739 0 1247.2290142759739 3665.0534722677603 0 0 0 0 52.192731308903603 481.68569372536149 0 481.68569372536149 661.85265942826845 0 0 0 0 -321.17032940403442 625.01499154409248 0 625.01499154409248 1203.4604366373678 0 0 0 0 -180.42460322774889 647.58093185277539 0 647.58093185277539 1077.2011236590915 0 0 0 0 -210.54322572863518 1050.2752589709589 0 1050.2752589709589 2001.6423721676838 0 0 0 0 104.38317058596027 794.48563100174033 0 794.48563100174033 1051.5213812902221 0 0 0 0 51.79048696293443 922.69786181753625 0 922.69786181753625 1202.2400826103403 0 0 0 0 30.081833852614182 748.58677490129048 0 748.58677490129048 1024.0269392003465 0 0 0 0 166.55973325451805 531.3177557003728 0 531.3177557003728 848.52651470060664 0 0 0 0 197.97172206999812 697.37970628433686 0 697.37970628433686 1039.645292944424 0 0 0 0 198.12296282327068 712.2489323304851 0 712.2489323304851 789.5878697107546 0 0 0 0 305.30341100097655 482.81196434303547 0 482.81196434303547 595.28848397468391 0 0 0 0 296.12136792501224 399.04939295826989 0 399.04939295826989 428.97597836639034 0 0 0 0 299.60056173446816 305.98430821931288 0 305.98430821931288 287.54611926749931 0 0 0 0 289.39103859565995 290.86512722280168 0 290.86512722280168 516.34252294112957 0 0 0 0 410.69108599427631 335.22469695089603 0 335.22469695089603 313.00127722467005 0 0 0 0 244.71013505385167 380.75917191951885 0 380.75917191951885 895.66256398448604 0 0 0 0 402.60734111390957 177.29926322105166 0 177.29926322105166 955.24111553723924 0 0 0 0 353.89473325917925 202.86501467254857 0 202.86501467254857 943.5829873514449 0 0 0 0 337.47401995245536 302.03469952454179 0 302.03469952454179 547.15785310942738 0 0 0 0 388.51659788168399 17.037149987896555 0 17.037149987896555 972.76774068751547 0 0 0 0 408.71527587006312 374.48148740675242 0 374.48148740675242 1208.1410696839739 0 0 0 0 503.11321169326925 89.385050737666461 0 89.385050737666461 441.96776634888374 0 0 0 0 434.18001478266888 240.21245993550838 0 240.21245993550838 569.04854242723741 0 0 0 0 471.52544331653235 300.49664422862406 0 300.49664422862406 352.63907365213527 0 0 0 0 575.43508294190815 170.38541958050337 0 170.38541958050337 149.58342961495509 0 0 0 0 759.99829532958006 675.26843830003054 0 675.26843830003054 186.41625612925418 0 0 0 0 539.29974240002412 435.71454182673915 0 435.71454182673915 -42.67073494309443 0 0 0 0 515.27713123713215 456.71659739516781 0 456.71659739516781 227.91026512969984 0 0 0 0 267.31991512480352 271.50046616776126 0 271.50046616776126 275.42875753498811 0 0 0 0 -1.2261234034447801 -0.32988864818435104 0 -0.32988864818435104 1.1764540284689815 0 0 0 0 15.705079780328788 140.92450425368588 0 140.92450425368588 143.99285728186078 0 0 0 0 165.47879944613055 256.395925064935 0 256.395925064935 312.13796099622778 0 0 0 0 249.13476115997969 343.33551014641489 0 343.33551014641489 312.60651045746636 0 0 0 0 99.922644666405176 232.4602455845743 0 232.4602455845743 224.76780164421507 0 0 0 0 140.83443042191334 71.203307005751412 0 71.203307005751412 113.79490498396626 0 0 0 0 -2.4422495775433557 0.007032234657032177 0 0.007032234657032177 1.2791743723668105 0 0 0 0 -17.317913058758677 78.44552464249864 0 78.44552464249864 232.93074891465949 0 0 0 0 23.908739048674988 32.680250904908462 0 32.680250904908462 113.63465358279063 0 0 0 0 26.434801636503472 20.028365980482675 0 20.028365980482675 82.669586612290004 0 0 0 0 26.216114677379664 77.655700771851116 0 77.655700771851116 129.92104294731689 0 0 0 0 -19.741007164504481 8.4937931914319051 0 8.4937931914319051 97.115549736321555 0 0 0 0 -7.6224052434099576 12.723768958159781 0 12.723768958159781 131.39964883431094 0 0 0 0 -25.824093802428251 17.466538988664979 0 17.466538988664979 72.409770611167914 0 0 0 0 8.8871004962802544 25.176326703702216 0 25.176326703702216 70.910424853547738 0 0 0 0 -1.3889129983144812 -15.880707737422199 0 -15.880707737422199 46.029263587688547 0 0 0 0 0.52222832550293319 0.13811106491372982 0 0.13811106491372982 15.575643398408602 0 0 0 0 30.911350974704874 63.677774241536099 0 63.677774241536099 106.04550973389996 0 0 0 0 -19.513343559311174 -10.166904987203438 0 -10.166904987203438 33.013358008945232 0 0 0 0 -23.080476176586671 -4.1099716484750388 0 -4.1099716484750388 69.41337575820944 0 0 0 0 6.4680517990673252 -0.98740215366706252 0 -0.98740215366706252 62.561696466393187 0 0 0 0 4.4669188226935148 22.666434165446844 0 22.666434165446844 51.298706886300351 0 0 0 0 19.71869340251942 29.622400205378653 0 29.622400205378653 88.056834296403395 0 0 0 0 -3.4083318457660425 20.218255386025703 0 20.218255386025703 101.69858981214929 0 0 0 0 7.1413469760536827 72.701847022624861 0 72.701847022624861 169.51839914206357 0 0 0 0 -4.8718759972851391 -0.34276298787455062 0 -0.34276298787455062 -0.65358303731409251 0 0 0 0 108.8586714175849 -29.025520538954879 0 -29.025520538954879 25.261348113061104 0 0 0 0 -4.969079370106158 87.684634055618517 0 87.684634055618517 167.36035885909223 0 0 0 0 -4.3632140775019899 9.2407152978324518 0 9.2407152978324518 19.2894040103359 0 0 0 0 1.0050875892420663 44.334676095404575 0 44.334676095404575 126.19490722436603 0 0 0 0 6.3811890037414969 -33.112023271249654 0 -33.112023271249654 53.418610639680992 0 0 0 0 -82.957025577492459 62.10755185263406 0 62.10755185263406 150.14368497381656 0 0 0 0 346.95888023225461 115.74052228216897 0 115.74052228216897 94.086001849009335 0 0 0 0 11.050288452949644 -15.105537040046329 0 -15.105537040046329 139.23268562411249 0 0 0 0 222.41289380882563 272.01415762996476 0 272.01415762996476 340.74409798785928 0 0 0 0 397.94204140158126 381.78049223199196 0 381.78049223199196 280.02324038009101 0 0 0 0 206.44893659446302 351.64421620607754 0 351.64421620607754 466.74722661073611 0 0 0 0 267.50671354880978 201.09409813408274 0 201.09409813408274 207.00858139066258 0 0 0 0 263.20574894438096 447.02805002698733 0 447.02805002698733 536.21234709285636 0 0 0 0 577.52317644056757 706.0712526359639 0 706.0712526359639 541.47064476118396 0 0 0 0 411.30068054857566 483.41008138571488 0 483.41008138571488 411.39363126522403 0 0 0 0 462.4149726256926 396.24294422043295 0 396.24294422043295 288.94096731634636 0 0 0 0 1383.5877525042583 766.15973691854379 0 766.15973691854379 312.35185877970798 0 0 0 0 491.95954674947876 1103.569081284727 0 1103.569081284727 1220.2547249944328 0 0 0 0 457.05296336544035 979.08350203793816 0 979.08350203793816 898.34479604816079 0 0 0 0 456.29007479395085 1009.9463187898946 0 1009.9463187898946 1221.0490694117689 0 0 0 0 425.13320397412934 924.43166596140509 0 924.43166596140509 1287.5551179729355 0 0 0 0 909.37997595187358 2156.3480130816906 0 2156.3480130816906 3490.0742517060353 0 0 0 0 -378.35642293801715 1177.887146905894 0 1177.887146905894 3501.8664103468836 0 0 0 0 525.31053521665365 1283.2246775090298 0 1283.2246775090298 1712.5625171100837 0 0 0 0 454.64626849497313 -1771.8215017761977 0 -1771.8215017761977 3491.4352652523448 0 0 0 0 7.3665110270329688 9.8928772105305569 0 9.8928772105305569 28.251905059970852 0 0 0 0 3143.156272899299 1303.461572267368 0 1303.461572267368 291.41807066067122 0 0 0 0 9.1314134900268904 24.273967560365158 0 24.273967560365158 70.723076198360559 0 0 0 0 221.92029402515755 327.82711860392374 0 327.82711860392374 311.20614622154972 0 0 0 0 560.41096203510551 153.90477764939715 0 153.90477764939715 246.86586179118922 0 0 0 0 549.33137047612809 143.1608974032597 0 143.1608974032597 41.604456959030358 0 0 0 0 62.334165321397052 162.26547921523888 0 162.26547921523888 65.129862942510385 0 0 0 0 236.92636439984136 78.519465274366667 0 78.519465274366667 62.845949100543294 0 0 0 0 72.68198885842088 42.96259234610261 0 42.96259234610261 634.53762653531157 0 0 0 0 171.4881014736585 201.34527495646398 0 201.34527495646398 690.27185996272237 0 0 0 0 -148.93778146689033 -165.26353531148197 0 -165.26353531148197 738.97874268809392 0 0 0 0 -107.43212844437278 -533.48132738268032 0 -533.48132738268032 1154.1252088478923 0 0 0 0 -60.776986378946447 -12.821336480352329 0 -12.821336480352329 849.18292720313912 0 0 0 0 -152.521054909253 72.609748856944861 0 72.609748856944861 1745.8408127414732 0 0 0 0 -551.3681817219159 -163.38441623016297 0 -163.38441623016297 3501.5770909194325 0 0 0 0 -111.91428341327702 -640.57678816973566 0 -640.57678816973566 1595.7240888309743 0 0 0 0 198.09083422860482 613.64584309597558 0 613.64584309597558 3498.4227155736162 0 0 0 0 -419.91501824688606 36.495763298542442 0 36.495763298542442 2959.5486882431869 0 0 0 0 -375.18946267750141 -6.4317352018806559 0 -6.4317352018806559 1869.9405337792632 0 0 0 0 49.952232035300881 622.05104598787875 0 622.05104598787875 1887.6287071276502 0 0 0 0 678.96872617339454 1178.7575412620135 0 1178.7575412620135 1458.4528617614633 0 0 0 0 -15.293763509501446 59.47287537324155 0 59.47287537324155 658.50527398152917 0 0 0 0 9.6263256180369581 -82.140306596204027 0 -82.140306596204027 187.95767682624501 0 0 0 0 247.3250995969222 49.990758789925167 0 49.990758789925167 86.338744716267684 0 0 0 0 78.92920318957745 243.57487325570401 0 243.57487325570401 495.88106677764154 0 0 0 0 87.189043096034553 -10.011253550136644 0 -10.011253550136644 809.34216498179012 0 0 0 0 -0.098041088138565158 0.9439707897227656 0 0.9439707897227656 -0.27149899032087887 0 0 0 0 4.6170450960636913 262.21067938730266 0 262.21067938730266 655.8135546549056 0 0 0 0 173.96969546975427 67.56187237931772 0 67.56187237931772 44.698037204419961 0 0 0 0 25.047507240805089 5.3300246912513103 0 5.3300246912513103 -25.341788582980371 0 0 0 0 -38.503948355011858 -24.153894512121042 0 -24.153894512121042 80.344367026227701 0 0 0 0 4.879404725195891 4.3233252551645265 0 4.3233252551645265 -2.1033832283945344 0 0 0 0 68.651305285347121 62.40583733881067 0 62.40583733881067 9.0857084255549125 0 0 0 0 50.897384604942999 -110.32153990907682 0 -110.32153990907682 17.396531225072977 0 0 0 0 6.4575073092746607 -13.217250909568975 0 -13.217250909568975 105.18634873171322 0 0 0 0 21.598291732276834 23.276081624590006 0 23.276081624590006 38.479279970488278 0 0 0 0 -3.9366173542603207 -17.310776455164614 0 -17.310776455164614 31.31557325895119 0 0 0 0 6.6198839791547588 -5.6686896875456227 0 -5.6686896875456227 9.9945781863521859 0 0 0 0 -2.1395957354502571 34.693267249560449 0 34.693267249560449 97.217876304316633 0 0 0 0 21.950046954676509 19.747384019952733 0 19.747384019952733 27.470115065079881 0 0 0 0 1.9059916973934623 -10.945174429410557 0 -10.945174429410557 13.869201528822572 0 0 0 0 -13.394939922910453 13.104446268544052 0 13.104446268544052 76.587126587779494 0 0 0 0 -1.2243180361928037 -1.5367111353849054 0 -1.5367111353849054 2.037070149962446 0 0 0 0 -113.72900011259526 145.8106936258846 0 145.8106936258846 31.793593666210654 0 0 0 0 -7.1418094911568915 -16.778029249006067 0 -16.778029249006067 -34.017747465928551 0 0 0 0 197.99411309663265 148.37724083571811 0 148.37724083571811 -104.28213906399469 0 0 0 0 -14.9284261450602 -14.513930391187387 0 -14.513930391187387 23.524027611885685 0 0 0 0 0.98375869749675093 -0.25404853682427131 0 -0.25404853682427131 8.9179060445608513 0 0 0 0 -4.6500574298138879 7.7193809328126992 0 7.7193809328126992 32.989572302109224 0 0 0 0 -1.9832677817320645 -7.2276710824846617 0 -7.2276710824846617 13.913316274197825 0 0 0 0 2.0431395896942774 12.791531551913067 0 12.791531551913067 38.351689364382764 0 0 0 0 -4.5341313377275583 -6.7415001285116887 0 -6.7415001285116887 13.682928807596909 0 0 0 0 15.175478425843743 9.422619851098176 0 9.422619851098176 -8.9299875825713286 0 0 0 0 110.42046300272267 -25.976650542546849 0 -25.976650542546849 -49.790553682672908 0 0 0 0 -50.425327363548291 114.53496214230108 0 114.53496214230108 62.434461773591465 0 0 0 0 9.4806973886596424 34.434080697792496 0 34.434080697792496 90.618305187335494 0 0 0 0 8.3394865348495824 28.619369423734895 0 28.619369423734895 63.595363066277599 0 0 0 0 0.97861812697829009 31.090190194998286 0 31.090190194998286 67.703409495064989 0 0 0 0 6.6650000921925194 22.456297855567513 0 22.456297855567513 10.986143300513618 0 0 0 0 6.51639206118125 32.688582265873265 0 32.688582265873265 67.500972779729636 0 0 0 0 -1.769239753823058 27.449594662357413 0 27.449594662357413 64.807598549814429 0 0 0 0 12.856512773093073 23.641021704290324 0 23.641021704290324 50.485892072643765 0 0 0 0 12.664488358381504 25.365177593037515 0 25.365177593037515 57.680871362303151 0 0 0 0 7.6643706144559474 21.300274325898499 0 21.300274325898499 54.790997249991051 0 0 0 0 -7.4672583843801625 -3.6600698095757167 0 -3.6600698095757167 26.673078214862386 0 0 0 0 -11.621040948572045 -8.7957377981510945 0 -8.7957377981510945 28.824980588091421 0 0 0 0 -4.4349494287438347 6.3756432281134039 0 6.3756432281134039 58.854984815785429 0 0 0 0 -6.3048544305565883 -6.2288940837024711 0 -6.2288940837024711 25.790343557702727 0 0 0 0 -6.2283020080058975 -11.743061687231993 0 -11.743061687231993 7.6087779768017469 0 0 0 0 -8.406561300279856 -9.1818463454561936 0 -9.1818463454561936 24.337625812227202 0 0 0 0 -2.1411345213174817 -1.6096372441478195 0 -1.6096372441478195 -0.53370137354272629 0 0 0 0 -6.9231255681620194 0.20944792778662702 0 0.20944792778662702 40.071737837230728 0 0 0 0 -10.688605038907554 10.548582526971586 0 10.548582526971586 86.954065702946536 0 0 0 0 18.000636400639451 39.152293957326037 0 39.152293957326037 73.651607727078954 0 0 0 0 -4.4841689825253752 1.8764526095092151 0 1.8764526095092151 36.756857393222163 0 0 0 0 -4.1615636858086518 8.1206043910493833 0 8.1206043910493833 10.645341891340763 0 0 0 0 -3.9256972022756988 -5.1161741141516188 0 -5.1161741141516188 32.326902165337572 0 0 0 0 -5.4974208346795876 1.6471042247576406 0 1.6471042247576406 52.210084820369957 0 0 0 0 7.9105623809300596 11.761177685766597 0 11.761177685766597 61.444656043240684 0 0 0 0 30.714556252214379 -95.528180722632897 0 -95.528180722632897 28.038243974224315 0 0 0 0 -14.833194638585162 -5.637487549949924 0 -5.637487549949924 51.161758318926587 0 0 0 0 -1.5438261499879866 3.090955129516658 0 3.090955129516658 39.238760165203814 0 0 0 0 -1.4482728323164338 10.025050161537365 0 10.025050161537365 63.416789627575781 0 0 0 0 -20.336702444044356 -15.288448796332567 0 -15.288448796332567 43.485474313989414 0 0 0 0 6.1540871741008232 -40.346471157688939 0 -40.346471157688939 -14.230915219661256 0 0 0 0 41.952731502287861 20.039390948295477 0 20.039390948295477 16.922216139169905 0 0 0 0 51.899941978966467 84.538135654169309 0 84.538135654169309 138.21552991561475 0 0 0 0 29.613562259429273 31.794166819236125 0 31.794166819236125 65.211396423532278 0 0 0 0 17.103550604397697 71.10359722225985 0 71.10359722225985 132.32103066097625 0 0 0 0 14.077775126998063 31.512310300453464 0 31.512310300453464 65.952346256919554 0 0 0 0 24.622660002256453 47.365179086009448 0 47.365179086009448 89.194970341843145 0 0 0 0 17.24894758103801 70.045431568738422 0 70.045431568738422 107.00503795767872 0 0 0 0 -37.254435284371539 50.895894691311696 0 50.895894691311696 89.108430600506836 0 0 0 0 32.467250994300684 73.781823455148697 0 73.781823455148697 51.086875592744036 0 0 0 0 57.761173954657352 63.887151624943726 0 63.887151624943726 49.977262350010278 0 0 0 0 26.326447426832601 27.724087542883353 0 27.724087542883353 40.954538728896296 0 0 0 0 -62.962681307269122 -11.091435444010131 0 -11.091435444010131 34.915163888203097 0 0 0 0 3.508169331951251 22.46768275496288 0 22.46768275496288 219.54172330793517 0 0 0 0 21.085023976904495 40.528597926007933 0 40.528597926007933 238.10001803894738 0 0 0 0 -15.122051350913353 32.381706385189318 0 32.381706385189318 241.93138869828908 0 0 0 0 -14.385100700370458 18.061082827189239 0 18.061082827189239 258.12145119905472 0 0 0 0 -18.707292417888311 -18.84030076608542 0 -18.84030076608542 313.20074853650294 0 0 0 0 -20.087106607511508 -17.999300605746171 0 -17.999300605746171 32.218550908415466 0 0 0 0 34.874430625413879 25.748508736243821 0 25.748508736243821 179.38454081834061 0 0 0 0 4.1777547263559427 18.818434514225373 0 18.818434514225373 187.5656434041739 0 0 0 0 2.1351100686060818 28.861768482674961 0 28.861768482674961 206.14112516246678 0 0 0 0 15.59518504685002 -7.0735583885398228 0 -7.0735583885398228 244.8513230864628 0 0 0 0 20.238997035852663 24.281369904856547 0 24.281369904856547 183.11947055101336 0 0 0 0 21.300563294295671 46.122571567786508 0 46.122571567786508 137.25617014669115 0 0 0 0 20.769541993024177 33.838120479769714 0 33.838120479769714 155.24467489992094 0 0 0 0 11.812454436019834 54.371029930771329 0 54.371029930771329 161.90129163878737 0 0 0 0 9.2295068143903336 47.035420501502813 0 47.035420501502813 177.37681867714855 0 0 0 0 14.082858672357816 72.600066615465039 0 72.600066615465039 202.42220047683804 0 0 0 0 28.337807607075064 49.60738927924649 0 49.60738927924649 139.75634543708293 0 0 0 0 24.034694891316576 -92.77321400323126 0 -92.77321400323126 113.62036206065386 0 0 0 0 -0.54358551361679108 -0.66752198502057425 0 -0.66752198502057425 2.6421666190318831 0 0 0 0 59.558136029115758 69.873725232242577 0 69.873725232242577 101.11409525369527 0 0 0 0 21.912622268435825 83.988913219545793 0 83.988913219545793 255.56380673478998 0 0 0 0 -14.768318806371099 -34.542349361465313 0 -34.542349361465313 245.10109835644107 0 0 0 0 -15.430417044536625 4.1666892277517036 0 4.1666892277517036 52.068443180032773 0 0 0 0 68.601093407020926 92.159711831263849 0 92.159711831263849 236.019633619042 0 0 0 0 -19.10630881616089 20.130689245623216 0 20.130689245623216 134.38253964696196 0 0 0 0 -27.23248436114136 15.170760419514409 0 15.170760419514409 195.42097563635616 0 0 0 0 83.858172911369365 43.838945293791767 0 43.838945293791767 190.22911621854291 0 0 0 0 -12.685093683518517 44.044589594703211 0 44.044589594703211 138.15186678300961 0 0 0 0 0.96396402790924185 83.02866984805587 0 83.02866984805587 200.45017778104193 0 0 0 0 127.46948360790429 94.851599955727579 0 94.851599955727579 204.37408199704441 0 0 0 0 161.95337056702738 59.074957344197173 0 59.074957344197173 189.39241683633009 0 0 0 0 52.175785827132131 -7.998491243348326 0 -7.998491243348326 257.5608565856819 0 0 0 0 -2.9634477307797606 23.416813114215444 0 23.416813114215444 -4.9726870702155992 0 0 0 0 2.9910449600537659 -0.88441658055685934 0 -0.88441658055685934 -2.8194609334302783 0 0 0 0 105.06541494198422 86.22435232416683 0 86.22435232416683 50.546365547372261 0 0 0 0 19.856125774205623 49.214928941175458 0 49.214928941175458 300.44572625477304 0 0 0 0 7.7375473513520774 99.251729011644784 0 99.251729011644784 196.41726037916806 0 0 0 0 6.9850583670390733 93.272766034096094 0 93.272766034096094 148.9466362142557 0 0 0 0 5.6474742065456667 47.836149572132854 0 47.836149572132854 66.100500941625796 0 0 0 0 6.6379848261827874 32.977877549816185 0 32.977877549816185 42.460153907552012 0 0 0 0 -3.7519689830231755 31.566910211466165 0 31.566910211466165 66.370863130869111 0 0 0 0 3.6914342150782886 65.674828971779789 0 65.674828971779789 12.610435692273313 0 0 0 0 -6.612766227634685 37.859537120998539 0 37.859537120998539 44.452791237509672 0 0 0 0 4.0630649341846947 -4.1317351932520978 0 -4.1317351932520978 103.56827084010365 0 0 0 0 0.3395843201602311 -16.683400892690287 0 -16.683400892690287 25.827215458349201 0 0 0 0 17.140408432372169 -11.477472287803153 0 -11.477472287803153 172.10014599122223 0 0 0 0 18.026042183369555 17.406518182942818 0 17.406518182942818 91.193450115875748 0 0 0 0 -4.5002268606986036 2.7938881238951581 0 2.7938881238951581 81.893006723086728 0 0 0 0 34.819146359603792 38.400723730865138 0 38.400723730865138 193.4737131262882 0 0 0 0 -8.7332012384719633 -10.059583496687964 0 -10.059583496687964 39.273332448617978 0 0 0 0 -3.9569846580388912 15.864593903206696 0 15.864593903206696 102.41118046917836 0 0 0 0 -1.0203148662113604 40.607021232518392 0 40.607021232518392 46.306709436370937 0 0 0 0 -18.611042780267951 64.591089493194886 0 64.591089493194886 142.65313191828318 0 0 0 0 10.19449381016608 62.423106882473803 0 62.423106882473803 33.565053820704634 0 0 0 0 -0.92088559345904741 14.86721885849056 0 14.86721885849056 70.812893683687435 0 0 0 0 -1.7540646401730555 55.79671593047533 0 55.79671593047533 140.66754618695995 0 0 0 0 9.639874117706654 20.874921066435491 0 20.874921066435491 194.58408713818062 0 0 0 0 42.068224888464869 52.648203302458569 0 52.648203302458569 140.54683819082311 0 0 0 0 -15.6047744428262 4.338468398520007 0 4.338468398520007 -3.9028239208925015 0 0 0 0 -3.1133891164586345 87.523134503364417 0 87.523134503364417 246.65368356450199 0 0 0 0 5.1872463145777772 22.243337831343524 0 22.243337831343524 142.43077019469638 0 0 0 0 -29.183870793470533 161.67778303517116 0 161.67778303517116 193.88255440087232 0 0 0 0 -106.73699002127842 177.58506867040705 0 177.58506867040705 279.70770258360426 0 0 0 0 1.2389443366408841 -74.563109336335401 0 -74.563109336335401 647.13595845403324 0 0 0 0 159.29960770735352 -171.6285717943756 0 -171.6285717943756 347.2408066801363 0 0 0 0 91.164797870576876 -334.68862170491047 0 -334.68862170491047 639.90355845320255 0 0 0 0 -54.812331381108237 -153.75989988400443 0 -153.75989988400443 306.65201120392885 0 0 0 0 -3.3898991998913743 -31.185308262615763 0 -31.185308262615763 237.98029617732391 0 0 0 0 -49.309729111369961 -130.7613171844132 0 -130.7613171844132 154.35378564567509 0 0 0 0 -117.90033038877937 -67.87509034445975 0 -67.87509034445975 169.95733899326297 0 0 0 0 -12.241262971163451 -71.240758259198628 0 -71.240758259198628 60.10897469118936 0 0 0 0 -61.104880239441627 -114.74007334178896 0 -114.74007334178896 21.597092413401697 0 0 0 0 206.33921010507584 170.11239171722627 0 170.11239171722627 50.59074746821716 0 0 0 0 -132.09767838901826 309.41670332822832 0 309.41670332822832 251.80652787448344 0 0 0 0 -106.48075122999307 424.13558843433566 0 424.13558843433566 196.69141070010301 0 0 0 0 0.93578385710014356 2.9618486575550946 0 2.9618486575550946 4.1461712491047251 0 0 0 0 -385.30968337731724 773.64135872030784 0 773.64135872030784 -137.46926112951769 0 0 0 0 -246.4938421473837 461.9800048582656 0 461.9800048582656 520.64163248875411 0 0 0 0 -5.2154110112073546 1.0512232500896914 0 1.0512232500896914 0.50104237893549453 0 0 0 0 -59.960104540632074 107.82332305699674 0 107.82332305699674 290.88866495617549 0 0 0 0 415.60871908836589 336.31411655153352 0 336.31411655153352 -214.12941472302191 0 0 0 0 -497.58753687295621 43.377463479657308 0 43.377463479657308 518.72981656793854 0 0 0 0 -21.000974731968199 175.14989674193203 0 175.14989674193203 -55.137387363523885 0 0 0 0 -63.078527354337893 -3.6011730971513316 0 -3.6011730971513316 -186.84929012073553 0 0 0 0 -9.0844593599645123 107.62284224598261 0 107.62284224598261 32.468976264441153 0 0 0 0 -4.5192080226975122 130.11651861094651 0 130.11651861094651 67.904205792510766 0 0 0 0 -32.991493845928289 78.519908374837541 0 78.519908374837541 87.311959856175235 0 0 0 0 -0.20262012116745609 93.571083834212914 0 93.571083834212914 59.940480839795782 0 0 0 0 -8.417306975223255 65.890883948530245 0 65.890883948530245 129.52208791590238 0 0 0 0 -72.231585457612709 162.2333990574989 0 162.2333990574989 131.3164229880349 0 0 0 0 -20.997073862165507 53.972066594636999 0 53.972066594636999 134.96168424450957 0 0 0 0 0.030835506128823909 46.264796618728724 0 46.264796618728724 72.990235782308446 0 0 0 0 -1.0595974048872385 18.977866502409313 0 18.977866502409313 108.73079626121034 0 0 0 0 1.3359094449858731 39.02226793034697 0 39.02226793034697 73.210386794511578 0 0 0 0 -1.7080281578018912 59.834561164629122 0 59.834561164629122 94.559346982699935 0 0 0 0 19.295279526826562 48.378092823950283 0 48.378092823950283 60.325742135573819 0 0 0 0 -0.42528097353613248 62.283418788977542 0 62.283418788977542 50.867330773864524 0 0 0 0 26.349750405746818 37.313532928048517 0 37.313532928048517 40.472260321825161 0 0 0 0 21.416353136360158 44.878011458786204 0 44.878011458786204 39.375939072924666 0 0 0 0 18.459996188044602 23.193231914394829 0 23.193231914394829 1.441481544584363 0 0 0 0 47.554243951939497 13.398601156382938 0 13.398601156382938 12.652725361971534 0 0 0 0 83.748722048676427 64.231437144728261 0 64.231437144728261 19.515156845889578 0 0 0 0 28.952109869168453 61.366476813207555 0 61.366476813207555 27.696221311052795 0 0 0 0 37.806866992125833 78.329935910136555 0 78.329935910136555 57.241370878720772 0 0 0 0 73.523142484331515 68.29580846591125 0 68.29580846591125 21.505858737189556 0 0 0 0 83.752396919298917 121.27674038140685 0 121.27674038140685 -44.632393649953883 0 0 0 0 131.4772501020816 81.156747955508763 0 81.156747955508763 13.254631246149074 0 0 0 0 162.30909576926115 22.498835565915215 0 22.498835565915215 9.8135969803261105 0 0 0 0 5.4864007520581213 9.9719637258962806 0 9.9719637258962806 19.707917568923335 0 0 0 0 125.92675886243069 65.156206065910737 0 65.156206065910737 35.175765225110808 0 0 0 0 54.933411717492163 101.23471658941617 0 101.23471658941617 368.83779637854605 0 0 0 0 2.4598461292630418 23.242556766694179 0 23.242556766694179 76.540657039884536 0 0 0 0 32.371751720406337 -75.018892961525125 0 -75.018892961525125 277.99595683708321 0 0 0 0 22.479730662839756 76.229546734117321 0 76.229546734117321 137.14584997897327 0 0 0 0 -23.394043976009016 0.45283614403160755 0 0.45283614403160755 30.250811444959254 0 0 0 0 -86.449945074989955 69.138011421033298 0 69.138011421033298 118.56402825980331 0 0 0 0 41.767451647772361 20.475339052180971 0 20.475339052180971 -22.843724627964548 0 0 0 0 54.763540813646614 38.790163432830013 0 38.790163432830013 34.811912608769489 0 0 0 0 42.084707455511307 24.14859961734328 0 24.14859961734328 17.964458071102854 0 0 0 0 51.336552513873357 61.712952374495217 0 61.712952374495217 35.669367343769409 0 0 0 0 -2.7280240838051641 -0.072812874876504452 0 -0.072812874876504452 1.7490695996877434 0 0 0 0 91.288149097695168 14.78900692978641 0 14.78900692978641 10.526373229804449 0 0 0 0 -5.257074314565588 4.4743094533963728 0 4.4743094533963728 -0.23396319808944099 0 0 0 0 -11.48986400042196 7.411363331200846 0 7.411363331200846 18.302819496922893 0 0 0 0 51.851772456186154 31.458411205443554 0 31.458411205443554 4.2445740542243584 0 0 0 0 48.7399621573677 48.148996953867027 0 48.148996953867027 -7.5856845623493427 0 0 0 0 -46.222538173673684 -15.275625235008192 0 -15.275625235008192 7.3977467973454623 0 0 0 0 48.716842583527978 45.333873844114351 0 45.333873844114351 -26.141706561349565 0 0 0 0 5.0567541994797658 16.271223147629456 0 16.271223147629456 28.889522903056786 0 0 0 0 -21.39859188966102 66.592932179497438 0 66.592932179497438 12.037782156192407 0 0 0 0 14.405230738206683 34.094427673226164 0 34.094427673226164 40.008161169294908 0 0 0 0 -4.6804673730422381 -20.482976481769583 0 -20.482976481769583 -27.701305953916744 0 0 0 0 -1.2880071983848631 13.22531367156094 0 13.22531367156094 4.2292240183532499 0 0 0 0 8.9725819590791502 46.777049940079451 0 46.777049940079451 28.153237359772902 0 0 0 0 3.7850971701189993 7.6516328901797124 0 7.6516328901797124 9.944820658988931 0 0 0 0 -45.36736289995838 -16.097050613767351 0 -16.097050613767351 -56.993451046226255 0 0 0 0 -52.938058278627295 -60.974039594264468 0 -60.974039594264468 -76.073763593332842 0 0 0 0 -39.714610730829932 18.292384003194456 0 18.292384003194456 34.288238168810494 0 0 0 0 -32.047777898974573 32.028249402676011 0 32.028249402676011 22.75453516896232 0 0 0 0 -78.585056005139734 -36.62343754615722 0 -36.62343754615722 -15.480087272182573 0 0 0 0 -84.847256922387089 92.864394434139172 0 92.864394434139172 336.29628344182856 0 0 0 0 -29.137378637528883 -16.332653371013294 0 -16.332653371013294 123.65059460885823 0 0 0 0 -84.184490437126556 59.681024806246569 0 59.681024806246569 101.1398011961719 0 0 0 0 -61.913172227338919 -40.6344233344862 0 -40.6344233344862 71.613495612546103 0 0 0 0 -7.8030917010669913 -2.7958915452238671 0 -2.7958915452238671 2.2285583900758752 0 0 0 0 -124.94457983915322 -103.89236502487256 0 -103.89236502487256 295.15272992136306 0 0 0 0 117.46470854287639 189.81287025818074 0 189.81287025818074 56.077061182149919 0 0 0 0 241.17357774704516 371.51158863167984 0 371.51158863167984 298.92867740140355 0 0 0 0 55.748439932024212 70.763452850937028 0 70.763452850937028 173.98655274147313 0 0 0 0 135.54332384183658 -79.061615319224074 0 -79.061615319224074 261.85605563444551 0 0 0 0 11.717336605810488 -36.379271115554729 0 -36.379271115554729 371.96386550788884 0 0 0 0 11.476557687615696 236.84023685959983 0 236.84023685959983 411.28475893928771 0 0 0 0 60.802012962668414 162.47900292157283 0 162.47900292157283 218.08535093448882 0 0 0 0 9.6742047284865293 44.629393547824293 0 44.629393547824293 298.62114993023715 0 0 0 0 43.906458482976063 -31.235634487686184 0 -31.235634487686184 -65.086251722183079 0 0 0 0 -62.418242254456523 -128.19588772617294 0 -128.19588772617294 48.829757149520447 0 0 0 0 -26.352382070419488 8.8393370147938271 0 8.8393370147938271 78.029720537769833 0 0 0 0 40.222235820134301 79.524872690526536 0 79.524872690526536 158.92833569914001 0 0 0 0 45.001698580346783 61.356483347537505 0 61.356483347537505 110.99447964476713 0 0 0 0 5.4703848628039715 17.473660323726108 0 17.473660323726108 -17.001007926210121 0 0 0 0 7.3650855677058189 46.442904528414147 0 46.442904528414147 60.352971127897035 0 0 0 0 3.0840058937137655 101.94097014421277 0 101.94097014421277 159.95806297228773 0 0 0 0 -33.397172879300342 74.212595904064074 0 74.212595904064074 179.89631518506212 0 0 0 0 -82.189448110632611 -45.502776455785352 0 -45.502776455785352 187.86227985653386 0 0 0 0 -34.602806458011401 37.989002259513654 0 37.989002259513654 128.53668051480963 0 0 0 0 -27.74304175062143 0.51593983352645978 0 0.51593983352645978 82.286076991606706 0 0 0 0 -2.9269101377482158 -1.3481999054390315 0 -1.3481999054390315 2.3968402512252283 0 0 0 0 79.515414626491633 197.95492944019134 0 197.95492944019134 151.12114592752187 0 0 0 0 -13.930739487374922 62.571135952050099 0 62.571135952050099 113.93173047009623 0 0 0 0 -31.387429209828042 -6.6561405610555084 0 -6.6561405610555084 66.377359111880651 0 0 0 0 -45.865742071478962 29.716971010042471 0 29.716971010042471 172.31581789003394 0 0 0 0 -38.839582503289421 36.732540873155813 0 36.732540873155813 188.04085091585875 0 0 0 0 -28.772925923227863 -5.3004544585796083 0 -5.3004544585796083 84.556299695092434 0 0 0 0 -104.90652350181335 -3.4308156661063549 0 -3.4308156661063549 167.82957306711251 0 0 0 0 -108.71390773658186 -61.792202772503515 0 -61.792202772503515 127.6806180089261 0 0 0 0 1.2237946297702109 7.6215785383693344 0 7.6215785383693344 19.967521890299338 0 0 0 0 78.749222841606752 20.855429922492476 0 20.855429922492476 127.19116530081374 0 0 0 0 -15.758322177454829 -41.340728090544872 0 -41.340728090544872 -0.28382169811835922 0 0 0 0 -3.9303220908406633 -3.4908609015703291 0 -3.4908609015703291 5.6133288175632003 0 0 0 0 6.2961118824880486 127.86291295399496 0 127.86291295399496 88.488315937589505 0 0 0 0 2.9259423304097254 13.66463656052656 0 13.66463656052656 -0.1712587957008509 0 0 0 0 -12.857924503326103 -17.933455877864617 0 -17.933455877864617 25.644499697868014 0 0 0 0 -46.830682668703048 -14.665170614563976 0 -14.665170614563976 31.481014854682144 0 0 0 0 -42.535719906103623 10.067617687498569 0 10.067617687498569 -9.8830281420523534 0 0 0 0 -42.996725298169622 -22.552538999574608 0 -22.552538999574608 39.388108060811646 0 0 0 0 -29.189239046693729 -4.0637929202930536 0 -4.0637929202930536 104.48397034240406 0 0 0 0 -23.435189448806909 17.763362477968258 0 17.763362477968258 59.390978434443241 0 0 0 0 7.6544417082357654 58.539061495077476 0 58.539061495077476 76.113022514575277 0 0 0 0 -53.578937970124571 9.6145450192925637 0 9.6145450192925637 41.900590819815989 0 0 0 0 -75.464129618550942 21.140172002866166 0 21.140172002866166 82.320629285808536 0 0 0 0 -25.124113561990612 23.978409768009442 0 23.978409768009442 19.977838975988561 0 0 0 0 -94.306176803917879 -29.031034994506626 0 -29.031034994506626 21.909651193413083 0 0 0 0 -86.206489522320226 -100.91348866077897 0 -100.91348866077897 -59.1408852142049 0 0 0 0 -69.475506746968392 15.118802855413378 0 15.118802855413378 41.310252525552642 0 0 0 0 -170.18895463333968 -49.08049365808256 0 -49.08049365808256 37.652573276835028 0 0 0 0 -4.218320067771522 -1.6729842250211959 0 -1.6729842250211959 4.7134508548931535 0 0 0 0 30.105639107230672 205.35295813017001 0 205.35295813017001 48.506945884160814 0 0 0 0 63.951009711104234 -55.776869833745877 0 -55.776869833745877 205.32511054872884 0 0 0 0 -1.9449545379619755 -0.53668579797044913 0 -0.53668579797044913 2.4810141793781497 0 0 0 0 -23.016555964543841 -28.797631463072321 0 -28.797631463072321 -77.42973023961531 0 0 0 0 -20.521410927534589 64.345399659145187 0 64.345399659145187 153.11883687805675 0 0 0 0 -32.295040884244827 18.99632560601458 0 18.99632560601458 277.67942840169781 0 0 0 0 -26.119852481497901 145.53784449210798 0 145.53784449210798 145.4057084867818 0 0 0 0 -208.54251326327875 -45.457810279796831 0 -45.457810279796831 205.93080835658475 0 0 0 0 -95.113988494869915 9.468110915782745 0 9.468110915782745 -89.904243629789562 0 0 0 0 29.897327818085252 129.50470837559851 0 129.50470837559851 100.69727070178487 0 0 0 0 -8.8390986987910765 104.08630915419781 0 104.08630915419781 114.16222631928395 0 0 0 0 -112.19126396099568 95.731886090987246 0 95.731886090987246 134.88809665394365 0 0 0 0 40.472203709201132 329.3729534277611 0 329.3729534277611 461.05537342677417 0 0 0 0 305.37479625025253 352.44313103566674 0 352.44313103566674 215.40572716499264 0 0 0 0 371.66272670174817 534.46901031104062 0 534.46901031104062 499.88674976138282 0 0 0 0 501.24010615574571 680.55019585865375 0 680.55019585865375 610.97519353330426 0 0 0 0 495.65005050307303 600.09299803295698 0 600.09299803295698 1803.7237451303226 0 0 0 0 88.296924635809887 239.65095809793638 0 239.65095809793638 680.83691900486883 0 0 0 0 20.44399739661003 214.7079620311124 0 214.7079620311124 1191.135392674114 0 0 0 0 153.99012895883993 -289.99580437961049 0 -289.99580437961049 276.16873702435987 0 0 0 0 162.1611902411471 -186.14008132876916 0 -186.14008132876916 972.25269032140568 0 0 0 0 505.64243252151323 209.87581321493053 0 209.87581321493053 -156.11135887628916 0 0 0 0 0.92609006293290808 1.3191269958039271 0 1.3191269958039271 2.5353492017090957 0 0 0 0 376.78549006818048 471.75082394054334 0 471.75082394054334 50.310372947133146 0 0 0 0 358.67423977994582 515.67725069223525 0 515.67725069223525 542.32005334814312 0 0 0 0 141.34548116251756 -55.758388032398216 0 -55.758388032398216 -43.609887739308761 0 0 0 0 -76.564372385709589 165.68257423009709 0 165.68257423009709 -57.805654193005466 0 0 0 0 0.087871250950489754 2.3311642213741379 0 2.3311642213741379 5.4985565185846781 0 0 0 0 24.67735268696968 -81.173629372573487 0 -81.173629372573487 143.85313256454538 0 0 0 0 -315.69799409587341 -149.90746108535677 0 -149.90746108535677 262.12470118527926 0 0 0 0 24.730751895597962 -82.940245688456343 0 -82.940245688456343 81.296490098480717 0 0 0 0 -82.819587321958579 169.8635146523884 0 169.8635146523884 504.16537459389656 0 0 0 0 -174.20038899700512 -322.15443526000308 0 -322.15443526000308 -132.72476798617663 0 0 0 0 -2.2379290208918912 -0.60692510164966507 0 -0.60692510164966507 2.1306310280606908 0 0 0 0 -16.339968303397935 -14.763573165022535 0 -14.763573165022535 290.38193522200163 0 0 0 0 1.0522740608165222 -28.230803533326252 0 -28.230803533326252 50.193620291887783 0 0 0 0 -4.8425911912697206 5.6368231368614943 0 5.6368231368614943 36.467208621063037 0 0 0 0 -2.2299283189854577 3.5994946849677945 0 3.5994946849677945 63.844990574587428 0 0 0 0 10.283015691462737 0.36710746058815857 0 0.36710746058815857 -5.5427362147893291 0 0 0 0 -1.7748019899206247 1.0536606259980488 0 1.0536606259980488 4.7585458783337913 0 0 0 0 -134.00794104892876 173.01760945947808 0 173.01760945947808 -71.016889519887627 0 0 0 0 5.0061895666524379 37.996691450665821 0 37.996691450665821 -11.361898397648474 0 0 0 0 -163.84165832771714 15.482308996724896 0 15.482308996724896 6.3961579183524009 0 0 0 0 -152.43551951512745 124.1282705351332 0 124.1282705351332 22.405215891732951 0 0 0 0 -4.9305426186614465 -1.1812794878320858 0 -1.1812794878320858 3.3473168691709247 0 0 0 0 -14.960759462632438 -6.6401961854153342 0 -6.6401961854153342 -6.018206975859357 0 0 0 0 -137.62743514805334 100.93551960478362 0 100.93551960478362 2.8312930043612141 0 0 0 0 162.97938472399596 140.70298031074708 0 140.70298031074708 119.28631404756743 0 0 0 0 -162.39567601570752 -111.39315760745376 0 -111.39315760745376 74.624834497639313 0 0 0 0 -157.81675799441774 -35.097929642663075 0 -35.097929642663075 440.93985946453176 0 0 0 0 -1.0546825618564082 -0.67181736216264198 0 -0.67181736216264198 1.3762503505985819 0 0 0 0 67.759638651690352 -10.332955458623474 0 -10.332955458623474 299.26109836671276 0 0 0 0 113.4016458487622 -42.247587426281825 0 -42.247587426281825 122.73106951792579 0 0 0 0 -79.977435777507026 -14.335618975923353 0 -14.335618975923353 137.00626256441319 0 0 0 0 118.25855934542957 29.058502414216491 0 29.058502414216491 177.64430071245442 0 0 0 0 122.34455741298791 35.339352218492422 0 35.339352218492422 11.918511214549653 0 0 0 0 -96.542585102147612 5.7674463081698377 0 5.7674463081698377 42.774574330520409 0 0 0 0 141.41371368197457 79.637236964699696 0 79.637236964699696 55.578810649722072 0 0 0 0 103.70492281164152 -49.492654592744657 0 -49.492654592744657 160.83957059296517 0 0 0 0 71.415486442166241 -0.7260395946141216 0 -0.7260395946141216 336.48135211139743 0 0 0 0 55.510897858557506 74.440512838049017 0 74.440512838049017 284.67052203464846 0 0 0 0 8.672121768299121 99.56656035278138 0 99.56656035278138 347.21020387671888 0 0 0 0 16.758798052832653 104.66060622505574 0 104.66060622505574 342.99834545442718 0 0 0 0 130.73374481634994 218.83812956063048 0 218.83812956063048 243.59577334053756 0 0 0 0 163.7228419624544 165.39057549984091 0 165.39057549984091 294.24678502873576 0 0 0 0 -0.18538246421205939 240.41683530423387 0 240.41683530423387 517.37086151682888 0 0 0 0 160.04738709141031 286.0352174545842 0 286.0352174545842 262.87771961789986 0 0 0 0 394.91869875462612 241.74982919904141 0 241.74982919904141 89.072939001087434 0 0 0 0 543.73384641785981 611.9259379566447 0 611.9259379566447 498.38957660646702 0 0 0 0 412.63361341566429 128.36057359619008 0 128.36057359619008 222.51001541240839 0 0 0 0 -268.19480018145322 348.86125990315304 0 348.86125990315304 1336.1922208574397 0 0 0 0 788.57227963136756 679.5033670140765 0 679.5033670140765 490.28798945833296 0 0 0 0 886.444499926346 -1.224008898541797 0 -1.224008898541797 1016.1397623367811 0 0 0 0 1027.7847433494112 845.10669886349206 0 845.10669886349206 59.529666397480469 0 0 0 0 3.9209278705334145 6.2975478528203155 0 6.2975478528203155 9.0407757284243075 0 0 0 0 -36.01775326887747 97.478388490988436 0 97.478388490988436 190.85489335072725 0 0 0 0 19.363729396183324 32.555565698126884 0 32.555565698126884 260.08150878688321 0 0 0 0 15.275175940021462 -33.396234011805063 0 -33.396234011805063 217.91774673855616 0 0 0 0 26.913900747956234 -24.632778443396091 0 -24.632778443396091 230.15926968784333 0 0 0 0 23.104593511142525 31.172968981518352 0 31.172968981518352 223.3424763040166 0 0 0 0 98.01203589904317 84.425800861792041 0 84.425800861792041 269.49537255855103 0 0 0 0 98.091494969585199 9.0977559861421469 0 9.0977559861421469 153.92036332126736 0 0 0 0 0.236819374696634 0.68295514557442516 0 0.68295514557442516 1.4810366534147761 0 0 0 0 107.57292658692799 133.95646750006199 0 133.95646750006199 -1.4295455172250513 0 0 0 0 12.249418838159784 183.38962245532093 0 183.38962245532093 166.18501460581319 0 0 0 0 -38.387294170660653 -7.0377495431675925 0 -7.0377495431675925 27.45166529009839 0 0 0 0 -0.019554672118853596 40.697089520226655 0 40.697089520226655 153.7958167404322 0 0 0 0 2.4267319164229404 3.1680347792480461 0 3.1680347792480461 -26.057278026702988 0 0 0 0 -83.114802541363787 27.558886737027933 0 27.558886737027933 254.81124059550348 0 0 0 0 0.2832193776495231 73.0531912920586 0 73.0531912920586 407.79227500321576 0 0 0 0 0.32720493321108479 1.2680350892951608 0 1.2680350892951608 3.1172139612496608 0 0 0 0 -61.922553978860662 0.82226646419803728 0 0.82226646419803728 19.741783604607917 0 0 0 0 -113.56221177445008 75.742196971455996 0 75.742196971455996 63.738669888800359 0 0 0 0 -100.59380845413145 -59.835797480494875 0 -59.835797480494875 352.77120423057931 0 0 0 0 0.072579875150249218 0.49338095735462417 0 0.49338095735462417 1.7107942885149896 0 0 0 0 58.073793733062701 130.31268437939434 0 130.31268437939434 57.874928268238364 0 0 0 0 -19.211213051937591 120.5138165784665 0 120.5138165784665 397.92201292618847 0 0 0 0 -39.191005828504871 12.047582262784999 0 12.047582262784999 417.81510716220509 0 0 0 0 -22.147518879725908 -19.893477284815162 0 -19.893477284815162 344.72112538829606 0 0 0 0 -56.795305832602594 80.93868458176803 0 80.93868458176803 363.91950209515562 0 0 0 0 -30.331693664696331 103.90728767750988 0 103.90728767750988 259.12538268484059 0 0 0 0 17.649718411011577 63.160756529086939 0 63.160756529086939 252.38994931428169 0 0 0 0 -1.6523175756823321 33.787833417496586 0 33.787833417496586 1.8551460320159094 0 0 0 0 2.564974088556994 -11.061272811606614 0 -11.061272811606614 76.244653368732543 0 0 0 0 78.209650274471414 32.468355685113465 0 32.468355685113465 5.0863162888708757 0 0 0 0 76.515350383092368 -1.3592767599220679 0 -1.3592767599220679 -19.779075950049446 0 0 0 0 -0.3572316579384438 1.7557563109377412 0 1.7557563109377412 11.871635712491809 0 0 0 0 -241.17788631039696 5.9866148205401259 0 5.9866148205401259 150.4954068082734 0 0 0 0 -285.68926036476921 169.19556190591538 0 169.19556190591538 2.6739415866977652 0 0 0 0 56.16680746413283 9.8778452014630602 0 9.8778452014630602 -33.591340252605733 0 0 0 0 86.902455364394314 63.133934379926359 0 63.133934379926359 22.908624971252721 0 0 0 0 58.282968018304132 292.88731311794254 0 292.88731311794254 187.78336476308323 0 0 0 0 -59.522383204439905 101.42316346940243 0 101.42316346940243 614.94599602738163 0 0 0 0 -0.021156343242954123 0.55755846857169189 0 0.55755846857169189 5.0127890465558949 0 0 0 0 2.7367141367236627 -273.42307536155204 0 -273.42307536155204 428.37874030227249 0 0 0 0 -12.536618229031149 81.402046115385019 0 81.402046115385019 674.55216343964275 0 0 0 0 212.65089084276849 -93.332305069241556 0 -93.332305069241556 306.3983564631435 0 0 0 0 36.65152212277215 -133.56599653445301 0 -133.56599653445301 564.25400069610623 0 0 0 0 -56.031549547000168 -77.152577280985497 0 -77.152577280985497 420.28097749302106 0 0 0 0 -48.151221628282201 -45.426630480324093 0 -45.426630480324093 474.48311974475655 0 0 0 0 -78.562776360401131 -45.094867435022024 0 -45.094867435022024 432.40597079815961 0 0 0 0 -50.393259330448927 -66.362274380349845 0 -66.362274380349845 407.83517084599589 0 0 0 0 -43.648683697745582 -90.83724204225291 0 -90.83724204225291 388.61051522364141 0 0 0 0 -26.683243405851613 -134.1804197179008 0 -134.1804197179008 164.0703047701536 0 0 0 0 -74.089430817193943 -9.661559702057275 0 -9.661559702057275 54.689701308809163 0 0 0 0 -51.164155595485909 39.205327984214819 0 39.205327984214819 105.95046791263667 0 0 0 0 -120.40036933502529 -49.414237071683601 0 -49.414237071683601 -7.0690987319976557 0 0 0 0 9.4878932096983135 -48.282480246583873 0 -48.282480246583873 80.46664588857675 0 0 0 0 64.153124756179977 56.063148281151371 0 56.063148281151371 31.591873555385973 0 0 0 0 -44.761719047140332 -20.118863944604527 0 -20.118863944604527 9.2463388807082083 0 0 0 0 32.084212307804137 109.485004530281 0 109.485004530281 42.72222054627855 0 0 0 0 -44.981897645520803 7.1771632896925439 0 7.1771632896925439 -43.27595003334136 0 0 0 0 -297.7605329737097 46.528423670146367 0 46.528423670146367 65.062778417297523 0 0 0 0 -94.063618866680372 99.167766475329699 0 99.167766475329699 -1.8842173242983336 0 0 0 0 -0.74871113157037272 1.0721345303156511 0 1.0721345303156511 11.680488896616737 0 0 0 0 229.90591668993829 117.57333533215569 0 117.57333533215569 -159.17011393566645 0 0 0 0 -467.73467240681077 -73.429346528742826 0 -73.429346528742826 505.68969603904407 0 0 0 0 -58.440844394591522 116.0470584323557 0 116.0470584323557 212.54803619720042 0 0 0 0 80.535795600254914 -95.159326146858803 0 -95.159326146858803 155.46515750043909 0 0 0 0 -158.95384227150819 233.05153536476791 0 233.05153536476791 82.623366862448165 0 0 0 0 61.127951135120725 -230.92270409389312 0 -230.92270409389312 27.339548450931034 0 0 0 0 -0.40488889585321297 0.50180852138362297 0 0.50180852138362297 6.0552523186012195 0 0 0 0 -39.431274647404052 47.148657899801037 0 47.148657899801037 -80.784011463489151 0 0 0 0 -198.47445390490975 -76.070922533050179 0 -76.070922533050179 50.125726812475477 0 0 0 0 -23.71927937417945 104.10648388833215 0 104.10648388833215 109.99181074535591 0 0 0 0 -56.5286296309406 -126.05227869576629 0 -126.05227869576629 234.35805428770254 0 0 0 0 15.448071338599789 -66.342466450681968 0 -66.342466450681968 106.20006430700255 0 0 0 0 -59.296434751834795 29.05520252756105 0 29.05520252756105 103.77403008064721 0 0 0 0 -453.6472317564012 147.8538753227258 0 147.8538753227258 585.77638283911801 0 0 0 0 -370.42326409539993 109.80916697354405 0 109.80916697354405 150.60606598923914 0 0 0 0 -0.63378645734059091 2.0180548595817811 0 2.0180548595817811 12.634843450811445 0 0 0 0 114.16316543591188 -166.3770340376941 0 -166.3770340376941 -149.08442415764148 0 0 0 0 179.95955378043959 5.0315137409270392 0 5.0315137409270392 259.01848721985516 0 0 0 0 -19.028826340514115 34.49193625307089 0 34.49193625307089 278.20251434624151 0 0 0 0 -0.35262137183098918 -0.069043814251493529 0 -0.069043814251493529 4.792656224186544 0 0 0 0 -133.02952078226326 171.20490238506318 0 171.20490238506318 115.1199348240043 0 0 0 0 134.13599736548122 -218.52992859499864 0 -218.52992859499864 -100.1181601541175 0 0 0 0 103.05508562781779 59.712197874192498 0 59.712197874192498 183.26263096099501 0 0 0 0 83.191306644520296 139.99257696589484 0 139.99257696589484 155.19987462925201 0 0 0 0 84.951234698028884 88.031488805179833 0 88.031488805179833 253.18340296500537 0 0 0 0 146.33455123528847 147.03450378453272 0 147.03450378453272 278.97726278613482 0 0 0 0 110.18019439827401 140.7753024950016 0 140.7753024950016 281.15521709391032 0 0 0 0 33.980332303748582 96.300931223369844 0 96.300931223369844 330.77360287110059 0 0 0 0 27.02493650369297 48.101422395411646 0 48.101422395411646 355.52350094780559 0 0 0 0 48.829832520642412 139.52371678804047 0 139.52371678804047 430.09650697246252 0 0 0 0 14.885903307950457 39.935623033525189 0 39.935623033525189 379.34627356918645 0 0 0 0 -2.3836231732111628 -79.474346808201517 0 -79.474346808201517 297.47283571015578 0 0 0 0 103.5503649783019 64.761238391012739 0 64.761238391012739 217.73077785559872 0 0 0 0 122.57944612068741 12.069510261702817 0 12.069510261702817 179.74130800987405 0 0 0 0 121.0286288071955 4.0039500762813987 0 4.0039500762813987 178.21615398862923 0 0 0 0 71.260177816229316 -96.198939267655078 0 -96.198939267655078 53.358229375815426 0 0 0 0 169.18367095638996 31.24265852663666 0 31.24265852663666 22.265147913160035 0 0 0 0 12.303823857415864 -6.5885541964380536 0 -6.5885541964380536 136.7089527712742 0 0 0 0 184.32624135800472 38.06784656013042 0 38.06784656013042 85.710226052906364 0 0 0 0 167.13854168685657 15.741051719764073 0 15.741051719764073 83.038452571185189 0 0 0 0 153.95271295794419 51.712468225727207 0 51.712468225727207 104.97396285928471 0 0 0 0 136.50067612328849 63.960743036514032 0 63.960743036514032 177.78543993173662 0 0 0 0 136.90054587478153 41.155535068115569 0 41.155535068115569 85.618339583204943 0 0 0 0 132.55875537667157 90.642319964772469 0 90.642319964772469 71.88458471224294 0 0 0 0 70.845641537455094 55.242415852546401 0 55.242415852546401 109.48952383399592 0 0 0 0 144.60510094119672 29.899066789388598 0 29.899066789388598 63.126514051080449 0 0 0 0 66.254629079575807 38.776596279545629 0 38.776596279545629 113.59430322994012 0 0 0 0 43.795820854127669 14.356673020007293 0 14.356673020007293 193.0106029639137 0 0 0 0 92.350881158465654 -1.4681082300667185 0 -1.4681082300667185 89.941280771196034 0 0 0 0 119.39093999545298 63.832590647951292 0 63.832590647951292 246.65920240117703 0 0 0 0 188.98674373198583 44.523348249378614 0 44.523348249378614 105.498765367744 0 0 0 0 43.630326711266662 -18.927033446198038 0 -18.927033446198038 268.93096024996885 0 0 0 0 2.8258986730438664 -88.153599638193555 0 -88.153599638193555 198.50691407476552 0 0 0 0 29.635403218052033 -9.3022295732007478 0 -9.3022295732007478 373.26267352121067 0 0 0 0 -47.164009519343381 -81.066875683543913 0 -81.066875683543913 417.93859703850831 0 0 0 0 93.984623505361014 67.136976739424426 0 67.136976739424426 396.83285684145812 0 0 0 0 37.629582363233112 -153.20789515967772 0 -153.20789515967772 260.39246501625166 0 0 0 0 -63.651678424601073 -66.68808226451074 0 -66.68808226451074 595.23419616247702 0 0 0 0 -46.764480808067901 -82.06050641722868 0 -82.06050641722868 415.33546827430837 0 0 0 0 -30.505396888604082 -50.704459141241387 0 -50.704459141241387 378.54633565249969 0 0 0 0 696.03765880623632 208.46652136270131 0 208.46652136270131 70.95981876469159 0 0 0 0 -16.558371490544687 -149.45324277585678 0 -149.45324277585678 732.91600458268658 0 0 0 0 2.2887232135561177 3.6311565056302442 0 3.6311565056302442 7.1825979162264275 0 0 0 0 91.482869718609891 76.919646852678852 0 76.919646852678852 430.93169991408649 0 0 0 0 365.3449917655289 333.29088119735388 0 333.29088119735388 657.69024383046781 0 0 0 0 720.49262929422889 -36.796947889284638 0 -36.796947889284638 269.21661065828812 0 0 0 0 235.92108449016769 -288.06709088836578 0 -288.06709088836578 623.07309494096262 0 0 0 0 243.02589781596726 -68.014647980300651 0 -68.014647980300651 267.86283011434125 0 0 0 0 221.78031854200549 -21.413895525896805 0 -21.413895525896805 183.48621224199451 0 0 0 0 358.2752235436833 120.29279330051213 0 120.29279330051213 217.09263144731085 0 0 0 0 179.42568611161812 39.496914492248834 0 39.496914492248834 188.81751104562136 0 0 0 0 220.71740324463508 59.657047460503236 0 59.657047460503236 86.038807509286016 0 0 0 0 172.956833036018 -76.671479888481372 0 -76.671479888481372 160.6859196817968 0 0 0 0 7.6188154344617942 -89.124293299224519 0 -89.124293299224519 221.02574203153927 0 0 0 0 -91.584947219232617 38.008725673062145 0 38.008725673062145 193.46238655511115 0 0 0 0 -91.107888513834951 -59.403553316173202 0 -59.403553316173202 256.72794900189911 0 0 0 0 -91.747165285766442 -43.007250466324876 0 -43.007250466324876 331.52469567643129 0 0 0 0 -56.517814124109009 -75.173976319827489 0 -75.173976319827489 263.71806733222184 0 0 0 0 -196.59242029505003 -93.107585653087881 0 -93.107585653087881 307.66722763188591 0 0 0 0 -90.077359510748238 -125.13871988092433 0 -125.13871988092433 271.36767614373821 0 0 0 0 29.438680545608804 -194.51096564785621 0 -194.51096564785621 365.0976703199558 0 0 0 0 9.9084332620464011 -17.560921313641302 0 -17.560921313641302 312.3364494167472 0 0 0 0 -78.000463329287868 -102.09134751430247 0 -102.09134751430247 241.06168165219424 0 0 0 0 -223.62815672537727 -72.508854287152644 0 -72.508854287152644 333.98995687977003 0 0 0 0 -201.68032606242014 194.32204851765709 0 194.32204851765709 321.32077870426292 0 0 0 0 -201.42591491010967 43.614372797499527 0 43.614372797499527 -139.44101576258254 0 0 0 0 -93.93993268398151 409.36418204022084 0 409.36418204022084 -356.18859792823787 0 0 0 0 46.407529472572605 310.66687034420829 0 310.66687034420829 695.83856615655532 0 0 0 0 35.944693467787147 187.96708266518181 0 187.96708266518181 102.83218588445743 0 0 0 0 1.3609381139994925 7.7230466362199763 0 7.7230466362199763 12.278807754718514 0 0 0 0 -16.8977087152889 -215.16203585537005 0 -215.16203585537005 277.0552766767396 0 0 0 0 -32.193238003749002 -129.49218181343804 0 -129.49218181343804 228.75685527003952 0 0 0 0 -412.75539774047797 140.14286630585775 0 140.14286630585775 81.620838834583992 0 0 0 0 -313.0762241639269 366.8075072640022 0 366.8075072640022 -339.32903341222845 0 0 0 0 -140.52301841438702 -17.68142221034941 0 -17.68142221034941 -8.4173149354282941 0 0 0 0 -178.80092866757104 83.840391819539946 0 83.840391819539946 -61.86843354505254 0 0 0 0 -155.63428243439603 -112.59225267689908 0 -112.59225267689908 230.97395433927886 0 0 0 0 -134.32750545117051 131.06269398065342 0 131.06269398065342 -21.954875668445311 0 0 0 0 -227.98825413386658 42.767631450595218 0 42.767631450595218 -69.711388775314845 0 0 0 0 -357.88839139296169 163.50683321104589 0 163.50683321104589 102.18297922500642 0 0 0 0 -225.17758024064233 282.00266019134142 0 282.00266019134142 193.41938667662907 0 0 0 0 -500.96925199768248 436.39833544910653 0 436.39833544910653 640.87455410753319 0 0 0 0 -2.9789549502198192 -1.1268013186799806 0 -1.1268013186799806 -0.078263293213893803 0 0 0 0 -89.173118202723344 -236.75338268443011 0 -236.75338268443011 466.5542777720766 0 0 0 0 82.039232926052364 -403.64409443677869 0 -403.64409443677869 129.32930603297427 0 0 0 0 -178.43757179886961 -167.40767111154855 0 -167.40767111154855 210.96924632764421 0 0 0 0 -189.12602239185253 -237.05784262178349 0 -237.05784262178349 793.53916378703434 0 0 0 0 -169.1286102526592 122.75174831670302 0 122.75174831670302 722.06950831610084 0 0 0 0 -195.58115695416518 -56.975086943159113 0 -56.975086943159113 509.37955979694379 0 0 0 0 -24.471277524303787 124.7102241620305 0 124.7102241620305 54.76206006843131 0 0 0 0 -181.13999763645916 53.372363601622055 0 53.372363601622055 322.06234950287035 0 0 0 0 -82.201836580181407 74.780002981045982 0 74.780002981045982 321.3861791862073 0 0 0 0 -67.215734509300546 174.10614571227779 0 174.10614571227779 281.59933824825566 0 0 0 0 -221.54181573892913 -145.48611202542725 0 -145.48611202542725 41.341207462086459 0 0 0 0 -0.34073252126071418 0.48384665003114691 0 0.48384665003114691 7.7545467079729633 0 0 0 0 -654.41169838452061 66.92266192099396 0 66.92266192099396 307.03335527762829 0 0 0 0 -132.1952978802301 0.87408724482702382 0 0.87408724482702382 30.839426558100968 0 0 0 0 -0.13190793504127019 3.2833808604245256 0 3.2833808604245256 19.220239296831778 0 0 0 0 5.0799668094605295 -17.882204961082607 0 -17.882204961082607 17.486732957113418 0 0 0 0 -1.1908662609880594 -15.437032005742367 0 -15.437032005742367 -43.70682878018124 0 0 0 0 -48.210723930903441 -65.769522435904946 0 -65.769522435904946 4.3557335449731909 0 0 0 0 -10.39748909670152 -6.06400455939729 0 -6.06400455939729 156.02969881603349 0 0 0 0 -5.47343971757482 -36.44865688419668 0 -36.44865688419668 41.539600360178156 0 0 0 0 52.319256251888646 -89.286337671255751 0 -89.286337671255751 52.184437534902827 0 0 0 0 40.862609095354401 -21.610698394506471 0 -21.610698394506471 -10.806369767371507 0 0 0 0 -1.162496143939574 -0.75759762253196072 0 -0.75759762253196072 -0.23578636546511689 0 0 0 0 -1.9708957777870637 -24.139756959495571 0 -24.139756959495571 186.35277879936621 0 0 0 0 31.15555372022618 -42.489522870106157 0 -42.489522870106157 35.939695996876253 0 0 0 0 29.139164044438928 -92.592825453541082 0 -92.592825453541082 310.03837016769103 0 0 0 0 12.706980127011775 -160.74709867462661 0 -160.74709867462661 438.79480802560283 0 0 0 0 43.382988633557034 -62.828515792316466 0 -62.828515792316466 193.72096521610365 0 0 0 0 -88.458096393802407 2.7992268327216152 0 2.7992268327216152 535.2905304888227 0 0 0 0 -86.217202814690609 5.0380099028952827 0 5.0380099028952827 529.68782561471744 0 0 0 0 -119.02845392458107 -82.78183936161804 0 -82.78183936161804 816.37011809457908 0 0 0 0 25.130273933608805 -226.76569169796858 0 -226.76569169796858 994.83336596046684 0 0 0 0 30.225381673449192 -312.49965532060014 0 -312.49965532060014 587.2503601769713 0 0 0 0 -90.573013244762478 -28.286445085905143 0 -28.286445085905143 904.99876011017477 0 0 0 0 305.23207643464866 -154.92012186706415 0 -154.92012186706415 451.18678307588561 0 0 0 0 -7.1172942994683499 -5.8141493996303382 0 -5.8141493996303382 -0.7300658645891076 0 0 0 0 137.36286565433875 -971.99355540977558 0 -971.99355540977558 1463.2612126221502 0 0 0 0 -1.8700782366437325 -1.4802996645560409 0 -1.4802996645560409 4.606804011241195 0 0 0 0 -45.712741823182284 -17.598531363175425 0 -17.598531363175425 51.868638806539821 0 0 0 0 -0.060153259623142219 5.813438869967495 0 5.813438869967495 22.605974909755048 0 0 0 0 -711.63024003179544 164.19508056463201 0 164.19508056463201 278.27650382817956 0 0 0 0 -3.1116773974056144 -2.69316266358544 0 -2.69316266358544 -1.9153024163148871 0 0 0 0 3.3491129932813237 -9.492069436586462 0 -9.492069436586462 9.5157748965575593 0 0 0 0 3.7328612126043481 -61.83511749029276 0 -61.83511749029276 35.605059625118884 0 0 0 0 -4.7943068365869976 344.79720125331733 0 344.79720125331733 906.45015338982921 0 0 0 0 5.3821235307168536 237.36872537642921 0 237.36872537642921 1419.5804282254248 0 0 0 0 -71.766948056039837 257.40670047295862 0 257.40670047295862 818.99906618679233 0 0 0 0 -1.0454336335646146 -7.0743627972785497 0 -7.0743627972785497 10.034763279657909 0 0 0 0 95.861941235555605 -259.1588706502298 0 -259.1588706502298 538.42061369471776 0 0 0 0 473.09776588619297 472.93607502477971 0 472.93607502477971 582.80833970376261 0 0 0 0 704.18342698438823 63.732534049448532 0 63.732534049448532 1185.9323872287932 0 0 0 0 685.18515857790976 361.88984658147388 0 361.88984658147388 1269.2558614379959 0 0 0 0 395.43177910322265 290.8450145534589 0 290.8450145534589 1988.301587302245 0 0 0 0 1080.3577897729101 146.0045863490086 0 146.0045863490086 1524.7518542752659 0 0 0 0 173.82624842553196 -200.20428195828572 0 -200.20428195828572 990.21978347410368 0 0 0 0 38.662635044827766 45.122396232749452 0 45.122396232749452 1313.7930485577526 0 0 0 0 -134.79708484532875 106.05054304951045 0 106.05054304951045 1190.0634044013932 0 0 0 0 3.1580594809797731 -92.19572792546569 0 -92.19572792546569 948.19486587389838 0 0 0 0 -140.13317981711316 153.34061264511547 0 153.34061264511547 782.48948815351469 0 0 0 0 -168.87402160856965 192.80625429827342 0 192.80625429827342 616.9319333366002 0 0 0 0 -77.037249376962791 312.71914713756269 0 312.71914713756269 664.57444307824335 0 0 0 0 -167.58533774216812 169.24151366649289 0 169.24151366649289 824.30991453054594 0 0 0 0 -203.94515577659649 347.29273087274851 0 347.29273087274851 711.17072684376035 0 0 0 0 -43.584406939484779 293.55388175562985 0 293.55388175562985 588.0809763516736 0 0 0 0 -3.8430262702156437 3.8657554599589616 0 3.8657554599589616 -1.9868456478295045 0 0 0 0 -17.165830881358033 151.72121947788401 0 151.72121947788401 187.83397572818285 0 0 0 0 -119.92163346535995 297.20293984027012 0 297.20293984027012 603.03899188083597 0 0 0 0 -123.86935823089925 380.60440745623782 0 380.60440745623782 336.53560476357234 0 0 0 0 -277.89052069461536 -144.56372507197011 0 -144.56372507197011 502.26487234022352 0 0 0 0 -157.06587634190782 251.26112701556849 0 251.26112701556849 352.19922614192183 0 0 0 0 -449.41781096993054 -12.321872690597957 0 -12.321872690597957 950.37041052710265 0 0 0 0 253.29554346126497 -652.21201022942114 0 -652.21201022942114 -1006.3430673275871 0 0 0 0 1954.5292641016531 -938.12228277040413 0 -938.12228277040413 329.09033757248108 0 0 0 0 193.01747831116404 592.47780913312022 0 592.47780913312022 -279.7538840866182 0 0 0 0 222.31979859562216 82.73394180690957 0 82.73394180690957 71.473412139297579 0 0 0 0 55.334997433656099 394.48480001022835 0 394.48480001022835 691.06414771710843 0 0 0 0 -19.07085294771958 5.3967646812192811 0 5.3967646812192811 22.291229094480258 0 0 0 0 -1805.1570767527373 1200.63707917192 0 1200.63707917192 486.77192467977875 0 0 0 0 -14.734924307990353 -10.393118248264059 0 -10.393118248264059 150.02246382783508 0 0 0 0 448.48722615209044 107.42424698680406 0 107.42424698680406 -1407.8820448621518 0 0 0 0 1250.3955141401384 2475.3423510783614 0 2475.3423510783614 304.82199530406797 0 0 0 0 -2218.1279916518433 -1166.160414175567 0 -1166.160414175567 1324.7496616753488 0 0 0 0 -1517.2918720493108 -2134.9763497954264 0 -2134.9763497954264 2226.9288290110089 0 0 0 0 -2.8448992057559792 -26.489624044876621 0 -26.489624044876621 116.08751126204709 0 0 0 0 123.21687268477945 -1895.2400566766228 0 -1895.2400566766228 641.65084084458067 0 0 0 0 14.076900375871073 -19.405985145791149 0 -19.405985145791149 28.843598463680053 0 0 0 0 844.1161650442391 1428.7990928970175 0 1428.7990928970175 2086.141621196959 0 0 0 0 31.428052003027688 -297.52390676404684 0 -297.52390676404684 880.26982096658321 0 0 0 0 -125.58464745918991 -176.18421328271506 0 -176.18421328271506 3083.0096578881348 0 0 0 0 660.21432558298829 679.07327479444029 0 679.07327479444029 909.77353481893078 0 0 0 0 304.18321056804962 -1224.3733041970991 0 -1224.3733041970991 -539.00211317326466 0 0 0 0 -82.642839780868599 -510.52968844358111 0 -510.52968844358111 -1032.9280840024985 0 0 0 0 -114.8033078774497 -515.02995725976507 0 -515.02995725976507 -245.76984106028976 0 0 0 0 -972.32229632085728 -785.03126501617589 0 -785.03126501617589 -330.78298655628168 0 0 0 0 -149.25491512532517 -387.79972473149246 0 -387.79972473149246 355.00583508624186 0 0 0 0 1135.240460266059 -642.3216436281291 0 -642.3216436281291 -670.65694742577762 0 0 0 0 2.7288861374265743 -26.207271973337779 0 -26.207271973337779 91.324123083082782 0 0 0 0 18.007153671726407 -49.616532227902844 0 -49.616532227902844 91.089329411746291 0 0 0 0 -681.76862182427658 -1554.5964824891962 0 -1554.5964824891962 -784.44248167303158 0 0 0 0 -1688.9631394703779 -784.08116456450807 0 -784.08116456450807 -58.595238693291321 0 0 0 0 -1846.6061982682727 -1783.0089058006656 0 -1783.0089058006656 -224.75368939652981 0 0 0 0 54.813061559210837 -597.09997912025574 0 -597.09997912025574 -563.28722387488597 0 0 0 0 -1314.0793345580264 139.55181541841375 0 139.55181541841375 199.67629694346579 0 0 0 0 -582.62066743693117 -1308.7504834019637 0 -1308.7504834019637 2216.7384526288297 0 0 0 0 2970.1679273120881 -586.05337035390039 0 -586.05337035390039 -18.498622242603233 0 0 0 0 6.838631076445993 -13.248931101884498 0 -13.248931101884498 28.422628142388646 0 0 0 0 620.1590790203245 1053.5344030806318 0 1053.5344030806318 2189.7061793409994 0 0 0 0 -34.691341591678793 -33.097885699156905 0 -33.097885699156905 182.66620911713107 0 0 0 0 -296.04439954030931 -70.284522622227087 0 -70.284522622227087 273.6966972117807 0 0 0 0 -189.89851838265986 20.746776251755364 0 20.746776251755364 488.24087281127868 0 0 0 0 -0.79966656394200175 -23.220833394433782 0 -23.220833394433782 91.886437615479736 0 0 0 0 3.8524032095522438 -31.892038570335433 0 -31.892038570335433 68.893326951337173 0 0 0 0 -3061.2062503288403 -512.04552982090593 0 -512.04552982090593 1716.8008227904647 0 0 0 0 -38.666715721426954 160.03777717865887 0 160.03777717865887 254.93112259201007 0 0 0 0 295.26928479999333 140.95289257896366 0 140.95289257896366 289.77501871355344 0 0 0 0 77.639431745124057 211.23303101454076 0 211.23303101454076 547.30821278152871 0 0 0 0 6.7490148422422944 -42.336137380339018 0 -42.336137380339018 -3.3671366545813157 0 0 0 0 -291.96699095672739 105.80275419942336 0 105.80275419942336 352.5638642970589 0 0 0 0 28.02821051587307 130.30750564099799 0 130.30750564099799 267.84972723631654 0 0 0 0 -0.54394395987037569 69.06669701555802 0 69.06669701555802 324.35819223064027 0 0 0 0 -91.980405965005957 117.33794778529773 0 117.33794778529773 464.07024692073173 0 0 0 0 -114.49093676288385 158.03938688478593 0 158.03938688478593 636.58105041313684 0 0 0 0 -102.47508893481063 267.72730885303463 0 267.72730885303463 688.7435588083099 0 0 0 0 -223.96445643995503 168.50994222588633 0 168.50994222588633 937.07835442188662 0 0 0 0 164.00946080762242 233.90164694836858 0 233.90164694836858 516.612934711462 0 0 0 0 -43.300672754550305 387.18395995640094 0 387.18395995640094 922.02199291900615 0 0 0 0 -272.07545143029529 212.38305070799106 0 212.38305070799106 1090.1390198999143 0 0 0 0 -241.69716675329579 102.11564391042612 0 102.11564391042612 909.04298737297358 0 0 0 0 -257.79521228507201 324.66994761979731 0 324.66994761979731 1942.9283568793617 0 0 0 0 -303.68151191646484 108.83414561821701 0 108.83414561821701 895.84889439615654 0 0 0 0 -230.59349079526328 74.095057388629357 0 74.095057388629357 831.67336993856588 0 0 0 0 -178.66853628369608 70.307258900007582 0 70.307258900007582 831.91040453114329 0 0 0 0 -139.43401986051231 89.648001055124041 0 89.648001055124041 799.63897038724826 0 0 0 0 -181.33736839157245 120.48755465511931 0 120.48755465511931 859.40542854175146 0 0 0 0 -76.532687348381842 153.30884482502006 0 153.30884482502006 832.54795480257599 0 0 0 0 -41.544292765528553 94.326752900482461 0 94.326752900482461 850.61583989956125 0 0 0 0 -12.450844983168736 87.931770483843138 0 87.931770483843138 717.36928086336411 0 0 0 0 17.321466419226908 1.4583017293080047 0 1.4583017293080047 967.94288247084478 0 0 0 0 -118.82043621528692 69.262927577794471 0 69.262927577794471 868.27044025225405 0 0 0 0 -138.56927132771307 121.96547815962549 0 121.96547815962549 739.84987938671838 0 0 0 0 -223.14579316724272 130.76064679496949 0 130.76064679496949 857.86520642094547 0 0 0 0 -127.3373438029148 98.664064497308573 0 98.664064497308573 747.61871008707749 0 0 0 0 -33.007071793730574 55.615678174421191 0 55.615678174421191 441.16479463438736 0 0 0 0 -19.409478183100418 -16.873863935797999 0 -16.873863935797999 788.89841054971475 0 0 0 0 66.484876478717979 24.843199777726113 0 24.843199777726113 339.42104095927061 0 0 0 0 151.79187897937823 -70.23565648771546 0 -70.23565648771546 431.92625464199227 0 0 0 0 -27.353311508152274 -25.837228510998102 0 -25.837228510998102 219.22419908992742 0 0 0 0 -36.665013482022914 -41.723062831129937 0 -41.723062831129937 496.34218293235608 0 0 0 0 -50.754966270445948 -153.72665444735685 0 -153.72665444735685 940.47529814375775 0 0 0 0 237.14741500944723 -268.45031071110498 0 -268.45031071110498 245.9203337300205 0 0 0 0 167.34801069748315 -142.60827566812623 0 -142.60827566812623 760.51838860675343 0 0 0 0 168.53118710199305 7.8337548786075786 0 7.8337548786075786 697.50067080973531 0 0 0 0 466.06767333190521 287.95126830796653 0 287.95126830796653 1026.8796469145746 0 0 0 0 110.77337894635934 210.31110002665082 0 210.31110002665082 1159.4714066650631 0 0 0 0 211.32640560133359 -118.3086942666414 0 -118.3086942666414 1002.7429693105951 0 0 0 0 121.09156203471412 141.67304510841495 0 141.67304510841495 821.81679990046541 0 0 0 0 539.00308706312899 -143.58819103662967 0 -143.58819103662967 807.03218876512256 0 0 0 0 539.90211484214774 247.86714084996493 0 247.86714084996493 784.92326078625047 0 0 0 0 285.11989346391465 116.68246592004289 0 116.68246592004289 636.9528465414478 0 0 0 0 200.04615294349509 -19.19503709674791 0 -19.19503709674791 742.65709146192239 0 0 0 0 118.9043537067646 172.28759220224674 0 172.28759220224674 542.53411880286876 0 0 0 0 85.875327069390778 162.25204046178987 0 162.25204046178987 668.38682973255345 0 0 0 0 141.97484129587792 118.2849912295278 0 118.2849912295278 754.82719929990708 0 0 0 0 3.3076755746956223 123.75362710642366 0 123.75362710642366 660.7836623712501 0 0 0 0 133.93679321877789 224.1236769190582 0 224.1236769190582 733.74115141951552 0 0 0 0 -1.0016137837601491 160.50892606616981 0 160.50892606616981 586.91560303432198 0 0 0 0 -176.43419844980144 61.72436585820833 0 61.72436585820833 788.42562725163589 0 0 0 0 -30.539252272948943 275.97288917510014 0 275.97288917510014 475.51423288574733 0 0 0 0 -37.786790317184796 106.81803557062449 0 106.81803557062449 524.32629459556483 0 0 0 0 22.724706468453178 212.03643123867732 0 212.03643123867732 539.3453892472171 0 0 0 0 43.400839406508567 249.46053968581691 0 249.46053968581691 605.37222095381367 0 0 0 0 -79.023777050870649 227.26282285052002 0 227.26282285052002 620.57728356583902 0 0 0 0 -74.68621974109783 218.66005627948471 0 218.66005627948471 553.07643179642764 0 0 0 0 -71.076366625380615 142.90606402233243 0 142.90606402233243 642.3682667888279 0 0 0 0 -71.27842420394677 126.89499815919589 0 126.89499815919589 475.22786896809703 0 0 0 0 18.999688286502192 160.49061638094918 0 160.49061638094918 437.73912121905596 0 0 0 0 15.974763530783093 212.8002141101897 0 212.8002141101897 538.54500142900361 0 0 0 0 94.731560125983833 185.23049253013596 0 185.23049253013596 410.7332981711952 0 0 0 0 119.08428121602037 194.79750292411336 0 194.79750292411336 385.17532970059256 0 0 0 0 75.166133476688969 140.19602755645246 0 140.19602755645246 361.78001002440578 0 0 0 0 155.72730011255862 157.93392126873368 0 157.93392126873368 552.4916807966365 0 0 0 0 93.164596338651108 232.80396443809514 0 232.80396443809514 578.6306933240412 0 0 0 0 68.456609751707674 237.15165089356742 0 237.15165089356742 537.01856092382513 0 0 0 0 77.412164562336102 322.20328883150069 0 322.20328883150069 697.82385500210148 0 0 0 0 69.673528989495253 53.953559862449765 0 53.953559862449765 874.25032024286338 0 0 0 0 168.67786834972992 246.10111087612313 0 246.10111087612313 232.48363748376141 0 0 0 0 100.08618231232947 78.393417740331643 0 78.393417740331643 220.05892806775228 0 0 0 0 129.56958064330183 434.2628897731629 0 434.2628897731629 92.619063219841337 0 0 0 0 0.12023589281457148 1.1593552640252653 0 1.1593552640252653 6.7593727032648303 0 0 0 0 67.668108396642936 -351.647879799355 0 -351.647879799355 321.60886465423391 0 0 0 0 -54.101012141627166 107.43075513039366 0 107.43075513039366 -3.5953546566597652 0 0 0 0 -144.33953286448826 -186.86568310460279 0 -186.86568310460279 821.67363581342215 0 0 0 0 -23.566608607679086 -113.58228656789288 0 -113.58228656789288 237.1876737038765 0 0 0 0 193.13637268663786 148.95369779219254 0 148.95369779219254 762.71398350088566 0 0 0 0 -31.660466856566472 98.779240690317238 0 98.779240690317238 921.04542033409598 0 0 0 0 -140.8656820371022 -32.311021145658742 0 -32.311021145658742 773.3237001804373 0 0 0 0 -93.381338877147073 44.581339865097107 0 44.581339865097107 715.83971482467314 0 0 0 0 -30.240997371777667 129.47412155567872 0 129.47412155567872 801.51664041117965 0 0 0 0 33.674943553389937 42.719900845648226 0 42.719900845648226 747.25943424324214 0 0 0 0 267.9339999183469 -26.316021556998749 0 -26.316021556998749 742.76316337456228 0 0 0 0 249.02355895338587 -45.901463637819688 0 -45.901463637819688 741.2226388750787 0 0 0 0 215.42903151109374 -118.09278449992053 0 -118.09278449992053 891.72916975922999 0 0 0 0 328.84478231196931 -11.753607884449593 0 -11.753607884449593 737.65907186312324 0 0 0 0 75.770831480770312 16.307180502015399 0 16.307180502015399 773.54098581905419 0 0 0 0 120.27802633792658 29.926086824430968 0 29.926086824430968 737.57003679424997 0 0 0 0 78.546627537816903 169.80372634034575 0 169.80372634034575 632.68213736890175 0 0 0 0 68.318635629992286 111.41151686049852 0 111.41151686049852 586.81139634014835 0 0 0 0 36.677011123409329 129.07371244532987 0 129.07371244532987 752.00550845038379 0 0 0 0 53.005626020544923 127.83561089168506 0 127.83561089168506 857.44084017593741 0 0 0 0 1039.2840086826473 339.67703429968969 0 339.67703429968969 272.23028583722771 0 0 0 0 4.6998797868699915 -1.3578874918522672 0 -1.3578874918522672 1.721753608058151 0 0 0 0 175.27017786989552 -64.040314652524103 0 -64.040314652524103 1156.8617502526249 0 0 0 0 -454.95096412854332 163.27414938166476 0 163.27414938166476 1611.7624830757413 0 0 0 0 240.09771917584612 786.74543536319106 0 786.74543536319106 982.21589745092933 0 0 0 0 -14.413680122787227 260.83176674605056 0 260.83176674605056 830.56144064843829 0 0 0 0 -168.94536906755559 96.620019698537362 0 96.620019698537362 712.82686411267787 0 0 0 0 6.4147330855546567 -3.3219503221588411 0 -3.3219503221588411 2.8394127916366614 0 0 0 0 13.596113777065057 378.05591884664318 0 378.05591884664318 534.29859540710459 0 0 0 0 60.738421526531738 461.97186271301325 0 461.97186271301325 630.1025470582972 0 0 0 0 428.80373345690248 532.89270253201539 0 532.89270253201539 353.6190290319937 0 0 0 0 397.29367993077744 338.60855745881781 0 338.60855745881781 24.076653628319036 0 0 0 0 1.3502679312243364 3.8310460280271883 0 3.8310460280271883 11.872080959600737 0 0 0 0 226.73085629392267 173.92386430113402 0 173.92386430113402 605.98033136033337 0 0 0 0 190.71811296677805 331.1788498098831 0 331.1788498098831 818.58535685147217 0 0 0 0 65.342864729157327 210.61477856716374 0 210.61477856716374 1138.2930929899885 0 0 0 0 110.76768336882816 244.25667913794314 0 244.25667913794314 581.02396918673185 0 0 0 0 10.947188502403378 275.06973424126045 0 275.06973424126045 677.27780067216372 0 0 0 0 99.740624955590263 155.1090692999278 0 155.1090692999278 629.07328714462346 0 0 0 0 39.380805470067997 204.75448824468185 0 204.75448824468185 830.73752451562905 0 0 0 0 1.9542178689580139 -1.2927806883471362 0 -1.2927806883471362 3.091638242910193 0 0 0 0 -1.1848031899346552 75.311331736011198 0 75.311331736011198 583.69570109350025 0 0 0 0 268.76182819988594 351.98523532257241 0 351.98523532257241 475.75004022673238 0 0 0 0 20.733987203468814 73.804690148819645 0 73.804690148819645 442.85872588882194 0 0 0 0 1.1285633250398004 -0.27944692527762527 0 -0.27944692527762527 1.8251168929596275 0 0 0 0 -42.444576431890596 83.0721132223116 0 83.0721132223116 593.30021633724391 0 0 0 0 -49.719900285543304 114.82323954463936 0 114.82323954463936 664.58626768291288 0 0 0 0 -15.754929641592753 90.42429264257953 0 90.42429264257953 609.38056362557836 0 0 0 0 16.992003180870597 169.41725665755803 0 169.41725665755803 572.55959023113246 0 0 0 0 -4.6854780212818241 139.61743126589863 0 139.61743126589863 698.16615703320713 0 0 0 0 4.029880232629921 145.62026508207055 0 145.62026508207055 631.78138594402117 0 0 0 0 60.859830653518657 129.26393171824748 0 129.26393171824748 630.95888769058092 0 0 0 0 50.35313918613565 119.63893973499944 0 119.63893973499944 737.70953509655101 0 0 0 0 -17.114426825804003 70.124010870058555 0 70.124010870058555 705.34951864057803 0 0 0 0 -12.355249523788082 100.90773604210199 0 100.90773604210199 662.52365306371939 0 0 0 0 -82.327121502543491 93.146818639790581 0 93.146818639790581 749.16811881319154 0 0 0 0 -84.696482919269101 73.501452312339097 0 73.501452312339097 669.12222107304842 0 0 0 0 -90.406515279929863 67.669387859702056 0 67.669387859702056 703.20167426732951 0 0 0 0 -89.923586021996016 74.831112793333887 0 74.831112793333887 672.92336872540182 0 0 0 0 -0.079383900290722398 0.49252236356065282 0 0.49252236356065282 1.2144684907897343 0 0 0 0 -40.05108963779233 63.172753185564943 0 63.172753185564943 587.22461985934933 0 0 0 0 -45.131360468644061 74.691956385133381 0 74.691956385133381 608.95556811470306 0 0 0 0 -69.860050818200762 79.276459514978342 0 79.276459514978342 670.48443522083835 0 0 0 0 -6.8476783120179334 2.084371696371818 0 2.084371696371818 553.99802575015201 0 0 0 0 -0.97254053637584548 3.2461752909752875 0 3.2461752909752875 2.5043126716043318 0 0 0 0 2.8783939161008618 74.409602670883032 0 74.409602670883032 486.32259649962361 0 0 0 0 -0.090670483219359221 2.6198155029238137 0 2.6198155029238137 1.6736188490762487 0 0 0 0 -41.793965543784878 -36.638332510843611 0 -36.638332510843611 787.82519181862881 0 0 0 0 53.43445629352108 -210.72939083196252 0 -210.72939083196252 434.46126529815956 0 0 0 0 7.6267173539704913 143.79529806700884 0 143.79529806700884 560.76078837353271 0 0 0 0 158.29084125412908 78.750387364700146 0 78.750387364700146 468.60610801051371 0 0 0 0 80.348703297271982 41.523862699468737 0 41.523862699468737 838.4350172242921 0 0 0 0 -24.10727534450541 -18.737636070203735 0 -18.737636070203735 13.238507724705414 0 0 0 0 1.7651853880262309 -1.3440203299656446 0 -1.3440203299656446 2.6129039919469221 0 0 0 0 6.0485354970586513 199.12298951904813 0 199.12298951904813 950.11300570007734 0 0 0 0 91.30165408447067 184.56460751531995 0 184.56460751531995 805.26473300767248 0 0 0 0 68.116866366814008 216.9877926377003 0 216.9877926377003 793.91901214767131 0 0 0 0 -0.081236311165094541 49.424888837766048 0 49.424888837766048 294.04300843094825 0 0 0 0 -53.686902343103171 40.242699235772307 0 40.242699235772307 407.59542360839259 0 0 0 0 -45.847949262145107 36.584415001285379 0 36.584415001285379 436.45280510144948 0 0 0 0 -36.618381375221162 58.553706565588072 0 58.553706565588072 392.84396258258494 0 0 0 0 5.7155832613546522 -25.134894996444928 0 -25.134894996444928 772.23957095050355 0 0 0 0 42.183884464509447 1.2129706073465059 0 1.2129706073465059 185.05075542830309 0 0 0 0 -49.193606518548791 -59.890438320711837 0 -59.890438320711837 359.02913097759665 0 0 0 0 0.0094341760051343537 0.94099318398110654 0 0.94099318398110654 1.359630024539122 0 0 0 0 -0.70584967695877721 76.043004285806092 0 76.043004285806092 951.05506756183604 0 0 0 0 24.489926391442346 -2.1921858202586009 0 -2.1921858202586009 140.98767916449287 0 0 0 0 -0.059908818331591174 0.37922587951302944 0 0.37922587951302944 1.7294583278166371 0 0 0 0 56.027815218931778 -94.309473331777554 0 -94.309473331777554 689.62713286186045 0 0 0 0 -39.236924978222248 -1.3095453522255411 0 -1.3095453522255411 932.59410124077476 0 0 0 0 12.37592529393903 -51.362409032260985 0 -51.362409032260985 766.3870567263366 0 0 0 0 -0.87484225324107001 -6.4182496636058204 0 -6.4182496636058204 656.82098843780113 0 0 0 0 -21.520826834761294 37.721016636773129 0 37.721016636773129 694.88779742098995 0 0 0 0 -1.1248376505005098 73.459428309535724 0 73.459428309535724 751.23918109606893 0 0 0 0 0.071380740725554961 75.197290878897419 0 75.197290878897419 817.56543811208394 0 0 0 0 17.334653647649532 36.527620586392004 0 36.527620586392004 763.21923158178106 0 0 0 0 -0.0076602346467178478 28.134710665842523 0 28.134710665842523 385.195937776356 0 0 0 0 0.091623620798804567 83.37110841084359 0 83.37110841084359 741.35229801487003 0 0 0 0 -6.9847172852428798 81.104816313432821 0 81.104816313432821 742.08023251456325 0 0 0 0 -0.17251703473474944 -0.032459125746385098 0 -0.032459125746385098 1.3166950648671616 0 0 0 0 39.656933851836371 50.720188477105694 0 50.720188477105694 408.41042872071557 0 0 0 0 -20.934925911438114 111.91902960050356 0 111.91902960050356 694.12761949129606 0 0 0 0 -63.060758235475134 0.72416557734322851 0 0.72416557734322851 474.04065021406132 0 0 0 0 -102.69454889496933 47.307465899757517 0 47.307465899757517 708.91412970219244 0 0 0 0 -93.03952517026292 51.762031256130285 0 51.762031256130285 692.22714422352146 0 0 0 0 -116.33592976300301 -79.41384179740453 0 -79.41384179740453 619.54214039727231 0 0 0 0 -46.759238784241461 85.595988264933112 0 85.595988264933112 763.42373343821237 0 0 0 0 -0.13577670649245888 -0.026748106172703956 0 -0.026748106172703956 1.0302787870882071 0 0 0 0 -60.622196975408379 -51.88045932780642 0 -51.88045932780642 604.17420631631103 0 0 0 0 -57.339839925885599 -33.923409835035272 0 -33.923409835035272 550.68126038276387 0 0 0 0 -45.280484924315374 -133.91843030264499 0 -133.91843030264499 460.81673730617331 0 0 0 0 52.974023605755235 -35.113671554259781 0 -35.113671554259781 220.68807777036272 0 0 0 0 47.994196559788833 -32.708639489203051 0 -32.708639489203051 340.97219884532387 0 0 0 0 22.525591725894031 34.929121319262777 0 34.929121319262777 397.58439454864128 0 0 0 0 -12.711808537761897 11.213324432326772 0 11.213324432326772 510.65141832426889 0 0 0 0 -79.284724599516721 -24.933027516814946 0 -24.933027516814946 54.211288818074536 0 0 0 0 -39.439296629578166 -130.8821447606897 0 -130.8821447606897 34.767489450432095 0 0 0 0 129.55958319339516 -18.192700749350479 0 -18.192700749350479 137.6945797323624 0 0 0 0 -160.13261969996938 411.13767162867589 0 411.13767162867589 53.12817145785084 0 0 0 0 -180.95117472837183 616.43752427885192 0 616.43752427885192 -50.273515603919805 0 0 0 0 362.91075372593696 145.61811176958872 0 145.61811176958872 72.843042782595148 0 0 0 0 267.63115992625274 446.80688415456689 0 446.80688415456689 1029.3172964712285 0 0 0 0 5.6321796333116971 -35.74458129033728 0 -35.74458129033728 86.007457498468867 0 0 0 0 206.83589950879059 664.50837243510796 0 664.50837243510796 -1420.1969225608336 0 0 0 0 -6.2021370354911198 -3.9369152373639338 0 -3.9369152373639338 40.576480593705583 0 0 0 0 -92.966373207199922 -5.9258035844038659 0 -5.9258035844038659 166.49388445001568 0 0 0 0 -64.48592520569764 -78.365765057162207 0 -78.365765057162207 109.40443813384491 0 0 0 0 -43.881166638130189 -8.3377741677463071 0 -8.3377741677463071 110.23557486485402 0 0 0 0 -142.33005562654398 -69.984639162111307 0 -69.984639162111307 137.37566419310679 0 0 0 0 -30.282289972179569 -16.240728003645927 0 -16.240728003645927 159.72155803793612 0 0 0 0 -41.269904933409698 -55.838858829283836 0 -55.838858829283836 47.220425883828128 0 0 0 0 -38.693916318169443 -31.98293455354365 0 -31.98293455354365 55.271002418946466 0 0 0 0 -233.83390687615611 389.64206217454921 0 389.64206217454921 897.44298024333511 0 0 0 0 -29.653273920314177 -11.976235166702622 0 -11.976235166702622 128.25320223669041 0 0 0 0 -43.157687828505004 -48.249361811684139 0 -48.249361811684139 104.39433325548816 0 0 0 0 -227.30035342793417 -91.272828770117485 0 -91.272828770117485 1244.6568009231742 0 0 0 0 -30.193815587231366 -44.459669643208841 0 -44.459669643208841 29.48993002112233 0 0 0 0 27.911756926696398 778.14465175421992 0 778.14465175421992 1640.2891148308991 0 0 0 0 -3.831059793059997 -9.7474193947464016 0 -9.7474193947464016 4.2814318796806674 0 0 0 0 121.36193520919574 -560.08465924086931 0 -560.08465924086931 1785.482498940808 0 0 0 0 17.184137290579997 -30.086326967820241 0 -30.086326967820241 210.98800487288099 0 0 0 0 -25.290687296529342 -26.046789918018995 0 -26.046789918018995 115.17554567219349 0 0 0 0 -185.70804063721698 -133.89398156896095 0 -133.89398156896095 151.91268942497845 0 0 0 0 -34.267966755482483 -43.734483841260591 0 -43.734483841260591 94.54949848216522 0 0 0 0 -95.538927821177822 -46.386001854418282 0 -46.386001854418282 235.07684117147073 0 0 0 0 -54.528909990341162 33.800255788157301 0 33.800255788157301 249.55044163746061 0 0 0 0 -55.387523833402156 -82.001354902587991 0 -82.001354902587991 155.25720718902676 0 0 0 0 -3.0036477658049989 -27.065667685605149 0 -27.065667685605149 149.95236346805541 0 0 0 0 -106.26524990263169 -133.75828375261881 0 -133.75828375261881 118.97665810866238 0 0 0 0 -40.206525635244816 -132.96458739038508 0 -132.96458739038508 43.397664831856673 0 0 0 0 -33.972013164251621 -141.29121048605157 0 -141.29121048605157 38.015086088298631 0 0 0 0 -39.140851010156894 -158.8228786127529 0 -158.8228786127529 -15.479060266763554 0 0 0 0 -163.49838406494291 -157.45587621696541 0 -157.45587621696541 32.033622377384745 0 0 0 0 -34.770955197407602 -133.72629421216152 0 -133.72629421216152 20.696903500036569 0 0 0 0 -192.86542463818751 -159.21597195128652 0 -159.21597195128652 74.61185565667256 0 0 0 0 -102.99920594760115 37.472479327195742 0 37.472479327195742 158.85362222143158 0 0 0 0 -6.4182247304372817 -7.6827638940527798 0 -7.6827638940527798 148.30376678384292 0 0 0 0 -137.22388962049263 -92.597621183615047 0 -92.597621183615047 -209.02097170238267 0 0 0 0 -165.84596907148909 -41.891852547589224 0 -41.891852547589224 402.62162446267757 0 0 0 0 -1430.788094190897 -425.62358760816096 0 -425.62358760816096 1010.6835356014344 0 0 0 0 -7.6031368838016276 8.8007070764994335 0 8.8007070764994335 170.7669874181278 0 0 0 0 124.81283880479896 -84.365325965240118 0 -84.365325965240118 33.388129912880686 0 0 0 0 -635.7971861021133 165.53792847245859 0 165.53792847245859 -20.920614804192155 0 0 0 0 699.30907886811292 74.75440294370128 0 74.75440294370128 -148.97768624586752 0 0 0 0 2.9999199936830481 -5.8029566427960422 0 -5.8029566427960422 16.841155299088626 0 0 0 0 738.57962351051629 -463.98737700856327 0 -463.98737700856327 -128.52841746854756 0 0 0 0 73.98102961151335 19.238021596063163 0 19.238021596063163 128.76693305720983 0 0 0 0 -191.09175568066894 -47.720282125359518 0 -47.720282125359518 22.660387046093092 0 0 0 0 43.496149157293075 -168.15715969846224 0 -168.15715969846224 -151.29750171747582 0 0 0 0 -339.38196773802156 -375.74388953372909 0 -375.74388953372909 158.21258223151381 0 0 0 0 -575.94333899886988 -122.75534652136412 0 -122.75534652136412 120.71117322583541 0 0 0 0 176.50331683666514 144.21644836945416 0 144.21644836945416 256.09651372279495 0 0 0 0 533.72831150871889 469.29448864253118 0 469.29448864253118 512.69377583020105 0 0 0 0 523.24247463678989 220.71342294791884 0 220.71342294791884 249.02072702605801 0 0 0 0 -34.973573928522455 -132.52522551069342 0 -132.52522551069342 34.63077453878941 0 0 0 0 512.73671508047823 256.08435122964147 0 256.08435122964147 164.24870814701717 0 0 0 0 8.7306232362984559 -18.905366051372106 0 -18.905366051372106 50.478237730511879 0 0 0 0 -24.426007916461003 113.89805849214827 0 113.89805849214827 783.20341692855436 0 0 0 0 368.04707038990068 320.36905374488742 0 320.36905374488742 -277.65258735552925 0 0 0 0 -45.430927064569914 -41.44436682286323 0 -41.44436682286323 300.13586200208374 0 0 0 0 0.0054329709134837145 -1.9483498815726321 0 -1.9483498815726321 0.0067004546002884524 0 0 0 0 -157.63515523531487 167.46579373573331 0 167.46579373573331 438.9635149389178 0 0 0 0 -1.643241587590623 -0.10216676928430246 0 -0.10216676928430246 0.41817491552415298 0 0 0 0 -26.843432810125705 214.26895043344484 0 214.26895043344484 257.51825033689965 0 0 0 0 -134.90679777345576 118.78066621981998 0 118.78066621981998 214.29737260146248 0 0 0 0 -33.164613251793526 -91.65716060347404 0 -91.65716060347404 356.38498799295485 0 0 0 0 15.626966885002957 233.85429642678787 0 233.85429642678787 -113.13035406400377 0 0 0 0 -1.0783350501219147 -1.3588407905636615 0 -1.3588407905636615 0.035385467622143452 0 0 0 0 -212.3088126581406 39.657249522351776 0 39.657249522351776 700.72144533438723 0 0 0 0 -17.01105806805208 236.40477070902125 0 236.40477070902125 -333.14798380971024 0 0 0 0 0.58290365129187194 185.9075120287398 0 185.9075120287398 -192.29908353769133 0 0 0 0 -61.16949455961003 203.34642220053138 0 203.34642220053138 -177.40013567141614 0 0 0 0 -96.896225654607406 297.35824223667441 0 297.35824223667441 -205.04956896085059 0 0 0 0 -62.726369368614542 99.479513970705739 0 99.479513970705739 -1.9621289547067136 0 0 0 0 -123.82388360255027 200.13730089489582 0 200.13730089489582 -98.24891361410846 0 0 0 0 -2.1113912382097624 121.79988212205353 0 121.79988212205353 -124.19780171234015 0 0 0 0 -58.736451431052046 198.74978071065561 0 198.74978071065561 -169.26292247625679 0 0 0 0 -45.552386137975191 179.5862793865399 0 179.5862793865399 -158.06344016280491 0 0 0 0 -52.782577543679508 170.60776651256674 0 170.60776651256674 -168.91545853755088 0 0 0 0 16.269313007226138 17.70230860839834 0 17.70230860839834 9.2761205454280997 0 0 0 0 135.55781496739655 56.639812501154665 0 56.639812501154665 1177.380803973625 0 0 0 0 150.63739478545176 -27.046947017823186 0 -27.046947017823186 1427.3765030107461 0 0 0 0 63.295421898892528 249.45380455159466 0 249.45380455159466 1334.9729787708893 0 0 0 0 215.96839739703864 -112.80908282082964 0 -112.80908282082964 1266.1053658319506 0 0 0 0 100.17330969397108 123.25868432493553 0 123.25868432493553 1463.1750062928768 0 0 0 0 81.829402865478187 -39.348372931883205 0 -39.348372931883205 1200.6720713983377 0 0 0 0 84.424309044607071 -376.26404689440096 0 -376.26404689440096 1981.90705873978 0 0 0 0 6.4475401525822917 -0.013417311030679002 0 -0.013417311030679002 -5.7970375994052716 0 0 0 0 -246.99864441789214 238.84997573427245 0 238.84997573427245 -112.43144584068773 0 0 0 0 -18.701401397055633 113.31026807656781 0 113.31026807656781 -653.34499955164574 0 0 0 0 -7.4085095976097364 262.78945150542677 0 262.78945150542677 -573.88474065923583 0 0 0 0 -214.78475649330176 258.94151573504132 0 258.94151573504132 2016.6188073483845 0 0 0 0 5.2037952422781828 10.803745464000215 0 10.803745464000215 2.3973218342889879 0 0 0 0 515.84106828325002 276.36733292573626 0 276.36733292573626 690.20836067952041 0 0 0 0 0.26654146282647595 1.4115745469945864 0 1.4115745469945864 1.2013495460660426 0 0 0 0 -859.59485884043534 -452.93958155465953 0 -452.93958155465953 2703.6803057426487 0 0 0 0 11.960547344854094 -2.7946453170907901 0 -2.7946453170907901 68.643609095445868 0 0 0 0 -544.73423423887289 -319.79628632143795 0 -319.79628632143795 716.14025713374576 0 0 0 0 -517.52631311695814 -432.26404966421262 0 -432.26404966421262 198.00502424495789 0 0 0 0 -412.27874354150299 -119.03673816590526 0 -119.03673816590526 204.43036605685484 0 0 0 0 -20.579191274377081 -352.2650330582037 0 -352.2650330582037 342.61639739395468 0 0 0 0 -83.782808440214012 256.83891187129734 0 256.83891187129734 980.90165016092942 0 0 0 0 -491.04682487809623 -36.00632984207914 0 -36.00632984207914 138.19834771022579 0 0 0 0 55.753453985834312 332.14977708544757 0 332.14977708544757 865.63045434075502 0 0 0 0 7.1951354821758855 -12.759636217140113 0 -12.759636217140113 7.7301734790880801 0 0 0 0 138.43303450091207 -862.69783207907312 0 -862.69783207907312 -957.32938665983966 0 0 0 0 -201.09620107986757 -880.44695556212537 0 -880.44695556212537 203.6568438272443 0 0 0 0 -228.12552545685776 95.888761873167823 0 95.888761873167823 574.61125648788948 0 0 0 0 244.34805424861952 256.47211404261543 0 256.47211404261543 400.08209922464448 0 0 0 0 -82.265160912412853 162.18195723571989 0 162.18195723571989 450.58042022199334 0 0 0 0 -372.92738638778519 -201.31850909671994 0 -201.31850909671994 474.40870807169631 0 0 0 0 -45.011662377641159 -27.388116560854058 0 -27.388116560854058 261.03266239135723 0 0 0 0 55.260210456283858 -72.773973833285709 0 -72.773973833285709 245.24470221693264 0 0 0 0 -103.53513411800486 90.719961986906128 0 90.719961986906128 1167.6384301959424 0 0 0 0 9.1286960095549148 -45.178455329813005 0 -45.178455329813005 1255.023501087855 0 0 0 0 103.96648431231915 -59.801708259019506 0 -59.801708259019506 1032.4698929264123 0 0 0 0 -72.923966089467285 277.31217660729453 0 277.31217660729453 864.13236301445613 0 0 0 0 358.43125938317644 -18.232203519808536 0 -18.232203519808536 1149.6924478812762 0 0 0 0 -15.046446346997982 38.767432115368138 0 38.767432115368138 1205.3895464739053 0 0 0 0 4.0963564925286171 -3.4759151190413462 0 -3.4759151190413462 2.98694631575664 0 0 0 0 197.83387540378953 -122.70807977775985 0 -122.70807977775985 1166.2731433542576 0 0 0 0 22.745118644653871 -32.479216237689798 0 -32.479216237689798 -573.72777402947395 0 0 0 0 -58.54632017552467 -505.56862381006067 0 -505.56862381006067 -860.620706916161 0 0 0 0 -106.69654772011017 -573.6970350525371 0 -573.6970350525371 -92.148848509750678 0 0 0 0 -101.71062060970507 -647.41808181272791 0 -647.41808181272791 195.16264794985182 0 0 0 0 9.0767444314003107 -8.858588333716142 0 -8.858588333716142 9.5140622408481761 0 0 0 0 130.96902411239716 132.71759097842732 0 132.71759097842732 248.34498755053937 0 0 0 0 625.67137594698579 -492.24873316707817 0 -492.24873316707817 695.26101057155029 0 0 0 0 -327.55166203347744 -21.115371180658258 0 -21.115371180658258 -95.768662649854377 0 0 0 0 -300.20514616990295 -173.36222089915827 0 -173.36222089915827 635.06769809537218 0 0 0 0 2.5073416367337416 -3.7381247492751299 0 -3.7381247492751299 4.0023914350174152 0 0 0 0 -46.073188392005441 -58.220762956728251 0 -58.220762956728251 9.3861330502870768 0 0 0 0 -45.770393720078573 -55.468938920293112 0 -55.468938920293112 260.15417141929811 0 0 0 0 -328.38036029667091 1022.7037177349957 0 1022.7037177349957 1237.5001122651665 0 0 0 0 -33.899818928337481 -19.651028832602151 0 -19.651028832602151 200.22390822416946 0 0 0 0 -31.637419268026861 -53.794643078283571 0 -53.794643078283571 191.80954127885343 0 0 0 0 -43.075060864110128 -31.842923097055973 0 -31.842923097055973 188.43981441308779 0 0 0 0 -17.436396959653337 -1.5057723518419528 0 -1.5057723518419528 -1.8897574707924845 0 0 0 0 4.011126982029964 -47.323360996577321 0 -47.323360996577321 143.54534561260789 0 0 0 0 -8.4091082332815859 -32.708185701970251 0 -32.708185701970251 124.34037555619591 0 0 0 0 34.324963363364077 -130.75347150766083 0 -130.75347150766083 189.88753861606165 0 0 0 0 305.06110097999226 223.42411138714306 0 223.42411138714306 313.26909695570794 0 0 0 0 227.36898688244582 -105.14441457933935 0 -105.14441457933935 398.45935351198568 0 0 0 0 3.9292133312075066 9.4765709986641582 0 9.4765709986641582 68.249976369646561 0 0 0 0 198.31746687866325 -9.4758179121890862 0 -9.4758179121890862 275.73017761558003 0 0 0 0 -50.225113569874388 -47.713098764255292 0 -47.713098764255292 64.81756916370604 0 0 0 0 -38.350409148428298 -26.579945369539928 0 -26.579945369539928 179.82286003906779 0 0 0 0 231.12911365346554 -280.62165315379025 0 -280.62165315379025 650.01032748398029 0 0 0 0 -37.448812845701468 -28.881271226427998 0 -28.881271226427998 176.81645417796699 0 0 0 0 -36.706309659395629 -25.089824877899446 0 -25.089824877899446 176.66719171894601 0 0 0 0 -29.348796332712183 -6.4023443036032059 0 -6.4023443036032059 35.917935840688273 0 0 0 0 -27.579337348855915 -29.847394034578883 0 -29.847394034578883 155.17175533700129 0 0 0 0 -36.435980268321146 -24.821249164885103 0 -24.821249164885103 172.96199532740502 0 0 0 0 126.48118323782546 13.300700178386251 0 13.300700178386251 207.51745855223999 0 0 0 0 -15.991209669841034 -25.654235897370402 0 -25.654235897370402 139.14155633288658 0 0 0 0 298.6450437131025 23.81966627003203 0 23.81966627003203 135.41209442697618 0 0 0 0 267.2139613712352 49.149557125947467 0 49.149557125947467 183.72384430867714 0 0 0 0 240.84337206435521 10.693728006304809 0 10.693728006304809 139.90934766205464 0 0 0 0 241.58641807715321 8.9416718106876942 0 8.9416718106876942 143.90407944951994 0 0 0 0 268.93117072380119 33.543309510438121 0 33.543309510438121 151.01499300237629 0 0 0 0 111.60647980647627 0.65998764965843293 0 0.65998764965843293 154.95798300521483 0 0 0 0 147.91826904301706 -50.111518864890968 0 -50.111518864890968 141.81392645954475 0 0 0 0 297.55175733543001 -39.033772692033381 0 -39.033772692033381 135.33424404981452 0 0 0 0 75.581705591962418 -23.236681606114871 0 -23.236681606114871 97.128580539858376 0 0 0 0 194.50414395723055 23.137906888307043 0 23.137906888307043 165.3052793916504 0 0 0 0 89.219542762241872 -75.054491369698553 0 -75.054491369698553 240.18075076820242 0 0 0 0 20.678751228555484 -29.358185580345889 0 -29.358185580345889 208.66629133185779 0 0 0 0 509.2156684118163 -32.663736885726394 0 -32.663736885726394 156.41933388195685 0 0 0 0 223.77267961165307 -69.222789218765683 0 -69.222789218765683 451.99743807107734 0 0 0 0 352.2737027369003 307.99724584501382 0 307.99724584501382 343.12611404294512 0 0 0 0 551.95058458445055 152.27173679883708 0 152.27173679883708 177.89345268635952 0 0 0 0 354.28964319336956 168.246160104718 0 168.246160104718 213.73409688672109 0 0 0 0 135.07795154918131 174.69385625563154 0 174.69385625563154 249.94278653699439 0 0 0 0 246.34484353772132 438.83049314340315 0 438.83049314340315 98.566965513131436 0 0 0 0 361.82032551388806 283.44201135408866 0 283.44201135408866 28.499559821691946 0 0 0 0 208.88748043022861 205.91680312752214 0 205.91680312752214 49.741815794404829 0 0 0 0 72.995840298606709 17.290412511663817 0 17.290412511663817 -206.95209214701754 0 0 0 0 213.01580308100893 178.53087404492544 0 178.53087404492544 222.87776577506156 0 0 0 0 176.83599676723975 559.50251102234733 0 559.50251102234733 -256.09031736187171 0 0 0 0 182.65110023924808 496.74613780387426 0 496.74613780387426 414.58829383607372 0 0 0 0 309.86708091602941 -506.2185400970011 0 -506.2185400970011 1141.8249548467502 0 0 0 0 -462.20184000680092 996.13103352146754 0 996.13103352146754 1600.7366565953562 0 0 0 0 -51.729870846873503 -60.929315144646537 0 -60.929315144646537 132.3245978271876 0 0 0 0 100.68392213729385 461.24724403803702 0 461.24724403803702 616.12314375975257 0 0 0 0 -4.2462215293344343 3.5968744483889168 0 3.5968744483889168 151.58074446029218 0 0 0 0 -91.800779462522769 20.113430683421029 0 20.113430683421029 248.39412467903639 0 0 0 0 -28.008533925032722 -54.98381779232524 0 -54.98381779232524 109.64159520033331 0 0 0 0 -43.52202761482031 -37.765779460098059 0 -37.765779460098059 259.07170912967672 0 0 0 0 210.06504096410208 308.89909098365024 0 308.89909098365024 480.04220559837995 0 0 0 0 -160.82347005838528 -178.37842224270207 0 -178.37842224270207 351.46775991652976 0 0 0 0 -196.64736674785672 -45.575558714062936 0 -45.575558714062936 1188.4986944629927 0 0 0 0 60.237121480928181 27.531553692693706 0 27.531553692693706 966.45669903742964 0 0 0 0 505.04565505929713 -75.32453634920239 0 -75.32453634920239 323.18418568254856 0 0 0 0 382.28694390509622 -421.46968981408747 0 -421.46968981408747 1184.6824900937499 0 0 0 0 380.32370218593098 412.01482626734901 0 412.01482626734901 1522.9086745417007 0 0 0 0 -442.36866255954374 172.81555372818184 0 172.81555372818184 1546.9273190326412 0 0 0 0 7.7929342096613183 5.4766872910485063 0 5.4766872910485063 3.2981533193163273 0 0 0 0 -516.36814700253308 34.973654668468953 0 34.973654668468953 1304.7943522014189 0 0 0 0 43.533228887332371 55.406949046751834 0 55.406949046751834 1299.9612420378253 0 0 0 0 -206.33124303024852 -3.2901407283188746 0 -3.2901407283188746 105.15746362150094 0 0 0 0 -228.76772711641024 468.52228648937853 0 468.52228648937853 382.12129755970091 0 0 0 0 14.848398405728595 12.066168991116868 0 12.066168991116868 7.7098022851774317 0 0 0 0 56.50871522671514 743.82182285439194 0 743.82182285439194 -473.29111414372528 0 0 0 0 -109.96054182369517 -1.9648311794153415 0 -1.9648311794153415 85.514908287650542 0 0 0 0 -242.37030183383649 269.47431298888478 0 269.47431298888478 -107.4910473059972 0 0 0 0 -56.446914603658115 105.23396938441783 0 105.23396938441783 138.51313948405004 0 0 0 0 -58.201699579543856 -45.948826335692502 0 -45.948826335692502 196.34534461905787 0 0 0 0 -83.871993852366359 54.677708032233113 0 54.677708032233113 166.93689740167611 0 0 0 0 -132.95627739043937 124.50590780164544 0 124.50590780164544 43.27875191574276 0 0 0 0 -58.674174120063071 -47.842671184080245 0 -47.842671184080245 172.5914047012011 0 0 0 0 176.30538423262806 465.01662282917459 0 465.01662282917459 -505.51241911494162 0 0 0 0 14.928675150194188 9.5861475769555682 0 9.5861475769555682 4.2313664444612584 0 0 0 0 213.60443092178866 -7.156234172754921 0 -7.156234172754921 -279.00493710010778 0 0 0 0 -33.072701459237578 -16.046992999363283 0 -16.046992999363283 -197.75245099520907 0 0 0 0 8.5812285757185656 2.904630695017083 0 2.904630695017083 -0.95661859058664334 0 0 0 0 -48.560891813390299 14.992626743001892 0 14.992626743001892 453.78244098066898 0 0 0 0 378.41648651082414 -103.37066352518468 0 -103.37066352518468 -207.9388962434532 0 0 0 0 -4.1710363929175855 386.57798264905068 0 386.57798264905068 450.52380147925442 0 0 0 0 457.57743525009067 79.429410087278484 0 79.429410087278484 -251.30700588510808 0 0 0 0 1.439352191337977 -8.0659970976203539 0 -8.0659970976203539 18.026197175080334 0 0 0 0 11.792973880917316 251.15532183667528 0 251.15532183667528 -334.35766318605602 0 0 0 0 13.234759735682019 -5.5812243952786957 0 -5.5812243952786957 74.768096065556165 0 0 0 0 -5.1220395170676039 18.073705474205127 0 18.073705474205127 60.20052040304094 0 0 0 0 61.641798471123877 44.339432079406834 0 44.339432079406834 151.39432425317864 0 0 0 0 51.241232066360965 103.33153196691637 0 103.33153196691637 -174.52963023155098 0 0 0 0 174.35645999248936 -79.558076959699974 0 -79.558076959699974 -0.53607894678862067 0 0 0 0 15.96057840650451 -29.990204551417264 0 -29.990204551417264 70.369657865558111 0 0 0 0 -8.3892406357910279 2.7675505061499592 0 2.7675505061499592 47.341344982060207 0 0 0 0 56.61535518085384 -76.504009161140857 0 -76.504009161140857 6.1480764624866424 0 0 0 0 -2.0490139514763541 -1.0842187989937884 0 -1.0842187989937884 74.39344398691901 0 0 0 0 5.6057155290611398 -34.385511994922368 0 -34.385511994922368 19.525363089745319 0 0 0 0 249.53194138230174 22.940751186069974 0 22.940751186069974 -42.672076177848794 0 0 0 0 -149.59328457227394 -104.49213253506787 0 -104.49213253506787 992.33774669212289 0 0 0 0 -2.0751325293696254 -7.7254197098714883 0 -7.7254197098714883 11.514194876423559 0 0 0 0 643.36043703544783 564.63282891485869 0 564.63282891485869 386.09823017317831 0 0 0 0 -171.56071366942967 78.398529603837233 0 78.398529603837233 1280.2005049405416 0 0 0 0 8.3747194075908045 -7.6401385485401363 0 -7.6401385485401363 -2.4005219493788275 0 0 0 0 787.71295822670618 193.7728982366898 0 193.7728982366898 13.193412180411542 0 0 0 0 548.27085401559088 435.3927713654266 0 435.3927713654266 550.91681815808988 0 0 0 0 691.87425353254366 391.0489082822096 0 391.0489082822096 1004.9387302787509 0 0 0 0 841.42738632093096 862.82148299124674 0 862.82148299124674 1130.380745280796 0 0 0 0 -121.58745828393876 215.44073753988778 0 215.44073753988778 1326.9843208413586 0 0 0 0 110.7439800648026 150.70913344639121 0 150.70913344639121 1051.1237786345591 0 0 0 0 235.71961741651467 387.9037006325816 0 387.9037006325816 1325.3093503302034 0 0 0 0 -99.967854484260897 8.7280653588532005 0 8.7280653588532005 1903.8166902054072 0 0 0 0 -95.095175282280252 34.20669923380774 0 34.20669923380774 1262.7130991378799 0 0 0 0 125.23967404631867 -171.69439009682901 0 -171.69439009682901 848.77662499020516 0 0 0 0 530.30074496101588 176.88047466401622 0 176.88047466401622 630.34002950075774 0 0 0 0 493.17284205966644 78.022679135174258 0 78.022679135174258 436.87225797876454 0 0 0 0 81.742661141061035 -175.9806084644697 0 -175.9806084644697 -371.61624816666608 0 0 0 0 292.56077943209493 277.69104433486791 0 277.69104433486791 564.15614239306888 0 0 0 0 404.1775353988852 -333.19745800765895 0 -333.19745800765895 -153.90857551593945 0 0 0 0 85.137489179277509 -179.99283378269683 0 -179.99283378269683 381.53573632449479 0 0 0 0 2.4532579776734948 10.119034626818404 0 10.119034626818404 14.141799258577009 0 0 0 0 -187.88708598320954 363.69295277946003 0 363.69295277946003 13.183991904021241 0 0 0 0 138.51298110218977 139.97065713650954 0 139.97065713650954 130.45493458788587 0 0 0 0 -0.4356739827326237 -106.31463555666414 0 -106.31463555666414 328.92005374266364 0 0 0 0 2.3335013051736695 2.3959897076781829 0 2.3959897076781829 5.2987267994888612 0 0 0 0 -109.53030811690496 -151.59324184987054 0 -151.59324184987054 241.81783306144644 0 0 0 0 198.85224381975979 174.8527329297749 0 174.8527329297749 43.67745050607482 0 0 0 0 58.414461673268306 214.44424548713141 0 214.44424548713141 301.81243238213938 0 0 0 0 -67.670079983313826 84.627223569576017 0 84.627223569576017 256.50205452227965 0 0 0 0 -5.6698972206286271 83.899484588611813 0 83.899484588611813 72.301402739016339 0 0 0 0 9.5367809942517852 -51.176856626672816 0 -51.176856626672816 39.182616952894023 0 0 0 0 -7.3807850370894812 8.258358903167391 0 8.258358903167391 76.474289152217807 0 0 0 0 -2.1869554897706576 3.3126536214862092 0 3.3126536214862092 78.606092475964829 0 0 0 0 -98.797930879438354 25.119641006866004 0 25.119641006866004 146.52225350555091 0 0 0 0 -15.535393990077182 -2.3086923483861028 0 -2.3086923483861028 77.361457630126097 0 0 0 0 -9.7652670864617903 4.545091642990883 0 4.545091642990883 83.948613700129499 0 0 0 0 -1.6228769559465306 2.6215593792768601 0 2.6215593792768601 28.212106511341197 0 0 0 0 -7.5647769780225644 -3.4691241030886886 0 -3.4691241030886886 77.5716105131105 0 0 0 0 -15.828218241526884 -12.710160846916551 0 -12.710160846916551 64.834846303398081 0 0 0 0 -34.638643799600978 -16.682667991791817 0 -16.682667991791817 21.739024445849125 0 0 0 0 -12.195122311753479 8.7188131832907914 0 8.7188131832907914 39.040954883490087 0 0 0 0 -25.341074090320944 5.4910479833743011 0 5.4910479833743011 82.734581708798942 0 0 0 0 -13.401888248102068 9.9414793623573132 0 9.9414793623573132 53.998909679954522 0 0 0 0 -11.27408748653761 7.9022305120161036 0 7.9022305120161036 79.324948154753656 0 0 0 0 -1.1459161990617983 3.0543435340327889 0 3.0543435340327889 69.204402110264056 0 0 0 0 -35.004977257521091 -41.692659697934687 0 -41.692659697934687 39.838589588922332 0 0 0 0 -1.7538552412046897 5.6564412943622386 0 5.6564412943622386 26.056750441398748 0 0 0 0 -65.177948671821923 89.915197783797339 0 89.915197783797339 81.253584860165574 0 0 0 0 -42.998186927930874 -46.379150471111643 0 -46.379150471111643 126.09353671548888 0 0 0 0 -42.998186927917459 -46.379150471100729 0 -46.379150471100729 126.09353671547433 0 0 0 0 -10.455396673431556 -4.7535804761693896 0 -4.7535804761693896 6.6693167601180505 0 0 0 0 -5.0577019671784251 5.2747847826505563 0 5.2747847826505563 44.910266943976865 0 0 0 0 -42.998186927924507 -46.379150471082539 0 -46.379150471082539 126.09353671540157 0 0 0 0 52.425273872217076 -118.509461679987 0 -118.509461679987 -100.01749947233475 0 0 0 0 10.892785583386285 -173.32569890120067 0 -173.32569890120067 -20.927106617753452 0 0 0 0 60.078348679129704 139.29039961765375 0 139.29039961765375 -164.05734879094598 0 0 0 0 39.403252102445549 125.6635728446563 0 125.6635728446563 278.62391790124821 0 0 0 0 11.791269728849102 -155.59472555210778 0 -155.59472555210778 290.14020900431206 0 0 0 0 10.73189850201652 -211.39241007583769 0 -211.39241007583769 -22.317607739605592 0 0 0 0 44.687283272752779 -3.3456441082830679 0 -3.3456441082830679 28.816340261299047 0 0 0 0 165.47505409516089 -174.5495786958345 0 -174.5495786958345 259.73232430996723 0 0 0 0 3.8652028690817666 3.0688220499774843 0 3.0688220499774843 7.8660750182503847 0 0 0 0 204.71543915839811 -185.02842918312672 0 -185.02842918312672 232.54981661193597 0 0 0 0 4.36444062766454 3.892818424503055 0 3.892818424503055 2.4682910379320901 0 0 0 0 133.17221658284416 -236.80993702800333 0 -236.80993702800333 317.69280234367761 0 0 0 0 29.790478295373191 66.231102811767414 0 66.231102811767414 314.52146101143444 0 0 0 0 113.97102562924192 -230.94942550059932 0 -230.94942550059932 352.43548086029114 0 0 0 0 -76.094876108207245 56.047662447104813 0 56.047662447104813 94.696907201490831 0 0 0 0 -15.914970446684215 0.017234396479210545 0 0.017234396479210545 31.078247808191364 0 0 0 0 20.285225941190188 26.561590789993502 0 26.561590789993502 34.84865502894769 0 0 0 0 -129.37430974068047 54.385110479888681 0 54.385110479888681 100.11515545244038 0 0 0 0 -119.046287801777 59.016449287126306 0 59.016449287126306 107.92216174586065 0 0 0 0 67.73249447782473 -47.494165135187359 0 -47.494165135187359 35.195589644834399 0 0 0 0 25.619994710033954 22.555170668949984 0 22.555170668949984 18.984473579094271 0 0 0 0 575.25246551414421 882.7666211615433 0 882.7666211615433 430.17395449278411 0 0 0 0 -177.39750445828577 -107.92947498205285 0 -107.92947498205285 23.716343832027633 0 0 0 0 101.28039455921135 -222.77574857541913 0 -222.77574857541913 68.426974967725982 0 0 0 0 -79.5728871939491 791.19714890193427 0 791.19714890193427 2183.992998781272 0 0 0 0 97.652695550617864 -429.21178823465743 0 -429.21178823465743 1958.9598635842558 0 0 0 0 11.94804462332263 9.6190047042393729 0 9.6190047042393729 8.55062484773498 0 0 0 0 1088.4867721269152 668.60798044781768 0 668.60798044781768 -239.27815989943338 0 0 0 0 733.0918332917372 1312.0998716278846 0 1312.0998716278846 1012.6957003928837 0 0 0 0 696.14060043053996 335.04723435366759 0 335.04723435366759 -74.998608423920814 0 0 0 0 383.2512265056439 -327.55058624625963 0 -327.55058624625963 -776.83056560653495 0 0 0 0 266.32637658259591 386.8360722331272 0 386.8360722331272 272.27807923969522 0 0 0 0 56.624943704034195 698.71240283486986 0 698.71240283486986 1031.1371894210315 0 0 0 0 406.41090468945185 639.4496790771118 0 639.4496790771118 506.70531278158887 0 0 0 0 -91.22254751510809 174.3275419963029 0 174.3275419963029 311.51589041256375 0 0 0 0 70.60464205716562 502.34240960911848 0 502.34240960911848 753.84356233204016 0 0 0 0 89.449164066446428 615.33115432777413 0 615.33115432777413 735.91034147136088 0 0 0 0 65.414619701475658 390.49672909788205 0 390.49672909788205 730.35530798994296 0 0 0 0 13.478714450766347 408.81577294474118 0 408.81577294474118 1011.3419401259334 0 0 0 0 120.98017333525161 52.335989745102779 0 52.335989745102779 341.08652028255165 0 0 0 0 123.62728695466012 93.07210475877946 0 93.07210475877946 887.76225555397104 0 0 0 0 139.83119194002757 410.1067461855564 0 410.1067461855564 550.96754459718068 0 0 0 0 144.32632472093223 397.39627725228638 0 397.39627725228638 566.81946470285766 0 0 0 0 159.20379510827115 465.26536775176646 0 465.26536775176646 788.80345401403611 0 0 0 0 156.21707503026846 549.09409327960748 0 549.09409327960748 753.98455694146105 0 0 0 0 144.30893974188984 538.37160561157361 0 538.37160561157361 767.28395493369317 0 0 0 0 226.99587877325939 579.94519536792359 0 579.94519536792359 783.19966099170415 0 0 0 0 114.42829684060416 475.46890261548106 0 475.46890261548106 1162.4589409805485 0 0 0 0 217.32004612353558 579.12034615849552 0 579.12034615849552 654.07563584626769 0 0 0 0 107.35862386481949 466.66452323684643 0 466.66452323684643 738.68602521266439 0 0 0 0 225.31188110876974 591.61794524589641 0 591.61794524589641 365.15860874808277 0 0 0 0 117.64689421564253 645.97980434994679 0 645.97980434994679 779.41507098716102 0 0 0 0 15.466946372003804 563.37876283632067 0 563.37876283632067 1490.0964762343065 0 0 0 0 -13.74721419771231 454.45787755746278 0 454.45787755746278 2565.1656688140502 0 0 0 0 209.07660344137548 1171.957854106673 0 1171.957854106673 490.66951825824799 0 0 0 0 -2.6204417331233376 0.94843066732441628 0 0.94843066732441628 6.1603147559546301 0 0 0 0 237.25943720446958 931.15734908322338 0 931.15734908322338 -587.80158572140499 0 0 0 0 491.84132656690736 967.40249276734903 0 967.40249276734903 1891.3693621823331 0 0 0 0 66.156008503103294 188.2300783876708 0 188.2300783876708 -416.19775041181856 0 0 0 0 -29.212000845478542 363.51694197948382 0 363.51694197948382 298.22103340669855 0 0 0 0 -313.22354274637837 417.49161513935542 0 417.49161513935542 165.6690590257349 0 0 0 0 -38.036955475361538 164.28692474901618 0 164.28692474901618 313.7251821198206 0 0 0 0 48.624229415900118 -58.008612372890639 0 -58.008612372890639 -9.2065011045742722 0 0 0 0 -167.98624602688278 -194.6022625862679 0 -194.6022625862679 90.516802187230496 0 0 0 0 -37.901801510341102 20.269541455672879 0 20.269541455672879 195.11834605684973 0 0 0 0 -25.517945368490473 -55.843680997495539 0 -55.843680997495539 195.52796555298539 0 0 0 0 -40.540065084959494 -35.946808388738802 0 -35.946808388738802 79.343122409249446 0 0 0 0 133.92367878446748 390.77251272465219 0 390.77251272465219 1062.046168987159 0 0 0 0 -94.010353064020819 -56.686955946250237 0 -56.686955946250237 244.20196724339621 0 0 0 0 -10.26929192209009 -0.73014077609495587 0 -0.73014077609495587 13.268361965012684 0 0 0 0 65.510611061341478 -45.698009342013393 0 -45.698009342013393 959.93970693793017 0 0 0 0 -54.287155643150982 -34.780854979428113 0 -34.780854979428113 256.11675701692002 0 0 0 0 -24.734126345807454 100.11457074781356 0 100.11457074781356 1297.3235178419272 0 0 0 0 -31.92195887667549 519.20977323786065 0 519.20977323786065 1926.1282639001729 0 0 0 0 0.92128871751933872 -7.1634648400016943 0 -7.1634648400016943 33.772549027407308 0 0 0 0 -126.23755954593707 -261.84047553697746 0 -261.84047553697746 193.43323365109245 0 0 0 0 164.94828666628473 1228.2118096125196 0 1228.2118096125196 1352.6333538832114 0 0 0 0 -149.25640395990195 744.22302247126936 0 744.22302247126936 1620.6289179991581 0 0 0 0 1035.797089102547 2037.5362844667252 0 2037.5362844667252 3031.3949667302368 0 0 0 0 3558.8002836961386 1137.5587404796679 0 1137.5587404796679 339.63307849134435 0 0 0 0 -530.18282427171653 -466.10098506427312 0 -466.10098506427312 1629.3390068553053 0 0 0 0 -1042.3980039203016 348.77473330279463 0 348.77473330279463 3734.5111826809371 0 0 0 0 297.54094600934241 -198.43594699351524 0 -198.43594699351524 2933.481138209303 0 0 0 0 12.678552665918687 645.23088436528633 0 645.23088436528633 1513.5877085512584 0 0 0 0 173.86687747734049 552.55968104478961 0 552.55968104478961 538.20346623984369 0 0 0 0 152.38053964558821 1315.0103316137902 0 1315.0103316137902 813.97785034302433 0 0 0 0 -17.478661334810113 581.06542029009506 0 581.06542029009506 1398.9872709118936 0 0 0 0 711.40031756733424 1075.8595136819495 0 1075.8595136819495 284.1841774329805 0 0 0 0 161.44837167910282 547.24485018782798 0 547.24485018782798 551.26118008173944 0 0 0 0 331.18050306336227 396.736887650266 0 396.736887650266 461.28139686958457 0 0 0 0 40.889180790142746 -128.42132786973525 0 -128.42132786973525 41.28194657896529 0 0 0 0 17.945252420165708 7.1555846039550488 0 7.1555846039550488 -0.62999481868956764 0 0 0 0 208.4194346276854 292.67202131332306 0 292.67202131332306 1715.6217013777059 0 0 0 0 1267.5562921737828 388.65002337970509 0 388.65002337970509 -13.88265691707511 0 0 0 0 -179.61521715515846 1198.3345443349754 0 1198.3345443349754 1760.1151160882946 0 0 0 0 1463.3212633003022 -805.45101262952085 0 -805.45101262952085 673.50728775964853 0 0 0 0 263.49491175168896 1481.3179230034948 0 1481.3179230034948 521.16197135060793 0 0 0 0 1369.2163603609761 1297.4526459515646 0 1297.4526459515646 130.19979050636175 0 0 0 0 802.36728238983096 1597.7433007598593 0 1597.7433007598593 345.92751629598206 0 0 0 0 6.9514596440357082 -37.642970894712363 0 -37.642970894712363 65.357973424019264 0 0 0 0 -53.430330718791566 -31.129172573206233 0 -31.129172573206233 78.169701539673071 0 0 0 0 25.439162441370172 -106.26976171845672 0 -106.26976171845672 199.47347086168827 0 0 0 0 -898.53002360457731 -652.98072092492657 0 -652.98072092492657 1481.6503025677448 0 0 0 0 -183.18686039642853 -9.4446236126859731 0 -9.4446236126859731 139.94562133022555 0 0 0 0 -191.78172189881207 -316.8662554084076 0 -316.8662554084076 1839.6672177711334 0 0 0 0 220.83775249608925 1341.563562057323 0 1341.563562057323 1492.2070004712441 0 0 0 0 -391.88588188041376 -101.62585617487639 0 -101.62585617487639 323.09158031237166 0 0 0 0 227.84569477170407 -484.14604243308713 0 -484.14604243308713 -1585.9336593356275 0 0 0 0 -19.039860111379745 -47.988185117943999 0 -47.988185117943999 171.96777081887222 0 0 0 0 -18.603757977347307 3.350403792734113 0 3.350403792734113 49.895216052125306 0 0 0 0 -446.70066524763661 -447.33503421251953 0 -447.33503421251953 -277.02916115331755 0 0 0 0 86.003792359057115 -19.154690572220716 0 -19.154690572220716 201.84358980663137 0 0 0 0 -58.989417827638135 33.571472917836218 0 33.571472917836218 355.29707715034783 0 0 0 0 110.3132506569591 89.986346111658349 0 89.986346111658349 323.11323802021514 0 0 0 0 -106.37353062513193 -42.435930831336009 0 -42.435930831336009 328.64279266289975 0 0 0 0 1.2793528125848752 -27.239398086494475 0 -27.239398086494475 49.513873001695174 0 0 0 0 -47.293903356502369 93.641139803342867 0 93.641139803342867 190.70169408772199 0 0 0 0 1.0960279187764694 -3.7318829014324422 0 -3.7318829014324422 -3.9072877091582328 0 0 0 0 -103.97903664906426 100.65465414661594 0 100.65465414661594 639.51273699739249 0 0 0 0 -35.212617571502506 -127.39100887440509 0 -127.39100887440509 465.23250459198607 0 0 0 0 152.93034372132297 -51.367474535207293 0 -51.367474535207293 -271.91806061205534 0 0 0 0 -100.31679001196278 -95.661586180758604 0 -95.661586180758604 75.40324130859517 0 0 0 0 97.565083635586234 -105.60270934441542 0 -105.60270934441542 -102.17577761939174 0 0 0 0 -12.188074647258567 -76.171293942145908 0 -76.171293942145908 33.551425767895232 0 0 0 0 -180.56763545557669 -160.5127374704266 0 -160.5127374704266 436.98775846575336 0 0 0 0 208.50150405401837 -12.084890522310161 0 -12.084890522310161 -250.04125415424824 0 0 0 0 133.19154537101622 268.39872924100837 0 268.39872924100837 534.44070078931327 0 0 0 0 -139.78317221976977 20.863396159662443 0 20.863396159662443 172.8107634579319 0 0 0 0 312.72842178299015 -191.90228319532252 0 -191.90228319532252 -336.05237022940855 0 0 0 0 -12.291058057968582 -83.25221759616042 0 -83.25221759616042 17.017014832531657 0 0 0 0 41.237827566516899 -80.721670292990893 0 -80.721670292990893 154.34963209888519 0 0 0 0 4.8769597540461831 -2.280734739284199 0 -2.280734739284199 38.277504390423246 0 0 0 0 -13.380560828006999 -75.875638845073127 0 -75.875638845073127 85.870930796887109 0 0 0 0 -19.774247874751381 -3.1916928814134735 0 -3.1916928814134735 203.83210852374577 0 0 0 0 6.0618559827434702 -63.568616151039919 0 -63.568616151039919 153.52600818858073 0 0 0 0 -36.110010778487776 -319.87373498378474 0 -319.87373498378474 153.98930316722453 0 0 0 0 -172.47479495044172 -297.55829807070222 0 -297.55829807070222 241.13775424022242 0 0 0 0 -155.1577266844688 -210.55364635007481 0 -210.55364635007481 72.07109076532106 0 0 0 0 650.08227077381525 -36.692992953485373 0 -36.692992953485373 59.143716714215202 0 0 0 0 -50.497579075497924 -745.64837070250223 0 -745.64837070250223 -363.51642709213229 0 0 0 0 1569.5968489162351 979.73028306289007 0 979.73028306289007 -76.732538135857453 0 0 0 0 -348.33799967826326 -50.852208930190955 0 -50.852208930190955 507.55767243525588 0 0 0 0 -648.54238454800361 -370.10887746330809 0 -370.10887746330809 380.58199054032593 0 0 0 0 -59.614993829986815 -1524.1627627419782 0 -1524.1627627419782 790.73194578319817 0 0 0 0 -1110.436253517646 588.02903327207923 0 588.02903327207923 2735.1021509081311 0 0 0 0 22.561496515304498 -562.89399956354828 0 -562.89399956354828 3311.1688916171324 0 0 0 0 374.23905723741973 1135.4456315050811 0 1135.4456315050811 2674.3144890726726 0 0 0 0 -178.82243290213501 486.12886585103843 0 486.12886585103843 1933.1913105093445 0 0 0 0 47.874941626952932 -329.61379731298621 0 -329.61379731298621 1423.9093224527992 0 0 0 0 50.25891648355946 284.51348535411307 0 284.51348535411307 1239.9419544751991 0 0 0 0 -186.44659789345769 362.93712729083018 0 362.93712729083018 1340.4111334105492 0 0 0 0 -231.77172560066936 53.119848531025923 0 53.119848531025923 1121.9839033369608 0 0 0 0 29.422265005088775 108.61122499889461 0 108.61122499889461 716.23529668448828 0 0 0 0 295.61996372286194 545.99990108038128 0 545.99990108038128 729.95281685873488 0 0 0 0 42.652067261573393 93.435224184875551 0 93.435224184875551 376.80504706235661 0 0 0 0 68.551918533549724 -80.327964097523363 0 -80.327964097523363 751.87712913217547 0 0 0 0 85.313693081798192 264.13546792967827 0 264.13546792967827 1372.4378784480941 0 0 0 0 308.13068587072485 464.69975647598039 0 464.69975647598039 1414.8360813325417 0 0 0 0 -9.8134390969746619 520.87152308139457 0 520.87152308139457 1450.9418356204405 0 0 0 0 66.867747562783734 186.33795256436133 0 186.33795256436133 1428.6652365719056 0 0 0 0 132.19828801589256 57.478701516953151 0 57.478701516953151 1674.1108082737774 0 0 0 0 -311.78712945742245 100.50578598873108 0 100.50578598873108 1454.0641121368826 0 0 0 0 338.3335084571172 227.80841558419343 0 227.80841558419343 1182.3215520567319 0 0 0 0 260.69812548500386 452.01660418172833 0 452.01660418172833 1018.3430260407622 0 0 0 0 181.15124447811831 427.93487844713673 0 427.93487844713673 1014.7264495820564 0 0 0 0 60.171108842816466 289.49510501459008 0 289.49510501459008 1360.127301826069 0 0 0 0 566.28800674676859 -770.02189891040325 0 -770.02189891040325 1083.5390352294926 0 0 0 0 -404.39438541743584 526.2510319458961 0 526.2510319458961 550.01935430140293 0 0 0 0 3.2407144652848423 2.706668013773438 0 2.706668013773438 1.3706271291264898 0 0 0 0 -20.930742566479239 -46.585817158276768 0 -46.585817158276768 68.458899814300821 0 0 0 0 -7.9767112578447268 -258.39580571498664 0 -258.39580571498664 388.89758625055401 0 0 0 0 -259.40108519591195 -255.18586875089386 0 -255.18586875089386 453.06465982904774 0 0 0 0 -76.927248322157538 -304.96437678546499 0 -304.96437678546499 465.98504702799255 0 0 0 0 353.04453900793123 -277.90447723272518 0 -277.90447723272518 311.46570040272491 0 0 0 0 79.32789950109327 163.39154614149447 0 163.39154614149447 946.61195473335101 0 0 0 0 101.79630861164833 162.98018898230293 0 162.98018898230293 382.40890621265862 0 0 0 0 162.13867583516344 537.9478018112477 0 537.9478018112477 731.13844537353725 0 0 0 0 74.403436032205718 541.75621185790078 0 541.75621185790078 633.58845742681297 0 0 0 0 -438.62629474979076 252.81885159676312 0 252.81885159676312 552.09306123568967 0 0 0 0 25.606177376930646 -494.43876840401936 0 -494.43876840401936 332.42624449415598 0 0 0 0 -5.6191387852573769 6.1646741207530056 0 6.1646741207530056 49.37128938346126 0 0 0 0 54.568682995268318 -454.26525071256037 0 -454.26525071256037 -410.61131408176152 0 0 0 0 -66.052370744291238 70.092688992204785 0 70.092688992204785 659.17310579660989 0 0 0 0 253.82052348845173 80.592126592673594 0 80.592126592673594 90.541722738271346 0 0 0 0 -477.67453886683421 -473.14726367367439 0 -473.14726367367439 110.83402755335555 0 0 0 0 75.906802397585125 -248.29920207403484 0 -248.29920207403484 -321.63248057867168 0 0 0 0 54.153505266980574 -238.30113818398968 0 -238.30113818398968 -321.2279930140503 0 0 0 0 -85.724167233737262 1.0479495529666565 0 1.0479495529666565 312.48064192849051 0 0 0 0 -102.46007141928749 -131.91663133240945 0 -131.91663133240945 411.46922795154387 0 0 0 0 -1.7868621988780937 2.0108269972348012 0 2.0108269972348012 85.003522874369892 0 0 0 0 -325.63304134406644 -214.638572914002 0 -214.638572914002 577.07580453553965 0 0 0 0 -234.85637539637173 -103.7385715120472 0 -103.7385715120472 439.26430720908684 0 0 0 0 -19.971932323015533 -87.991002012751665 0 -87.991002012751665 291.7737794083032 0 0 0 0 -13.191024350074976 -2.8724016451290986 0 -2.8724016451290986 69.244351891315773 0 0 0 0 -146.24842606097445 -849.63766546165243 0 -849.63766546165243 -955.80436471239511 0 0 0 0 -10.639848111920422 -29.706339647451873 0 -29.706339647451873 144.98242921808432 0 0 0 0 -1110.9058312929592 620.84423600986474 0 620.84423600986474 462.83323177706893 0 0 0 0 31.004088487743694 36.702960004498458 0 36.702960004498458 79.860188466584646 0 0 0 0 -555.47284563956055 -575.94494228198982 0 -575.94494228198982 194.61535476319841 0 0 0 0 20.464480076608886 -23.566303070763169 0 -23.566303070763169 84.932144029293312 0 0 0 0 -46.472333504636481 -54.723990017679171 0 -54.723990017679171 140.80301870680341 0 0 0 0 -53.515203068689516 -58.692171133850934 0 -58.692171133850934 142.50720611616998 0 0 0 0 -34.361882871839043 -28.382481857721359 0 -28.382481857721359 148.17925957073021 0 0 0 0 -29.463136060012168 -61.275150289149849 0 -61.275150289149849 138.02889869681883 0 0 0 0 -30.943819502916504 -41.520525389749004 0 -41.520525389749004 117.65585330523768 0 0 0 0 107.8619358049782 -311.41350686905935 0 -311.41350686905935 349.77669793877067 0 0 0 0 -16.155324366235618 -130.53440812645567 0 -130.53440812645567 163.07228661885893 0 0 0 0 -10.027100294626077 -14.931836778490791 0 -14.931836778490791 39.75922395790144 0 0 0 0 -102.33414195379737 -0.76696888563310495 0 -0.76696888563310495 73.904575111554095 0 0 0 0 -93.39762591525141 -211.5466099715195 0 -211.5466099715195 168.96359402868256 0 0 0 0 -210.89537767471165 -121.35681082582232 0 -121.35681082582232 132.45955861484981 0 0 0 0 -33.43566133368369 -60.350238990540078 0 -60.350238990540078 16.525029315135306 0 0 0 0 -85.228358027359718 -114.35091825185009 0 -114.35091825185009 113.49831166298463 0 0 0 0 -140.83877030195436 -165.88239907678508 0 -165.88239907678508 244.35372133554301 0 0 0 0 -230.33929975788124 38.603309555044689 0 38.603309555044689 269.18869572247786 0 0 0 0 260.71630422342059 40.609641822018602 0 40.609641822018602 -182.99464698233351 0 0 0 0 -242.17762195980254 -43.255943990030573 0 -43.255943990030573 487.38402056507766 0 0 0 0 65.90175179165908 -314.48979955189952 0 -314.48979955189952 97.321225512983801 0 0 0 0 2.023301747742531 -5.1662221921199176 0 -5.1662221921199176 3.2931851015932523 0 0 0 0 -365.54025211149224 165.96264570187031 0 165.96264570187031 603.00275679153856 0 0 0 0 -133.82416239022132 -258.55119365803694 0 -258.55119365803694 459.95603313366337 0 0 0 0 -16.280049270604103 -57.272467156306476 0 -57.272467156306476 24.145540885374494 0 0 0 0 254.17383827865933 -122.87843640389474 0 -122.87843640389474 -161.96931661978306 0 0 0 0 470.40329358129384 -91.380173156365345 0 -91.380173156365345 -133.88912017355324 0 0 0 0 -95.047539141868583 -162.28869744262192 0 -162.28869744262192 308.63208822498927 0 0 0 0 123.56605457638216 -98.654687947208004 0 -98.654687947208004 -396.16993785878003 0 0 0 0 -415.83147855872267 -253.60219704010433 0 -253.60219704010433 -63.798959544503305 0 0 0 0 -191.67693394479056 115.86002004258444 0 115.86002004258444 128.70189865163411 0 0 0 0 -5.0694447603941031 -1.0432207034414489 0 -1.0432207034414489 16.5693739521694 0 0 0 0 -11.426850398191164 -117.26414924266282 0 -117.26414924266282 -72.907040392346971 0 0 0 0 -4.0118513640907167 -167.91003613093699 0 -167.91003613093699 50.454026460000023 0 0 0 0 114.02127817757173 -1.9433154055186606 0 -1.9433154055186606 -104.18220230510269 0 0 0 0 10.817819120831349 -23.290071208295743 0 -23.290071208295743 45.614298977743758 0 0 0 0 42.967503976254193 3.8443709936855157 0 3.8443709936855157 100.38623644220206 0 0 0 0 37.337261731395756 -5.9044424566009184 0 -5.9044424566009184 627.99791236915189 0 0 0 0 70.319272345459012 -12.140610922912401 0 -12.140610922912401 142.18813132631476 0 0 0 0 214.34103824577232 76.831572441236858 0 76.831572441236858 160.72031340180638 0 0 0 0 -25.064495536000322 -261.42573539092064 0 -261.42573539092064 1779.5265746821078 0 0 0 0 -92.830592253827263 490.30891274261012 0 490.30891274261012 1048.3540287638607 0 0 0 0 242.53108638222693 1043.7342087775396 0 1043.7342087775396 1920.2939410586753 0 0 0 0 -48.432439192510174 206.15572760042414 0 206.15572760042414 1058.1626030066504 0 0 0 0 101.65650263470343 171.30096725558724 0 171.30096725558724 1116.5799069054447 0 0 0 0 397.6030022545001 797.42119276082667 0 797.42119276082667 926.87642752502143 0 0 0 0 -112.59424139050725 467.79660321337451 0 467.79660321337451 1608.9114134982374 0 0 0 0 3.522467598290131 -6.362810289083221 0 -6.362810289083221 17.847574885610896 0 0 0 0 -12.693175572108885 102.85612620596658 0 102.85612620596658 21.726564168202458 0 0 0 0 580.55322203374089 1226.5925209923589 0 1226.5925209923589 1804.1106967363885 0 0 0 0 60.720008982081708 182.12712501553142 0 182.12712501553142 2457.8354326479403 0 0 0 0 1067.429976321305 17.004130772403386 0 17.004130772403386 883.66672820629901 0 0 0 0 1097.6904631600439 1360.9032024525875 0 1360.9032024525875 651.61420663581521 0 0 0 0 -352.04142637552286 1189.7514407816197 0 1189.7514407816197 1297.8612705272608 0 0 0 0 -338.32497485381975 975.30249718184587 0 975.30249718184587 3012.2624347255696 0 0 0 0 1.9886781650698477 -13.391076831485671 0 -13.391076831485671 -7.9951423920026343 0 0 0 0 204.41045082480468 -160.26740985826655 0 -160.26740985826655 -214.73604691265064 0 0 0 0 -571.70806689884557 242.53037715755272 0 242.53037715755272 718.39091199074028 0 0 0 0 -245.57406648833967 -599.24572927754707 0 -599.24572927754707 2890.1100449304031 0 0 0 0 46.106460156739573 44.002263863571336 0 44.002263863571336 39.148155041039367 0 0 0 0 -577.1239610918683 1543.9706182854634 0 1543.9706182854634 -637.42478983309979 0 0 0 0 -1090.8204512519653 952.60741477350484 0 952.60741477350484 984.15941310880953 0 0 0 0 87.490900624628466 -146.32209270226042 0 -146.32209270226042 276.72621216771768 0 0 0 0 -6.426359163790039 -90.474497297955168 0 -90.474497297955168 880.80251540885183 0 0 0 0 68.901575930884974 128.3869496469606 0 128.3869496469606 696.62665435903364 0 0 0 0 34.144925252025359 -23.285706236379156 0 -23.285706236379156 751.49125257179912 0 0 0 0 115.46626494062593 40.291513581389154 0 40.291513581389154 755.20483257686465 0 0 0 0 22.249517491972057 16.071117667493375 0 16.071117667493375 12.239016198463101 0 0 0 0 1262.4328305176832 1062.151054438531 0 1062.151054438531 -1582.1785693014062 0 0 0 0 184.17334877729627 175.93126343556469 0 175.93126343556469 -1226.0092897870118 0 0 0 0 1236.7135904790002 1019.3001675164005 0 1019.3001675164005 -789.16602900820817 0 0 0 0 1728.0798208085344 636.78230849473402 0 636.78230849473402 -884.6264276430602 0 0 0 0 18.393999925288149 21.75602356604373 0 21.75602356604373 18.888669877912079 0 0 0 0 1526.7586209416813 1541.0542150394122 0 1541.0542150394122 126.10772074725537 0 0 0 0 -859.39808321138344 102.62624402970141 0 102.62624402970141 286.99832830607556 0 0 0 0 -744.7877398544075 734.56583572768614 0 734.56583572768614 3298.4618284373282 0 0 0 0 1417.569168424262 -1066.845147855769 0 -1066.845147855769 874.26486979291803 0 0 0 0 1890.996990834059 587.61682640041545 0 587.61682640041545 352.55576256677159 0 0 0 0 594.45870508803091 268.90161035938945 0 268.90161035938945 472.90203313704933 0 0 0 0 -341.50252152319763 -301.21998885633002 0 -301.21998885633002 682.24748100176294 0 0 0 0 421.78478568395531 -639.57668039823693 0 -639.57668039823693 -221.23812797084975 0 0 0 0 -7.9217137695041302 -10.903400200348612 0 -10.903400200348612 6.1192670621512377 0 0 0 0 -337.46369433202494 -280.68834742352124 0 -280.68834742352124 -568.2983042924825 0 0 0 0 -1194.4959266668093 -544.59439732691317 0 -544.59439732691317 176.50976868890757 0 0 0 0 456.37079769247862 -323.52592658672802 0 -323.52592658672802 113.23917086152142 0 0 0 0 0.23691216395452175 5.542375111752488 0 5.542375111752488 2.6273572564326884 0 0 0 0 -2361.8251529604631 450.61224504974962 0 450.61224504974962 1654.1451589674798 0 0 0 0 -442.06888279558825 312.11841474887683 0 312.11841474887683 74.701981741669442 0 0 0 0 -150.94590766728788 -8.2231407990077514 0 -8.2231407990077514 116.96002460397722 0 0 0 0 52.330079992375218 60.679064320803384 0 60.679064320803384 59.484407418909235 0 0 0 0 -690.71858244414034 -381.33508507212173 0 -381.33508507212173 663.37660987751224 0 0 0 0 -11.832423665687202 -134.60169903043061 0 -134.60169903043061 34.015833577057492 0 0 0 0 -168.67949560486704 -61.187050387710769 0 -61.187050387710769 99.945668721105903 0 0 0 0 -13.650816589617065 7.6260254705730404 0 7.6260254705730404 99.412937169271572 0 0 0 0 -27.417128006158663 8.470395467810139 0 8.470395467810139 69.755634084193233 0 0 0 0 -13.65587952861901 -0.43374090749887273 0 -0.43374090749887273 78.316222022470242 0 0 0 0 6.7380026369742154 20.789547935268274 0 20.789547935268274 79.791457025367436 0 0 0 0 17.474894242836854 5.3997520568163964 0 5.3997520568163964 86.14471556265903 0 0 0 0 18.11083732162686 12.279937929271227 0 12.279937929271227 68.592521451912774 0 0 0 0 -122.95810600075401 80.069363054422865 0 80.069363054422865 67.56075984068957 0 0 0 0 -0.78760473200812875 3.9293116287265706 0 3.9293116287265706 19.848343420487158 0 0 0 0 18.991553572050634 43.525136949912394 0 43.525136949912394 55.411219548801455 0 0 0 0 10.801409713791237 13.920093000700389 0 13.920093000700389 34.184784139422945 0 0 0 0 7.6377801071762406 35.43898800055058 0 35.43898800055058 72.806538952712799 0 0 0 0 25.66187379810799 12.967074363625215 0 12.967074363625215 77.486258440651682 0 0 0 0 32.303575086214551 23.458224210837216 0 23.458224210837216 53.356236133087577 0 0 0 0 5.2683827057278361 15.42613917696022 0 15.42613917696022 19.671179889079603 0 0 0 0 13.076688526637327 -21.184720949747316 0 -21.184720949747316 63.340380536104931 0 0 0 0 -8.6908235858589329 -3.9115582993133451 0 -3.9115582993133451 13.065332488899404 0 0 0 0 -2.8309334247378501 -24.632452764721165 0 -24.632452764721165 77.981469366404326 0 0 0 0 82.223168604123657 107.16204022786224 0 107.16204022786224 -126.92898478028769 0 0 0 0 -0.56287606916293953 -21.833720293265287 0 -21.833720293265287 74.980256456245115 0 0 0 0 24.453637093507652 -13.839495781470532 0 -13.839495781470532 73.874538962647421 0 0 0 0 3.4439657336954812 -10.836939487648959 0 -10.836939487648959 28.57777272869042 0 0 0 0 0.65656194252252931 -10.921151318152624 0 -10.921151318152624 59.676747728861301 0 0 0 0 101.74198318073377 7.8220415478645009 0 7.8220415478645009 -9.2069963806748092 0 0 0 0 2.5567190128642032 -13.566314021081455 0 -13.566314021081455 -9.513789588395575 0 0 0 0 78.907343154523005 -151.48580729951755 0 -151.48580729951755 88.741235282983325 0 0 0 0 26.000305733788082 15.508741548207581 0 15.508741548207581 527.05893935722452 0 0 0 0 0.77871843909506122 -1.5411071739943125 0 -1.5411071739943125 -0.93592078255167621 0 0 0 0 92.105119790941217 -6.9014927150228687 0 -6.9014927150228687 48.547287731282267 0 0 0 0 12.552365736298782 15.75040195497877 0 15.75040195497877 551.34401318817436 0 0 0 0 21.347856830524591 118.89192671630667 0 118.89192671630667 370.35707452995848 0 0 0 0 58.836511986469304 -68.893182429275839 0 -68.893182429275839 534.22161706933366 0 0 0 0 2.5686833169193051 -11.788041349203922 0 -11.788041349203922 757.7175360469264 0 0 0 0 77.052988625305488 7.7543708442108255 0 7.7543708442108255 541.12973131124454 0 0 0 0 86.131219724320886 53.418797569352819 0 53.418797569352819 489.34625305240843 0 0 0 0 -7.9816747247850799 124.23823642531715 0 124.23823642531715 715.65390344330444 0 0 0 0 50.601498221513339 -29.980751558741758 0 -29.980751558741758 138.26740426618016 0 0 0 0 107.53243309369464 133.50640983080666 0 133.50640983080666 115.36525074204474 0 0 0 0 19.340882705254899 134.12850558640002 0 134.12850558640002 351.1496607771769 0 0 0 0 77.175990190282619 78.443092238895588 0 78.443092238895588 154.83572351081057 0 0 0 0 44.805156288725811 -98.090931166200789 0 -98.090931166200789 359.71727706010097 0 0 0 0 165.86318622811496 -99.114820405822684 0 -99.114820405822684 719.33865139043792 0 0 0 0 32.648058949671679 69.2098335832884 0 69.2098335832884 555.72949586464711 0 0 0 0 152.2778027361428 196.94272902714147 0 196.94272902714147 789.15628272085723 0 0 0 0 52.596447792241634 -55.024583213563346 0 -55.024583213563346 547.63106304719167 0 0 0 0 -15.00548414453624 146.82200169270709 0 146.82200169270709 1027.1601522164437 0 0 0 0 656.87724901421598 481.20499877403927 0 481.20499877403927 1180.8611600311106 0 0 0 0 -209.1674051055154 213.57680681959505 0 213.57680681959505 1729.8298567561505 0 0 0 0 194.23942329478359 552.77820775696455 0 552.77820775696455 1251.8921609718354 0 0 0 0 103.82639026660445 -48.426727141545598 0 -48.426727141545598 1473.3597893612691 0 0 0 0 -12.679727614031947 13.258220781388445 0 13.258220781388445 1024.8056594147765 0 0 0 0 86.396081800620209 105.84023082667591 0 105.84023082667591 971.70986250385613 0 0 0 0 22.486391475423034 -2.7891033656742366 0 -2.7891033656742366 755.80451093172655 0 0 0 0 -57.309148421755253 40.29086124951391 0 40.29086124951391 931.97152465313047 0 0 0 0 -55.369043855721429 142.42424798659886 0 142.42424798659886 717.69510770930356 0 0 0 0 -52.423736580854666 33.296116896978674 0 33.296116896978674 883.39153937251467 0 0 0 0 -137.97053350194892 59.262043795721183 0 59.262043795721183 1010.2725712417378 0 0 0 0 -59.243909941903894 18.900414600384465 0 18.900414600384465 948.06015784397459 0 0 0 0 -56.663132746616725 -1.6540815876509214 0 -1.6540815876509214 912.98516060768088 0 0 0 0 18.520985883046023 48.332798725985413 0 48.332798725985413 929.54436460273337 0 0 0 0 -6.7032196528587065 43.678243371385179 0 43.678243371385179 999.84348285708256 0 0 0 0 28.70807305737776 52.812512231093933 0 52.812512231093933 856.19124140472195 0 0 0 0 129.01305206631747 197.4235276923464 0 197.4235276923464 1038.7670868081195 0 0 0 0 383.17691174784227 199.6686510305035 0 199.6686510305035 605.21655729344275 0 0 0 0 271.13362994633201 -13.708186841245606 0 -13.708186841245606 752.23748451690335 0 0 0 0 29.633450098769572 14.267721608010561 0 14.267721608010561 704.35871558391955 0 0 0 0 36.5858423956347 48.046815365618386 0 48.046815365618386 854.068840510874 0 0 0 0 -58.377890940453653 51.416960412974731 0 51.416960412974731 721.54186427265449 0 0 0 0 134.30403634548361 142.13547129701237 0 142.13547129701237 391.22479095608287 0 0 0 0 277.35320942853923 34.82027621898942 0 34.82027621898942 910.95782344184408 0 0 0 0 126.48531808135317 205.09734835120616 0 205.09734835120616 784.94319800729227 0 0 0 0 1030.752291875322 964.11012199995457 0 964.11012199995457 -258.32505818539539 0 0 0 0 -814.93107844388942 -1270.1717827841549 0 -1270.1717827841549 952.32390043252963 0 0 0 0 141.73663004050741 -1152.8111712147584 0 -1152.8111712147584 497.73171914872364 0 0 0 0 -1869.8535260541084 341.04481955108349 0 341.04481955108349 -285.22539770741423 0 0 0 0 -1285.002393324979 -963.22386635489511 0 -963.22386635489511 1067.4516573939691 0 0 0 0 -150.25809950619077 -29.287780815815495 0 -29.287780815815495 -139.59982613826287 0 0 0 0 5.3438697422970849 -48.807024435751956 0 -48.807024435751956 26.423324628900943 0 0 0 0 1.5459036806373994 0.44952431421018701 0 0.44952431421018701 10.981950490483783 0 0 0 0 -212.85813237239381 1016.3588662898898 0 1016.3588662898898 737.62606428518848 0 0 0 0 135.22647518785016 -316.04069536024872 0 -316.04069536024872 642.49721297233191 0 0 0 0 177.44102960698251 56.273147714588049 0 56.273147714588049 -173.38165305704752 0 0 0 0 154.3538539598967 394.59802051316001 0 394.59802051316001 722.09380795600009 0 0 0 0 1001.3267689786258 -43.298206419116468 0 -43.298206419116468 664.8143507773093 0 0 0 0 -161.45369771334663 -123.92975911085159 0 -123.92975911085159 58.055938798970033 0 0 0 0 -7.6150741987803023 -0.60520746176043616 0 -0.60520746176043616 4.4443350504843053 0 0 0 0 -475.59262597527777 -497.60418929630396 0 -497.60418929630396 75.973093606582779 0 0 0 0 -105.19149643165611 101.7511149035663 0 101.7511149035663 271.41431907382866 0 0 0 0 -209.13675494584095 0.040817692902237468 0 0.040817692902237468 321.99613185151975 0 0 0 0 -157.72519018866114 176.97684930663672 0 176.97684930663672 310.95133231617365 0 0 0 0 -53.054461435615849 -64.060630352527369 0 -64.060630352527369 364.47434116961813 0 0 0 0 -16.422628807953515 182.4107058722584 0 182.4107058722584 398.59653678293944 0 0 0 0 -42.823105401184932 144.59162087639652 0 144.59162087639652 374.65144338121536 0 0 0 0 7.8521959190074995 105.34441431596861 0 105.34441431596861 454.14814821736309 0 0 0 0 -57.418714976197407 128.22609075397304 0 128.22609075397304 550.19524550684582 0 0 0 0 67.030144561147608 -46.127875210739148 0 -46.127875210739148 619.90713622918702 0 0 0 0 -17.942846109514903 8.8942529451196606 0 8.8942529451196606 763.09469041483317 0 0 0 0 -27.210782050728994 -57.77449729541695 0 -57.77449729541695 875.96417553131687 0 0 0 0 -211.86016299308153 119.56289381893862 0 119.56289381893862 496.55839879792256 0 0 0 0 53.200768199736558 147.77295814907848 0 147.77295814907848 470.18265811013407 0 0 0 0 -382.39569453116201 -20.534033481964798 0 -20.534033481964798 789.18097820966432 0 0 0 0 448.56028004608379 284.82139718904546 0 284.82139718904546 888.55342145163377 0 0 0 0 40.710675033837106 -79.185281251815468 0 -79.185281251815468 1085.1348820731619 0 0 0 0 96.954906434534678 -174.10878639930706 0 -174.10878639930706 999.96330139080965 0 0 0 0 -85.120526002046063 -42.348160636001921 0 -42.348160636001921 1004.4634081062759 0 0 0 0 85.490655168072408 -129.28782237824635 0 -129.28782237824635 849.23897194566052 0 0 0 0 -88.374334578278649 -58.213744206577758 0 -58.213744206577758 1035.9537002028337 0 0 0 0 5.5209647212122945 -157.86093270172569 0 -157.86093270172569 1141.6364597837492 0 0 0 0 -115.58573202723892 58.97953997249715 0 58.97953997249715 993.91110073380696 0 0 0 0 -178.67963033791966 40.317679086867429 0 40.317679086867429 1184.622429936433 0 0 0 0 -107.68505832837582 171.82390283474888 0 171.82390283474888 1030.2380120346143 0 0 0 0 155.50507424135935 738.7039377727906 0 738.7039377727906 1669.7680759736286 0 0 0 0 265.95272335129994 -204.8722628761243 0 -204.8722628761243 1155.2065089887874 0 0 0 0 -72.240234522038918 -132.48227663308171 0 -132.48227663308171 1459.3447885206078 0 0 0 0 -158.55142632150091 348.94659153806606 0 348.94659153806606 1237.1851845991296 0 0 0 0 1.0140378277055966 1.2048529833519943 0 1.2048529833519943 1.9354564154306999 0 0 0 0 -143.42186833148116 -95.726502284887829 0 -95.726502284887829 722.04129993737843 0 0 0 0 219.15287279657241 110.73346058796596 0 110.73346058796596 73.465886215838509 0 0 0 0 -511.89099895061008 190.7204549430553 0 190.7204549430553 2051.3791529196951 0 0 0 0 -31.810228080276829 451.2747473062027 0 451.2747473062027 1928.5986101082563 0 0 0 0 278.5813421969724 329.87151639246713 0 329.87151639246713 805.63358229868209 0 0 0 0 -86.060646945603366 -48.027340551505404 0 -48.027340551505404 527.60254031323711 0 0 0 0 0.70888989273674952 3.488534179640066 0 3.488534179640066 2.9887228462776214 0 0 0 0 5.4160975434697889 297.60076587544449 0 297.60076587544449 903.79513673256588 0 0 0 0 191.85856375833919 -284.72549343013543 0 -284.72549343013543 350.02945922929939 0 0 0 0 3.4928339574399381 8.8766789238885639 0 8.8766789238885639 22.472823562305521 0 0 0 0 -299.51366234213128 53.312321299322775 0 53.312321299322775 70.043615245929686 0 0 0 0 -19.671689782720932 -56.065594976969805 0 -56.065594976969805 190.67344186384616 0 0 0 0 52.963932430700879 -28.00899661692165 0 -28.00899661692165 201.01688461934918 0 0 0 0 19.362532423943776 -125.38347826924291 0 -125.38347826924291 278.67020143779155 0 0 0 0 28.064565547656912 102.25824646831916 0 102.25824646831916 431.20952417010631 0 0 0 0 14.204465623311989 116.03787541282509 0 116.03787541282509 422.10178049446586 0 0 0 0 -53.347731789770478 353.16720027441079 0 353.16720027441079 632.63243572171814 0 0 0 0 285.82292752580543 -590.56939195741688 0 -590.56939195741688 659.28573220570797 0 0 0 0 2.0205997575549617 3.8232746952087586 0 3.8232746952087586 8.1543154973978602 0 0 0 0 111.77641845982271 65.184879262100367 0 65.184879262100367 -83.945679295494301 0 0 0 0 -118.58745487105807 497.65074395907504 0 497.65074395907504 357.42699764738063 0 0 0 0 -138.87435412622472 -123.81661151266871 0 -123.81661151266871 86.715365326137544 0 0 0 0 11.234822972473921 -60.685907167456207 0 -60.685907167456207 178.02987194435173 0 0 0 0 77.647892188426795 -22.129430139645592 0 -22.129430139645592 151.52058093156666 0 0 0 0 -5.6788311167971077 -17.257734267308351 0 -17.257734267308351 -13.278181445620636 0 0 0 0 60.76383904506929 -88.540878232555315 0 -88.540878232555315 35.859977178961344 0 0 0 0 -26.129514049726822 -130.50745399041762 0 -130.50745399041762 86.007163669376496 0 0 0 0 -9.2131303525411568 -78.182785410119322 0 -78.182785410119322 234.05138141207499 0 0 0 0 -1.4164578187376371 -1.6959398308898557 0 -1.6959398308898557 -0.00091926694307353785 0 0 0 0 -12.461780391141474 -46.586246635395582 0 -46.586246635395582 135.76818812888087 0 0 0 0 13.223919467603082 -15.899516705978385 0 -15.899516705978385 165.99683858068602 0 0 0 0 -89.475145199503913 -13.554370836673115 0 -13.554370836673115 72.820633826209587 0 0 0 0 -4.7770641135104484 -2.8268767642511783 0 -2.8268767642511783 -1.7084180710083743 0 0 0 0 45.22388951027051 17.681803721774031 0 17.681803721774031 19.023376077115245 0 0 0 0 -29.758410058046138 47.37733916912839 0 47.37733916912839 34.762902482762456 0 0 0 0 3.0417109069981052 -10.833366853181587 0 -10.833366853181587 15.531057156626048 0 0 0 0 -102.41488289235349 -27.559023228417573 0 -27.559023228417573 124.33883718409288 0 0 0 0 -87.851061725687032 -43.204434667171881 0 -43.204434667171881 122.21441087518508 0 0 0 0 -15.021206347953289 -21.021980170534423 0 -21.021980170534423 -8.9130444122875332 0 0 0 0 -21.411081071597437 -171.77768766824556 0 -171.77768766824556 81.83789014683498 0 0 0 0 -100.83408251951573 -3.7992302878436988 0 -3.7992302878436988 103.97710844920221 0 0 0 0 -99.804488951478561 61.704266877721238 0 61.704266877721238 84.122556487047405 0 0 0 0 0.97836954123209452 10.929778493077713 0 10.929778493077713 33.821919028966718 0 0 0 0 88.818850306168315 -10.282362155969167 0 -10.282362155969167 -28.526113041632925 0 0 0 0 -8.8763882662330431 -0.95652014156405851 0 -0.95652014156405851 15.080171320504938 0 0 0 0 -4.9325702341157012 -2.8616001651535043 0 -2.8616001651535043 8.6532250451418804 0 0 0 0 -6.9313607581296921 -4.5473705941835227 0 -4.5473705941835227 5.9283502745644547 0 0 0 0 -13.372289892563167 -14.007551468307533 0 -14.007551468307533 10.314067865576824 0 0 0 0 -18.540193103617639 26.763447465989884 0 26.763447465989884 -13.629462033815798 0 0 0 0 -1.1948057644585504 0.57036560912915846 0 0.57036560912915846 2.9077469059172287 0 0 0 0 -94.131896391238115 -8.3211668540479877 0 -8.3211668540479877 420.9578007740165 0 0 0 0 -110.97167029450611 77.293505496319085 0 77.293505496319085 165.85007757798303 0 0 0 0 -223.02948953211671 -39.769806183678156 0 -39.769806183678156 356.84349089421084 0 0 0 0 25.035898667068977 52.296654698904604 0 52.296654698904604 114.22140445437981 0 0 0 0 -2.0661794274194492 -2.0233216574403494 0 -2.0233216574403494 2.4030354178814903 0 0 0 0 -56.298913614369667 6.0150529193742841 0 6.0150529193742841 309.88208647194551 0 0 0 0 -48.840714846050105 -15.173805179751071 0 -15.173805179751071 311.311021225476 0 0 0 0 -41.138570964731116 -0.1437566183412855 0 -0.1437566183412855 366.07708344159073 0 0 0 0 -47.638153415928173 -7.2736696842157471 0 -7.2736696842157471 361.76692566219572 0 0 0 0 -19.759219966320416 29.821419003543269 0 29.821419003543269 348.11760641415458 0 0 0 0 35.999061269830804 48.295997852399523 0 48.295997852399523 281.31925912790757 0 0 0 0 -39.614422591384937 -4.1858742418371548 0 -4.1858742418371548 289.97067944479932 0 0 0 0 -31.37027914686405 -36.985587705314174 0 -36.985587705314174 297.80316328335903 0 0 0 0 39.77346592959293 15.475293722105562 0 15.475293722105562 57.847828414825926 0 0 0 0 -1.1345988600293744 -4.6390740754294235 0 -4.6390740754294235 -1.7121546867304183 0 0 0 0 -18.869348725944292 55.43549082548634 0 55.43549082548634 388.01080007902056 0 0 0 0 -166.53408263665915 25.799906106791241 0 25.799906106791241 91.06913413520806 0 0 0 0 117.81119334660934 -56.308563969577335 0 -56.308563969577335 167.65312044275197 0 0 0 0 -35.711787576967254 16.175480490659538 0 16.175480490659538 380.8632248349445 0 0 0 0 -30.154083146957419 49.920253012856847 0 49.920253012856847 327.34949668823106 0 0 0 0 123.32702297942296 45.548830311518032 0 45.548830311518032 125.4006393784075 0 0 0 0 -5.1383608640964127 -1.9656375728383395 0 -1.9656375728383395 1.0921492782641993 0 0 0 0 -69.809842454171303 -139.93745466722066 0 -139.93745466722066 236.05779303295549 0 0 0 0 -321.77136572313611 78.77358921845007 0 78.77358921845007 417.49245630525002 0 0 0 0 -6.0150997674271309 -2.4960927123788075 0 -2.4960927123788075 1.5228061377936299 0 0 0 0 -67.547829812410782 -45.245880950931678 0 -45.245880950931678 118.61259950171734 0 0 0 0 -36.801996612463881 6.1453626966558659 0 6.1453626966558659 110.53050359689223 0 0 0 0 -56.460216491926076 -19.086185768685027 0 -19.086185768685027 169.34282549451746 0 0 0 0 211.20974436629331 -210.43193998993229 0 -210.43193998993229 -151.00546672441487 0 0 0 0 -31.209451857590466 28.482114693060794 0 28.482114693060794 160.23167755014492 0 0 0 0 58.488912759749837 34.986712140010241 0 34.986712140010241 157.32875787655212 0 0 0 0 -40.039896515506769 80.019562868947105 0 80.019562868947105 270.30290486269405 0 0 0 0 -2.1094074157263067 -1.4778224887714124 0 -1.4778224887714124 0.67323116173089659 0 0 0 0 -89.659883702520233 -56.863109654598702 0 -56.863109654598702 44.284313482783546 0 0 0 0 -75.57997820004698 14.365266484332096 0 14.365266484332096 217.19994207145828 0 0 0 0 -19.055044600835117 19.549459613996078 0 19.549459613996078 73.630414207880676 0 0 0 0 7.956692549840227 76.274177834688999 0 76.274177834688999 140.59373223559123 0 0 0 0 11.6603161075912 64.788354442092668 0 64.788354442092668 79.053557370065391 0 0 0 0 -13.848581374453261 21.655066151100982 0 21.655066151100982 155.26197020843551 0 0 0 0 -38.98574147073964 66.873102592826399 0 66.873102592826399 4.7782465336431414 0 0 0 0 -21.873028688786007 30.641751939042479 0 30.641751939042479 74.975035754550845 0 0 0 0 -16.233681922641303 59.236613692559104 0 59.236613692559104 19.610019841296889 0 0 0 0 7.2993345971674444 43.16104567434013 0 43.16104567434013 1.0310425745155953 0 0 0 0 -0.53742971777421644 58.704051274361063 0 58.704051274361063 36.68111165377195 0 0 0 0 -13.520236939526967 50.397888989522471 0 50.397888989522471 70.557296412636788 0 0 0 0 -59.452497895292709 -21.536257867224776 0 -21.536257867224776 63.868883173205177 0 0 0 0 31.986234428652779 -8.3009927641985541 0 -8.3009927641985541 67.215923007959645 0 0 0 0 -76.827289496653975 -26.891366828648643 0 -26.891366828648643 132.89046425721278 0 0 0 0 -115.82874370966056 -8.4915418018122182 0 -8.4915418018122182 67.477176162264755 0 0 0 0 -84.83813290566377 -36.822826044648991 0 -36.822826044648991 65.190244850049567 0 0 0 0 -82.361749549214892 -61.417564360946017 0 -61.417564360946017 -0.78915672575567442 0 0 0 0 -64.972904221146877 -2.3586445378030874 0 -2.3586445378030874 -50.585830109288509 0 0 0 0 -86.626932941709128 22.355387194397281 0 22.355387194397281 49.835424118351057 0 0 0 0 -116.69823634694967 57.349279720182039 0 57.349279720182039 16.577096798959246 0 0 0 0 -144.69552990711873 -0.2318792110825143 0 -0.2318792110825143 37.888556088633777 0 0 0 0 -77.607850670415246 25.347127124527105 0 25.347127124527105 45.908023826291355 0 0 0 0 0.8938277855359047 30.934147968504476 0 30.934147968504476 -49.382939158495901 0 0 0 0 -2.2465487315853352 28.694079341514225 0 28.694079341514225 -0.48093915839672263 0 0 0 0 -13.071499812049069 31.524139917298271 0 31.524139917298271 -2.1948675187613844 0 0 0 0 -5.5490739572345547 37.811622299730971 0 37.811622299730971 -40.454323774396471 0 0 0 0 -4.3678151198819251 28.626815640691348 0 28.626815640691348 1.3975792663418929 0 0 0 0 0.60075853365155751 9.1959602443844553 0 9.1959602443844553 21.618557754324531 0 0 0 0 -9.9327822626210036 18.644809152650851 0 18.644809152650851 30.874138506915187 0 0 0 0 0.548818708498926 3.0841861022617998 0 3.0841861022617998 7.1236832950251641 0 0 0 0 1.4787608329260138 -5.8684878234903408 0 -5.8684878234903408 37.412574107785986 0 0 0 0 -5.2360804692729594 -7.6945638881034375 0 -7.6945638881034375 11.094144182354906 0 0 0 0 -7.9846421372928944 0.19084334756109911 0 0.19084334756109911 35.030230861051223 0 0 0 0 -2.4661356711935696 -8.8962575873811147 0 -8.8962575873811147 51.31728210847541 0 0 0 0 -25.957482293511021 -20.157677398451597 0 -20.157677398451597 -2.7803542906394796 0 0 0 0 -88.006818965546699 -40.736070289603049 0 -40.736070289603049 -9.2735684397921432 0 0 0 0 -2.4376039924878441 0.48633722612067842 0 0.48633722612067842 4.26022202000118 0 0 0 0 1.1436580951696129 1.0170584440501962 0 1.0170584440501962 3.8552707927773326 0 0 0 0 -2.3021304733802026 -11.00651492013003 0 -11.00651492013003 61.056834174069081 0 0 0 0 -91.519415020936322 2.8361687706619705 0 2.8361687706619705 21.865389565269652 0 0 0 0 -75.595159275902915 61.640038820224618 0 61.640038820224618 31.168074345748778 0 0 0 0 -6.4800669709184149 1.5472109682405062 0 1.5472109682405062 66.354517905136163 0 0 0 0 -6.4261796470236732 7.5322902174389128 0 7.5322902174389128 57.958846197546336 0 0 0 0 -2.8159382913836453 8.1798970964809996 0 8.1798970964809996 51.000441035596396 0 0 0 0 1.7239541305401813 0.94708403563111698 0 0.94708403563111698 -0.3240489058488194 0 0 0 0 5.6738107813523584 -145.22281362361829 0 -145.22281362361829 303.57840924123593 0 0 0 0 -0.038632854654445659 -0.86186424207063261 0 -0.86186424207063261 -1.3111864848691424 0 0 0 0 -2.0813419286737371 6.0074207731472598 0 6.0074207731472598 48.569449823772629 0 0 0 0 -3.2969777633197737 1.0044922108068022 0 1.0044922108068022 53.958511806056777 0 0 0 0 -2.6451062309743065 2.7858417299767098 0 2.7858417299767098 46.343164826345856 0 0 0 0 -1.6806503319095327 4.6440030680355449 0 4.6440030680355449 49.485980956184903 0 0 0 0 -70.586739033216759 37.21881498085304 0 37.21881498085304 227.76846819842422 0 0 0 0 -61.019612543694166 34.300192645662719 0 34.300192645662719 123.37670393618055 0 0 0 0 -85.993295046023832 39.845473585871787 0 39.845473585871787 280.95050342586183 0 0 0 0 -49.464898580794397 95.363272984717696 0 95.363272984717696 148.83953479503816 0 0 0 0 -18.163575515407956 40.94182885940927 0 40.94182885940927 139.04275389896611 0 0 0 0 -82.215732325207682 96.643596947194965 0 96.643596947194965 103.42823205036484 0 0 0 0 49.976378704588569 -48.58560634474361 0 -48.58560634474361 111.87560424652474 0 0 0 0 -143.35875392199341 -94.917047167479723 0 -94.917047167479723 114.570410026514 0 0 0 0 -131.00913218531878 -8.3681020258400167 0 -8.3681020258400167 250.51749145620306 0 0 0 0 -92.172186820519755 -72.13004783388692 0 -72.13004783388692 34.820220994136434 0 0 0 0 -82.570477417064467 -9.1059251860492623 0 -9.1059251860492623 61.914408813948285 0 0 0 0 -129.5583879836995 -10.392303854059719 0 -10.392303854059719 113.28237319975869 0 0 0 0 -108.12157048704466 44.466266625559001 0 44.466266625559001 111.62264954244711 0 0 0 0 -104.12515569564493 23.335931184781657 0 23.335931184781657 61.189079201290042 0 0 0 0 -87.780043513077089 83.7505434690122 0 83.7505434690122 150.26615273470088 0 0 0 0 -0.92185623784894233 -5.0450360142926911 0 -5.0450360142926911 30.183289721910114 0 0 0 0 3.232010514085232 -0.72959136718873197 0 -0.72959136718873197 33.855475338212273 0 0 0 0 -3.7802497891927942 13.381413850728222 0 13.381413850728222 110.76232360407266 0 0 0 0 0.18749772519866248 7.4587141118715401 0 7.4587141118715401 15.239624326362772 0 0 0 0 4.2657073611643739 -0.68151358218131008 0 -0.68151358218131008 32.780212485471168 0 0 0 0 -2.5115481060370497 -7.589044652176371 0 -7.589044652176371 49.361186278091679 0 0 0 0 -3.3829351161725754 3.553531359826593 0 3.553531359826593 32.515880540748185 0 0 0 0 0.15672471939103927 1.8879646768383966 0 1.8879646768383966 49.644060710100007 0 0 0 0 -6.3362361801179024 -4.7917652357234157 0 -4.7917652357234157 43.214643985557458 0 0 0 0 -3.0089025117566228 -3.8220865582706058 0 -3.8220865582706058 26.740823997058872 0 0 0 0 6.5648911457442409 3.7249247150346037 0 3.7249247150346037 29.534325734010054 0 0 0 0 3.1492539027876774 -12.505347439266188 0 -12.505347439266188 100.36766067404642 0 0 0 0 3.3934911600335909 -0.017424177056454937 0 -0.017424177056454937 31.897175988135132 0 0 0 0 2.9898065960924214 -13.232629872085454 0 -13.232629872085454 154.55200202440392 0 0 0 0 -28.063780527469589 -26.858661273892722 0 -26.858661273892722 127.18851578820977 0 0 0 0 0.59494333152542822 -16.646025861082308 0 -16.646025861082308 150.95352151103361 0 0 0 0 -5.4911535304327117 14.765176009424067 0 14.765176009424067 95.218499212644019 0 0 0 0 -0.7541252277970496 -17.950250909528155 0 -17.950250909528155 64.251533364302901 0 0 0 0 -18.805112348479668 -54.611162570271915 0 -54.611162570271915 28.275878887291583 0 0 0 0 -2.1678356394471945 1.6217249031413132 0 1.6217249031413132 19.076207311057754 0 0 0 0 -1.8622819443814933 -13.726117369389158 0 -13.726117369389158 58.225558735419781 0 0 0 0 18.004754699221849 10.884706614844845 0 10.884706614844845 88.347456058307671 0 0 0 0 -0.41980504902690541 -22.054169831639655 0 -22.054169831639655 35.114370362931368 0 0 0 0 27.122211556337675 7.1688201650235897 0 7.1688201650235897 120.81727705155436 0 0 0 0 29.35529483019468 29.801942022073035 0 29.801942022073035 48.887101137853733 0 0 0 0 3.6764153180577068 5.8493433030271262 0 5.8493433030271262 40.178011093326859 0 0 0 0 -5.1255096741062189 10.758671185649746 0 10.758671185649746 43.248653342224657 0 0 0 0 -3.1297169222716548 2.2966747204436615 0 2.2966747204436615 79.664619945350182 0 0 0 0 -0.049271200414814031 -0.44963607295867902 0 -0.44963607295867902 9.1790784919779789 0 0 0 0 -3.1326812391580292 -8.6848699434887457 0 -8.6848699434887457 14.262742827385312 0 0 0 0 -9.9972695119972741 -7.1036164166305298 0 -7.1036164166305298 34.405263585957528 0 0 0 0 -5.3625142012482439 -2.9200743988618463 0 -2.9200743988618463 22.319922309256985 0 0 0 0 4.0478263190129837 4.8911381934291853 0 4.8911381934291853 27.243969408411431 0 0 0 0 1.3210812729821555 9.6097371351431775 0 9.6097371351431775 37.969486592100566 0 0 0 0 -10.173792186307724 -4.4892641461099867 0 -4.4892641461099867 9.0925912460728995 0 0 0 0 5.5896657549247948 2.4896561982627645 0 2.4896561982627645 24.902392113907354 0 0 0 0 -4.4751417441148078 -10.142830515126889 0 -10.142830515126889 14.153981903526699 0 0 0 0 8.0630894504722619 52.017337135263574 0 52.017337135263574 116.67017286800092 0 0 0 0 -2.3753083818158283 2.0254097453646733 0 2.0254097453646733 3.8665431814445297 0 0 0 0 -10.901485953877 17.116386138199687 0 17.116386138199687 72.346400511393313 0 0 0 0 3.2513734731796124 1.3402624784158181 0 1.3402624784158181 0.72925768412766567 0 0 0 0 -12.153732442372075 -20.219361117639551 0 -20.219361117639551 25.627176192325919 0 0 0 0 -53.001344451341538 -36.962305490011204 0 -36.962305490011204 87.16882300328507 0 0 0 0 6.3378144275475279 -0.210529581814626 0 -0.210529581814626 27.642760694352546 0 0 0 0 -0.091286475429228631 2.2901849126934621 0 2.2901849126934621 34.291513032463172 0 0 0 0 7.6930740222137448 2.0809225291156483 0 2.0809225291156483 7.1577330764893503 0 0 0 0 7.2049777141178311 4.2200258835387103 0 4.2200258835387103 33.289939802175468 0 0 0 0 4.417831118011236 3.2911780935146453 0 3.2911780935146453 39.089170815599118 0 0 0 0 138.84768705079659 54.509982613788679 0 54.509982613788679 -34.348855545594006 0 0 0 0 -66.391324493698448 -18.922746582077934 0 -18.922746582077934 233.52685916926066 0 0 0 0 75.97130794396594 85.362527132674415 0 85.362527132674415 93.199453957705373 0 0 0 0 18.023812246470243 37.105234503984775 0 37.105234503984775 53.525975428654419 0 0 0 0 -41.268092198083878 17.226250169177092 0 17.226250169177092 139.8027029484474 0 0 0 0 -9.0141151151110535 21.047017888386108 0 21.047017888386108 38.375612577097854 0 0 0 0 17.29975976693504 48.647736235614502 0 48.647736235614502 65.043469902695506 0 0 0 0 25.375252879910931 58.74649383403812 0 58.74649383403812 6.4369933191392192 0 0 0 0 0.30667333969586252 27.916311721128295 0 27.916311721128295 -28.994715689897021 0 0 0 0 14.39591081366143 69.741549895852131 0 69.741549895852131 49.865253978598048 0 0 0 0 25.325715514973126 63.022362415710631 0 63.022362415710631 52.862995011211552 0 0 0 0 10.779072562902419 16.501846234037558 0 16.501846234037558 21.041447925288207 0 0 0 0 -91.379744452818159 65.275170338097269 0 65.275170338097269 111.40394370756803 0 0 0 0 12.075077926944914 51.759843720434219 0 51.759843720434219 11.933782172473002 0 0 0 0 47.674910219359163 -22.841045891662134 0 -22.841045891662134 -53.917713990505035 0 0 0 0 -28.088559279867013 -7.539566387106106 0 -7.539566387106106 110.57138983338746 0 0 0 0 -22.278412626732916 -11.649217517416218 0 -11.649217517416218 55.271758750569234 0 0 0 0 -41.58758177099881 3.4916779527677164 0 3.4916779527677164 91.996911256421299 0 0 0 0 -17.27077946969024 46.581879821317671 0 46.581879821317671 26.316694549273052 0 0 0 0 -53.699378515750823 30.714025017282438 0 30.714025017282438 23.639100093676461 0 0 0 0 -50.583583244397005 100.2165483241497 0 100.2165483241497 -30.016871312443755 0 0 0 0 8.7014544715911164 10.357525792749334 0 10.357525792749334 12.408734408075112 0 0 0 0 -11.509729671312016 -59.227953500450894 0 -59.227953500450894 134.6441764764495 0 0 0 0 -85.293292293115087 -76.495997067533608 0 -76.495997067533608 131.77649275371732 0 0 0 0 -94.465750920133587 -19.34879387435285 0 -19.34879387435285 158.12677819085434 0 0 0 0 -19.316623901216552 36.292136074839519 0 36.292136074839519 165.03925032924235 0 0 0 0 -7.3046126369843023 -6.9318218852185964 0 -6.9318218852185964 58.419801155800997 0 0 0 0 -133.20957950328921 33.392803930189984 0 33.392803930189984 293.58725606629014 0 0 0 0 100.84563441827225 -72.055604369351386 0 -72.055604369351386 61.811372102250971 0 0 0 0 137.82646259719002 -240.45661758906385 0 -240.45661758906385 375.76897907693456 0 0 0 0 4.5543776864057186 3.8785420636102348 0 3.8785420636102348 2.8444564377947188 0 0 0 0 -5.8432120761617625 102.76044084261957 0 102.76044084261957 494.51237774613401 0 0 0 0 -68.926586677554042 15.068460585813227 0 15.068460585813227 97.643485693584807 0 0 0 0 9.6645658878107383 67.086289479275365 0 67.086289479275365 127.79822137335941 0 0 0 0 -69.8983299935785 30.367277994118922 0 30.367277994118922 144.02892973970302 0 0 0 0 -162.45959826975923 -47.080202297814139 0 -47.080202297814139 143.18794575355787 0 0 0 0 -14.786126469502676 -11.12609578125473 0 -11.12609578125473 54.718588236308904 0 0 0 0 -336.82021894275749 -30.831986403361725 0 -30.831986403361725 195.32909469976403 0 0 0 0 -53.476366272670475 80.447240843636564 0 80.447240843636564 59.127003587862418 0 0 0 0 -17.396779442545494 -7.5266816616986034 0 -7.5266816616986034 78.633029336236746 0 0 0 0 177.70867778263278 113.22358264910963 0 113.22358264910963 -30.880973027888643 0 0 0 0 45.75033657995732 278.33914157312938 0 278.33914157312938 163.22146688102293 0 0 0 0 -11.470369160189694 -13.378655328329259 0 -13.378655328329259 60.079343438951739 0 0 0 0 -63.8968113549995 -418.33615826085588 0 -418.33615826085588 12.368204956903355 0 0 0 0 -207.11538838807337 224.10727650500485 0 224.10727650500485 401.71041181890905 0 0 0 0 392.85524457246453 -406.63934649937676 0 -406.63934649937676 -71.18379645803725 0 0 0 0 415.09033600193106 161.15253189423493 0 161.15253189423493 47.443795017494267 0 0 0 0 -3.7324076440557405 6.0438270976553667 0 6.0438270976553667 75.147802067996054 0 0 0 0 -19.621541270438456 12.632136649688164 0 12.632136649688164 85.304042875002096 0 0 0 0 -19.405323077198375 14.20932959585582 0 14.20932959585582 96.318926526868381 0 0 0 0 -32.369004945312525 -7.2096009903548453 0 -7.2096009903548453 76.120651904987881 0 0 0 0 -15.611907339710172 -3.2673551494673347 0 -3.2673551494673347 51.305162976686915 0 0 0 0 -22.217087078879104 -14.75161004814845 0 -14.75161004814845 91.692214720555057 0 0 0 0 -10.561365601442576 -7.2100764879604622 0 -7.2100764879604622 56.170798606570635 0 0 0 0 -59.878054403732222 -8.3774468034607708 0 -8.3774468034607708 50.268826745275874 0 0 0 0 -21.407850849578608 -14.034625240989044 0 -14.034625240989044 37.190550835861359 0 0 0 0 -15.998973543248038 -3.1703996748693868 0 -3.1703996748693868 39.526894181716408 0 0 0 0 -231.75325355611994 -349.58796661605084 0 -349.58796661605084 -170.74974675133853 0 0 0 0 -390.75885274267807 -337.11549435541019 0 -337.11549435541019 -171.30137477898097 0 0 0 0 -360.39923784848008 -574.57769094107061 0 -574.57769094107061 -64.513592422932561 0 0 0 0 59.095847985332057 -524.45854160166346 0 -524.45854160166346 -272.24148854948726 0 0 0 0 213.00882548663049 -212.72242059717973 0 -212.72242059717973 -24.471480653122853 0 0 0 0 72.879688361567332 -147.48494187216056 0 -147.48494187216056 -52.786144170202533 0 0 0 0 -6.3057923821586215 -7.507959668470626 0 -7.507959668470626 2.6017784997318074 0 0 0 0 -244.86730837787934 -480.22993330715224 0 -480.22993330715224 -355.31813366345887 0 0 0 0 14.668175785409858 -131.64922593009032 0 -131.64922593009032 -719.15114249776343 0 0 0 0 -35.297959954437829 -155.76503070722174 0 -155.76503070722174 -233.83647275763724 0 0 0 0 -206.14454220226617 -363.11349975455232 0 -363.11349975455232 -369.84212059376296 0 0 0 0 -8.1779242562798213 -15.009533624413365 0 -15.009533624413365 46.192323292825179 0 0 0 0 -9.5176568537617641 54.588335383337835 0 54.588335383337835 150.13973633819842 0 0 0 0 -6.2996151352550775 1.6044144204972497 0 1.6044144204972497 5.3168613710165999 0 0 0 0 -256.28989119755533 -110.44207780295619 0 -110.44207780295619 127.73376033275963 0 0 0 0 -526.24925350876129 163.77646906629889 0 163.77646906629889 58.550581769082783 0 0 0 0 -32.249875106831496 -131.65403480581153 0 -131.65403480581153 212.08285927495672 0 0 0 0 -103.80192936252388 -24.501167609991171 0 -24.501167609991171 105.45037820476136 0 0 0 0 33.958314928579966 -20.864165054264959 0 -20.864165054264959 81.847038754644018 0 0 0 0 -85.892701424911138 3.5565769297136285 0 3.5565769297136285 126.14457163348743 0 0 0 0 -37.719555841802503 -9.5101283474778029 0 -9.5101283474778029 76.464681852296053 0 0 0 0 -6.7233966701954628 -15.48972047492154 0 -15.48972047492154 63.893705388309485 0 0 0 0 -2.9032176291520955 7.1248673596055596 0 7.1248673596055596 53.791438890179961 0 0 0 0 -40.995395376912711 -5.4790318742961972 0 -5.4790318742961972 106.95708121617372 0 0 0 0 -11.729926391551164 23.771284447331833 0 23.771284447331833 62.11536113372626 0 0 0 0 -25.668326457931599 -21.917800995309342 0 -21.917800995309342 105.52515119508251 0 0 0 0 3.3383007139273104 -5.9097659504368494 0 -5.9097659504368494 79.327985183341298 0 0 0 0 2.6819027396737809 -3.9938909699171017 0 -3.9938909699171017 13.010996531719162 0 0 0 0 43.066722917797051 5.722807043191267 0 5.722807043191267 71.539068404525551 0 0 0 0 -29.158712510785495 2.8105154161676031 0 2.8105154161676031 67.274428423541607 0 0 0 0 -58.001188276379253 3.2271867154122447 0 3.2271867154122447 51.06772703450406 0 0 0 0 -14.410432855114777 23.077478683126515 0 23.077478683126515 80.036651859745689 0 0 0 0 -32.340437452614424 -8.4742181982956026 0 -8.4742181982956026 51.550737407286277 0 0 0 0 -17.056082015747371 1.1408471773610742 0 1.1408471773610742 57.614509668350088 0 0 0 0 -25.372264527896732 -23.051447075758915 0 -23.051447075758915 71.243356022641819 0 0 0 0 -16.17247337015548 13.014628326632923 0 13.014628326632923 43.172587495429077 0 0 0 0 -28.740433149662977 2.1580675822488047 0 2.1580675822488047 104.24264179019883 0 0 0 0 -3.4047223436485501 -4.0464241707810196 0 -4.0464241707810196 41.55536185373429 0 0 0 0 -15.996152908472141 0.11936333890116657 0 0.11936333890116657 74.052972794190282 0 0 0 0 -37.474255278922442 -16.430082683459659 0 -16.430082683459659 69.575617239075655 0 0 0 0 0.27967783065969343 -1.474634474294362 0 -1.474634474294362 52.345367065921891 0 0 0 0 556.18814463162198 -780.24471452884063 0 -780.24471452884063 12.559713815548093 0 0 0 0 -0.68334527247355581 3.9062894073880017 0 3.9062894073880017 -10.014069844820114 0 0 0 0 478.14632920278927 108.27452458055086 0 108.27452458055086 -60.102092145505594 0 0 0 0 797.17560533304004 32.145517968749118 0 32.145517968749118 -403.24859129177639 0 0 0 0 -341.04898845900243 506.84544339072454 0 506.84544339072454 1882.5538523198484 0 0 0 0 302.24470663101783 73.147967862201767 0 73.147967862201767 64.276111144929018 0 0 0 0 -89.931938948720472 -240.22740104261675 0 -240.22740104261675 842.62209923074988 0 0 0 0 0.3246905559636728 -0.8704277798847615 0 -0.8704277798847615 -2.5770998859650831 0 0 0 0 -218.29143595800633 -25.82759568199981 0 -25.82759568199981 44.878159204145049 0 0 0 0 312.63823125498436 -198.47085116981305 0 -198.47085116981305 -103.11141482917446 0 0 0 0 -47.996501650359278 368.76701419095298 0 368.76701419095298 924.49084576513997 0 0 0 0 -202.3831109237376 286.15137244308505 0 286.15137244308505 75.858353551055188 0 0 0 0 432.55130329766371 413.80406501565813 0 413.80406501565813 12.243210267180984 0 0 0 0 939.93243012281346 -126.14148920619118 0 -126.14148920619118 -680.55056626108853 0 0 0 0 505.07534875068359 -531.67261373017936 0 -531.67261373017936 88.181593216731017 0 0 0 0 -354.23024714047847 -354.78779991192368 0 -354.78779991192368 210.01309497048351 0 0 0 0 -1.207736528526965 -4.3959293311998744 0 -4.3959293311998744 -1.9073302575188791 0 0 0 0 -47.776912330075447 19.752603330132843 0 19.752603330132843 -9.943096306255029 0 0 0 0 -4.4851156293570966 -37.431850116336136 0 -37.431850116336136 -15.56160148179697 0 0 0 0 164.56401868537159 -51.815062260904597 0 -51.815062260904597 -44.516322378367477 0 0 0 0 135.79189250713125 19.347719980115471 0 19.347719980115471 0.09308330318890512 0 0 0 0 188.044724961871 2.090846767918265 0 2.090846767918265 -48.100181033416447 0 0 0 0 136.35932578129541 10.501302786582528 0 10.501302786582528 -42.728406064416049 0 0 0 0 168.57222054089107 34.745119680304924 0 34.745119680304924 -45.113905896221695 0 0 0 0 153.575067673597 19.035824201586365 0 19.035824201586365 -48.201617496270046 0 0 0 0 136.42572655619733 10.397121590982351 0 10.397121590982351 -44.332380565923813 0 0 0 0 119.14759440781563 39.984894543735209 0 39.984894543735209 -1.2077062588687113 0 0 0 0 114.62096046964416 36.509492329716522 0 36.509492329716522 29.428407532366691 0 0 0 0 26.3806222424937 12.567068933249175 0 12.567068933249175 -7.8936743240465148 0 0 0 0 26.922556560668454 13.507923003089672 0 13.507923003089672 -13.913421816861955 0 0 0 0 -1.6895981099160657 -3.4235110843142431 0 -3.4235110843142431 2.7921002221612667 0 0 0 0 -45.966044663990033 -17.992978343150753 0 -17.992978343150753 4.5628468452305242 0 0 0 0 242.75509627358224 -140.61275726542772 0 -140.61275726542772 38.196332909821649 0 0 0 0 -82.982456095947782 36.423342363636038 0 36.423342363636038 22.09856830984063 0 0 0 0 -14.994309193463778 -292.2967487589176 0 -292.2967487589176 -90.585694662104288 0 0 0 0 -36.25355331397077 40.120558831727976 0 40.120558831727976 32.526753254904179 0 0 0 0 -38.419682896852464 28.59983241543523 0 28.59983241543523 -28.66255785057001 0 0 0 0 -47.907090026583319 4.9384409662161488 0 4.9384409662161488 40.911801548631047 0 0 0 0 -47.912237044440189 -11.152990850729111 0 -11.152990850729111 16.890707505644968 0 0 0 0 -73.167160311913904 -29.349127232380852 0 -29.349127232380852 -5.5439136031509406 0 0 0 0 -89.667889850630218 -10.582949094120522 0 -10.582949094120522 55.828090108916513 0 0 0 0 -3.1107116941915738 -9.998903565596212 0 -9.998903565596212 15.145983468101562 0 0 0 0 -70.805146690603578 -8.8150258474988732 0 -8.8150258474988732 47.618027765456645 0 0 0 0 -90.264380363938471 -9.3606945285318943 0 -9.3606945285318943 62.086716555004386 0 0 0 0 -68.723426018753798 -18.440602965284597 0 -18.440602965284597 80.109819462682935 0 0 0 0 -1.6696044104912566 -18.768647292136539 0 -18.768647292136539 52.736272730102954 0 0 0 0 -84.998848583059953 -62.84097384713823 0 -62.84097384713823 60.563610223581236 0 0 0 0 -22.389865036431047 -90.008548054251833 0 -90.008548054251833 35.693611065638834 0 0 0 0 -83.876370755560856 -44.142784472112908 0 -44.142784472112908 108.87628591810244 0 0 0 0 -3.8234056677142689 -42.249282503186805 0 -42.249282503186805 27.105094763504894 0 0 0 0 -22.720410285221419 23.581611578385264 0 23.581611578385264 94.755703905873816 0 0 0 0 -9.5043224073133388 -10.411695926144603 0 -10.411695926144603 79.052154790806526 0 0 0 0 -21.588346604516119 16.416834820491204 0 16.416834820491204 43.899803364060062 0 0 0 0 -34.468431946686906 7.6066378570285451 0 7.6066378570285451 90.4658547501258 0 0 0 0 51.785837905209519 83.414305168606916 0 83.414305168606916 215.12782318748214 0 0 0 0 7.3833619412944245 -89.346229818085703 0 -89.346229818085703 175.40186098456252 0 0 0 0 64.015546324761999 153.01523580229878 0 153.01523580229878 225.89970830705715 0 0 0 0 0.14844369228362453 -0.84849151230821462 0 -0.84849151230821462 2.6436545615891589 0 0 0 0 123.08276307609412 -14.996068558148181 0 -14.996068558148181 257.59049997681723 0 0 0 0 253.62094788890499 63.22014156341902 0 63.22014156341902 34.474696109075921 0 0 0 0 35.10860342622891 -17.703554195662491 0 -17.703554195662491 46.053571679967718 0 0 0 0 10.814177014310243 -7.8902559516352966 0 -7.8902559516352966 19.943528375049379 0 0 0 0 8.1662045645798571 1.0130732333050219 0 1.0130732333050219 33.39029804441725 0 0 0 0 3.6075528103210726 7.1212243182665711 0 7.1212243182665711 24.74501313009371 0 0 0 0 22.904779151847833 -13.393296008309335 0 -13.393296008309335 51.778034288376148 0 0 0 0 -38.50023373793465 -13.711165361308758 0 -13.711165361308758 155.93190617485777 0 0 0 0 2.8660763021015239 7.729208995206946 0 7.729208995206946 56.874334081974723 0 0 0 0 11.323702887973013 3.5152989445814455 0 3.5152989445814455 66.392956178955501 0 0 0 0 -0.61475268994627186 -0.56497637309018955 0 -0.56497637309018955 66.928832601806789 0 0 0 0 -78.845380222006497 -59.125840726308525 0 -59.125840726308525 58.076595389638896 0 0 0 0 -3.7865074773163307 -14.635841202208638 0 -14.635841202208638 46.756493825134186 0 0 0 0 -77.288660612413878 -48.995155514452563 0 -48.995155514452563 121.76197542325826 0 0 0 0 -22.385277621080604 -15.827896769456856 0 -15.827896769456856 140.05459613005951 0 0 0 0 37.503991131597104 -137.18298260431948 0 -137.18298260431948 -88.38921721200677 0 0 0 0 -2.7723361809463114 1.8417546479706388 0 1.8417546479706388 16.531856948061723 0 0 0 0 -226.90685040759217 235.64869521498622 0 235.64869521498622 367.12557095343254 0 0 0 0 14.835428588019568 -14.874382325522674 0 -14.874382325522674 50.838462024285036 0 0 0 0 2.4522025464257524 -21.897584476804603 0 -21.897584476804603 51.518764516936329 0 0 0 0 -5.1298257076348364 -31.556567177950342 0 -31.556567177950342 50.327376838809869 0 0 0 0 -4.3908709406314301 -22.847657115295078 0 -22.847657115295078 61.922214664547937 0 0 0 0 14.331665393056028 -18.579239039334425 0 -18.579239039334425 57.099401997926179 0 0 0 0 -2.1552076921816479 -13.139309191292341 0 -13.139309191292341 54.900978804555052 0 0 0 0 -1.4383973137391877 -16.861322726966137 0 -16.861322726966137 69.228059039989603 0 0 0 0 17.946118187341199 -6.6751832902664319 0 -6.6751832902664319 60.364156502384503 0 0 0 0 43.231263218111053 -43.395897559614241 0 -43.395897559614241 43.905540999458026 0 0 0 0 -10.743461995047255 -19.785095205166726 0 -19.785095205166726 59.231581583549996 0 0 0 0 -3.486519523199231 -13.076054970594782 0 -13.076054970594782 49.74807927062534 0 0 0 0 -9.4104159681601232 -17.120259697921028 0 -17.120259697921028 50.921384128971113 0 0 0 0 -1.37465804487295 -9.860869742714673 0 -9.860869742714673 8.1186570548475601 0 0 0 0 -21.966665152325731 -9.9844076370318362 0 -9.9844076370318362 58.109456455600593 0 0 0 0 -9.9182931662398914 -7.5303729208826553 0 -7.5303729208826553 56.595000233563042 0 0 0 0 13.453311278234651 3.3768210231892226 0 3.3768210231892226 80.135017882188549 0 0 0 0 14.383409578576902 -6.6377729673877184 0 -6.6377729673877184 72.611448930714687 0 0 0 0 16.065143176232596 1.9219912349781225 0 1.9219912349781225 68.525504723062113 0 0 0 0 5.3116451823034367 -15.324206157619301 0 -15.324206157619301 49.993901474430459 0 0 0 0 27.423222354736936 15.561361081734503 0 15.561361081734503 60.9385403171691 0 0 0 0 33.918375848747019 36.16377689068031 0 36.16377689068031 79.116897024230639 0 0 0 0 20.220812776909952 27.823450716325169 0 27.823450716325169 84.703019416196184 0 0 0 0 24.781283939446439 19.744061141413113 0 19.744061141413113 90.551233449228675 0 0 0 0 34.035687359530129 22.280834703760775 0 22.280834703760775 88.593140690627479 0 0 0 0 30.71785338607333 11.927766509666981 0 11.927766509666981 101.64308768657065 0 0 0 0 36.952910334583066 18.934749692023615 0 18.934749692023615 109.51755095616682 0 0 0 0 42.920069403318848 -6.2375866042584676 0 -6.2375866042584676 115.91894692413189 0 0 0 0 23.577272613347304 -3.7668658568218234 0 -3.7668658568218234 95.567159598776016 0 0 0 0 27.033531262783072 19.674841660544189 0 19.674841660544189 88.073696761777683 0 0 0 0 18.688173176676173 2.8051589839169537 0 2.8051589839169537 86.733212967767031 0 0 0 0 23.851201108820533 -18.876394218150381 0 -18.876394218150381 76.643354273210207 0 0 0 0 28.331140729325853 -10.913935414811931 0 -10.913935414811931 82.598927331171581 0 0 0 0 29.774619234016427 5.9064463048143807 0 5.9064463048143807 108.12559488883562 0 0 0 0 55.439836539033422 -12.124732777465397 0 -12.124732777465397 84.979394768466591 0 0 0 0 34.622329975547473 -23.287220353071461 0 -23.287220353071461 103.46263941450843 0 0 0 0 37.501328410066321 -20.468073798186879 0 -20.468073798186879 81.547980636867578 0 0 0 0 36.667640738008004 -29.684269197437061 0 -29.684269197437061 69.883135640535329 0 0 0 0 34.026385171142465 -22.164368240675685 0 -22.164368240675685 53.555435198803025 0 0 0 0 13.752383241949246 -13.59260857593631 0 -13.59260857593631 74.147449875039456 0 0 0 0 4.1878803728127441 8.2728487231454366 0 8.2728487231454366 2.9361149723183351 0 0 0 0 9.3513297468361998 -9.2173717161367676 0 -9.2173717161367676 148.76418372101944 0 0 0 0 90.019164187997376 -7.800395896898408 0 -7.800395896898408 -6.9319367160496768 0 0 0 0 -0.11250794936661279 1.3761782475255799 0 1.3761782475255799 3.4844150947893184 0 0 0 0 72.997629732210044 -99.741771730521577 0 -99.741771730521577 224.34468015682705 0 0 0 0 64.514573130451026 -113.90608407322725 0 -113.90608407322725 263.59682157321367 0 0 0 0 1.4398845690853297 3.853054875911778 0 3.853054875911778 -0.77950867644419475 0 0 0 0 107.68318981433913 -63.193838033203065 0 -63.193838033203065 132.06086013908498 0 0 0 0 46.310883234335051 5.290489991009963 0 5.290489991009963 148.86611976367931 0 0 0 0 58.857651124064432 -5.8846544068401272 0 -5.8846544068401272 212.23364883135946 0 0 0 0 18.45305949923204 1.6121366239458439 0 1.6121366239458439 158.39682113525487 0 0 0 0 71.398532690398497 -28.458925955546874 0 -28.458925955546874 151.1000607228998 0 0 0 0 -35.467002107151529 9.3272350090373948 0 9.3272350090373948 280.0896878647327 0 0 0 0 4.1984685283530325 -2.7790743944733549 0 -2.7790743944733549 130.32477894151089 0 0 0 0 25.807140861568769 -28.916525264656229 0 -28.916525264656229 161.91837708465755 0 0 0 0 23.36274342867614 -13.12853777833152 0 -13.12853777833152 146.35556013989117 0 0 0 0 79.223288968178167 -14.520868466475804 0 -14.520868466475804 127.83594099225593 0 0 0 0 45.02699151309389 6.1077140084089478 0 6.1077140084089478 124.39430316027892 0 0 0 0 59.390794387580172 -10.913653715479086 0 -10.913653715479086 110.82608049830014 0 0 0 0 52.835513714288027 8.5839966709845612 0 8.5839966709845612 99.233752240266767 0 0 0 0 31.765049760046622 12.119569136232712 0 12.119569136232712 101.17797372047062 0 0 0 0 40.474365003329694 10.660907738438254 0 10.660907738438254 85.514502541715046 0 0 0 0 24.880038783589953 1.9550411650725437 0 1.9550411650725437 106.25732118512133 0 0 0 0 31.213972080317035 -10.59402800031603 0 -10.59402800031603 95.178815684015717 0 0 0 0 -19.140518831805821 -13.594517632995121 0 -13.594517632995121 77.584857870482665 0 0 0 0 24.492501709964472 -2.152022045495869 0 -2.152022045495869 61.846118278026552 0 0 0 0 6.7342206805133173 -1.2147125813353341 0 -1.2147125813353341 91.640821899685761 0 0 0 0 13.836768548054351 3.1901822045692825 0 3.1901822045692825 84.586764742957257 0 0 0 0 4.447965978512002 -12.009684074749657 0 -12.009684074749657 59.691758696357283 0 0 0 0 -3.897547968868821 -12.107297224692957 0 -12.107297224692957 95.383094129657366 0 0 0 0 2.9996307692999835 -3.7886359424137481 0 -3.7886359424137481 93.563420571881579 0 0 0 0 10.780351336152762 19.502539898870964 0 19.502539898870964 102.13945923600477 0 0 0 0 15.608809282794027 10.330939437555571 0 10.330939437555571 78.782942422305496 0 0 0 0 21.46743740022066 19.23462753456306 0 19.23462753456306 86.739810100687464 0 0 0 0 23.861855017119524 17.954523206464728 0 17.954523206464728 87.371315010401304 0 0 0 0 21.422294317215346 34.317984215066645 0 34.317984215066645 99.759949531890015 0 0 0 0 32.955488972957028 11.32777830251689 0 11.32777830251689 28.316502234591098 0 0 0 0 2.6227656696191843 5.7451547727996513 0 5.7451547727996513 203.91285835011149 0 0 0 0 0.37821358211840561 24.065077646953796 0 24.065077646953796 119.59000944541549 0 0 0 0 88.790943719748157 -122.1041531460055 0 -122.1041531460055 178.53471213108423 0 0 0 0 38.1491915920069 86.529765501589281 0 86.529765501589281 93.358965396750136 0 0 0 0 1.6346167350110665 3.183009216996469 0 3.183009216996469 -0.24000052891657475 0 0 0 0 128.79237502031492 4.2689329201130022 0 4.2689329201130022 73.036092795071454 0 0 0 0 9.6460194556020724 64.023312281493418 0 64.023312281493418 149.63204994004059 0 0 0 0 10.227856359008001 -21.590901721079717 0 -21.590901721079717 131.8968703105129 0 0 0 0 61.00756782822009 -60.17686624783164 0 -60.17686624783164 154.16921848529091 0 0 0 0 33.173045030836875 -19.655197336505807 0 -19.655197336505807 95.181888308394264 0 0 0 0 25.954688209252254 -27.323736959340749 0 -27.323736959340749 73.232278038627555 0 0 0 0 3.6088455791100387 -26.999620563885401 0 -26.999620563885401 76.498278379338444 0 0 0 0 29.701706859846126 -2.5464865646135877 0 -2.5464865646135877 48.429295239373459 0 0 0 0 63.451876647482095 -22.266746449608036 0 -22.266746449608036 58.905458165776508 0 0 0 0 21.190515737955138 -25.431093059993145 0 -25.431093059993145 96.878381356067621 0 0 0 0 33.406646405806441 23.628673048328437 0 23.628673048328437 69.123492255755991 0 0 0 0 15.404329969709579 8.9006394689567969 0 8.9006394689567969 57.078957490739413 0 0 0 0 -2.8859223310428206 9.1171585737592977 0 9.1171585737592977 31.191426928020519 0 0 0 0 19.443150376103631 22.888532795049912 0 22.888532795049912 39.523127533415391 0 0 0 0 17.34821220540249 -11.564085523109782 0 -11.564085523109782 43.071425454858399 0 0 0 0 -5.9455535090582998 3.5063042539550224 0 3.5063042539550224 34.923929642580333 0 0 0 0 -11.817369295082244 -23.131537277298776 0 -23.131537277298776 54.697311558273668 0 0 0 0 -2.2788461121415278 -12.606303091907888 0 -12.606303091907888 70.437915637173546 0 0 0 0 -100.9898301801195 43.159843737566916 0 43.159843737566916 124.69795468626057 0 0 0 0 32.415483171968845 77.428452996531007 0 77.428452996531007 40.185014923384642 0 0 0 0 -0.68624252225970661 -18.63470382421843 0 -18.63470382421843 68.120475377331161 0 0 0 0 -24.939994619069012 -36.414386516145896 0 -36.414386516145896 73.545079888344844 0 0 0 0 -212.00720870680288 -189.55847724900684 0 -189.55847724900684 164.58869960130596 0 0 0 0 5.1880500283641595 -22.739321263077727 0 -22.739321263077727 54.077041829470545 0 0 0 0 29.010786551044475 -5.2097979774916894 0 -5.2097979774916894 5.8172014667725307 0 0 0 0 14.026604874756231 -12.346459487778702 0 -12.346459487778702 10.383431940412265 0 0 0 0 142.18294250062445 -41.209992238534142 0 -41.209992238534142 14.929748603219196 0 0 0 0 27.151231217497298 -18.872567296324632 0 -18.872567296324632 0.14443686103186337 0 0 0 0 -2.6351756763955194 -16.134227134371891 0 -16.134227134371891 47.986840608437568 0 0 0 0 -50.287122962648482 -96.935674368070977 0 -96.935674368070977 31.947397439285851 0 0 0 0 35.709428362713879 -20.791062922902711 0 -20.791062922902711 -9.6334166086153346 0 0 0 0 -3.9284885930010205 3.5897535479944054 0 3.5897535479944054 65.84876349948172 0 0 0 0 -83.80768894830635 -48.003980204039181 0 -48.003980204039181 122.55703125697619 0 0 0 0 15.201713149828926 30.384188298687519 0 30.384188298687519 54.310207986512978 0 0 0 0 -1.866593865564937 11.448497552515619 0 11.448497552515619 40.30300460818944 0 0 0 0 8.1404686344840229 30.511369263627785 0 30.511369263627785 22.435728405082955 0 0 0 0 -2.7590349472106936 16.558078460999582 0 16.558078460999582 59.06771248026962 0 0 0 0 -13.175418300984347 13.107009506392842 0 13.107009506392842 60.515939663968311 0 0 0 0 -8.3397406403510104 21.461812083562108 0 21.461812083562108 74.742247387215684 0 0 0 0 -7.2583969877059644 -39.331454911058245 0 -39.331454911058245 -2.6713014470501548 0 0 0 0 -4.3906335465948381 -11.077570417626383 0 -11.077570417626383 44.477342094305499 0 0 0 0 4.9739450480465166 8.1853144308734045 0 8.1853144308734045 55.554699778603208 0 0 0 0 6.5195609315353096 19.049317774384939 0 19.049317774384939 21.445560062997195 0 0 0 0 10.63562212963916 22.944471085087571 0 22.944471085087571 92.688680251943879 0 0 0 0 24.587119139541755 -1.9616800625080941 0 -1.9616800625080941 25.030784862658038 0 0 0 0 3.4569968019341104 -19.408371338182405 0 -19.408371338182405 55.216662152401113 0 0 0 0 1.0905276865889277 4.252598989618086 0 4.252598989618086 6.0431545272562488 0 0 0 0 7.0238024127420431 -11.705967995438186 0 -11.705967995438186 11.123597588364646 0 0 0 0 5.4363110827298442 -12.323642991878842 0 -12.323642991878842 16.796556339875679 0 0 0 0 0.64928600303472805 -3.0171083027430683 0 -3.0171083027430683 6.599468473853122 0 0 0 0 2.7633087965823506 13.860701646890448 0 13.860701646890448 161.16130536536366 0 0 0 0 5.2323020623362027 12.455425793174072 0 12.455425793174072 159.48999105660914 0 0 0 0 15.59685004763196 20.753812348950305 0 20.753812348950305 141.30838533654037 0 0 0 0 8.6807939003662504 -3.5458960939580138 0 -3.5458960939580138 -1.2073307396964514 0 0 0 0 26.236133831889219 15.769635806240785 0 15.769635806240785 55.323650623216963 0 0 0 0 8.4641818764410388 -3.8654877049751164 0 -3.8654877049751164 0.25001982673377166 0 0 0 0 12.625042942701839 -6.8231178014812031 0 -6.8231178014812031 40.461293113727152 0 0 0 0 6.0328669368373085 -17.725071994507744 0 -17.725071994507744 70.811363015114694 0 0 0 0 -10.338509229745796 6.418466620527397 0 6.418466620527397 172.81731629839487 0 0 0 0 4.8498985908765917 8.1946582419150218 0 8.1946582419150218 159.06267450085943 0 0 0 0 2.197858240526557 -13.794828167505329 0 -13.794828167505329 159.86912458972438 0 0 0 0 6.6434786101854115 3.3733114900387591 0 3.3733114900387591 56.99163405121908 0 0 0 0 10.628135440768347 -10.680816201091602 0 -10.680816201091602 50.714426844326226 0 0 0 0 8.1087380296780935 -4.3101995745165524 0 -4.3101995745165524 3.9125045735836759 0 0 0 0 5.7134325601637101 -19.434944476504825 0 -19.434944476504825 148.25150219879288 0 0 0 0 0.0084235060612343204 15.492710380282332 0 15.492710380282332 13.729711468732837 0 0 0 0 -8.3514101273085544 -21.403639027575991 0 -21.403639027575991 166.60921839075672 0 0 0 0 -2.2277850119603499 -47.76376255469745 0 -47.76376255469745 134.64696537939744 0 0 0 0 -43.717254707530628 -56.855034803060335 0 -56.855034803060335 230.88148893581092 0 0 0 0 -61.659562359800475 -93.59303280779568 0 -93.59303280779568 156.51279889319994 0 0 0 0 -162.07996361939331 32.483065266775156 0 32.483065266775156 262.49156575974484 0 0 0 0 -308.58117799594584 198.60249716713406 0 198.60249716713406 75.421296370164782 0 0 0 0 -76.242585736939873 81.327545196909341 0 81.327545196909341 83.361984171282074 0 0 0 0 -39.785067478192104 27.788652941746477 0 27.788652941746477 158.64819980296306 0 0 0 0 -66.357136636008363 -19.020120976521866 0 -19.020120976521866 173.65790599272805 0 0 0 0 -17.878304782454506 12.27307926897538 0 12.27307926897538 156.98650127956353 0 0 0 0 -4.9766758798123192 5.262847322246671 0 5.262847322246671 158.78732195528414 0 0 0 0 -19.949271732593843 19.216496406866099 0 19.216496406866099 146.20710836018407 0 0 0 0 -12.277984413012291 42.372127803590956 0 42.372127803590956 99.600016133648751 0 0 0 0 12.532842359341885 9.782588690504781 0 9.782588690504781 141.26368938756332 0 0 0 0 14.592062932541012 6.8441860465081845 0 6.8441860465081845 109.24812809184368 0 0 0 0 16.126428717474482 -10.220502433820002 0 -10.220502433820002 143.99808847888562 0 0 0 0 0.4904264774204421 14.033611243478845 0 14.033611243478845 160.0617985945355 0 0 0 0 5.3026430501318398 -10.668915415800655 0 -10.668915415800655 37.189201185991053 0 0 0 0 86.113043438665954 118.29745249576808 0 118.29745249576808 126.9258308744138 0 0 0 0 -25.876556802933464 106.75115868234207 0 106.75115868234207 184.73005907925108 0 0 0 0 -7.3775562262524517 -17.808059609831115 0 -17.808059609831115 69.644319767225909 0 0 0 0 -120.09340459488149 -161.75508735523587 0 -161.75508735523587 -163.27756956190888 0 0 0 0 94.884587310519237 -291.53045334279068 0 -291.53045334279068 -245.44645881963788 0 0 0 0 -132.47740806774618 -114.82833754950241 0 -114.82833754950241 -54.598502942963933 0 0 0 0 -48.254446662063401 -9.7821589298837353 0 -9.7821589298837353 136.66155475382038 0 0 0 0 0.98168819600853752 -5.9081374580849264 0 -5.9081374580849264 -5.3459543055026355 0 0 0 0 1.2756236403247385 26.138073970238338 0 26.138073970238338 107.44434987154773 0 0 0 0 16.416062700684115 19.231454493963458 0 19.231454493963458 17.798582863206537 0 0 0 0 17.784449228011908 22.649345229256141 0 22.649345229256141 100.20360678305042 0 0 0 0 43.97224273000802 13.321351334112478 0 13.321351334112478 93.15825786096957 0 0 0 0 8.5920549740221759 42.345084286571364 0 42.345084286571364 13.505343140007426 0 0 0 0 -7.7905260702509835 9.5609794141541613 0 9.5609794141541613 16.060405105577154 0 0 0 0 7.8898102408948034 -10.900670328924207 0 -10.900670328924207 34.174310891481582 0 0 0 0 14.867657454825348 5.2011820872958197 0 5.2011820872958197 10.062097703968902 0 0 0 0 3.7650358142182085 -23.961960848746457 0 -23.961960848746457 220.09388080234203 0 0 0 0 1.4171460263673055 0.28679982409428817 0 0.28679982409428817 -0.49195189442911413 0 0 0 0 6.4328301860950887 -3.2691102638673328 0 -3.2691102638673328 -9.8184374644220043 0 0 0 0 -2.0227712131018443 10.567450347189045 0 10.567450347189045 4.4413743971617414 0 0 0 0 18.167808862858692 -29.438567542856617 0 -29.438567542856617 148.48494032081362 0 0 0 0 0.52505792112788185 63.831255046057777 0 63.831255046057777 181.56673139741906 0 0 0 0 50.387727208251818 -2.7491661306371498 0 -2.7491661306371498 19.529250535706524 0 0 0 0 53.046447155455098 -21.482397177958774 0 -21.482397177958774 146.55160636039636 0 0 0 0 -116.36956774875034 -48.095587038389567 0 -48.095587038389567 160.80002802758463 0 0 0 0 -9.0512258937824299 107.71794253802727 0 107.71794253802727 40.408912033271918 0 0 0 0 1.8188111225966175 -4.8075867000496331 0 -4.8075867000496331 10.992658860499702 0 0 0 0 176.30208355172181 -153.28208826524133 0 -153.28208826524133 34.98193669709508 0 0 0 0 114.47456830610827 -0.46034867802700319 0 -0.46034867802700319 -117.74713092915772 0 0 0 0 79.599915245426018 -136.3179147459814 0 -136.3179147459814 118.33909391782072 0 0 0 0 4.0359087377983087 -80.53459498850134 0 -80.53459498850134 158.67601265063786 0 0 0 0 140.92157465180026 -67.180910427407071 0 -67.180910427407071 50.063912973855622 0 0 0 0 -18.320611539958918 -153.48097914623577 0 -153.48097914623577 115.33101649633318 0 0 0 0 169.98693908244786 -326.3145360777653 0 -326.3145360777653 265.77690121601336 0 0 0 0 -418.4910324889006 -197.17512048452409 0 -197.17512048452409 739.56410834761846 0 0 0 0 60.889874289893669 562.93410730691539 0 562.93410730691539 163.39768812117109 0 0 0 0 -466.20592548163108 -601.55163173293136 0 -601.55163173293136 -62.301718472073162 0 0 0 0 -0.87932777550569963 0.71459998397429114 0 0.71459998397429114 0.87109193645472338 0 0 0 0 285.98692310607726 -600.15580822799393 0 -600.15580822799393 -391.71847333274553 0 0 0 0 376.2265637008777 -656.59718040285475 0 -656.59718040285475 -369.5125473543863 0 0 0 0 15.112507699785461 -129.26469597247728 0 -129.26469597247728 109.51534955780153 0 0 0 0 -163.62904553527142 276.69949186806571 0 276.69949186806571 77.741491446949112 0 0 0 0 -3.1876991037265565 -29.897506829848403 0 -29.897506829848403 77.54045159074947 0 0 0 0 -26.051901295992536 -69.602536913616063 0 -69.602536913616063 -159.9230536253217 0 0 0 0 -66.813981179673874 -70.220116005121781 0 -70.220116005121781 -318.9889998540948 0 0 0 0 -34.913486118398055 -115.60792423867861 0 -115.60792423867861 -278.29995406075341 0 0 0 0 -391.16308762571452 -19.301006742613254 0 -19.301006742613254 -85.047944677633041 0 0 0 0 -173.11639362787719 37.817047729408841 0 37.817047729408841 -294.92135712236256 0 0 0 0 -9.7624366594205796 -40.627967368765752 0 -40.627967368765752 -103.76093243618629 0 0 0 0 -6.7591148233029799 -36.802530926634518 0 -36.802530926634518 -219.60327377637805 0 0 0 0 -147.00569081038219 -36.720670456119365 0 -36.720670456119365 -164.07269381341848 0 0 0 0 207.62902696041655 120.47015876916885 0 120.47015876916885 -76.190153887751876 0 0 0 0 146.95636701411524 -152.98164990034172 0 -152.98164990034172 -128.93265349822042 0 0 0 0 -245.09428966826772 -174.8206619595162 0 -174.8206619595162 -68.696063266322199 0 0 0 0 122.65906074199142 -64.498245425299018 0 -64.498245425299018 71.011068855633923 0 0 0 0 60.926868314439673 139.54416303849007 0 139.54416303849007 218.2116494283238 0 0 0 0 75.69562424661666 55.717084680687478 0 55.717084680687478 -10.42080920134299 0 0 0 0 60.846583336646404 99.462449343141955 0 99.462449343141955 100.45991612432908 0 0 0 0 45.813524512398772 17.872163322655979 0 17.872163322655979 36.726201454146462 0 0 0 0 61.902918002423007 20.09314933150722 0 20.09314933150722 -24.980566373544661 0 0 0 0 49.343311923199963 -39.229829570469292 0 -39.229829570469292 -103.32307771139102 0 0 0 0 65.562410766723133 -12.34461932600982 0 -12.34461932600982 -86.672445219281599 0 0 0 0 41.294154741416492 -11.172452112291239 0 -11.172452112291239 -20.590012078539075 0 0 0 0 93.789485158297055 12.223531707299344 0 12.223531707299344 -187.38155353258207 0 0 0 0 79.334699887343191 33.13274638167286 0 33.13274638167286 -81.140644705397563 0 0 0 0 54.093236371927055 33.441036347324371 0 33.441036347324371 -2.3755968525410935 0 0 0 0 42.319704457350916 -80.936392972040039 0 -80.936392972040039 -177.76084817731544 0 0 0 0 -9.5745653526992101 -89.138236384027095 0 -89.138236384027095 -145.35190095896564 0 0 0 0 -37.029532524693607 -95.608969484414416 0 -95.608969484414416 -97.941571950133948 0 0 0 0 -29.411795597048524 -134.33206452736727 0 -134.33206452736727 -189.88491925700873 0 0 0 0 -53.233797167011865 -87.800461207019794 0 -87.800461207019794 -54.264079407880672 0 0 0 0 -5.5200679509980688 -84.754619496313353 0 -84.754619496313353 -99.636825574096747 0 0 0 0 -5.5143542642755996 -72.866007163833729 0 -72.866007163833729 -82.11203409618247 0 0 0 0 27.586614254341953 -69.002273837160374 0 -69.002273837160374 -122.21513963817165 0 0 0 0 41.915452997132135 -37.592449077787563 0 -37.592449077787563 -98.909034302827877 0 0 0 0 32.145468498847094 -43.672628227533551 0 -43.672628227533551 -82.848582350405536 0 0 0 0 22.79900791290936 -34.733513930931622 0 -34.733513930931622 -90.764552649068719 0 0 0 0 39.462862588320164 -21.671046597626741 0 -21.671046597626741 -90.531494715369263 0 0 0 0 38.059159789735411 -43.523488014724293 0 -43.523488014724293 -89.220012080206288 0 0 0 0 12.620892410064926 -24.081646424384871 0 -24.081646424384871 -90.664973065784579 0 0 0 0 22.614953880658391 -51.913197565632117 0 -51.913197565632117 -92.920011384327154 0 0 0 0 35.783690441973761 -43.906029432159585 0 -43.906029432159585 -88.085470327174335 0 0 0 0 58.718020511318173 25.975003163440988 0 25.975003163440988 22.665280306705881 0 0 0 0 -9.0496759274534497 -40.256871934947412 0 -40.256871934947412 -51.324011749296915 0 0 0 0 5.0411240949633225 -3.2023241386230987 0 -3.2023241386230987 5.8297036047495796 0 0 0 0 0.55256751999695553 -30.123220946027686 0 -30.123220946027686 -58.339444803843435 0 0 0 0 2.3997044244159724 -49.383706930746939 0 -49.383706930746939 -74.951109295439892 0 0 0 0 24.469415190427071 -34.487049575445326 0 -34.487049575445326 -92.451883317310603 0 0 0 0 -6.4048232193949843 -15.75026691808489 0 -15.75026691808489 -85.931601331164302 0 0 0 0 9.9384890183500829 5.1843379741899298 0 5.1843379741899298 16.025880136935484 0 0 0 0 0.25862913237740504 2.8358326069231703 0 2.8358326069231703 4.292313097624417 0 0 0 0 4.4095457698433069 7.7688887755561566 0 7.7688887755561566 37.532733838044003 0 0 0 0 17.9351098514162 15.566958630700356 0 15.566958630700356 3.1317684892292164 0 0 0 0 -68.272307606268186 -41.351311387305714 0 -41.351311387305714 2.3002472651287462 0 0 0 0 -3.9118644845188468 -34.287480524444732 0 -34.287480524444732 -39.231146114974763 0 0 0 0 -2.7141621202245005 -1.6315715649407139 0 -1.6315715649407139 4.9951022499844839 0 0 0 0 -7.9137890365181907 -6.9500523081758079 0 -6.9500523081758079 42.135814608640025 0 0 0 0 3.375468717177796 8.6207887017280882 0 8.6207887017280882 -4.6552499434283163 0 0 0 0 -0.16646930683553529 -4.2448763482921166 0 -4.2448763482921166 17.735913643167745 0 0 0 0 -21.612923660007262 -51.707685803996355 0 -51.707685803996355 -19.419233485390578 0 0 0 0 1.6987437726272057 -60.227716222709262 0 -60.227716222709262 -71.189367224117632 0 0 0 0 -9.5204929569009664 -43.613504164633923 0 -43.613504164633923 -52.892429179386454 0 0 0 0 -23.484073410838512 -59.071802354972988 0 -59.071802354972988 -43.362473210594544 0 0 0 0 -5.3312811820378556 -8.212054810305915 0 -8.212054810305915 27.354269712587666 0 0 0 0 -18.334326894231708 -76.70694278105384 0 -76.70694278105384 275.36809052187016 0 0 0 0 19.946352962275341 -0.36813807397538767 0 -0.36813807397538767 -148.83941205708413 0 0 0 0 -0.040436162950307608 -0.45912826323656031 0 -0.45912826323656031 0.69230551414523689 0 0 0 0 2.4285045930301283 -3.038382204651576 0 -3.038382204651576 -0.020489492604959442 0 0 0 0 -13.749014718700437 16.871588602138672 0 16.871588602138672 -120.59417718149962 0 0 0 0 -27.391172091554381 -8.8310014081553163 0 -8.8310014081553163 -108.20290822617244 0 0 0 0 9.9868329485275353 -6.57167080822137 0 -6.57167080822137 -108.07768362447314 0 0 0 0 -7.101816998646882 -3.5837501103885643 0 -3.5837501103885643 -90.784446252338057 0 0 0 0 16.302560961587005 -0.86443920741157854 0 -0.86443920741157854 -114.8076357155594 0 0 0 0 11.160846546909852 10.816396583360529 0 10.816396583360529 -118.18377467001233 0 0 0 0 18.215320930594316 -2.4029232430634693 0 -2.4029232430634693 -123.44557785302231 0 0 0 0 13.150978011598909 13.360845024708397 0 13.360845024708397 -143.92352335638907 0 0 0 0 -19.761418974610933 -19.881732031992669 0 -19.881732031992669 33.166210889841977 0 0 0 0 4.086016628191266 -3.7858885783035032 0 -3.7858885783035032 -0.34671241489769411 0 0 0 0 16.138172079742162 3.2591000015677309 0 3.2591000015677309 21.746253340650526 0 0 0 0 28.889649660805389 -18.903167301564736 0 -18.903167301564736 -147.39518205449869 0 0 0 0 31.352386845061574 -23.405434432355378 0 -23.405434432355378 -114.00910163434219 0 0 0 0 15.991061203486083 1.6625551066202888 0 1.6625551066202888 -123.39673073882386 0 0 0 0 20.365215374963327 -15.402741751386202 0 -15.402741751386202 -96.678936850684295 0 0 0 0 -2.6612880846605549 -30.626378001429657 0 -30.626378001429657 -122.27425734080134 0 0 0 0 24.604972550566799 -21.0481586286528 0 -21.0481586286528 -121.22494377007234 0 0 0 0 1.5447313503229907 -10.904462075167203 0 -10.904462075167203 -97.392637185001149 0 0 0 0 22.708972657629602 -15.179018524627736 0 -15.179018524627736 -96.618631555083084 0 0 0 0 20.598705448862574 -7.166131138422088 0 -7.166131138422088 -65.435875576831677 0 0 0 0 36.685412873495807 -18.336741696853096 0 -18.336741696853096 -96.164213678309011 0 0 0 0 27.694303559672562 -23.125729929744921 0 -23.125729929744921 -64.800120627374781 0 0 0 0 52.753498016164713 -12.106458865122704 0 -12.106458865122704 -69.10398237325245 0 0 0 0 40.132722282985469 -10.389815699031033 0 -10.389815699031033 -66.252785275949805 0 0 0 0 25.694143781002595 16.09584624754325 0 16.09584624754325 -42.856466988079887 0 0 0 0 14.853851043432314 -11.736672394842117 0 -11.736672394842117 -65.45856425385864 0 0 0 0 11.822096038934092 5.8734868384843821 0 5.8734868384843821 -88.020118776485106 0 0 0 0 13.870499993047815 -4.2442026242724751 0 -4.2442026242724751 -94.267143596013284 0 0 0 0 14.515852359222244 11.230396855179599 0 11.230396855179599 -81.460280633364164 0 0 0 0 7.3243364215277325 -0.72569383158247547 0 -0.72569383158247547 -43.647298175487776 0 0 0 0 11.032279870839716 -5.8138894535358077 0 -5.8138894535358077 -5.0626841208299993 0 0 0 0 43.532164392060622 9.1805518127572441 0 9.1805518127572441 -0.54407650056828061 0 0 0 0 30.139119097533694 7.9343049662275007 0 7.9343049662275007 -41.213585608453286 0 0 0 0 34.412468408214863 -1.9317809456659916 0 -1.9317809456659916 -14.644394963649574 0 0 0 0 24.618394978843412 18.613658901404307 0 18.613658901404307 69.275510777860745 0 0 0 0 38.083534576992406 -1.059985626481307 0 -1.059985626481307 -15.433672435068218 0 0 0 0 38.222552244220424 34.445707775952542 0 34.445707775952542 81.616049856822201 0 0 0 0 25.720947257466605 -5.612182188108477 0 -5.612182188108477 115.29362933067472 0 0 0 0 46.443388311531294 13.00175889614394 0 13.00175889614394 68.556340426333691 0 0 0 0 10.936780297509017 29.421867855410738 0 29.421867855410738 134.47866211729558 0 0 0 0 9.3392027578925081 -11.336417831833046 0 -11.336417831833046 93.726667992545458 0 0 0 0 12.020953077460945 -35.195942134365396 0 -35.195942134365396 113.91730820659109 0 0 0 0 -0.559768646718112 32.262461290952615 0 32.262461290952615 51.736983687193742 0 0 0 0 -26.60312411638472 26.850514148903812 0 26.850514148903812 57.913684741826955 0 0 0 0 -23.6566339611893 24.612642732277777 0 24.612642732277777 -3.6639045480573031 0 0 0 0 -22.651912421565839 -0.26420817604594049 0 -0.26420817604594049 10.242375854884813 0 0 0 0 27.712977730393163 0.88735091475780337 0 0.88735091475780337 16.83900995817271 0 0 0 0 4.9497458178157103 25.0732666282031 0 25.0732666282031 11.032898386313491 0 0 0 0 -76.748643595718249 6.1039355661938544 0 6.1039355661938544 -14.274994666475239 0 0 0 0 -75.56091991720109 -5.3365575568274153 0 -5.3365575568274153 38.89598029308479 0 0 0 0 -53.090252279447895 -27.196954338940088 0 -27.196954338940088 -6.9908951030498656 0 0 0 0 -145.18731330413266 -53.579364782546236 0 -53.579364782546236 -7.9853619383275145 0 0 0 0 -63.5397358406683 -36.589537372949962 0 -36.589537372949962 38.769996848349365 0 0 0 0 -48.505192816678118 -11.475866846295645 0 -11.475866846295645 -31.65799718552671 0 0 0 0 -77.110956909157721 -16.081466207136486 0 -16.081466207136486 75.491541597996843 0 0 0 0 -0.96269575251960759 1.5516055438121441 0 1.5516055438121441 -28.1511733346033 0 0 0 0 3.2036702584488239 17.207068484888737 0 17.207068484888737 -45.552628278449902 0 0 0 0 1.4979385306423865 3.3270301236934756 0 3.3270301236934756 -77.555668246030109 0 0 0 0 18.358802979300435 10.610252579244843 0 10.610252579244843 -75.788078132715384 0 0 0 0 -4.5514137292689156 -7.5400183351943042 0 -7.5400183351943042 -112.99536811336975 0 0 0 0 -9.2175861067398728 -2.4367641322403415 0 -2.4367641322403415 -59.627027786634017 0 0 0 0 -97.221251601628865 -24.865865135051081 0 -24.865865135051081 337.33955730951021 0 0 0 0 4.6408794005601521 13.019243940662818 0 13.019243940662818 -126.79626572280631 0 0 0 0 0.53910287924613165 -1.0309970129057029 0 -1.0309970129057029 0.28017220760452033 0 0 0 0 -4.8577187363152916 6.1382046744456602 0 6.1382046744456602 -122.65390636189295 0 0 0 0 32.710385090368618 -18.396084854142828 0 -18.396084854142828 485.65360314587679 0 0 0 0 -14.806660792429682 -11.146800083286394 0 -11.146800083286394 -121.14014847265753 0 0 0 0 1.2366312387632199 -2.3010753955001526 0 -2.3010753955001526 1.4611131571936236 0 0 0 0 -13.746476650551813 8.7367379838378838 0 8.7367379838378838 -104.64807017338626 0 0 0 0 5.0809964391928588 15.30718809613154 0 15.30718809613154 -102.45433445372282 0 0 0 0 5.7543437149487033 -1.638601307314616 0 -1.638601307314616 -104.24501623991 0 0 0 0 15.060607475556765 5.4157267337714927 0 5.4157267337714927 -110.79785251724388 0 0 0 0 -3.582897313027388 2.0962412155786296 0 2.0962412155786296 -105.52400390048138 0 0 0 0 8.4942615576010212 -8.6641823108948302 0 -8.6641823108948302 -127.33409805141764 0 0 0 0 16.746330015097556 3.1310077816187913 0 3.1310077816187913 -125.73812609901142 0 0 0 0 16.493604015513483 -2.104226106385795 0 -2.104226106385795 -136.58925955029008 0 0 0 0 8.9012596668308106 -4.1660428995319307 0 -4.1660428995319307 -114.42653400663949 0 0 0 0 5.0270156735787168 -14.713985482102544 0 -14.713985482102544 -139.07502955905602 0 0 0 0 20.163434890579992 -71.720567172924348 0 -71.720567172924348 260.91246346874232 0 0 0 0 -3.0508318326280914 -95.472054399686954 0 -95.472054399686954 225.91053717834802 0 0 0 0 14.438929027781342 -93.704112902987617 0 -93.704112902987617 251.42066636237041 0 0 0 0 -14.048130578431483 -88.470637096593236 0 -88.470637096593236 251.48383005932374 0 0 0 0 19.77213357613482 -82.641897244521033 0 -82.641897244521033 142.7610711131997 0 0 0 0 -17.725792247657409 -96.962183699188927 0 -96.962183699188927 204.63379639087225 0 0 0 0 49.728642416188222 -88.036686208939841 0 -88.036686208939841 291.88838651051265 0 0 0 0 14.731140832392157 -62.43153984712967 0 -62.43153984712967 232.21789387124772 0 0 0 0 52.449325553033304 -65.59673325004087 0 -65.59673325004087 232.41401449800753 0 0 0 0 -59.915400198210136 -69.719191433034894 0 -69.719191433034894 167.67462216866511 0 0 0 0 64.187053277577064 -4.3627996765100363 0 -4.3627996765100363 239.83318910218622 0 0 0 0 -12.789339376863495 -2.257023805970789 0 -2.257023805970789 239.79467051147594 0 0 0 0 -29.416658614392873 -3.2828674267257156 0 -3.2828674267257156 99.949544060660628 0 0 0 0 -181.72067004748396 -71.777688733420064 0 -71.777688733420064 75.30468011846483 0 0 0 0 -26.093168727768443 -41.218325329217805 0 -41.218325329217805 77.70933894351549 0 0 0 0 -9.2375326168439642 -55.753509995848162 0 -55.753509995848162 147.35329180491499 0 0 0 0 -1.1190076225481675 -85.239320651519904 0 -85.239320651519904 65.947316653931466 0 0 0 0 -54.889360749685693 15.729337876354407 0 15.729337876354407 60.73912669790343 0 0 0 0 -64.928484784196826 10.193159848755158 0 10.193159848755158 58.759036068179256 0 0 0 0 -28.792479994416908 -52.572376864681701 0 -52.572376864681701 217.93506369028 0 0 0 0 -63.702095531650656 46.176464807456099 0 46.176464807456099 96.318620816949078 0 0 0 0 -185.44512262637954 57.637557197034312 0 57.637557197034312 105.15680501437589 0 0 0 0 -30.872667511064492 51.580933780944918 0 51.580933780944918 52.211082710567325 0 0 0 0 22.186563654952351 58.450349293888394 0 58.450349293888394 4.9709020610730477 0 0 0 0 -66.108568511418184 94.671581260998835 0 94.671581260998835 16.08196332078046 0 0 0 0 -184.21323959887059 -206.87895653318355 0 -206.87895653318355 -132.86528151396442 0 0 0 0 -64.026527438834478 -28.509806724867758 0 -28.509806724867758 -33.657833661971381 0 0 0 0 -3.6227146544889957 0.43964918802419461 0 0.43964918802419461 0.39700680364577501 0 0 0 0 -27.96279961818891 30.980436166274785 0 30.980436166274785 78.83605960278328 0 0 0 0 -8.9934799836506762 2.6285745988410376 0 2.6285745988410376 -0.85012435864368996 0 0 0 0 -8.5579938305820491 37.387132088312143 0 37.387132088312143 10.802918290291018 0 0 0 0 26.178210568772784 -32.587891161228981 0 -32.587891161228981 -45.824737101764185 0 0 0 0 -36.066632229643574 -83.973451852399592 0 -83.973451852399592 -104.56417283149494 0 0 0 0 -11.812844431329722 64.727995951500816 0 64.727995951500816 -163.77784363922785 0 0 0 0 -28.424152350167788 50.224158786955286 0 50.224158786955286 15.392678761396837 0 0 0 0 -264.96017855862942 68.399613647200681 0 68.399613647200681 18.956467557512042 0 0 0 0 33.205181048045915 27.452989958904936 0 27.452989958904936 0.28502674282935914 0 0 0 0 -26.754645953965678 86.340464217196768 0 86.340464217196768 41.709321463199558 0 0 0 0 35.235273313709598 37.980669230594401 0 37.980669230594401 42.455999138164771 0 0 0 0 50.286971072976215 29.439585357778014 0 29.439585357778014 46.243855427437893 0 0 0 0 50.314725221374431 7.768428008467481 0 7.768428008467481 22.508756948152381 0 0 0 0 26.641010634867868 -10.795722071099874 0 -10.795722071099874 97.197978693450295 0 0 0 0 49.339236204073302 8.7284381525328172 0 8.7284381525328172 95.762880006481055 0 0 0 0 71.694043284619511 32.500699024622463 0 32.500699024622463 33.345695141074884 0 0 0 0 47.502308218172715 19.989039247369476 0 19.989039247369476 29.192821138651198 0 0 0 0 47.69951469281682 15.257650525422378 0 15.257650525422378 41.223166068896774 0 0 0 0 72.285094074595008 10.898194496764972 0 10.898194496764972 14.128264638689188 0 0 0 0 32.728388666237379 -35.923280609294977 0 -35.923280609294977 -15.774707106525966 0 0 0 0 -0.50481068097772397 -18.204003585257148 0 -18.204003585257148 68.407157952220047 0 0 0 0 -26.136335403179146 -49.097790588773933 0 -49.097790588773933 58.81106049470327 0 0 0 0 17.441409308690595 -14.980228227011594 0 -14.980228227011594 37.494627855397994 0 0 0 0 247.96649153070462 -66.659092633359478 0 -66.659092633359478 -25.790674687059806 0 0 0 0 -71.106354329857027 -174.38095419863657 0 -174.38095419863657 3.2652366901947971 0 0 0 0 59.982778778787633 1.7072550343070247 0 1.7072550343070247 62.135221339183772 0 0 0 0 83.077689507253467 28.455214220100288 0 28.455214220100288 65.509210439308532 0 0 0 0 143.5318854408265 156.1498638203559 0 156.1498638203559 315.97878369312957 0 0 0 0 79.548674198455956 -171.89166202386673 0 -171.89166202386673 246.98065009477955 0 0 0 0 9.1855961759301863 -68.956470020910729 0 -68.956470020910729 401.34842271417324 0 0 0 0 12.560444095919429 -54.801363083478634 0 -54.801363083478634 200.70917357903272 0 0 0 0 -164.50578799091454 41.382158893245219 0 41.382158893245219 421.02685972615689 0 0 0 0 -0.023771920180584605 -0.31271984333000225 0 -0.31271984333000225 3.4035307687665632 0 0 0 0 270.10483657736495 248.44952014344122 0 248.44952014344122 191.46981834815401 0 0 0 0 31.642008385293366 62.374378451143016 0 62.374378451143016 114.14219045165981 0 0 0 0 129.46638472240193 -108.62188955615193 0 -108.62188955615193 80.383384031755213 0 0 0 0 -19.598326968934941 28.247099422858653 0 28.247099422858653 25.581305871281756 0 0 0 0 -12.835278109349929 5.5264065553369619 0 5.5264065553369619 42.428243118860337 0 0 0 0 3.8409130614607405 2.2161477276460255 0 2.2161477276460255 12.056694913883803 0 0 0 0 85.9346779874611 118.7261024238005 0 118.7261024238005 81.964622502446787 0 0 0 0 72.647124047003217 -76.28051379744943 0 -76.28051379744943 124.92898019338691 0 0 0 0 75.331051659638661 20.93381136496987 0 20.93381136496987 -13.844689831783285 0 0 0 0 43.905515430501055 -68.62206148698067 0 -68.62206148698067 135.04105251956503 0 0 0 0 16.659246859186084 -34.651622896737535 0 -34.651622896737535 149.3074843821887 0 0 0 0 54.665288582132007 -54.992489845099612 0 -54.992489845099612 111.88220129812566 0 0 0 0 0.060060769776198231 -0.68818491313858399 0 -0.68818491313858399 -0.068556800631294879 0 0 0 0 41.454494853869221 -88.951126459346483 0 -88.951126459346483 193.81362992807544 0 0 0 0 25.992900823885009 -60.36586073739636 0 -60.36586073739636 144.94756489428784 0 0 0 0 14.717356953935109 -65.506798828691444 0 -65.506798828691444 173.80778643817166 0 0 0 0 6.4396397821503797 -57.24168804553392 0 -57.24168804553392 166.74670900459341 0 0 0 0 3.6683486684239499 -32.595388233814532 0 -32.595388233814532 182.71027458991102 0 0 0 0 -8.2179309621089942 -33.076119713721482 0 -33.076119713721482 239.69508346003613 0 0 0 0 -27.616486494661331 -56.392504816609289 0 -56.392504816609289 268.11313481703905 0 0 0 0 3.9352412358790616 -28.955070855447786 0 -28.955070855447786 194.22282404591442 0 0 0 0 -11.983244377172468 -74.889526473611113 0 -74.889526473611113 223.68234779739942 0 0 0 0 -2.2220415416359174 -68.88456580181446 0 -68.88456580181446 202.1757847402755 0 0 0 0 -14.160471232492 -71.612216319597792 0 -71.612216319597792 201.66735244510141 0 0 0 0 2.3990569828033586 -83.338865127787813 0 -83.338865127787813 175.91206717752061 0 0 0 0 4.3822125534418319 -60.412787550425946 0 -60.412787550425946 201.81038911592918 0 0 0 0 6.3650750200376933 -60.188641535291936 0 -60.188641535291936 190.33717740736256 0 0 0 0 11.802382094094241 -47.198740061539183 0 -47.198740061539183 145.05251342650809 0 0 0 0 20.566976309973768 -75.041352997624472 0 -75.041352997624472 91.31944068706116 0 0 0 0 9.974181968018911 -56.331294541537545 0 -56.331294541537545 200.40316480739409 0 0 0 0 9.3959174855756729 -49.760600689871524 0 -49.760600689871524 184.12932090982849 0 0 0 0 58.806150317031978 61.595222149869585 0 61.595222149869585 163.58053365801743 0 0 0 0 -8.0037131719364041 1.776384041950223 0 1.776384041950223 64.0527626936655 0 0 0 0 0.047367073811834082 6.995805927002948 0 6.995805927002948 71.436765385908075 0 0 0 0 29.040726182278448 -14.4285973310798 0 -14.4285973310798 -3.9165024176327279 0 0 0 0 10.197308789834445 -53.862114316827501 0 -53.862114316827501 149.78080250832863 0 0 0 0 66.100067683221823 -19.305864239526272 0 -19.305864239526272 58.63092899388721 0 0 0 0 33.530557499643997 26.746278156468179 0 26.746278156468179 108.90361534615658 0 0 0 0 33.803332577441211 11.180737132934155 0 11.180737132934155 93.429237849217316 0 0 0 0 32.946599054690424 49.201741845974539 0 49.201741845974539 44.95855043992924 0 0 0 0 45.884285967740617 43.817619186680531 0 43.817619186680531 -50.555559844477102 0 0 0 0 51.01541867967601 -19.852642801898583 0 -19.852642801898583 34.967323049524566 0 0 0 0 -0.29139761041184592 0.62551745758707966 0 0.62551745758707966 -0.8596898246013609 0 0 0 0 12.983303039561791 -52.871403511808353 0 -52.871403511808353 -95.595381612511119 0 0 0 0 17.333007696980058 20.845749913283498 0 20.845749913283498 -43.436917920436827 0 0 0 0 57.146874575835028 -20.340045413709959 0 -20.340045413709959 -12.330727519874927 0 0 0 0 48.344173096592982 53.061344908353931 0 53.061344908353931 44.865720698333462 0 0 0 0 74.483894081515189 95.628987936848716 0 95.628987936848716 62.443118284398224 0 0 0 0 57.000912404786462 69.60006416620763 0 69.60006416620763 -0.21832955736317672 0 0 0 0 0.064567324610393953 50.696617013309151 0 50.696617013309151 93.520243196529918 0 0 0 0 47.302836999708873 115.56224942498739 0 115.56224942498739 133.75129834052859 0 0 0 0 47.297061628031898 71.309882305191934 0 71.309882305191934 117.5745093201258 0 0 0 0 0.030267035202072912 80.694874443317531 0 80.694874443317531 236.7643692210404 0 0 0 0 17.924126409617188 132.26497337371984 0 132.26497337371984 278.43722966665518 0 0 0 0 -0.050332414974029932 94.294082915406761 0 94.294082915406761 381.24359296867624 0 0 0 0 14.821348660716552 136.97571210044043 0 136.97571210044043 376.16406016124529 0 0 0 0 -34.807482946893998 110.51339152012952 0 110.51339152012952 475.80409504546697 0 0 0 0 38.525060905115879 141.36495753420604 0 141.36495753420604 376.80116591052501 0 0 0 0 -31.755124273404022 83.437381317547988 0 83.437381317547988 384.21001600906311 0 0 0 0 108.84821655584227 149.50421184778679 0 149.50421184778679 515.79145143241476 0 0 0 0 117.02629629575486 168.56572464105557 0 168.56572464105557 519.65424276556587 0 0 0 0 38.026139681038899 152.53124380478403 0 152.53124380478403 525.18848874988907 0 0 0 0 144.85659014717106 154.6021712837246 0 154.6021712837246 353.98711224376166 0 0 0 0 73.35604236397046 148.33269476686837 0 148.33269476686837 353.43854910932714 0 0 0 0 165.77089019465723 143.93338135970043 0 143.93338135970043 326.41515181030263 0 0 0 0 127.44709389821787 135.41640939242643 0 135.41640939242643 326.27691106140264 0 0 0 0 148.04197185361267 111.58887876330118 0 111.58887876330118 193.90853906211851 0 0 0 0 69.143660667350559 111.26355594414053 0 111.26355594414053 194.3883817110418 0 0 0 0 62.486856248101162 138.28685253173171 0 138.28685253173171 218.32784088262633 0 0 0 0 83.215734548405663 123.680587034778 0 123.680587034778 222.33937136361783 0 0 0 0 97.712590151809977 90.912624490745657 0 90.912624490745657 88.544304806928267 0 0 0 0 12.87025018926181 55.930948992194317 0 55.930948992194317 88.42768493591575 0 0 0 0 -0.011712609326499368 0.60046454347292411 0 0.60046454347292411 0.35598607729775722 0 0 0 0 98.972658587535989 65.662680174540583 0 65.662680174540583 23.388841724357917 0 0 0 0 14.893589433420189 -5.0071544589154655 0 -5.0071544589154655 1.6545424928917782 0 0 0 0 1.3895340132134122 -1.6860614139468453 0 -1.6860614139468453 0.88630679918469468 0 0 0 0 -2.9869393997023508 -8.0494025792504544 0 -8.0494025792504544 -5.0980196011223597 0 0 0 0 12.995929187246446 -34.880972955746984 0 -34.880972955746984 -27.903687543745036 0 0 0 0 -1.9308515218562599 -6.3009815849782882 0 -6.3009815849782882 3.1904937245108727 0 0 0 0 -1.590714789116666 -6.511626150131633 0 -6.511626150131633 14.555065301043214 0 0 0 0 -1.4619685321665656 -5.2213343216571957 0 -5.2213343216571957 9.4948214810283389 0 0 0 0 -1.1247321710025102 -2.8083298689955996 0 -2.8083298689955996 3.2756493155690407 0 0 0 0 -0.17891527872304902 47.89639954642098 0 47.89639954642098 -2.0131762689561583 0 0 0 0 0.60171154248799474 -0.75165929353119054 0 -0.75165929353119054 -0.36129830352103909 0 0 0 0 56.869017999449341 12.210819155621721 0 12.210819155621721 -13.701585696457187 0 0 0 0 -0.48654071545808453 31.764872748186463 0 31.764872748186463 179.41715572957764 0 0 0 0 4.7185069451843304 -22.208422026611515 0 -22.208422026611515 41.561483986268286 0 0 0 0 26.332930716122974 -24.773073946213117 0 -24.773073946213117 14.524249320551462 0 0 0 0 -24.409290852927626 122.00851943378802 0 122.00851943378802 232.37280062008358 0 0 0 0 146.48774917900661 131.91605639498448 0 131.91605639498448 209.77379687656503 0 0 0 0 145.32123601695525 100.72294078643608 0 100.72294078643608 327.28057252362487 0 0 0 0 26.376462745869986 107.27592336262023 0 107.27592336262023 328.63726799075084 0 0 0 0 102.35127492776448 63.786668333821581 0 63.786668333821581 179.35036131496261 0 0 0 0 29.022812064357936 28.850048393731413 0 28.850048393731413 261.73800406680675 0 0 0 0 95.954336348935612 126.23878471327771 0 126.23878471327771 298.71765754029911 0 0 0 0 125.24801774986595 74.452514505066574 0 74.452514505066574 358.54285168819479 0 0 0 0 89.278946282288302 225.5019951624854 0 225.5019951624854 498.8418308669643 0 0 0 0 199.52525266876103 114.32148501150368 0 114.32148501150368 491.56318079513585 0 0 0 0 169.50694756590568 161.95827025472681 0 161.95827025472681 555.86689745384501 0 0 0 0 95.096573049268727 209.66132053993351 0 209.66132053993351 528.40055644526728 0 0 0 0 115.64839089043733 148.42636871049035 0 148.42636871049035 490.83208054976421 0 0 0 0 89.903153434224379 182.37263901424012 0 182.37263901424012 453.04930912748387 0 0 0 0 162.57256108523154 117.35768450553041 0 117.35768450553041 99.651070963038364 0 0 0 0 -68.705661457669521 -118.64829180790184 0 -118.64829180790184 -87.02631450019544 0 0 0 0 84.324438316729015 167.67842842491518 0 167.67842842491518 362.9623605283341 0 0 0 0 113.42020953249994 174.04140891911811 0 174.04140891911811 346.17230705819384 0 0 0 0 102.54187767662108 43.329404452961171 0 43.329404452961171 181.32527930584911 0 0 0 0 102.66733114203373 -43.388219105174358 0 -43.388219105174358 130.60948604668374 0 0 0 0 51.853253492468184 15.865596202653251 0 15.865596202653251 213.78586617905967 0 0 0 0 75.652689982968013 2.5973787168986746 0 2.5973787168986746 142.74675791416666 0 0 0 0 66.964657366117308 -100.66044582108589 0 -100.66044582108589 39.221595911238182 0 0 0 0 49.588420826573383 -5.7884392552659847 0 -5.7884392552659847 -18.446782473423809 0 0 0 0 0.32970043276593053 -0.78258520503757723 0 -0.78258520503757723 0.85128314947496619 0 0 0 0 3.1126527250246454 -81.604022845538566 0 -81.604022845538566 116.27955680988816 0 0 0 0 -10.915476818496359 29.437811433948809 0 29.437811433948809 136.39129634799247 0 0 0 0 4.1133900941199499 -16.991034987120656 0 -16.991034987120656 -9.4757315838505747 0 0 0 0 27.531009885051162 -80.073145434138496 0 -80.073145434138496 35.062710156504181 0 0 0 0 -70.791699105360408 55.442611789967486 0 55.442611789967486 159.63007596429088 0 0 0 0 -81.996843515935211 -18.2185346236638 0 -18.2185346236638 242.58060526233749 0 0 0 0 -29.471254803102227 117.47683367638729 0 117.47683367638729 -30.810959768656176 0 0 0 0 107.81844538328846 225.1556195520352 0 225.1556195520352 -137.6920011209877 0 0 0 0 -7.45381690879654 10.081320533657802 0 10.081320533657802 31.310133369131762 0 0 0 0 -53.648290881606499 -46.043855284806341 0 -46.043855284806341 228.00475875028133 0 0 0 0 0.70452500841190857 1.6342081121998433 0 1.6342081121998433 3.0162792365642872 0 0 0 0 -68.238064919875981 26.926015063454543 0 26.926015063454543 -26.802215266812709 0 0 0 0 -56.12759448494171 6.2326278145483229 0 6.2326278145483229 12.993108965369174 0 0 0 0 -12.630458751062861 28.655006226523255 0 28.655006226523255 -19.126216088036017 0 0 0 0 -10.559354371189521 7.8398738324604267 0 7.8398738324604267 30.781712849098767 0 0 0 0 41.194115787504984 -86.850783062778646 0 -86.850783062778646 4.1221993877188652 0 0 0 0 -237.49875703585553 -9.6345800833514659 0 -9.6345800833514659 192.16047102714219 0 0 0 0 -1.0430662546033833 -17.062206680220783 0 -17.062206680220783 7.267637919109788 0 0 0 0 -17.926767791201712 12.368552690850265 0 12.368552690850265 -1.5563188752275892 0 0 0 0 0.65733323492739437 2.3894662666132547 0 2.3894662666132547 1.6639418485133319 0 0 0 0 -3.604841155219674 -3.8637926822120789 0 -3.8637926822120789 16.991881662077503 0 0 0 0 -8.386771067330546 1.6748413482805518 0 1.6748413482805518 11.67664366590121 0 0 0 0 -4.3491284098694223 -1.8733165164594539 0 -1.8733165164594539 12.18314617247961 0 0 0 0 -5.1188300550795054 1.8446168416985671 0 1.8446168416985671 7.6116190465496629 0 0 0 0 -16.001273529824175 7.7904818112438079 0 7.7904818112438079 5.2637516756076366 0 0 0 0 -0.038378476997684707 -0.053194885429064698 0 -0.053194885429064698 0.62879541256912574 0 0 0 0 -25.069424453656893 5.3746755897809635 0 5.3746755897809635 -23.001548543103127 0 0 0 0 -2.2836681298639117 2.2190816255472896 0 2.2190816255472896 -0.8451003537921622 0 0 0 0 5.2082109584598584 1.3355820704746293 0 1.3355820704746293 -50.046903701208066 0 0 0 0 -9.2056535624483899 8.7559057580874651 0 8.7559057580874651 -20.641179469515919 0 0 0 0 -19.029633951587357 24.610757440284942 0 24.610757440284942 -39.499098557571415 0 0 0 0 8.5713269680870781 14.727403254109959 0 14.727403254109959 -15.74344167887466 0 0 0 0 18.068045759366839 27.016082984810055 0 27.016082984810055 -40.070170427206904 0 0 0 0 -22.393869184940741 50.134513055410935 0 50.134513055410935 -39.381117313081631 0 0 0 0 -7.1482762522850862 32.058915060319123 0 32.058915060319123 -14.032986492820783 0 0 0 0 -3.0149392653593168 37.455639172563679 0 37.455639172563679 -55.979250180025701 0 0 0 0 -18.199348270298742 44.385459167395311 0 44.385459167395311 39.489547857054276 0 0 0 0 -43.232654135116491 6.8120172267954331 0 6.8120172267954331 -11.695903951971559 0 0 0 0 8.6550155048246324 20.850707612218685 0 20.850707612218685 -13.188128384394076 0 0 0 0 -22.432489849760714 29.464083363476675 0 29.464083363476675 46.875812241665699 0 0 0 0 41.524954339181022 17.201486022626341 0 17.201486022626341 -17.329978590205428 0 0 0 0 12.396883249130155 42.572548411357275 0 42.572548411357275 36.307439684140263 0 0 0 0 34.722777943183132 61.837806089264632 0 61.837806089264632 94.566632710280828 0 0 0 0 8.4240496704371708 22.15325443479378 0 22.15325443479378 49.941514386518975 0 0 0 0 -12.003212250474689 34.651506353329751 0 34.651506353329751 107.68314777145861 0 0 0 0 5.7076253516228093 64.275440496919146 0 64.275440496919146 84.560504740933538 0 0 0 0 21.416650277805275 57.231488960744173 0 57.231488960744173 77.387979930121219 0 0 0 0 -10.055196134226435 53.838262390025193 0 53.838262390025193 83.062436228807201 0 0 0 0 -27.329850791227727 3.1647554332303116 0 3.1647554332303116 68.273143292470195 0 0 0 0 -93.887461782836908 -37.632730258104857 0 -37.632730258104857 48.663206607263419 0 0 0 0 -60.608880063492961 52.268929189878691 0 52.268929189878691 5.5793095678673126 0 0 0 0 -17.866629580202243 -10.123022772429977 0 -10.123022772429977 84.751387532916851 0 0 0 0 37.944577328492869 36.35539682788658 0 36.35539682788658 52.019869155512424 0 0 0 0 -110.46815380518456 57.59282414620975 0 57.59282414620975 107.09920111879183 0 0 0 0 74.098257112544474 98.673243516914226 0 98.673243516914226 -54.578939619561424 0 0 0 0 -66.416996609010255 56.851309200510514 0 56.851309200510514 51.418988154502586 0 0 0 0 -16.682378243773456 81.67784872250968 0 81.67784872250968 62.786543414375046 0 0 0 0 0.27358933756683568 0.48537630265106202 0 0.48537630265106202 1.0898395950605959 0 0 0 0 61.002442530191729 -2.7935509295639349 0 -2.7935509295639349 -23.476207811952918 0 0 0 0 -9.1192456611120178 9.2841289848292945 0 9.2841289848292945 -9.5550342321803328 0 0 0 0 2.7886483893483685 6.5286364987462093 0 6.5286364987462093 3.7418165675689465 0 0 0 0 3.6956970221135634 27.072107854692149 0 27.072107854692149 -19.338544057507534 0 0 0 0 -0.34602516141486372 1.6958561828187655 0 1.6958561828187655 8.7795512107051081 0 0 0 0 -23.578489271543376 31.961899567280852 0 31.961899567280852 -10.209374988873606 0 0 0 0 -25.804377785141696 1.2639487347914837 0 1.2639487347914837 5.7006226209923625 0 0 0 0 -2.0109226050599318 -0.96722800409770571 0 -0.96722800409770571 -6.8797978592920117 0 0 0 0 36.518996709197381 31.470589482996729 0 31.470589482996729 -23.214793088976876 0 0 0 0 -13.801863702316687 55.245193180919159 0 55.245193180919159 -48.045339963417064 0 0 0 0 -8.4353610121745408 13.298760654291897 0 13.298760654291897 27.809507834984601 0 0 0 0 -111.30952214869995 64.72216126571584 0 64.72216126571584 49.109254477283685 0 0 0 0 -141.29548023365987 3.258278241410153 0 3.258278241410153 11.901805820234586 0 0 0 0 -0.711640638304333 -0.025668676059353857 0 -0.025668676059353857 6.0684538614312658 0 0 0 0 -31.568244223100919 42.881532281142427 0 42.881532281142427 -11.27027035390347 0 0 0 0 -147.43635093036801 53.966326348338043 0 53.966326348338043 83.273639444465516 0 0 0 0 -2.3730747368063021 -10.236905196397856 0 -10.236905196397856 84.817999746417627 0 0 0 0 -48.930405051990419 55.602969572137226 0 55.602969572137226 92.220238584950494 0 0 0 0 -0.032811757448757639 2.8832120290847598 0 2.8832120290847598 -4.5268124386461466 0 0 0 0 -63.960920896754487 31.764698579965625 0 31.764698579965625 88.517995035581407 0 0 0 0 -1.3708995267228623 9.4307350574243873 0 9.4307350574243873 16.841721600728647 0 0 0 0 23.09400341298624 31.860447316510545 0 31.860447316510545 -14.876247177977348 0 0 0 0 -11.066011922774271 23.699992946088003 0 23.699992946088003 11.095393172589226 0 0 0 0 -9.8390170522070548 48.733142180892173 0 48.733142180892173 0.8121154106920585 0 0 0 0 -0.24416400611122135 33.622126191769738 0 33.622126191769738 17.052913445640115 0 0 0 0 -1.6594289751529203 27.436383409842776 0 27.436383409842776 5.0097911505914965 0 0 0 0 -0.29362277734617237 20.424560405139346 0 20.424560405139346 -11.214476289926097 0 0 0 0 -2.5678959766335563 15.162747456374603 0 15.162747456374603 35.76341832937814 0 0 0 0 0.51925804804322517 14.867206075819055 0 14.867206075819055 40.468001289506248 0 0 0 0 5.7452113593680547 21.367020105413623 0 21.367020105413623 50.52878324889997 0 0 0 0 0.29821357895070832 20.143278732644831 0 20.143278732644831 40.880099821242766 0 0 0 0 2.2155163057103824 5.9259577723177301 0 5.9259577723177301 41.705812514991813 0 0 0 0 -3.4248158672598947 8.7805699741911667 0 8.7805699741911667 48.89020325698948 0 0 0 0 -71.304279260340991 -22.819170527436654 0 -22.819170527436654 28.687054643771262 0 0 0 0 -93.509077438015083 29.532362703219405 0 29.532362703219405 111.1490670901112 0 0 0 0 -54.414852317579061 68.382500073072151 0 68.382500073072151 147.74251263329461 0 0 0 0 -7.4143434990837704 74.495446795874159 0 74.495446795874159 80.173818642331753 0 0 0 0 -60.498905295251461 65.005259142053546 0 65.005259142053546 147.20729147271049 0 0 0 0 -97.399933573206908 42.693341605561727 0 42.693341605561727 141.07895765546709 0 0 0 0 -72.651953051241435 67.031500510136539 0 67.031500510136539 164.88401666015852 0 0 0 0 -106.64917187062019 -69.632244331689435 0 -69.632244331689435 219.00508080494183 0 0 0 0 -13.382665501013621 2.8788075953856804 0 2.8788075953856804 19.015461906891275 0 0 0 0 -7.2479785704836104 0.93320638487057295 0 0.93320638487057295 -25.056320541603782 0 0 0 0 -31.919563556971298 -11.177637747423432 0 -11.177637747423432 115.38175746009802 0 0 0 0 -8.8572453459981944 -56.692277330081197 0 -56.692277330081197 107.07227244586102 0 0 0 0 -80.859790690259388 -12.185003282251273 0 -12.185003282251273 157.87909100280376 0 0 0 0 20.542107289721571 -16.260339140411816 0 -16.260339140411816 40.831478826987222 0 0 0 0 -5.9951107617851429 9.4397685698709104 0 9.4397685698709104 80.304106752590769 0 0 0 0 -19.494552185552493 73.760977298996295 0 73.760977298996295 131.43354863485001 0 0 0 0 -45.021431967196918 112.79014614244352 0 112.79014614244352 256.19461892207619 0 0 0 0 -1.9442883625187009 -10.674301915085188 0 -10.674301915085188 5.1380480714092869 0 0 0 0 54.914125831653109 -118.46679351645798 0 -118.46679351645798 -54.204751353805477 0 0 0 0 -64.724439320839338 59.006279840512434 0 59.006279840512434 127.55733905364468 0 0 0 0 -63.993830052004796 65.516813374051708 0 65.516813374051708 223.3210786844611 0 0 0 0 -71.777597318282119 39.0887594735932 0 39.0887594735932 179.15930157412367 0 0 0 0 -19.345037877322284 6.7653315313400526 0 6.7653315313400526 153.89279796052142 0 0 0 0 -6.5954096783802925 32.511847827379825 0 32.511847827379825 60.083789144358889 0 0 0 0 -3.2822525855167441 -15.12904633119615 0 -15.12904633119615 41.398877643834567 0 0 0 0 0.98553613374447568 -7.8362853626824887 0 -7.8362853626824887 51.59210944028294 0 0 0 0 -3.2224906295662095 -16.725485307571716 0 -16.725485307571716 38.693857214268064 0 0 0 0 -58.85260193452541 -166.64443022928754 0 -166.64443022928754 100.62283039842441 0 0 0 0 -6.2749176647433895 -8.7781125174417696 0 -8.7781125174417696 39.727360767960079 0 0 0 0 -2.9930894556159728 177.49428117516072 0 177.49428117516072 425.56573126249714 0 0 0 0 -68.289130083732289 -38.190786107123131 0 -38.190786107123131 336.20200027666942 0 0 0 0 -0.42851873796829798 -2.4808388743010994 0 -2.4808388743010994 3.4425058139129305 0 0 0 0 130.90694820893032 91.424505305301864 0 91.424505305301864 102.45955043830327 0 0 0 0 282.93158768397097 -152.01033736096724 0 -152.01033736096724 -366.9222162651422 0 0 0 0 -19.960746107283285 114.88331021956401 0 114.88331021956401 307.96895513733034 0 0 0 0 53.607755806012165 -6.91543496927261 0 -6.91543496927261 -6.2447682367346715 0 0 0 0 -12.813622762485238 -32.697591187083162 0 -32.697591187083162 183.18061004814808 0 0 0 0 -8.1704475643291516 -2.2286186102719512 0 -2.2286186102719512 154.41579121397808 0 0 0 0 70.322096049635547 29.107515910785878 0 29.107515910785878 -23.080479259224376 0 0 0 0 -36.878466543775176 58.393561056844192 0 58.393561056844192 201.44381922495086 0 0 0 0 -44.590652016623153 28.213907091354486 0 28.213907091354486 158.82254276397725 0 0 0 0 -51.976919767858817 -7.8038463157863589 0 -7.8038463157863589 211.16767235337466 0 0 0 0 -0.5041173652980433 27.772979242814472 0 27.772979242814472 -53.741488407453289 0 0 0 0 -89.262237326575018 15.392670320012257 0 15.392670320012257 199.07111687399447 0 0 0 0 -87.310675909960082 -34.596890333399642 0 -34.596890333399642 144.328703075269 0 0 0 0 -75.897925888064037 -92.675332300626906 0 -92.675332300626906 102.80393690124038 0 0 0 0 -78.81305838342314 7.5058928233574989 0 7.5058928233574989 220.79245309747057 0 0 0 0 -52.95440146959163 69.170170901183155 0 69.170170901183155 65.523280785855604 0 0 0 0 -11.186314374438519 -13.124884044802798 0 -13.124884044802798 10.644355490273291 0 0 0 0 -43.066419125702396 -31.546538529102691 0 -31.546538529102691 22.287671619527828 0 0 0 0 42.843077392188661 -130.5296628331489 0 -130.5296628331489 -147.53059833859152 0 0 0 0 4.1144973347816265 -1.6834965765421543 0 -1.6834965765421543 13.030490900260602 0 0 0 0 2.0647065064447361 3.7324698329884995 0 3.7324698329884995 27.310108377889264 0 0 0 0 23.782234180531987 37.176249987962365 0 37.176249987962365 -16.523817683228117 0 0 0 0 2.3500934188544544 10.985547063575247 0 10.985547063575247 38.2139631738209 0 0 0 0 -16.928588643911354 37.469994238672371 0 37.469994238672371 10.689126153054531 0 0 0 0 -86.814284144434623 -75.613709644989285 0 -75.613709644989285 102.59620373293001 0 0 0 0 -132.06831606548758 -11.03522096418601 0 -11.03522096418601 75.53459669707081 0 0 0 0 -55.012697654212047 74.570200232230491 0 74.570200232230491 16.066648564534262 0 0 0 0 -283.15853632128892 99.259480423890636 0 99.259480423890636 143.12276899976132 0 0 0 0 3.2072451268438535 9.9924960921096115 0 9.9924960921096115 28.316078238897092 0 0 0 0 30.55748031479834 -22.040243424748041 0 -22.040243424748041 5.9916581812576624 0 0 0 0 42.430072366017612 132.88618283723918 0 132.88618283723918 95.251383297349093 0 0 0 0 172.62238229042111 41.142222334146936 0 41.142222334146936 2.3443773672188399 0 0 0 0 -96.002077498648262 94.449959329955163 0 94.449959329955163 102.49943209400226 0 0 0 0 303.87672071923475 -192.2624184351771 0 -192.2624184351771 180.08228662023248 0 0 0 0 -0.043070629892424495 -1.3220276034721259 0 -1.3220276034721259 2.6368875932176934 0 0 0 0 44.138439533886867 -5.0467336550500477 0 -5.0467336550500477 72.685475494115963 0 0 0 0 33.220096635458503 -150.00447525645723 0 -150.00447525645723 122.81671885678224 0 0 0 0 54.711864093155327 -20.995574957272765 0 -20.995574957272765 -16.20353491588321 0 0 0 0 52.72285692055425 -139.76811874099076 0 -139.76811874099076 -76.10421042337839 0 0 0 0 -97.105127632778022 -119.15600339242883 0 -119.15600339242883 60.661259833073018 0 0 0 0 1.9221465212007116 -24.036197428162914 0 -24.036197428162914 78.179866435359088 0 0 0 0 -231.30327323400888 -162.85163363932588 0 -162.85163363932588 23.532474700259627 0 0 0 0 202.96016332906834 2.604324794609056 0 2.604324794609056 -221.27812301987433 0 0 0 0 43.299566782445822 11.8466042991422 0 11.8466042991422 -9.1950285950879334 0 0 0 0 226.56518647633493 -120.537942516974 0 -120.537942516974 -70.727964541991241 0 0 0 0 -0.41156299146577979 -0.87216851285107211 0 -0.87216851285107211 8.1711632447768352 0 0 0 0 167.68727990716025 -89.005527753251954 0 -89.005527753251954 182.72211908083409 0 0 0 0 -112.77765859860313 -52.956896189614781 0 -52.956896189614781 -25.678281747997971 0 0 0 0 -0.075086117936298713 -19.969462078097379 0 -19.969462078097379 67.596298733567608 0 0 0 0 -6.02457825701822 -252.32050153793534 0 -252.32050153793534 103.55334999854676 0 0 0 0 -4.6080110261959817 -17.846590359484253 0 -17.846590359484253 38.638859639198927 0 0 0 0 -2.9283514812752123 -20.344512656064005 0 -20.344512656064005 3.7795427061991518 0 0 0 0 0.66632720904247389 0.57781822704134811 0 0.57781822704134811 3.6784783279650597 0 0 0 0 -3.5675194598179587 -18.648410494773998 0 -18.648410494773998 35.573827118525514 0 0 0 0 -97.732891288828341 -60.306443986075465 0 -60.306443986075465 89.670159622390202 0 0 0 0 -23.251604884837207 20.838294134186071 0 20.838294134186071 94.95892060908227 0 0 0 0 26.361420089018338 -39.481406100661843 0 -39.481406100661843 149.6130013738948 0 0 0 0 0.51012398232745948 -10.601957217637837 0 -10.601957217637837 124.73958470348808 0 0 0 0 169.28545116849909 16.771659002362867 0 16.771659002362867 66.781035416126542 0 0 0 0 -46.410447001270541 2.3991734236442426 0 2.3991734236442426 154.8722645746675 0 0 0 0 -1771.8663330650263 643.13410394622179 0 643.13410394622179 405.12721497409439 0 0 0 0 -1.5790880129728806 -11.412594367372648 0 -11.412594367372648 105.97342263293039 0 0 0 0 113.23789958218504 -52.821238547134271 0 -52.821238547134271 14.980732698262727 0 0 0 0 34.370322209580792 -128.08374210768739 0 -128.08374210768739 5.2554624638287351 0 0 0 0 -53.409460046157619 47.887516271512141 0 47.887516271512141 119.56961492390838 0 0 0 0 4.5006783785415294 -27.844488533313751 0 -27.844488533313751 82.302914349567232 0 0 0 0 -231.24950247869174 -244.64832171582748 0 -244.64832171582748 120.83670462918235 0 0 0 0 -160.93718120332642 -77.863459903564944 0 -77.863459903564944 153.78761865652632 0 0 0 0 2404.9912324841571 85.930688647282295 0 85.930688647282295 -284.91171324173774 0 0 0 0 1479.916998444578 -1261.8259561135637 0 -1261.8259561135637 2036.1460450327695 0 0 0 0 301.05451330394271 1509.877464948775 0 1509.877464948775 2116.5679669837878 0 0 0 0 -329.42049602921361 22.006584182408915 0 22.006584182408915 -605.60388036714721 0 0 0 0 865.7531547741437 555.6878153374164 0 555.6878153374164 -409.34784420702272 0 0 0 0 317.13277993052543 117.81994803408998 0 117.81994803408998 -232.64715583956422 0 0 0 0 -6.4999648004083674 14.471376168871444 0 14.471376168871444 -25.697004993989779 0 0 0 0 423.93013806415684 616.35722958668794 0 616.35722958668794 -135.37634878506833 0 0 0 0 -731.74672334034676 323.69440980779473 0 323.69440980779473 359.05153846449775 0 0 0 0 131.44173388910531 49.405080640510278 0 49.405080640510278 -50.173806218819664 0 0 0 0 217.15662722749676 64.66641073059327 0 64.66641073059327 -47.473293304312392 0 0 0 0 75.024811477743242 19.813721055088536 0 19.813721055088536 -27.468119898909208 0 0 0 0 155.950921806515 0.34422096371281441 0 0.34422096371281441 -36.493724077023217 0 0 0 0 75.949382657678143 35.381302150653937 0 35.381302150653937 60.049679035681038 0 0 0 0 79.119647958035785 5.65247577043192 0 5.65247577043192 7.8063098177372012 0 0 0 0 -32.688052764096938 60.256602183344512 0 60.256602183344512 -4.6536534297010803 0 0 0 0 73.444877312806966 -0.62084513958006937 0 -0.62084513958006937 -67.024205933106714 0 0 0 0 -13.202207499489941 21.827056448926776 0 21.827056448926776 -39.6324366469116 0 0 0 0 582.09364808004705 358.37882188867479 0 358.37882188867479 -72.134762383582711 0 0 0 0 -2.4901616552297128 39.729447994061047 0 39.729447994061047 169.29328549582715 0 0 0 0 101.82671903998789 20.089174489206926 0 20.089174489206926 148.23301994024951 0 0 0 0 -70.224053360485414 -5.3598760750101064 0 -5.3598760750101064 232.24522444976901 0 0 0 0 -2.7623764485900444 -4.5010175551235889 0 -4.5010175551235889 136.86461625716836 0 0 0 0 -52.555184936653859 -18.439145814839776 0 -18.439145814839776 36.878915567212971 0 0 0 0 -16.702940947353294 41.094301884921464 0 41.094301884921464 -30.258909602239058 0 0 0 0 226.20133328615543 -104.0109546562162 0 -104.0109546562162 138.12337873921206 0 0 0 0 -354.54249802910283 395.60580847816345 0 395.60580847816345 286.16235230104758 0 0 0 0 -131.01489938442865 -0.3792420093450346 0 -0.3792420093450346 56.495863852018374 0 0 0 0 -176.0737662376514 -69.160635749925859 0 -69.160635749925859 436.22807279313565 0 0 0 0 -1.3382812411246174 16.061118853265988 0 16.061118853265988 25.649496659275513 0 0 0 0 50.990040430878253 584.09294256425346 0 584.09294256425346 -368.71469640637224 0 0 0 0 105.84193904323911 -38.772518476223922 0 -38.772518476223922 -154.46015151789106 0 0 0 0 -4.3453794926702489 -0.16946786129382474 0 -0.16946786129382474 0.052014779049535775 0 0 0 0 -13.661481313420609 43.535299830502481 0 43.535299830502481 -87.740951767147635 0 0 0 0 -125.0865722804383 134.91480132639117 0 134.91480132639117 102.14593940993655 0 0 0 0 267.74918617148523 -403.95140063421422 0 -403.95140063421422 377.46413376943383 0 0 0 0 48.87298092470337 219.426433993518 0 219.426433993518 260.54136449487123 0 0 0 0 234.34795128607936 139.85751782832813 0 139.85751782832813 54.566825388130383 0 0 0 0 122.4753168812349 75.881082151456212 0 75.881082151456212 18.152374285826227 0 0 0 0 68.124413650526549 157.42448566030362 0 157.42448566030362 140.89290285527022 0 0 0 0 -76.338748009502524 107.26672053186121 0 107.26672053186121 162.22590805016807 0 0 0 0 -7.3430427351195249 88.783720606588759 0 88.783720606588759 80.127996016060933 0 0 0 0 13.239128899739853 1.3790471091379004 0 1.3790471091379004 255.69316682821955 0 0 0 0 -6.8251082478835823 21.604847996816645 0 21.604847996816645 88.434213862923826 0 0 0 0 -96.164548071838908 60.656892739862087 0 60.656892739862087 113.23249900600786 0 0 0 0 -491.559495679252 -209.93113168112177 0 -209.93113168112177 702.6035043404263 0 0 0 0 -469.0875196977164 -660.36151795025205 0 -660.36151795025205 -154.05739035467559 0 0 0 0 -0.21100874027596461 14.904690800569547 0 14.904690800569547 24.982566547991269 0 0 0 0 554.46656921109388 106.3129793405933 0 106.3129793405933 -170.79099414485609 0 0 0 0 -13.370195816471096 -93.201712489892088 0 -93.201712489892088 -19.906450738399144 0 0 0 0 154.56837673110022 310.37917089563598 0 310.37917089563598 336.81746775171632 0 0 0 0 64.271447086135595 150.08737990707959 0 150.08737990707959 199.57298795679526 0 0 0 0 60.162402304750685 173.42211291657077 0 173.42211291657077 140.50763861105224 0 0 0 0 88.401234691489663 74.109109055043518 0 74.109109055043518 155.17738985579035 0 0 0 0 105.69172179300858 52.808943553891368 0 52.808943553891368 45.246515954189817 0 0 0 0 -14.946904445256223 4.879969119821908 0 4.879969119821908 44.004140429959079 0 0 0 0 -12.31129220841467 -4.9963989876014239 0 -4.9963989876014239 23.601851095107122 0 0 0 0 152.21200091533319 36.799966859409324 0 36.799966859409324 0.31395978496584576 0 0 0 0 39.368742849494083 32.503673282471937 0 32.503673282471937 -29.088408701478329 0 0 0 0 9.8483987464080514 3.2140189342445922 0 3.2140189342445922 7.0058408175400757 0 0 0 0 2.6118170131309224 -2.0236731402726988 0 -2.0236731402726988 6.5781783938398206 0 0 0 0 -0.6665803575397149 -34.176915428171924 0 -34.176915428171924 61.657103596197885 0 0 0 0 43.254024367935926 19.104525759808894 0 19.104525759808894 33.618514811889327 0 0 0 0 0.75848258699716098 72.999530175349719 0 72.999530175349719 387.42215475819103 0 0 0 0 4.896046397050668 -50.744348375788832 0 -50.744348375788832 111.54647498585837 0 0 0 0 729.69103397676281 351.50873450829022 0 351.50873450829022 28.586354766215663 0 0 0 0 1.4347868717408092 1.7848725893877031 0 1.7848725893877031 8.7203693821721799 0 0 0 0 -277.03148162063189 20.921961502750491 0 20.921961502750491 351.30820059942198 0 0 0 0 44.162329094804591 259.95535937637032 0 259.95535937637032 13.158381913616722 0 0 0 0 -7.539606149518022 49.74114787329745 0 49.74114787329745 94.515968291350873 0 0 0 0 100.58750285359565 700.1889168553098 0 700.1889168553098 600.03290077876181 0 0 0 0 -2.5909006392694183 18.713925910648371 0 18.713925910648371 71.854682355893658 0 0 0 0 -109.04369788040276 284.28443177867302 0 284.28443177867302 318.92139830786618 0 0 0 0 73.458241011781411 76.920387347243377 0 76.920387347243377 55.383989880327135 0 0 0 0 5.8938126818829915 88.29628034948837 0 88.29628034948837 79.912751862117148 0 0 0 0 -0.7716415222361741 6.5280290678170019 0 6.5280290678170019 32.374462765695995 0 0 0 0 63.285370266718019 43.980103996080288 0 43.980103996080288 23.078284333525517 0 0 0 0 -11.153266595325476 63.682464573183097 0 63.682464573183097 89.052638775960077 0 0 0 0 -7.4266408687287324 9.1734798011077032 0 9.1734798011077032 36.723600219626576 0 0 0 0 43.330011141473371 80.76735502333014 0 80.76735502333014 112.86260882635543 0 0 0 0 43.073174831641865 54.700214802421101 0 54.700214802421101 58.583014872900094 0 0 0 0 11.565128900630953 -0.055855840742879082 0 -0.055855840742879082 60.509402935053004 0 0 0 0 17.523551020226478 30.69968342602715 0 30.69968342602715 125.28357249125838 0 0 0 0 426.83007610519962 -81.102135608456592 0 -81.102135608456592 63.94750601972919 0 0 0 0 146.85907822373701 -83.253887629041856 0 -83.253887629041856 -123.30167905683629 0 0 0 0 147.22258830999272 -65.156262525335478 0 -65.156262525335478 249.08710729609447 0 0 0 0 0.3325881407832747 -0.041348988023063526 0 -0.041348988023063526 20.334533252222144 0 0 0 0 -2.0243336430488634 22.457275111228618 0 22.457275111228618 70.384890622856716 0 0 0 0 142.61462722881288 14.93807293359896 0 14.93807293359896 51.843729373867973 0 0 0 0 182.42835847569404 129.73405965525308 0 129.73405965525308 -38.29296490859997 0 0 0 0 58.792386424645883 144.08063941672663 0 144.08063941672663 2.7838603178133781 0 0 0 0 51.504173878945949 2.5235406059928209 0 2.5235406059928209 78.054047102057666 0 0 0 0 -57.540616279317419 12.714497140204912 0 12.714497140204912 99.932439401942247 0 0 0 0 15.489432823856077 52.558731145660204 0 52.558731145660204 65.345097549667116 0 0 0 0 7.0183161381199923 22.196980214205929 0 22.196980214205929 70.479640878958065 0 0 0 0 -0.15261865226921145 -12.998413875109691 0 -12.998413875109691 73.666732854133443 0 0 0 0 4.145725323229799 -4.31435767671287 0 -4.31435767671287 35.877726212616636 0 0 0 0 81.908316209919576 21.882734443184745 0 21.882734443184745 51.059494140948118 0 0 0 0 0.83447067877312331 21.26147619394569 0 21.26147619394569 65.733411663354559 0 0 0 0 22.189159414057031 6.5018382290272712 0 6.5018382290272712 31.904665027474039 0 0 0 0 19.421985132757982 -0.52650840173191682 0 -0.52650840173191682 26.09946200469858 0 0 0 0 13.7726459441717 3.9684500805124117 0 3.9684500805124117 22.523631661562831 0 0 0 0 0.54739665538943072 -4.6363129439118111 0 -4.6363129439118111 22.339182601206659 0 0 0 0 -0.75244220962213149 -16.804102520087326 0 -16.804102520087326 37.357689665237558 0 0 0 0 5.8774398235182161 -8.4312735907660681 0 -8.4312735907660681 19.308657055196818 0 0 0 0 3.3611882765461587 -2.550522570885029 0 -2.550522570885029 1.9258531006654138 0 0 0 0 3.617246390686887 11.8143331890642 0 11.8143331890642 73.617074104420681 0 0 0 0 7.9548576767920167 2.0602194341572613 0 2.0602194341572613 37.128342628706434 0 0 0 0 24.627924099059783 -9.8149653963391756 0 -9.8149653963391756 107.87192849233543 0 0 0 0 -4.1296695523947164 5.5504500336282945 0 5.5504500336282945 73.497739379265113 0 0 0 0 8.5628667794060398 -3.4442049358921594 0 -3.4442049358921594 16.503185551787233 0 0 0 0 3.0331068521959708 -5.5226644935079534 0 -5.5226644935079534 34.007449343636097 0 0 0 0 0.27705105349257053 -2.2809009677945724 0 -2.2809009677945724 22.552226037115183 0 0 0 0 11.993831603647777 -11.424816546186776 0 -11.424816546186776 114.77324900024905 0 0 0 0 31.299194584837096 3.0063516222708131 0 3.0063516222708131 114.5308825504253 0 0 0 0 60.343216887358722 13.764159269201627 0 13.764159269201627 286.25279666349979 0 0 0 0 -3.1131615644317208 -23.538365039032215 0 -23.538365039032215 113.59456594845688 0 0 0 0 63.839641178012243 13.157255523776257 0 13.157255523776257 120.64101513282367 0 0 0 0 2.0045967836895215 13.748729732924403 0 13.748729732924403 151.661589117939 0 0 0 0 25.698685223869688 -17.900628100218455 0 -17.900628100218455 119.31970833271043 0 0 0 0 87.247727750338527 77.608642084269377 0 77.608642084269377 203.15650085789821 0 0 0 0 21.530275762544989 4.6565505863582075 0 4.6565505863582075 154.36343496663176 0 0 0 0 5.2617256835676471 14.333330848573496 0 14.333330848573496 200.40427612562053 0 0 0 0 40.585742008102898 27.236983807597426 0 27.236983807597426 153.46069149018058 0 0 0 0 10.974113933234548 0.61269060469203396 0 0.61269060469203396 174.92026822924527 0 0 0 0 20.945878882997931 -22.631447603467677 0 -22.631447603467677 174.20890680304456 0 0 0 0 27.160983586773 -11.751123998052208 0 -11.751123998052208 154.09805803845302 0 0 0 0 54.083851164978114 -37.224608325723239 0 -37.224608325723239 174.29847442790924 0 0 0 0 43.877819809418725 -29.560509552411531 0 -29.560509552411531 195.05010717225377 0 0 0 0 9.4618953893295838 -2.6158792896385421 0 -2.6158792896385421 224.01100508589298 0 0 0 0 69.057073401523667 -37.38241888241464 0 -37.38241888241464 197.07745711039752 0 0 0 0 19.740902837525937 -30.39928323172353 0 -30.39928323172353 287.37165035952057 0 0 0 0 62.544292568134551 -5.1706080653748359 0 -5.1706080653748359 140.49887265328289 0 0 0 0 0.50016508144048899 4.797937565968823 0 4.797937565968823 28.225000978324992 0 0 0 0 34.823636248309413 -16.059695133046262 0 -16.059695133046262 122.45734151960642 0 0 0 0 48.860029995947116 -26.340317494818009 0 -26.340317494818009 294.47964486055025 0 0 0 0 55.945378357526351 -48.564057929783303 0 -48.564057929783303 171.41870165464934 0 0 0 0 19.181816898295438 5.8949375777356181 0 5.8949375777356181 121.21853385227587 0 0 0 0 45.71395182940978 -17.153830297094828 0 -17.153830297094828 133.54557566562289 0 0 0 0 32.757053247754811 12.212315178698191 0 12.212315178698191 126.83413537368597 0 0 0 0 9.7646689346565836 -1.5251694405114904 0 -1.5251694405114904 122.13390133868597 0 0 0 0 16.563426922302369 -8.9221620577000067 0 -8.9221620577000067 145.38803020883643 0 0 0 0 3.3436703975867204 -11.462480163989312 0 -11.462480163989312 122.71461196157588 0 0 0 0 32.177505183257381 -14.03921756656564 0 -14.03921756656564 122.11655273933138 0 0 0 0 26.677498044005006 -21.272718169999735 0 -21.272718169999735 143.10780194248218 0 0 0 0 1.2763604301505893 17.83102185172902 0 17.83102185172902 148.55151768159703 0 0 0 0 -4.9437735067383528 15.584405799643719 0 15.584405799643719 168.54996669862885 0 0 0 0 -9.8894463302503937 8.2715211733666365 0 8.2715211733666365 96.065581810711592 0 0 0 0 -2.1815389570426218 10.771333725399749 0 10.771333725399749 65.053019616412627 0 0 0 0 4.7773518628023339 20.721848745082752 0 20.721848745082752 118.26293453414473 0 0 0 0 -14.304598736369826 9.2903860572155281 0 9.2903860572155281 65.373625742242439 0 0 0 0 -10.746439704445947 13.167286151181543 0 13.167286151181543 73.380141510511748 0 0 0 0 0.84389940368296434 7.5449179485279867 0 7.5449179485279867 90.477765599256884 0 0 0 0 0.33796402443630758 8.4728322788274451 0 8.4728322788274451 74.247008938549342 0 0 0 0 -8.8762100390140404 8.4924915913725272 0 8.4924915913725272 290.33577754263024 0 0 0 0 -4.6374214011374413 -14.614472068348601 0 -14.614472068348601 65.722257064221708 0 0 0 0 -19.438464415045019 1.1561295327701373 0 1.1561295327701373 91.653480410459451 0 0 0 0 -41.714776825887384 -8.8680743245058693 0 -8.8680743245058693 38.792261835187674 0 0 0 0 -10.422763339524659 -2.1663705844743539 0 -2.1663705844743539 75.060621106245151 0 0 0 0 -10.386207197710139 22.27452279295818 0 22.27452279295818 156.26647357361185 0 0 0 0 -7.2668304446904788 20.880221540515521 0 20.880221540515521 148.37636537173285 0 0 0 0 -18.459446127952106 0.9487868897485896 0 0.9487868897485896 122.03505000905534 0 0 0 0 4.6579771548504585 -0.62081296543973252 0 -0.62081296543973252 76.143227669940146 0 0 0 0 -1.9760305715817594 -0.33417945225846779 0 -0.33417945225846779 66.639493343187496 0 0 0 0 3.5802033859006483 2.0320021196241136 0 2.0320021196241136 63.14261166425041 0 0 0 0 -44.94513386559629 4.1343029236013535 0 4.1343029236013535 79.179462553889607 0 0 0 0 0.73641124146888615 -3.6307690317189554 0 -3.6307690317189554 50.579707403390785 0 0 0 0 -45.919713099092405 8.5291942774347262 0 8.5291942774347262 59.925392272882164 0 0 0 0 -1.880844584376433 3.5170648400484588 0 3.5170648400484588 89.192743946325152 0 0 0 0 13.085816261018408 15.658289546518063 0 15.658289546518063 135.01862124790205 0 0 0 0 3.8425167155250399 3.1455118643851847 0 3.1455118643851847 22.349693883995243 0 0 0 0 2.999918549771337 10.374436547383084 0 10.374436547383084 132.52061360234802 0 0 0 0 -4.6316882140311009 -18.273340051706327 0 -18.273340051706327 114.23471053088724 0 0 0 0 2.6782289662764036 15.350910426511518 0 15.350910426511518 34.563647362202971 0 0 0 0 -1.1500273966303212 10.035367250573472 0 10.035367250573472 152.31533204077277 0 0 0 0 25.862471752427155 19.435684604395647 0 19.435684604395647 129.4568220929068 0 0 0 0 3.3131779142237399 2.3934294074232341 0 2.3934294074232341 43.817859221062491 0 0 0 0 -2.8159112960485118 -12.843247957771126 0 -12.843247957771126 126.79653039388776 0 0 0 0 2.9837158944670019 0.50641089190952471 0 0.50641089190952471 55.084545909053503 0 0 0 0 -0.81035983088077046 3.3187042367499089 0 3.3187042367499089 61.114531997292943 0 0 0 0 -9.02657746190817 -35.424325451764552 0 -35.424325451764552 49.531776793371591 0 0 0 0 -36.684207881295151 -3.6938939302344806 0 -3.6938939302344806 61.842225694912486 0 0 0 0 2.351700739404353 12.400696874134031 0 12.400696874134031 102.42536509987644 0 0 0 0 -3.4704144978406752 -4.944869212648868 0 -4.944869212648868 126.85296846436208 0 0 0 0 -37.978211418783758 -6.0093482639931608 0 -6.0093482639931608 63.821858421724755 0 0 0 0 10.715207086050896 15.277334740161677 0 15.277334740161677 82.123171690764138 0 0 0 0 11.386731943700033 12.611260242942469 0 12.611260242942469 49.033838227651216 0 0 0 0 15.403941121827302 15.269091815258435 0 15.269091815258435 80.319487548709731 0 0 0 0 11.635326956296922 20.259152447251836 0 20.259152447251836 73.763464608542563 0 0 0 0 -8.7144328694266733 3.177242183162889 0 3.177242183162889 44.445558719868131 0 0 0 0 -10.300872096740932 -12.218550451412739 0 -12.218550451412739 118.30673623672192 0 0 0 0 0.37736884533770043 -4.5214149556015144 0 -4.5214149556015144 63.624633703224248 0 0 0 0 2.5360838402257748 8.49594010501594 0 8.49594010501594 55.422044446133299 0 0 0 0 -10.725762505351668 -11.580032057205244 0 -11.580032057205244 117.37338883761549 0 0 0 0 75.587664056662106 14.623576189063897 0 14.623576189063897 61.675616565626115 0 0 0 0 -16.656084863195474 15.880401132320003 0 15.880401132320003 71.287127382151084 0 0 0 0 22.459668697025336 2.9080058820200065 0 2.9080058820200065 30.058218689926434 0 0 0 0 20.805578027073352 8.6366993304936841 0 8.6366993304936841 77.839678876320249 0 0 0 0 -1.7957492389259642 -20.854327627039311 0 -20.854327627039311 83.744743285642471 0 0 0 0 2.1505439646716553 -8.4161616184001389 0 -8.4161616184001389 109.75703857726353 0 0 0 0 9.429465162758035 -6.0204992532812014 0 -6.0204992532812014 54.200915621637023 0 0 0 0 -6.6847705826730817 -9.5333519846608397 0 -9.5333519846608397 15.874381897156127 0 0 0 0 13.301867461046843 -3.3902257421167903 0 -3.3902257421167903 42.520315270297033 0 0 0 0 28.582350477907003 2.0378013014782113 0 2.0378013014782113 64.045855911801979 0 0 0 0 12.747059703919149 12.865124097974331 0 12.865124097974331 84.228765537118306 0 0 0 0 -8.2045875853121579 -11.191683168225921 0 -11.191683168225921 18.334224120519131 0 0 0 0 -37.556233311794415 25.422323849254099 0 25.422323849254099 128.06038898999395 0 0 0 0 0.22766019336495447 12.835129485659309 0 12.835129485659309 41.412908669910394 0 0 0 0 -4.1514382182149241 9.5312993684810579 0 9.5312993684810579 88.133832747454008 0 0 0 0 0.015615025982924635 23.912258585572999 0 23.912258585572999 184.82402407994232 0 0 0 0 -12.908141098781925 -39.699315607504104 0 -39.699315607504104 151.77136206783234 0 0 0 0 31.77570052972078 11.082293815066805 0 11.082293815066805 84.432075294924289 0 0 0 0 3.2048940147035205 -15.315354554174064 0 -15.315354554174064 4.1006647985486868 0 0 0 0 -6.243823726978956 14.827153570072255 0 14.827153570072255 9.4928324072678549 0 0 0 0 15.232142885708072 12.977985337478458 0 12.977985337478458 162.54737988658599 0 0 0 0 54.538049521328503 70.040177048445912 0 70.040177048445912 214.86841693445604 0 0 0 0 -5.1424028662777346 0.71995914570288733 0 0.71995914570288733 226.12652020968744 0 0 0 0 0.012097050508852902 -1.2257568371014713 0 -1.2257568371014713 4.8909287874630962 0 0 0 0 19.502835200063146 57.402359625637473 0 57.402359625637473 349.14787001415971 0 0 0 0 6.0220898345348814 14.315757338412368 0 14.315757338412368 102.47945026736124 0 0 0 0 -11.352367345219591 1.437928165843914 0 1.437928165843914 119.29531157281599 0 0 0 0 25.447812088443243 -7.2556319133655052 0 -7.2556319133655052 120.17028109377134 0 0 0 0 -2.5161696758436847 4.5660016704205191 0 4.5660016704205191 114.38267785363132 0 0 0 0 -3.8080799860254047 2.3913555109320441 0 2.3913555109320441 134.91941872895404 0 0 0 0 -7.4635428738974952 16.799536298021849 0 16.799536298021849 134.81141070063734 0 0 0 0 -5.8518807447594554 20.560659062844934 0 20.560659062844934 124.26368432452 0 0 0 0 7.4368792673303687 15.862624553614296 0 15.862624553614296 125.91485815146007 0 0 0 0 57.444655516595958 11.919603512404137 0 11.919603512404137 84.277503980789334 0 0 0 0 0.96645607976260806 -1.0047432520149755 0 -1.0047432520149755 -2.1660131804909781 0 0 0 0 -20.781379852123791 54.96069260891818 0 54.96069260891818 281.55331004706386 0 0 0 0 18.577056319322537 30.531069682900124 0 30.531069682900124 204.50981155924092 0 0 0 0 5.0392147342436147 3.7082027730721165 0 3.7082027730721165 152.55271096843353 0 0 0 0 74.068777978375692 9.2568641877805931 0 9.2568641877805931 86.571308582606434 0 0 0 0 46.760766230135232 9.9490033782858518 0 9.9490033782858518 94.283730463808752 0 0 0 0 71.108303509604866 6.5483534427257837 0 6.5483534427257837 183.95811220428732 0 0 0 0 94.115466675522384 -58.559871739656955 0 -58.559871739656955 111.86638732210122 0 0 0 0 100.78078485722176 -47.929066550183052 0 -47.929066550183052 120.35383823081793 0 0 0 0 127.1953384960816 -75.79907881377585 0 -75.79907881377585 114.93017740081996 0 0 0 0 26.045234889352741 -10.361396420536039 0 -10.361396420536039 111.89683964923825 0 0 0 0 64.177748899395738 -76.400467360057519 0 -76.400467360057519 163.5038800874463 0 0 0 0 128.57830542921874 -31.458819768260582 0 -31.458819768260582 43.68091351021576 0 0 0 0 434.04501569786044 92.06228122048924 0 92.06228122048924 279.81525425499422 0 0 0 0 -27.866642632047842 -52.40718203283177 0 -52.40718203283177 819.93176560802385 0 0 0 0 16.378344155577679 -15.96049646141546 0 -15.96049646141546 92.294053922523744 0 0 0 0 -25.558808366949052 -12.658761518105166 0 -12.658761518105166 131.60464658456476 0 0 0 0 27.089898483699471 101.82080350079923 0 101.82080350079923 497.67247077342472 0 0 0 0 -0.88247390678725779 -0.4402812019113469 0 -0.4402812019113469 5.1120703245830121 0 0 0 0 242.18756231446696 271.03197396623727 0 271.03197396623727 406.08417565636773 0 0 0 0 110.77498559030391 84.734951587801334 0 84.734951587801334 227.39157646814419 0 0 0 0 68.483358143794703 58.253427248244407 0 58.253427248244407 212.43685692103463 0 0 0 0 87.938408373115891 -238.21242949273073 0 -238.21242949273073 153.88508477727009 0 0 0 0 1.2604388651899612 -1.9838159076264787 0 -1.9838159076264787 3.782219194310926 0 0 0 0 99.24193147625283 398.87581933032197 0 398.87581933032197 356.86376445021597 0 0 0 0 76.779888950279485 -155.08218872170301 0 -155.08218872170301 -60.951572376521653 0 0 0 0 66.733354917804263 -71.360386085318169 0 -71.360386085318169 31.402273532788968 0 0 0 0 3.4182869177288921 20.649454038575641 0 20.649454038575641 -102.23959710629424 0 0 0 0 0.021206481813351274 27.398154918148066 0 27.398154918148066 19.314556378434645 0 0 0 0 -22.532407486542525 51.825883091951255 0 51.825883091951255 98.482156850091997 0 0 0 0 -79.343366665650592 44.533354538049025 0 44.533354538049025 192.42397374522989 0 0 0 0 -53.215926041265448 41.735125414146751 0 41.735125414146751 111.44408593593107 0 0 0 0 -48.274990582724172 25.175889239697426 0 25.175889239697426 160.39542119580437 0 0 0 0 -87.248318680830835 55.333059864766255 0 55.333059864766255 213.58624719205909 0 0 0 0 162.55115378725122 9.1751992453209823 0 9.1751992453209823 -299.54893333125801 0 0 0 0 -114.37497395859145 116.31309246036108 0 116.31309246036108 535.22689275204903 0 0 0 0 0.18778127987752669 169.54413556131476 0 169.54413556131476 144.16804712746671 0 0 0 0 -88.249867563064555 -197.12261282540521 0 -197.12261282540521 -202.32723372874898 0 0 0 0 3.7650935763226112 -7.2675428806090281 0 -7.2675428806090281 7.0183335724392748 0 0 0 0 -16.673745140264373 41.899459399799525 0 41.899459399799525 -45.881551431608386 0 0 0 0 -110.00408353424973 29.161693500544061 0 29.161693500544061 1.2330479342781473 0 0 0 0 81.341448384000159 106.29834467995533 0 106.29834467995533 190.10584328825644 0 0 0 0 15.851086533898524 21.829882710706443 0 21.829882710706443 156.01644268458767 0 0 0 0 88.561483975241572 85.930548605931108 0 85.930548605931108 102.07505538380792 0 0 0 0 -8.2698542726450341 -4.8227808632764209 0 -4.8227808632764209 114.02870654103754 0 0 0 0 5.4446697335612129 1.1124965664504316 0 1.1124965664504316 27.862144982609834 0 0 0 0 11.924182395297521 82.873682065255707 0 82.873682065255707 67.451328778122843 0 0 0 0 9.9190563975463562 27.909932578917505 0 27.909932578917505 83.39679172881452 0 0 0 0 23.793865778890336 53.301075652365398 0 53.301075652365398 92.631999798919423 0 0 0 0 -260.84868177073076 -333.45714846115698 0 -333.45714846115698 407.2166979766771 0 0 0 0 372.8102811957333 341.06820430354855 0 341.06820430354855 -39.52468988536566 0 0 0 0 59.165207016521663 218.51525267444958 0 218.51525267444958 119.2947162976343 0 0 0 0 272.70970071658712 104.07153956622278 0 104.07153956622278 3.7430391857487848 0 0 0 0 0.35979856124785781 -0.055793680135849399 0 -0.055793680135849399 6.6360978541291047 0 0 0 0 4.7711560713190355 24.641637033837501 0 24.641637033837501 92.241931922684557 0 0 0 0 -148.8973529043792 186.7041911993656 0 186.7041911993656 144.40385658303421 0 0 0 0 -23.368667686570006 93.370110506089986 0 93.370110506089986 70.924440609276644 0 0 0 0 -63.906609283440048 32.192394693513052 0 32.192394693513052 89.769560441607609 0 0 0 0 -24.71928138641124 45.050669664444285 0 45.050669664444285 56.897209685921553 0 0 0 0 7.8624729922339611 73.962423490447691 0 73.962423490447691 79.999349519401221 0 0 0 0 20.814862255876051 9.8095669586873555 0 9.8095669586873555 19.733681208759663 0 0 0 0 10.557108804003292 61.810762157649151 0 61.810762157649151 -7.7114709702145774 0 0 0 0 -7.3010093802981828 -34.539378353139909 0 -34.539378353139909 24.65183778296705 0 0 0 0 12.761612087680078 35.739368437149096 0 35.739368437149096 19.06391175162571 0 0 0 0 12.357595176710987 38.852080353975452 0 38.852080353975452 85.031862998526776 0 0 0 0 -43.338427789470643 24.591035753532196 0 24.591035753532196 88.868634623628168 0 0 0 0 -46.519549352568902 24.507547932436864 0 24.507547932436864 100.67375073645962 0 0 0 0 -59.802990937110394 17.819688020659669 0 17.819688020659669 97.803691032924689 0 0 0 0 -8.5819901952081636 -52.927899040732882 0 -52.927899040732882 146.74102035338001 0 0 0 0 -67.309640143063234 15.098365439862391 0 15.098365439862391 175.8453032309917 0 0 0 0 -79.620247829338496 9.9587613146468357 0 9.9587613146468357 226.82835367305961 0 0 0 0 23.078008821667481 -151.84667609239659 0 -151.84667609239659 265.32802425546106 0 0 0 0 -28.089278278024494 27.573130853124894 0 27.573130853124894 172.45262918206572 0 0 0 0 -32.016083212257399 -15.169570621692401 0 -15.169570621692401 172.66381910234691 0 0 0 0 -53.639907350476733 -3.5128776261626626 0 -3.5128776261626626 162.4020792425581 0 0 0 0 -44.843430548172364 14.343551554091391 0 14.343551554091391 151.89194930774465 0 0 0 0 -67.662394468555931 -14.990606661325728 0 -14.990606661325728 122.59164459269959 0 0 0 0 -34.177209052230864 12.57156580453011 0 12.57156580453011 90.449050740222447 0 0 0 0 -12.716846746926649 34.127876227350498 0 34.127876227350498 128.99514762338367 0 0 0 0 -41.518664092119138 -0.5865633603052629 0 -0.5865633603052629 132.02240028418601 0 0 0 0 5.4541883471540586 63.076533755258424 0 63.076533755258424 144.36261342438229 0 0 0 0 -24.839699207750073 9.3907071152498247 0 9.3907071152498247 153.89736656125751 0 0 0 0 38.345072683155536 38.491404555046756 0 38.491404555046756 147.22345444199891 0 0 0 0 23.828251894543229 35.011567078177904 0 35.011567078177904 226.33201893548539 0 0 0 0 1.7392686131331345 29.303078459322023 0 29.303078459322023 145.54785917612026 0 0 0 0 -13.599653430375042 17.017048081332177 0 17.017048081332177 273.59038018150022 0 0 0 0 -9.1344585146652406 -2.5039342930795101 0 -2.5039342930795101 326.0997172856587 0 0 0 0 -22.298571072288723 -11.566223734822415 0 -11.566223734822415 216.85337147264818 0 0 0 0 -8.7684341513053141 50.641323327250575 0 50.641323327250575 224.17356354082585 0 0 0 0 -34.515957415293997 -3.2332747531108907 0 -3.2332747531108907 217.87816290605406 0 0 0 0 -28.498542548730711 -50.475636221417517 0 -50.475636221417517 239.56052544836712 0 0 0 0 -29.828278901096382 -58.497144877510436 0 -58.497144877510436 210.00150219700299 0 0 0 0 24.303790335358713 -12.469435250110109 0 -12.469435250110109 306.64825515607663 0 0 0 0 -19.447476875159509 -66.438177008851198 0 -66.438177008851198 264.36931566559906 0 0 0 0 -15.836435467758434 -45.563919731710484 0 -45.563919731710484 372.27639329354861 0 0 0 0 30.021324935660687 -146.59869733644882 0 -146.59869733644882 284.02021264654468 0 0 0 0 10.662598955638146 -96.477579868602334 0 -96.477579868602334 201.72063013545994 0 0 0 0 43.657533265136635 -123.11232481041225 0 -123.11232481041225 175.66987805320969 0 0 0 0 58.545281709202158 -84.706772364141216 0 -84.706772364141216 65.118845746823354 0 0 0 0 -2.8609108412217665 -112.09503274939925 0 -112.09503274939925 220.65732971929174 0 0 0 0 -12.643114007939403 -82.876995329344936 0 -82.876995329344936 167.23221377804293 0 0 0 0 -0.37758258071335149 -102.67422321622143 0 -102.67422321622143 178.90637891340884 0 0 0 0 -19.232188677408431 -90.621612685114087 0 -90.621612685114087 173.13868495616407 0 0 0 0 -28.563657498963948 -49.323641018912895 0 -49.323641018912895 187.56886408610808 0 0 0 0 -15.373344641918607 -36.341246039854013 0 -36.341246039854013 160.74221982507152 0 0 0 0 -5.1691041649169165 4.3959468564862618 0 4.3959468564862618 82.816929444685229 0 0 0 0 -49.277256657435828 0.94790245949479868 0 0.94790245949479868 166.19484464943525 0 0 0 0 -9.095197026358619 -29.345597538354923 0 -29.345597538354923 138.33819241683523 0 0 0 0 27.786837468470821 -94.679454540142615 0 -94.679454540142615 103.85717421621302 0 0 0 0 25.086740485262453 -81.973674970642605 0 -81.973674970642605 55.046888063312508 0 0 0 0 -29.294300126400685 -156.36313240260642 0 -156.36313240260642 237.96280482322618 0 0 0 0 -37.267057821577055 -163.07934198857401 0 -163.07934198857401 372.79555487932521 0 0 0 0 -50.059286734289344 -100.22529033037426 0 -100.22529033037426 184.95095225734258 0 0 0 0 -3.5334328975744755 -0.89142201333751814 0 -0.89142201333751814 -0.24461483234827597 0 0 0 0 -50.179160337302847 -24.915898989973357 0 -24.915898989973357 132.83801161993324 0 0 0 0 177.13286294373393 -71.533714711898938 0 -71.533714711898938 176.04057909645417 0 0 0 0 -103.71031984924343 -41.56651594297 0 -41.56651594297 331.89540274834144 0 0 0 0 -0.70936874087257351 -0.20926947976752786 0 -0.20926947976752786 0.16192320980259467 0 0 0 0 -7.9170108529806384 9.4785508775967173 0 9.4785508775967173 64.373635041265516 0 0 0 0 63.948224112050639 16.789673977331404 0 16.789673977331404 8.2053756268069264 0 0 0 0 -10.67928814051379 -9.5807128879096126 0 -9.5807128879096126 21.205841848735872 0 0 0 0 -13.068288121547766 -15.794568265835551 0 -15.794568265835551 42.815660264197504 0 0 0 0 -2.0004991095061087 23.314034325201646 0 23.314034325201646 48.011761291928451 0 0 0 0 -14.250452952244814 4.5332479310673079 0 4.5332479310673079 20.621257048260304 0 0 0 0 0.092421058680884016 14.903621431723877 0 14.903621431723877 78.275059033301659 0 0 0 0 46.530385190036526 3.9230642665627329 0 3.9230642665627329 54.621152531864936 0 0 0 0 -13.091977981692708 10.516429690163932 0 10.516429690163932 15.739571578560572 0 0 0 0 -23.774474615417603 12.703673030380742 0 12.703673030380742 21.757536276225437 0 0 0 0 -8.4725429435829938 -5.8830057367267727 0 -5.8830057367267727 27.3853826624254 0 0 0 0 -12.680342858828908 6.031237296033396 0 6.031237296033396 12.012491483270423 0 0 0 0 -8.0096447817854362 -1.5368204531325205 0 -1.5368204531325205 1.5054952835810909 0 0 0 0 39.329261169827461 -38.822045908709697 0 -38.822045908709697 36.601166875465424 0 0 0 0 -11.961919917051773 -72.233324281252862 0 -72.233324281252862 167.56824336005229 0 0 0 0 -2.7222955701872706 -79.366830649101757 0 -79.366830649101757 167.90400535321442 0 0 0 0 -0.67505544937329987 -45.748318582155889 0 -45.748318582155889 89.696220948884729 0 0 0 0 -5.5501335814275308 0.22110314698511502 0 0.22110314698511502 5.5524226726556662 0 0 0 0 76.64526482654253 -81.370139660284622 0 -81.370139660284622 60.457332079247863 0 0 0 0 -39.443878238929216 20.358783025520097 0 20.358783025520097 57.628793573036091 0 0 0 0 -3.5042881951663958 -27.134707521210657 0 -27.134707521210657 46.114202888718864 0 0 0 0 -2.6457505460089124 -1.9332185910029018 0 -1.9332185910029018 6.0920582341669274 0 0 0 0 22.264305521786895 19.694293706266762 0 19.694293706266762 9.4685783079476096 0 0 0 0 -28.272159734096931 -25.519448792183539 0 -25.519448792183539 -21.149922098673414 0 0 0 0 -1.2870385399148292 0.60745341951286846 0 0.60745341951286846 9.0156648786154392 0 0 0 0 9.1996671260023497 2.0139425743363972 0 2.0139425743363972 -20.868506590602919 0 0 0 0 -31.371916567024869 -30.505966660086415 0 -30.505966660086415 2.8242050961198402 0 0 0 0 -1.2973693827391883 0.60530473384258698 0 0.60530473384258698 5.7186268832271594 0 0 0 0 0.83301071969768259 -10.009972207175451 0 -10.009972207175451 28.591659414203605 0 0 0 0 -123.57000963181531 -45.198851642519003 0 -45.198851642519003 -4.4021501240204088 0 0 0 0 19.946785752848541 -28.026339218660723 0 -28.026339218660723 -11.291245936299674 0 0 0 0 -2.9738892594548361 3.4796484159305692 0 3.4796484159305692 7.5819856064626947 0 0 0 0 -1.8716770579632023 0.98958062302715177 0 0.98958062302715177 6.2591742495051221 0 0 0 0 -2.9925191503767223 3.8897526245564222 0 3.8897526245564222 5.3544282208749792 0 0 0 0 -0.50844382453608794 0.2898856536070582 0 0.2898856536070582 1.7564476400815678 0 0 0 0 -2.004472117644525 2.9476295832137112 0 2.9476295832137112 6.1753078550245846 0 0 0 0 -14.945747398283856 0.98427906262077158 0 0.98427906262077158 20.963427360191417 0 0 0 0 -3.8766501134361988 1.4884055542133865 0 1.4884055542133865 7.4933163948007859 0 0 0 0 -3.7094990609575977 0.94992047805595803 0 0.94992047805595803 8.7079485773754399 0 0 0 0 -5.8252455636259128 3.1003521587736032 0 3.1003521587736032 8.7474031086458126 0 0 0 0 -0.67509291325048826 2.9798859376873494 0 2.9798859376873494 9.4712891298010504 0 0 0 0 -1.0385798503853039 3.1664482627238613 0 3.1664482627238613 7.8045951096501085 0 0 0 0 -4.6614571586005695 3.8255818523321068 0 3.8255818523321068 8.4109285891754553 0 0 0 0 -3.848269977525554 0.75187553047362599 0 0.75187553047362599 6.6272043508215575 0 0 0 0 1.5154625927137886 5.4641471272989293 0 5.4641471272989293 8.567053597260383 0 0 0 0 0.23969072578024164 6.5835972179208682 0 6.5835972179208682 6.3284525038880588 0 0 0 0 -4.1539092416921664 0.70769825778552331 0 0.70769825778552331 6.8282368116779253 0 0 0 0 -2.8386159567432969 4.6939866693282966 0 4.6939866693282966 10.234726023227267 0 0 0 0 -1.135950791599792 2.1794302921154767 0 2.1794302921154767 6.9073503956515765 0 0 0 0 0.87664418050965631 4.2455063499735424 0 4.2455063499735424 8.8384743928922944 0 0 0 0 -5.0425832119167353 3.5015136016954784 0 3.5015136016954784 10.43522059670795 0 0 0 0 0.0014405844144390648 -0.0039539433673780877 0 -0.0039539433673780877 -1.4583089048937836 0 0 0 0 0.039066123981716973 -0.065080864901432278 0 -0.065080864901432278 -0.047057364958902781 0 0 0 0 1.4507838712143539 2.0224615923070814 0 2.0224615923070814 -0.81475988451711601 0 0 0 0 -2.4620176624701156 1.9502472720487276 0 1.9502472720487276 2.4133003073075088 0 0 0 0 -0.38850791006925817 0.58880981201286886 0 0.58880981201286886 0.050529466083858665 0 0 0 0 -3.8992720378551851 0.31983623179985443 0 0.31983623179985443 10.034740325776511 0 0 0 0 -0.90468712075040436 -0.43231792039296124 0 -0.43231792039296124 4.9194911116646836 0 0 0 0 0.019496745720779248 -3.0063007990793267 0 -3.0063007990793267 8.8147217549485504 0 0 0 0 -0.9014444460220572 -0.48187265928572742 0 -0.48187265928572742 5.294161483678181 0 0 0 0 -4.915563236884025 -0.72460661829973105 0 -0.72460661829973105 17.788814665487735 0 0 0 0 -6.3768095061876569 3.104757328175765 0 3.104757328175765 7.7684237457724521 0 0 0 0 -17.521104394738835 24.674108744580735 0 24.674108744580735 108.38119295639626 0 0 0 0 34.172610006803794 -11.341401642101118 0 -11.341401642101118 -13.801628929126309 0 0 0 0 27.257859498846365 37.075249891677231 0 37.075249891677231 9.3499429959738336 0 0 0 0 0.041192196512887996 8.291929736325983 0 8.291929736325983 108.40367786941351 0 0 0 0 -12.376367438398354 78.63701579485496 0 78.63701579485496 224.74659398591029 0 0 0 0 -0.093101505103319424 1.6187638689189043 0 1.6187638689189043 269.48004103005223 0 0 0 0 -28.676658371538746 10.24127648657668 0 10.24127648657668 313.80449095041695 0 0 0 0 12.316559236543313 53.815655951882945 0 53.815655951882945 211.25210391139262 0 0 0 0 29.835250706763606 50.13310725489282 0 50.13310725489282 103.09679760707877 0 0 0 0 -0.12123679625115691 0.055960104063142779 0 0.055960104063142779 4.2834683148467434 0 0 0 0 124.2388498755661 132.71704179963126 0 132.71704179963126 121.29692976212391 0 0 0 0 107.29908212266892 70.181065261524054 0 70.181065261524054 24.120220051833712 0 0 0 0 49.555764002062347 -11.786356619748403 0 -11.786356619748403 -29.861420790926786 0 0 0 0 271.57110169886175 -240.15129866445204 0 -240.15129866445204 229.54309277117136 0 0 0 0 109.55829956895576 -187.62398192769615 0 -187.62398192769615 211.03217959325411 0 0 0 0 175.6736798424084 -84.000294022451271 0 -84.000294022451271 -14.745628256496275 0 0 0 0 46.91103538660127 -120.2197034030396 0 -120.2197034030396 269.59896714644856 0 0 0 0 78.845734935456107 -219.92303306659596 0 -219.92303306659596 526.25019250620971 0 0 0 0 26.67330723237535 15.554444576875539 0 15.554444576875539 564.67061716076569 0 0 0 0 16.811542034477611 181.05144706750434 0 181.05144706750434 361.39733210959093 0 0 0 0 18.665914481246041 -88.412798865872901 0 -88.412798865872901 515.72090006140934 0 0 0 0 264.81323399048426 -89.998568809105564 0 -89.998568809105564 277.7033519554825 0 0 0 0 110.40957588650963 46.199156556889648 0 46.199156556889648 227.10766647443961 0 0 0 0 143.97230566706989 117.36809294081831 0 117.36809294081831 356.91018375146086 0 0 0 0 100.4975944252208 60.075191414020082 0 60.075191414020082 124.31169600985595 0 0 0 0 78.707282490070028 -39.068755709623474 0 -39.068755709623474 158.69302262784913 0 0 0 0 68.252860504001148 18.988659107162675 0 18.988659107162675 217.7457248852661 0 0 0 0 0.020727182203071841 1.5779735616561084 0 1.5779735616561084 192.47522224412751 0 0 0 0 33.476347420165645 -86.106190392296412 0 -86.106190392296412 296.07845089279726 0 0 0 0 762.72838947226398 217.21194673404852 0 217.21194673404852 872.88005235997844 0 0 0 0 837.59699635675202 -535.99766615738508 0 -535.99766615738508 792.38026996284316 0 0 0 0 -0.16524866324274001 -689.41000218155386 0 -689.41000218155386 1739.7480608708302 0 0 0 0 471.51999617400145 -976.49712248590367 0 -976.49712248590367 1523.7990474893159 0 0 0 0 612.73711207064127 -1060.8787772570649 0 -1060.8787772570649 1526.2567099633234 0 0 0 0 421.24924164358004 -571.60612409709211 0 -571.60612409709211 -869.2811862105591 0 0 0 0 -210.40559323666389 -5.8017593195945665 0 -5.8017593195945665 633.2698281483863 0 0 0 0 173.48142402566123 197.14597447662891 0 197.14597447662891 342.50122936023399 0 0 0 0 155.25492794908158 20.246130421706766 0 20.246130421706766 833.92518593019486 0 0 0 0 238.78117877578165 75.858545038456214 0 75.858545038456214 536.26687967458565 0 0 0 0 -35.768001453502393 142.16213111595425 0 142.16213111595425 601.77344800825813 0 0 0 0 107.32204979395078 337.73841396429634 0 337.73841396429634 566.31305748442537 0 0 0 0 -19.975603063883256 300.48385436105173 0 300.48385436105173 717.03659745249024 0 0 0 0 -264.33084234625403 -15.549727545356291 0 -15.549727545356291 629.85543294915988 0 0 0 0 81.095521501183043 167.66360043609893 0 167.66360043609893 505.52201467584382 0 0 0 0 106.43136587817983 49.64985515189619 0 49.64985515189619 507.46173174341675 0 0 0 0 136.51614749092906 -12.578692645827687 0 -12.578692645827687 261.28593186786748 0 0 0 0 534.38359584403145 78.97672505662922 0 78.97672505662922 502.88059947664442 0 0 0 0 252.48553279321362 -367.22676539195709 0 -367.22676539195709 873.88130967351026 0 0 0 0 0.37420352176007809 -107.70826566879259 0 -107.70826566879259 615.30357626898331 0 0 0 0 240.11454251504554 -152.68903428996055 0 -152.68903428996055 294.46164340848918 0 0 0 0 0.12886479186599348 6.6840102124224359 0 6.6840102124224359 -52.00052207504632 0 0 0 0 -37.138800998241571 -84.147460078893346 0 -84.147460078893346 279.44542477336654 0 0 0 0 27.158409265884188 156.16067052363996 0 156.16067052363996 178.43814818341343 0 0 0 0 17.25758386552846 -17.984982881876931 0 -17.984982881876931 -57.889779336532229 0 0 0 0 -1.5952113326578754 19.199720241427713 0 19.199720241427713 -47.903595311905519 0 0 0 0 -12.237608497739343 4.9158791143345297 0 4.9158791143345297 0.18500648569897749 0 0 0 0 -0.038683665332603479 6.0362176154449116 0 6.0362176154449116 -20.320922449100181 0 0 0 0 0.041147649680244688 0.077452791545184141 0 0.077452791545184141 -1.8794792798821618 0 0 0 0 -10.220931792659155 16.253822597351245 0 16.253822597351245 -15.142147923499579 0 0 0 0 0.040823875642507945 1.9516217689176401 0 1.9516217689176401 -4.314303302035853 0 0 0 0 3.4561200021075766 2.2441927734653291 0 2.2441927734653291 -2.4929033875232562 0 0 0 0 0.33328573801193473 -0.025284495193773182 0 -0.025284495193773182 -2.0518754444055958 0 0 0 0 2.5526521176032775 0.68425480161567975 0 0.68425480161567975 -2.9623608520341804 0 0 0 0 6.9839916564551459 16.647346040663251 0 16.647346040663251 3.9515682569472119 0 0 0 0 9.3552866286490826 15.155033842131161 0 15.155033842131161 -8.6437518755847123 0 0 0 0 27.207049435717067 11.661491982376901 0 11.661491982376901 -8.0132261167727847 0 0 0 0 -30.143515247888217 32.740913946519868 0 32.740913946519868 2.9087263345718384 0 0 0 0 18.530426746563535 41.166007925792655 0 41.166007925792655 -5.3049645895225694 0 0 0 0 0.21965604583374754 4.915510328158728 0 4.915510328158728 18.10297942403372 0 0 0 0 -97.925706840486328 63.255486921996635 0 63.255486921996635 -6.2724929146825161 0 0 0 0 89.747854196737421 7.9715597867034376 0 7.9715597867034376 -80.0398350082869 0 0 0 0 23.774522406106939 -44.783444523003709 0 -44.783444523003709 87.63326008675358 0 0 0 0 66.632054384783487 124.46550400963588 0 124.46550400963588 3.0642593945085537 0 0 0 0 37.696881167040374 72.536708173687657 0 72.536708173687657 106.54152848744707 0 0 0 0 163.1369270138448 167.99463209837268 0 167.99463209837268 136.93155476989341 0 0 0 0 52.824758570393044 82.9497631669783 0 82.9497631669783 75.140514711820288 0 0 0 0 0.65582401385759748 3.1870644515867852 0 3.1870644515867852 13.567373617997418 0 0 0 0 9.7538818964353595 -2.0110886771217338 0 -2.0110886771217338 30.442372478679317 0 0 0 0 24.117719897077393 46.934035149724878 0 46.934035149724878 113.03996696088871 0 0 0 0 -0.079231320857562793 -0.29986997906738111 0 -0.29986997906738111 -0.48434763886682219 0 0 0 0 -11.424619232220721 5.0986115320638419 0 5.0986115320638419 35.025291208221461 0 0 0 0 -18.012633920089229 21.207070681139157 0 21.207070681139157 0.5830288955476135 0 0 0 0 -1.7598880209917276 0.22800548661723496 0 0.22800548661723496 3.5812073045906345 0 0 0 0 42.799906491784725 30.260632884238021 0 30.260632884238021 60.371473309991416 0 0 0 0 4.8190429700653112 45.809605507376546 0 45.809605507376546 86.013885483072954 0 0 0 0 -0.62719056993500999 71.429079381290649 0 71.429079381290649 -31.445562143198913 0 0 0 0 10.415537920759334 57.097672300173144 0 57.097672300173144 105.89079942298849 0 0 0 0 21.289059226362497 107.14380753174191 0 107.14380753174191 120.21663984697079 0 0 0 0 45.460056037697541 59.17890138013172 0 59.17890138013172 70.183610452731955 0 0 0 0 15.576851731737989 72.452240674028872 0 72.452240674028872 179.11386601823324 0 0 0 0 75.454548898571375 123.11430702271173 0 123.11430702271173 137.13674551844451 0 0 0 0 -12.829232336148607 139.54906373310223 0 139.54906373310223 297.96332471066853 0 0 0 0 -12.852158695782236 52.375945828327531 0 52.375945828327531 257.95538836809283 0 0 0 0 -33.050412023775152 90.851404524793907 0 90.851404524793907 188.89462749140876 0 0 0 0 -77.51273612391617 55.081285569121974 0 55.081285569121974 272.39115687928279 0 0 0 0 -82.575224007283055 45.415251957445435 0 45.415251957445435 257.6462294353114 0 0 0 0 -138.07681478948916 -107.23342992502148 0 -107.23342992502148 235.33944735003752 0 0 0 0 -113.87519537443688 16.123649294300776 0 16.123649294300776 309.68848808117036 0 0 0 0 -109.39333383795042 84.273200589792395 0 84.273200589792395 283.34338657078297 0 0 0 0 -67.844576300082622 202.59795498148196 0 202.59795498148196 568.33215649382328 0 0 0 0 405.14402359785754 468.0542804957222 0 468.0542804957222 499.31498601596104 0 0 0 0 -70.364789383397238 -5.1012143662810558 0 -5.1012143662810558 763.14361936297792 0 0 0 0 0.24603979237073759 1.2359929700813588 0 1.2359929700813588 5.5183960162682411 0 0 0 0 229.82465346743675 -68.588836891234678 0 -68.588836891234678 367.63547098154959 0 0 0 0 -65.428341068021837 47.935810663577286 0 47.935810663577286 370.09960978475283 0 0 0 0 -182.41735925341982 -97.907270268173306 0 -97.907270268173306 437.41279146942543 0 0 0 0 -179.13412648606544 -311.85049848407198 0 -311.85049848407198 81.530609709385317 0 0 0 0 -215.46493488795386 -95.996646801439056 0 -95.996646801439056 287.90629507401445 0 0 0 0 77.481995506072053 55.208328136341152 0 55.208328136341152 267.86356691842957 0 0 0 0 -158.29225940585252 -409.51123800755158 0 -409.51123800755158 -360.49895785181434 0 0 0 0 6.7424417522700546 -8.1802658877595604 0 -8.1802658877595604 3.8901830488967732 0 0 0 0 116.25937708154834 25.841245292365784 0 25.841245292365784 -8.6405471944635792 0 0 0 0 -1.7168380820849052 5.9781004188698716 0 5.9781004188698716 -11.966143112829741 0 0 0 0 -60.105345770432905 -163.03408737340942 0 -163.03408737340942 -291.95524361473508 0 0 0 0 1.3022409319351897 -6.9243104509629347 0 -6.9243104509629347 15.364089925409999 0 0 0 0 -111.83737566809396 -257.75582955281425 0 -257.75582955281425 -200.73765228163393 0 0 0 0 -71.629457493806967 22.637191290552437 0 22.637191290552437 46.032857230980881 0 0 0 0 1.2510397085781479 -5.0670252192056751 0 -5.0670252192056751 21.279409154915584 0 0 0 0 -1.77590342751561 0.88412709187142013 0 0.88412709187142013 8.3511071481408692 0 0 0 0 1.1742733477152765 24.328113360953637 0 24.328113360953637 36.715126254413391 0 0 0 0 20.615755726718135 -7.8747665630653501 0 -7.8747665630653501 -41.477357410520199 0 0 0 0 19.40567558521434 -15.298184644561843 0 -15.298184644561843 174.72780464790412 0 0 0 0 -22.522433833023001 -30.768211328642792 0 -30.768211328642792 -8.159441065901774 0 0 0 0 18.334365550942266 -86.472712356578086 0 -86.472712356578086 78.206231108983047 0 0 0 0 1.7475094422296138 -15.701201675082224 0 -15.701201675082224 -3.8419388454239538 0 0 0 0 1.0275669735726805 -43.877984942083728 0 -43.877984942083728 46.329794121482806 0 0 0 0 -50.737008745626099 -56.292057970218593 0 -56.292057970218593 85.084341147565283 0 0 0 0 -140.1157198241367 -138.88800664176961 0 -138.88800664176961 136.96172404913523 0 0 0 0 -170.34697573264793 -27.793415217085567 0 -27.793415217085567 250.89292420911079 0 0 0 0 -232.05271322224121 -136.50733486486206 0 -136.50733486486206 142.39157903331215 0 0 0 0 -247.39855278962114 -92.255446765222587 0 -92.255446765222587 17.721103336378292 0 0 0 0 -1.3914179035554479 -44.506287550789423 0 -44.506287550789423 35.585785471041262 0 0 0 0 -168.75863802668027 107.29890691465698 0 107.29890691465698 159.6327202159955 0 0 0 0 -92.169440200375902 -29.247661544643051 0 -29.247661544643051 134.91516461326319 0 0 0 0 18.86262971982751 -8.1118191251443932 0 -8.1118191251443932 134.64373754297412 0 0 0 0 -17.403685218901046 -22.017989591891819 0 -22.017989591891819 163.50234231345894 0 0 0 0 -0.34984638498577958 28.17930706036779 0 28.17930706036779 19.413367543613759 0 0 0 0 27.126016317167341 36.679547228313822 0 36.679547228313822 86.492669214268972 0 0 0 0 3.195799567699396 41.357090975161555 0 41.357090975161555 116.26313568073056 0 0 0 0 29.160223933339694 9.8671686029738339 0 9.8671686029738339 -2.9098558749246877 0 0 0 0 -31.765045607594402 -18.605899210015195 0 -18.605899210015195 58.429652862192597 0 0 0 0 280.43860136957665 -431.8244885832064 0 -431.8244885832064 390.47772121924208 0 0 0 0 123.87270281958672 85.429990436346998 0 85.429990436346998 23.626399756723913 0 0 0 0 0.74789661705950472 3.7035841778390122 0 3.7035841778390122 8.1882670689869883 0 0 0 0 -45.116527341921028 85.339113980189722 0 85.339113980189722 128.45411421934841 0 0 0 0 53.028886138801681 168.32974637120788 0 168.32974637120788 88.828558251072536 0 0 0 0 -40.709680782357282 178.58868106834416 0 178.58868106834416 125.32880730459874 0 0 0 0 -0.69282548009500111 1.1071105575472302 0 1.1071105575472302 22.412207698213507 0 0 0 0 -5.1964171212209198 -42.322623266875709 0 -42.322623266875709 33.510023066191224 0 0 0 0 498.91591854984335 -615.39805086137858 0 -615.39805086137858 172.56130714720348 0 0 0 0 0.79603091592935016 -0.35502203242504038 0 -0.35502203242504038 161.35245484664847 0 0 0 0 -113.74846493735367 377.50831681316777 0 377.50831681316777 -181.68382113720145 0 0 0 0 -461.10710368330729 -122.30402275786037 0 -122.30402275786037 863.56293225493209 0 0 0 0 -577.16579899901262 352.61631416660384 0 352.61631416660384 784.70756814950983 0 0 0 0 -0.99328729226920132 -23.942776166881231 0 -23.942776166881231 191.00826209509978 0 0 0 0 -8.5208974340432633 -14.677605989163567 0 -14.677605989163567 195.19073277396092 0 0 0 0 7.4158071260785619 -5.9709233388712164 0 -5.9709233388712164 177.23443269947893 0 0 0 0 -3.7239362977979908 -15.078035732149146 0 -15.078035732149146 218.95102237685933 0 0 0 0 5.8985395967745262 -5.1412476928453543 0 -5.1412476928453543 194.24306237777637 0 0 0 0 3.1641634911991332 -5.1362103327701334 0 -5.1362103327701334 248.72279733064897 0 0 0 0 2.4445306481120497 -22.38046386262431 0 -22.38046386262431 129.3818797002823 0 0 0 0 6.9218110188545552 -10.707490023893115 0 -10.707490023893115 144.97464649318135 0 0 0 0 -0.32501622991268952 -0.26760999041903233 0 -0.26760999041903233 -0.68513922399850458 0 0 0 0 -102.08342630824461 10.921562763880502 0 10.921562763880502 145.67273418667901 0 0 0 0 -3.3743225698592596 -10.486950490703748 0 -10.486950490703748 128.2901565943248 0 0 0 0 -0.28249116850398437 0.11456408336451318 0 0.11456408336451318 0.40276232296353243 0 0 0 0 9.209213690687875 5.8637543727654702 0 5.8637543727654702 213.36736060211842 0 0 0 0 -25.948102229522647 -13.892507326920168 0 -13.892507326920168 318.66563997845515 0 0 0 0 0.50509217822627761 50.306574984781037 0 50.306574984781037 180.14504261098045 0 0 0 0 29.563453613573188 21.317447844959588 0 21.317447844959588 175.74970619106898 0 0 0 0 10.670877328892857 32.627475526562193 0 32.627475526562193 210.44357573182515 0 0 0 0 28.690238826829955 43.606033113399462 0 43.606033113399462 147.8524714011146 0 0 0 0 48.608657850524196 35.58630851370981 0 35.58630851370981 137.2504543208488 0 0 0 0 15.90290707872208 75.036089924563839 0 75.036089924563839 142.27437678471324 0 0 0 0 29.161457204579165 47.37468619010906 0 47.37468619010906 177.99293642411067 0 0 0 0 42.632083433956382 66.951062163104325 0 66.951062163104325 114.57496452322812 0 0 0 0 54.694969676210803 56.173207845233264 0 56.173207845233264 122.90641514631716 0 0 0 0 56.513184990834361 36.223931777971302 0 36.223931777971302 113.99321938118374 0 0 0 0 59.912864496195766 42.490548778423545 0 42.490548778423545 124.83417004428338 0 0 0 0 46.838858166607906 31.065967110094789 0 31.065967110094789 125.75845917461265 0 0 0 0 84.853349373942677 27.824025680080922 0 27.824025680080922 113.02180701398174 0 0 0 0 126.52894662925064 50.022875923175889 0 50.022875923175889 120.05417997932818 0 0 0 0 41.305417614500698 38.405996753149338 0 38.405996753149338 121.53634074317233 0 0 0 0 79.856266734047495 55.012466370382754 0 55.012466370382754 97.587886979810719 0 0 0 0 -6.5220599614260664 7.3979460837654187 0 7.3979460837654187 110.97908447886584 0 0 0 0 -0.061253615722065113 -1.0842417283712962 0 -1.0842417283712962 1.0095555308333672 0 0 0 0 17.196547614274095 15.889774940551433 0 15.889774940551433 74.7633286446071 0 0 0 0 88.400076773110868 -38.752845114817319 0 -38.752845114817319 164.82338366215845 0 0 0 0 16.297953684924437 23.820272940287396 0 23.820272940287396 120.41805270280747 0 0 0 0 38.247797763932795 -1.0721152670012088 0 -1.0721152670012088 121.93793683303375 0 0 0 0 13.800498165812314 -1.891494746429089 0 -1.891494746429089 130.06043057146962 0 0 0 0 2.3497363237920581 2.7431994604703505 0 2.7431994604703505 130.31381557328859 0 0 0 0 11.431367328507349 14.9146972875551 0 14.9146972875551 114.05811501850258 0 0 0 0 13.903219375333038 14.878858847187075 0 14.878858847187075 138.76165243543801 0 0 0 0 15.684556708331456 -2.3335961483098799 0 -2.3335961483098799 138.32828047967905 0 0 0 0 51.33094364248393 21.950356686033047 0 21.950356686033047 142.69343048217706 0 0 0 0 29.038069584528969 15.040330345554139 0 15.040330345554139 141.09829302485741 0 0 0 0 16.88882797531528 5.0353594480548054 0 5.0353594480548054 182.41113623089041 0 0 0 0 8.309470665979461 -10.151898628653726 0 -10.151898628653726 185.91195252751641 0 0 0 0 2.8299197086969272 -10.954107037073754 0 -10.954107037073754 173.16492031808593 0 0 0 0 -2.270062690760644 -8.6408261744431645 0 -8.6408261744431645 129.75062049701162 0 0 0 0 2.6023871742599844 -3.4774303945875999 0 -3.4774303945875999 127.23438596991764 0 0 0 0 18.062494274812707 -5.638775951199932 0 -5.638775951199932 116.78877638607401 0 0 0 0 7.7348774066922488 1.3479016737983329 0 1.3479016737983329 116.24015555619553 0 0 0 0 2.1597233243528535 6.1721612487672246 0 6.1721612487672246 112.11592672239931 0 0 0 0 -25.988930635261568 0.85166002062032931 0 0.85166002062032931 141.1906978723855 0 0 0 0 -0.35047448459080555 6.0403836058984943 0 6.0403836058984943 122.34033089325504 0 0 0 0 -0.41995509378591578 11.126091138952688 0 11.126091138952688 113.23268484443543 0 0 0 0 -13.305717409447197 12.74161191512394 0 12.74161191512394 120.78306723486457 0 0 0 0 -1.9668988789081627 2.3196243869444384 0 2.3196243869444384 113.11284196676218 0 0 0 0 -10.254352554418801 17.242402511110413 0 17.242402511110413 179.61623018307728 0 0 0 0 -4.0064930509197438 8.439909278502455 0 8.439909278502455 166.81192252822802 0 0 0 0 11.797023477090079 6.3309151977227884 0 6.3309151977227884 106.07422483968548 0 0 0 0 -7.2956462086658576 1.366494044297724 0 1.366494044297724 169.54223083218676 0 0 0 0 13.683399190179443 -9.0955525574318017 0 -9.0955525574318017 113.88891436396079 0 0 0 0 10.023000749330095 57.675428526345058 0 57.675428526345058 197.28019041526568 0 0 0 0 2.5150850977532548 -6.391518840147846 0 -6.391518840147846 -1.2991514998732328 0 0 0 0 14.909386552604246 -18.277203484871279 0 -18.277203484871279 -5.3535169143287931 0 0 0 0 -4.2421952535369805 11.747878923994236 0 11.747878923994236 72.012643407910758 0 0 0 0 7.9360058885031322 23.886697165035002 0 23.886697165035002 120.02127201785333 0 0 0 0 -4.9104081963260171 -7.0292192744103374 0 -7.0292192744103374 97.67264933067591 0 0 0 0 8.1436386254363242 10.897660104637907 0 10.897660104637907 117.84285480141989 0 0 0 0 -1.6466771114441441 -0.25269092065136078 0 -0.25269092065136078 31.22825141167187 0 0 0 0 -5.5698168405810407 12.97326351110587 0 12.97326351110587 113.10590021628013 0 0 0 0 20.805231766527413 4.3526002005064583 0 4.3526002005064583 97.488647538782971 0 0 0 0 1.2932222517277694 -0.64968851063139965 0 -0.64968851063139965 20.513638575651036 0 0 0 0 -3.622749798921177 12.738771193508001 0 12.738771193508001 123.04822223049996 0 0 0 0 -48.040756426634744 -16.322074520841852 0 -16.322074520841852 128.90547223809972 0 0 0 0 -4.9925238648878718 17.092359494498375 0 17.092359494498375 109.09107593778913 0 0 0 0 15.620163075636356 -52.187680222682957 0 -52.187680222682957 101.98373860691208 0 0 0 0 -157.39235494587865 86.942647245634362 0 86.942647245634362 190.11517290767551 0 0 0 0 14.922808901445023 3.2512724839471048 0 3.2512724839471048 106.89175711639109 0 0 0 0 -8.3401682283143685 13.856650492781966 0 13.856650492781966 104.9647925005347 0 0 0 0 12.156913201815996 5.4094892478215115 0 5.4094892478215115 105.75897141602763 0 0 0 0 9.858597393197396 -47.836934144046467 0 -47.836934144046467 33.128344282253209 0 0 0 0 13.651704228818289 3.9768088333548803 0 3.9768088333548803 110.60724629924516 0 0 0 0 15.192985859719556 2.4311435128511221 0 2.4311435128511221 108.64981142865872 0 0 0 0 -31.544297040404672 -104.23839603444185 0 -104.23839603444185 424.67901097560389 0 0 0 0 -89.087285033268927 -51.768938611923659 0 -51.768938611923659 582.52844678357724 0 0 0 0 665.43527236998489 -227.90755079768132 0 -227.90755079768132 193.83978004733217 0 0 0 0 -74.90801334324442 369.27961123763998 0 369.27961123763998 131.72572865354596 0 0 0 0 5.4588609272104804 568.25711725641304 0 568.25711725641304 11.152137826320541 0 0 0 0 -193.18973726138938 485.17480576978414 0 485.17480576978414 135.00590623819153 0 0 0 0 1.634133187188981 2.307947308175482 0 2.307947308175482 2.8419191241691095 0 0 0 0 -145.25508553038253 269.40509089059742 0 269.40509089059742 8.2221245946275303 0 0 0 0 -276.4179033599512 399.33701982690945 0 399.33701982690945 216.46038672832947 0 0 0 0 -168.25865103222895 366.05500652107003 0 366.05500652107003 223.62265837982159 0 0 0 0 -199.29462331071409 146.81777117618549 0 146.81777117618549 186.26692520187316 0 0 0 0 -131.30944746264868 360.49892234269646 0 360.49892234269646 200.23372068360914 0 0 0 0 -162.60852493327184 140.0573060712486 0 140.0573060712486 122.38282971333683 0 0 0 0 -276.32487153972215 16.850825121466187 0 16.850825121466187 134.09724471396203 0 0 0 0 -204.60435603944825 -28.027246683588601 0 -28.027246683588601 100.71130767984141 0 0 0 0 -196.49040304164646 95.426077132269711 0 95.426077132269711 95.735959172612638 0 0 0 0 -94.126270667357858 85.864124809620989 0 85.864124809620989 -223.76651014323943 0 0 0 0 -397.84916714866267 124.82709783497194 0 124.82709783497194 100.46829284712294 0 0 0 0 -410.67836017392773 -69.259386202552605 0 -69.259386202552605 93.080134833609918 0 0 0 0 73.059700334877562 -1.9556821526784915 0 -1.9556821526784915 111.88064079110404 0 0 0 0 -64.086111306824023 -14.364352972610504 0 -14.364352972610504 51.318990129453596 0 0 0 0 -171.98128013407495 41.54767693114627 0 41.54767693114627 214.1078487453924 0 0 0 0 -17.340164261888276 131.77807661430779 0 131.77807661430779 69.372603753318344 0 0 0 0 13.641891526258405 59.965589230901969 0 59.965589230901969 230.81459178698424 0 0 0 0 116.26708924050763 107.61666847533525 0 107.61666847533525 115.00351332811988 0 0 0 0 -242.23992814496478 297.04560182661817 0 297.04560182661817 504.81849783128564 0 0 0 0 -72.542418436798471 38.99345712869399 0 38.99345712869399 463.48044650769589 0 0 0 0 161.76294343536938 66.615060625212209 0 66.615060625212209 216.6472846284596 0 0 0 0 -174.18796398686754 191.25473748629156 0 191.25473748629156 240.97029713941447 0 0 0 0 126.90734461211559 150.76933346495207 0 150.76933346495207 366.55388874018536 0 0 0 0 -0.41051808664947487 -37.965356898863178 0 -37.965356898863178 73.507365591342023 0 0 0 0 1.3697373875638732 -10.14397296808238 0 -10.14397296808238 120.56161028390488 0 0 0 0 165.68494491244832 162.63619037723038 0 162.63619037723038 254.36311596108135 0 0 0 0 -8.4765427984761459 -37.668564823443035 0 -37.668564823443035 62.850283620371073 0 0 0 0 -10.280487165858858 -30.530493640646455 0 -30.530493640646455 179.71993912081962 0 0 0 0 -6.0032343869597753 -4.9940337680600351 0 -4.9940337680600351 132.52973877552722 0 0 0 0 -7.5581607018666546 -52.340091853395279 0 -52.340091853395279 78.095610259639216 0 0 0 0 -8.8134856733539166 2.3472777574742736 0 2.3472777574742736 51.23162509077757 0 0 0 0 139.86704677276975 -45.475989840846069 0 -45.475989840846069 206.05034816535772 0 0 0 0 -6.4096077704538157 -17.325266176683627 0 -17.325266176683627 132.8340589869774 0 0 0 0 -0.47777523582153947 1.4601577431243769 0 1.4601577431243769 20.762832363986085 0 0 0 0 127.74189150209713 61.567088618758135 0 61.567088618758135 234.80824881890931 0 0 0 0 167.20010030277808 101.88054983017355 0 101.88054983017355 210.39337954217626 0 0 0 0 178.13952129048994 60.072767591402226 0 60.072767591402226 278.52039193679957 0 0 0 0 264.45722383804423 67.838789883608115 0 67.838789883608115 223.334754579334 0 0 0 0 187.77420144869393 -7.1476916058127244 0 -7.1476916058127244 184.49008341293302 0 0 0 0 150.0337754922266 56.048382410728664 0 56.048382410728664 79.079239136990509 0 0 0 0 142.03113487180053 -34.437633057592393 0 -34.437633057592393 58.056537870485045 0 0 0 0 226.40142148637051 46.647190511681401 0 46.647190511681401 76.010110396440723 0 0 0 0 135.56255309868493 55.414093505151868 0 55.414093505151868 38.336711130978074 0 0 0 0 -198.44795377619994 -35.58087277911909 0 -35.58087277911909 283.56262409435294 0 0 0 0 -1.5457535335232417 -12.664192469150203 0 -12.664192469150203 129.97467924520257 0 0 0 0 273.7622089185852 10.28256998148936 0 10.28256998148936 75.274963565920189 0 0 0 0 3.8139174674356102 1.7669815459510687 0 1.7669815459510687 34.716831556673895 0 0 0 0 -16.794233192091269 -116.51258970900744 0 -116.51258970900744 126.65078076317877 0 0 0 0 3.363520758253657 -3.138949021607532 0 -3.138949021607532 108.58385077514316 0 0 0 0 123.69017833334419 -90.421415338496445 0 -90.421415338496445 81.438064537202081 0 0 0 0 110.21621230116307 -21.039782903117157 0 -21.039782903117157 135.1093708312128 0 0 0 0 70.843840089377409 -39.681573745165224 0 -39.681573745165224 79.993625374667317 0 0 0 0 1.9267521737892821 -33.006426243857277 0 -33.006426243857277 52.817059991615679 0 0 0 0 70.154226052027298 -94.39893022355318 0 -94.39893022355318 38.627233598890598 0 0 0 0 -56.748649653469329 -65.133961756611825 0 -65.133961756611825 87.057018959341804 0 0 0 0 -172.49702392394147 38.938914208363258 0 38.938914208363258 31.64946115687053 0 0 0 0 -186.81791009571953 2.2860191887411929 0 2.2860191887411929 97.423378213476099 0 0 0 0 -57.245147908128018 -49.128224831795535 0 -49.128224831795535 43.731080774559814 0 0 0 0 -314.42061961266563 197.23325462343405 0 197.23325462343405 -70.562177084895666 0 0 0 0 -120.46505618412993 9.2882823317522707 0 9.2882823317522707 29.478723320792596 0 0 0 0 -349.63638540489319 -118.63200068748938 0 -118.63200068748938 7.9094677117900574 0 0 0 0 -1.9609098729506833 -1.0803955815139403 0 -1.0803955815139403 -0.31594642739192835 0 0 0 0 38.372956383122983 60.271869250038435 0 60.271869250038435 16.185305855295155 0 0 0 0 19.809340459862142 -87.851095183861617 0 -87.851095183861617 -54.590192225809005 0 0 0 0 88.599085112811736 7.0073788779682218 0 7.0073788779682218 54.75723348952306 0 0 0 0 -123.9448532540585 -81.059969963490289 0 -81.059969963490289 74.358943805724266 0 0 0 0 33.557463283530979 -160.5315113040424 0 -160.5315113040424 125.48466149491287 0 0 0 0 19.194317848914579 -153.92110806405617 0 -153.92110806405617 251.55008338316111 0 0 0 0 -160.51093849747917 120.17877901599104 0 120.17877901599104 -52.689163349663431 0 0 0 0 17.490337841596556 -216.98961553827849 0 -216.98961553827849 521.68156668502343 0 0 0 0 91.977328640101405 -79.022334917573517 0 -79.022334917573517 -170.88558230129274 0 0 0 0 147.57483477377355 -235.7794992944946 0 -235.7794992944946 -13.121848270238843 0 0 0 0 7.6557257351410044 -27.752192187404489 0 -27.752192187404489 24.248634714604123 0 0 0 0 -106.49935750834629 -42.047245802474208 0 -42.047245802474208 121.74816744960663 0 0 0 0 33.55437314234814 -110.59971631958797 0 -110.59971631958797 121.96486052080581 0 0 0 0 -8.5042299433434891 -83.263783657396743 0 -83.263783657396743 150.59591708419612 0 0 0 0 65.612387704108187 -70.122032959763601 0 -70.122032959763601 180.67007890987588 0 0 0 0 78.947616107450813 -72.745367397226801 0 -72.745367397226801 163.85451368454233 0 0 0 0 65.976199437976902 -77.338435900888726 0 -77.338435900888726 156.08637618541252 0 0 0 0 190.05503753053517 -33.489246898407146 0 -33.489246898407146 109.6471437248947 0 0 0 0 -6.9960954456065707 -12.797234214234209 0 -12.797234214234209 99.512267837031686 0 0 0 0 -45.886733017262486 14.761872977018356 0 14.761872977018356 97.113012429748778 0 0 0 0 83.953006126981563 -57.623486066320766 0 -57.623486066320766 170.68036968608976 0 0 0 0 7.6118569801547125 27.41819285793116 0 27.41819285793116 51.272976155275558 0 0 0 0 -132.5102552266635 86.99206198174943 0 86.99206198174943 91.423868373909499 0 0 0 0 -6.4471857810243236 6.549365138960777 0 6.549365138960777 95.220682303358331 0 0 0 0 -9.4247132976252033 21.094928578062536 0 21.094928578062536 76.369711721472413 0 0 0 0 -123.65754217424001 82.971730402940011 0 82.971730402940011 82.314187033072812 0 0 0 0 -33.518183115270176 29.419246550105981 0 29.419246550105981 52.180517197557492 0 0 0 0 -1.6617312998030975 12.103884291811021 0 12.103884291811021 85.550340137418701 0 0 0 0 -19.132815594404196 -8.5072107686424516 0 -8.5072107686424516 124.54672452193745 0 0 0 0 -4.6034084812850704 16.785749347946535 0 16.785749347946535 87.203023127117106 0 0 0 0 -66.789753924648721 -0.77293789168652438 0 -0.77293789168652438 178.21421538546565 0 0 0 0 20.586985629885021 -135.35511689844498 0 -135.35511689844498 170.39325542938059 0 0 0 0 73.088714138286377 -53.926026814689976 0 -53.926026814689976 196.34635622923088 0 0 0 0 36.464439809000396 -101.90975097025148 0 -101.90975097025148 238.98031108336727 0 0 0 0 0.12771555789738187 -5.5997026999894501 0 -5.5997026999894501 30.74139232467806 0 0 0 0 -15.50160746911024 27.511475020990474 0 27.511475020990474 91.096950295970601 0 0 0 0 -13.78630235955734 -54.357784184701814 0 -54.357784184701814 53.98472632519406 0 0 0 0 16.594075395596519 15.298851309868041 0 15.298851309868041 88.124573450535536 0 0 0 0 -125.27420280313527 93.17443032861047 0 93.17443032861047 95.697409645916196 0 0 0 0 -5.6554364655009799 6.7437081381287278 0 6.7437081381287278 92.989528913529711 0 0 0 0 -211.0785182866548 33.447774023661623 0 33.447774023661623 88.84839085706335 0 0 0 0 -426.20740294024472 157.31783762879786 0 157.31783762879786 192.01383327457006 0 0 0 0 -441.17782573572731 -122.90097571314254 0 -122.90097571314254 81.28259166492353 0 0 0 0 -289.19697183616745 122.18276929117019 0 122.18276929117019 448.62874099670444 0 0 0 0 -296.05031783206141 19.637254894856596 0 19.637254894856596 320.55700748169329 0 0 0 0 -244.30977415204188 -72.391594672873907 0 -72.391594672873907 324.75592279090779 0 0 0 0 4.355950751260897 14.27177963697947 0 14.27177963697947 0.30042006648955066 0 0 0 0 -47.680224615961549 48.445773994453702 0 48.445773994453702 459.63778442844341 0 0 0 0 -333.48692965225564 125.57142296005622 0 125.57142296005622 406.87036200278817 0 0 0 0 592.18018118198961 636.33140265196562 0 636.33140265196562 731.5689246347174 0 0 0 0 -325.34845683246385 35.127382185208262 0 35.127382185208262 473.36232273466885 0 0 0 0 -0.40058465567108215 0.68965578983988962 0 0.68965578983988962 106.53503636292953 0 0 0 0 49.327650798308241 1.6134113339539908 0 1.6134113339539908 190.38738330501656 0 0 0 0 -2.1046716356681099 23.352746613774059 0 23.352746613774059 78.03266923750644 0 0 0 0 -1.5981609286281255 33.442836688954486 0 33.442836688954486 63.449591880967098 0 0 0 0 -29.411126151190835 82.742439251723994 0 82.742439251723994 152.88854796858504 0 0 0 0 11.029531947083196 17.212077327995438 0 17.212077327995438 39.581478769808982 0 0 0 0 -4.2493350386547757 17.995633665661039 0 17.995633665661039 33.510262363610806 0 0 0 0 -534.02326371596337 -33.054354776839318 0 -33.054354776839318 334.17623927086242 0 0 0 0 -29.940583397256887 150.27243845259727 0 150.27243845259727 126.02517288196395 0 0 0 0 37.560022177049177 40.183502276648142 0 40.183502276648142 102.50254669077549 0 0 0 0 -17.938359474985191 2.9654208662868768 0 2.9654208662868768 401.56171088972405 0 0 0 0 -323.49975108317449 -405.18659051656869 0 -405.18659051656869 452.1799018440106 0 0 0 0 3.9683871850413244 -1.7826211343522118 0 -1.7826211343522118 -1.4280468499332812 0 0 0 0 89.472247410501041 204.78476787699492 0 204.78476787699492 602.39718129486573 0 0 0 0 -315.61590319846073 -685.40404596237204 0 -685.40404596237204 -46.248841800988885 0 0 0 0 431.87024618593387 540.29541381344825 0 540.29541381344825 433.72661933573181 0 0 0 0 -362.5439348413629 -389.73058057665958 0 -389.73058057665958 631.63009973418229 0 0 0 0 98.469295210305063 242.13317573430322 0 242.13317573430322 171.18033265817212 0 0 0 0 144.98412878906129 186.38339982738398 0 186.38339982738398 0.91805876730722957 0 0 0 0 229.2948110519792 196.09185273241019 0 196.09185273241019 -205.01600817590952 0 0 0 0 -4.3756819464542787 416.90867830895513 0 416.90867830895513 186.57622134749067 0 0 0 0 1.3035766155917621 1.5253440470253246 0 1.5253440470253246 1.3259499975219526 0 0 0 0 -39.841985209494851 -67.513817427903632 0 -67.513817427903632 19.932173920162313 0 0 0 0 -0.23242696032048116 8.0787556276336545 0 8.0787556276336545 97.84202028629079 0 0 0 0 44.346691508240838 -9.4122905660769902 0 -9.4122905660769902 -7.2014026984907105 0 0 0 0 33.569764827226436 -19.938301414418675 0 -19.938301414418675 -13.717969622739474 0 0 0 0 -13.716282049741494 -34.461416063953948 0 -34.461416063953948 -14.744228054099949 0 0 0 0 42.875538817339958 -39.177575007919472 0 -39.177575007919472 96.257974502834259 0 0 0 0 -12.586472679414328 -22.123264692512748 0 -22.123264692512748 53.037467934002052 0 0 0 0 11.362399933137674 9.0081559311392141 0 9.0081559311392141 28.754411351713841 0 0 0 0 12.371023156126057 -12.481487277230826 0 -12.481487277230826 91.842818050550704 0 0 0 0 8.6069830682677093 -30.423726001725299 0 -30.423726001725299 96.859050324496593 0 0 0 0 -306.03366457833613 -70.077342140724795 0 -70.077342140724795 76.517250551041798 0 0 0 0 5.417102812300465 11.353241807246224 0 11.353241807246224 20.742712246281485 0 0 0 0 7.3457969542914725 -35.87156480406702 0 -35.87156480406702 -6.8792957936210541 0 0 0 0 175.62123220443303 100.83538418403987 0 100.83538418403987 77.156593503736985 0 0 0 0 100.96124972552781 -135.91103454179756 0 -135.91103454179756 88.975506622235116 0 0 0 0 0.73380721025732454 3.9488050078648342 0 3.9488050078648342 11.312711943137316 0 0 0 0 328.13765944531337 -1134.1334052004486 0 -1134.1334052004486 3492.0548546749487 0 0 0 0 -0.97489453052893538 296.02060866596639 0 296.02060866596639 3473.803596043057 0 0 0 0 -269.30764424661567 477.20704714606109 0 477.20704714606109 1276.0030319645011 0 0 0 0 -84.013796774637058 -337.69324353440607 0 -337.69324353440607 2076.2594435093197 0 0 0 0 -455.21555701470913 529.68518867586681 0 529.68518867586681 3502.0967869702981 0 0 0 0 119.34325958498577 -355.51658528395092 0 -355.51658528395092 589.54364163830905 0 0 0 0 18.734562697715109 -21.202862825306809 0 -21.202862825306809 27.206856061175188 0 0 0 0 4.156664536981566 163.51020133767088 0 163.51020133767088 557.68018595324247 0 0 0 0 -31.566909376122688 -219.66131135262754 0 -219.66131135262754 901.23437217100582 0 0 0 0 4.6883476624338556 -7.613287861377934 0 -7.613287861377934 11.23010302019344 0 0 0 0 -280.28225638213371 -86.950908134906058 0 -86.950908134906058 28.974446456340957 0 0 0 0 -226.0503161012598 -26.547838229296758 0 -26.547838229296758 56.291825018735835 0 0 0 0 -11.341544058403271 -0.96249897415330565 0 -0.96249897415330565 16.711387720960161 0 0 0 0 113.91311011718888 -182.16053067647954 0 -182.16053067647954 -154.85275654424913 0 0 0 0 119.65009854857324 42.70198051915213 0 42.70198051915213 700.73368643957656 0 0 0 0 7.7019745089657459 0.98077466780343769 0 0.98077466780343769 35.546480384965491 0 0 0 0 -32.840193921374521 -319.48558998813678 0 -319.48558998813678 -206.67590562187252 0 0 0 0 -52.714905149186052 -96.679655975094647 0 -96.679655975094647 26.353541480726562 0 0 0 0 23.432856512310181 -30.219455950714895 0 -30.219455950714895 51.943069891905282 0 0 0 0 65.640534232579739 -105.55456674349261 0 -105.55456674349261 241.19900819617033 0 0 0 0 20.119858622046682 -31.556699972017555 0 -31.556699972017555 97.2439584435798 0 0 0 0 42.467662210989424 -19.792629782712197 0 -19.792629782712197 89.803089096618351 0 0 0 0 63.111427049656413 -139.70045397546346 0 -139.70045397546346 276.11058676234825 0 0 0 0 -334.36791103227552 138.87614674978977 0 138.87614674978977 208.50271557085216 0 0 0 0 -280.3558861852016 75.017890475646709 0 75.017890475646709 86.099956715686858 0 0 0 0 -203.94932780070121 -327.84951947996888 0 -327.84951947996888 387.08799211165751 0 0 0 0 1.9275983784850226 -8.4523864092411998 0 -8.4523864092411998 16.30512219920908 0 0 0 0 -282.61991911407313 136.88148355938756 0 136.88148355938756 319.32910298567731 0 0 0 0 -288.49480826696163 51.568478460241749 0 51.568478460241749 291.63641470071161 0 0 0 0 -223.73364730677258 122.20000154121954 0 122.20000154121954 339.94108677441545 0 0 0 0 -104.28403625427018 128.40681104939722 0 128.40681104939722 299.25178986562241 0 0 0 0 1.2933683245696557 33.25440775190873 0 33.25440775190873 285.57397277641576 0 0 0 0 25.038177836197065 85.018208746158052 0 85.018208746158052 398.31244408697057 0 0 0 0 27.705861942792808 178.92199721174802 0 178.92199721174802 399.94993048018659 0 0 0 0 504.77880850737142 -118.19035543925565 0 -118.19035543925565 327.70286280925939 0 0 0 0 -248.16774406702189 -106.20777785880637 0 -106.20777785880637 293.28662328379141 0 0 0 0 60.715967842775569 -63.645943345894921 0 -63.645943345894921 -15.938241911542718 0 0 0 0 -316.20742544846871 -517.9637780584053 0 -517.9637780584053 -84.184903180832407 0 0 0 0 1254.9018109603642 -471.39562381987344 0 -471.39562381987344 -587.98751490993891 0 0 0 0 -425.46376043842423 -249.64790271800575 0 -249.64790271800575 607.83523399377009 0 0 0 0 10.675242579642321 -8.693142992928216 0 -8.693142992928216 8.6941287075398179 0 0 0 0 53.425837798865601 -145.6899471260167 0 -145.6899471260167 3481.4034074731171 0 0 0 0 -1.0099228229404282 -0.60128497296553007 0 -0.60128497296553007 10.765696421348508 0 0 0 0 57.324886065632079 141.98270981984388 0 141.98270981984388 -15.938241911494957 0 0 0 0 136.80020411142729 1472.9690054597049 0 1472.9690054597049 3493.9592462634755 0 0 0 0 1414.4379558722349 -1778.134295330161 0 -1778.134295330161 1644.050432237098 0 0 0 0 81.931643820065545 -943.4469079696446 0 -943.4469079696446 1920.1527405363449 0 0 0 0 262.0916716321874 -1496.8568075033472 0 -1496.8568075033472 3490.5826975473924 0 0 0 0 569.14488324946319 -846.38208535211743 0 -846.38208535211743 1934.5760225292761 0 0 0 0 1006.5357465915174 -669.12882844547858 0 -669.12882844547858 438.76722649730073 0 0 0 0 346.452292867805 -295.81301428109873 0 -295.81301428109873 806.60936867354758 0 0 0 0 700.3249440108217 -320.51078329833035 0 -320.51078329833035 449.93003569501161 0 0 0 0 471.52731033461737 -55.299994218788925 0 -55.299994218788925 508.91966226424847 0 0 0 0 298.05106603099523 20.011030295169803 0 20.011030295169803 254.73435314423114 0 0 0 0 220.23900678901714 -216.99361707673506 0 -216.99361707673506 518.86359052400803 0 0 0 0 236.44359404441775 1.1053202031325782 0 1.1053202031325782 73.494279485254083 0 0 0 0 175.59780568817359 134.49877509760336 0 134.49877509760336 147.6031156170211 0 0 0 0 129.57011603829915 -18.914051673622453 0 -18.914051673622453 252.50577216322199 0 0 0 0 277.07824839058731 -136.24064747578086 0 -136.24064747578086 488.41563237824448 0 0 0 0 299.06074883208777 67.611656992076405 0 67.611656992076405 258.36385391688964 0 0 0 0 25.292362853063423 43.847578221808362 0 43.847578221808362 282.00289742074528 0 0 0 0 36.83655373403144 112.36025673896074 0 112.36025673896074 193.03033225132094 0 0 0 0 -247.57166909761509 71.031331369173131 0 71.031331369173131 349.70568825925693 0 0 0 0 -246.35263523576123 90.569412282682606 0 90.569412282682606 347.48545499015017 0 0 0 0 -110.63853468431626 86.570222922651737 0 86.570222922651737 306.00835791918871 0 0 0 0 -116.32037386168258 60.996349870343693 0 60.996349870343693 241.45254721830133 0 0 0 0 -171.55832511151311 -28.615369490973535 0 -28.615369490973535 149.43514742840853 0 0 0 0 -126.72281601926807 113.7066804991191 0 113.7066804991191 122.43572458613926 0 0 0 0 -67.380683063237484 83.921562735704356 0 83.921562735704356 101.42389872201602 0 0 0 0 -89.587495783178383 129.85876622010255 0 129.85876622010255 116.22406997660073 0 0 0 0 39.521389729725456 42.102199874943835 0 42.102199874943835 84.870577197536477 0 0 0 0 13.35912794916203 153.74651319587429 0 153.74651319587429 105.8872479337515 0 0 0 0 -64.909871344583053 100.74170454872547 0 100.74170454872547 200.49661481454677 0 0 0 0 -58.46672832726108 105.68173805603874 0 105.68173805603874 59.658552088838405 0 0 0 0 -67.115688887784927 94.998984395642765 0 94.998984395642765 58.720003746057046 0 0 0 0 -23.567285933830135 112.60434778554918 0 112.60434778554918 60.745645589675405 0 0 0 0 -112.78807700026027 88.109430749362218 0 88.109430749362218 84.73872030217899 0 0 0 0 -29.49220757448893 24.716247198761266 0 24.716247198761266 103.10666876335654 0 0 0 0 -4.2932727787062337 23.820749125365879 0 23.820749125365879 39.038557665633533 0 0 0 0 19.897350803274549 9.8514403244826099 0 9.8514403244826099 74.08645984850591 0 0 0 0 11.586657824404085 -20.817996818526808 0 -20.817996818526808 120.85282938638557 0 0 0 0 -2.3558285689595735 28.391578000728998 0 28.391578000728998 19.580030626129897 0 0 0 0 22.92280949036217 114.13259183981063 0 114.13259183981063 -111.5757722028211 0 0 0 0 96.293362090158098 -12.002712751873332 0 -12.002712751873332 -61.682583853700635 0 0 0 0 69.279226655135972 -24.066223589179572 0 -24.066223589179572 -37.005133165097504 0 0 0 0 30.226389670797744 59.186454500726541 0 59.186454500726541 -108.04908402034926 0 0 0 0 68.338126415455918 47.914359639536997 0 47.914359639536997 65.486730706878006 0 0 0 0 -6.7035896900169973 129.40355607063248 0 129.40355607063248 44.72172862343723 0 0 0 0 1.0724756998317746 -5.9033889446287908 0 -5.9033889446287908 16.990505555065624 0 0 0 0 111.43247875648194 -124.00344059731287 0 -124.00344059731287 -63.97175170967239 0 0 0 0 -99.659578133681634 -83.621346913780144 0 -83.621346913780144 -10.992094394416199 0 0 0 0 24.207828511304797 -50.347872826441744 0 -50.347872826441744 -2.0844545544823632 0 0 0 0 -11.634755862969996 80.909541914254078 0 80.909541914254078 67.671407855959842 0 0 0 0 14.821273057615571 -123.87433634879926 0 -123.87433634879926 110.32176782199531 0 0 0 0 346.2154850655744 -287.99444602021686 0 -287.99444602021686 197.68180480501542 0 0 0 0 9.9808875522411427 -107.20848631778972 0 -107.20848631778972 302.17337126503844 0 0 0 0 -28.149906272072378 -318.67821654058207 0 -318.67821654058207 706.46104294946417 0 0 0 0 785.29266261411294 -473.66778026820248 0 -473.66778026820248 58.352067793952301 0 0 0 0 62.637642120126088 -43.500725236528524 0 -43.500725236528524 243.18036752047192 0 0 0 0 348.55460253484341 -499.74453953482589 0 -499.74453953482589 614.73203751565597 0 0 0 0 601.68462207806215 -828.66208269955678 0 -828.66208269955678 841.19030222410947 0 0 0 0 -0.99921080799219886 -0.96047263508143033 0 -0.96047263508143033 2.7545291696729919 0 0 0 0 402.35668264180418 -809.21616813672335 0 -809.21616813672335 732.71090086839104 0 0 0 0 308.19301072638575 -742.68397585333878 0 -742.68397585333878 731.43146882710585 0 0 0 0 244.67146234774168 -454.21770400773676 0 -454.21770400773676 719.21273476649367 0 0 0 0 550.60488931548991 -520.81440887356439 0 -520.81440887356439 494.40168378525414 0 0 0 0 0.50845697273662749 -0.11364884281213961 0 -0.11364884281213961 3.77672776708485 0 0 0 0 504.37754868404346 -641.79113181462162 0 -641.79113181462162 642.22918983342242 0 0 0 0 570.78761144631335 -255.39922723331983 0 -255.39922723331983 1187.879573046579 0 0 0 0 458.22035698973104 -924.99666512174008 0 -924.99666512174008 790.39112396618293 0 0 0 0 -318.10128519821416 87.905459431705822 0 87.905459431705822 596.23107549193082 0 0 0 0 934.8962346784806 -733.58558291701047 0 -733.58558291701047 407.70039634610293 0 0 0 0 0.91064162316013708 -3.1556365606272756 0 -3.1556365606272756 7.2179331429893523 0 0 0 0 163.18967518974 -103.84040953483782 0 -103.84040953483782 357.14268942679155 0 0 0 0 49.64115761596986 -40.051766799166217 0 -40.051766799166217 373.54048507103289 0 0 0 0 114.18259064063977 134.43557958313613 0 134.43557958313613 -5.5921406591187406 0 0 0 0 -109.53065461490019 -362.50257783509005 0 -362.50257783509005 1188.6744770109726 0 0 0 0 530.76031094041048 -439.98533414991107 0 -439.98533414991107 1025.077117436158 0 0 0 0 1.2175487505461224 0.23911831537799344 0 0.23911831537799344 2.9155734224555658 0 0 0 0 515.24952879917601 -660.41864984288259 0 -660.41864984288259 543.37872558730305 0 0 0 0 484.57575632643687 -597.60184824540556 0 -597.60184824540556 875.47466216457542 0 0 0 0 310.14439757835521 -253.1654420003324 0 -253.1654420003324 1215.2687360061245 0 0 0 0 520.85566114014398 -612.50507533620112 0 -612.50507533620112 1099.7376213067182 0 0 0 0 316.8586964933628 -568.48662637551388 0 -568.48662637551388 1967.9949563163536 0 0 0 0 -218.52243926470817 -153.34490403825475 0 -153.34490403825475 2105.9728730438455 0 0 0 0 -133.80123043738732 -733.8868889167934 0 -733.8868889167934 3500.6346770361415 0 0 0 0 -263.11650138692755 406.08489562736941 0 406.08489562736941 2569.854355492751 0 0 0 0 -413.96255840304519 895.45854814958511 0 895.45854814958511 2664.7693759835529 0 0 0 0 -422.9149234526235 924.9250373765899 0 924.9250373765899 3008.1224163423467 0 0 0 0 -162.59919182344947 40.843583089041203 0 40.843583089041203 2751.7543700383976 0 0 0 0 -643.69733444354381 392.82017001094937 0 392.82017001094937 3500.0247568823474 0 0 0 0 -75.216553829704281 270.34122668024429 0 270.34122668024429 1539.994017954712 0 0 0 0 211.45839527675787 57.227130540843063 0 57.227130540843063 1588.2324903684057 0 0 0 0 265.36146751658714 130.9562725230935 0 130.9562725230935 378.98698498047452 0 0 0 0 -144.07137249667247 815.72458401041877 0 815.72458401041877 1353.0568332845141 0 0 0 0 -31.280172823279145 -92.554660512367263 0 -92.554660512367263 539.51103180418431 0 0 0 0 134.23670780310246 -283.19339452681379 0 -283.19339452681379 676.18678389905836 0 0 0 0 311.7695111047247 -238.99127897131257 0 -238.99127897131257 897.23048439701961 0 0 0 0 355.42858489154821 -235.67297005553701 0 -235.67297005553701 860.59334283518547 0 0 0 0 356.39947676677616 -250.60435097554 0 -250.60435097554 524.29474372928962 0 0 0 0 487.19224965122538 -534.64963528012231 0 -534.64963528012231 636.29169888349134 0 0 0 0 462.82830575822578 -536.80240706804034 0 -536.80240706804034 696.08890676643932 0 0 0 0 437.75986847902925 -439.78987485110702 0 -439.78987485110702 497.26665551066981 0 0 0 0 278.2036199517172 -384.41063592562568 0 -384.41063592562568 511.14541021690275 0 0 0 0 165.80568923761979 -436.0664798414 0 -436.0664798414 515.22882773022866 0 0 0 0 248.58022911044537 -331.66717910607167 0 -331.66717910607167 392.81777163951483 0 0 0 0 240.78697628087843 -376.69052765113884 0 -376.69052765113884 665.60550623164454 0 0 0 0 -120.65357647732185 -128.86697100859601 0 -128.86697100859601 347.02850464438234 0 0 0 0 120.2610134376589 -221.43264501710655 0 -221.43264501710655 320.76834690260876 0 0 0 0 -195.02160221700115 122.66093468500185 0 122.66093468500185 50.325384828203823 0 0 0 0 -69.443214160561411 -118.61572818670538 0 -118.61572818670538 205.78147702399065 0 0 0 0 -256.19960816409116 95.803339786791184 0 95.803339786791184 -68.51730576447153 0 0 0 0 -338.42339588838252 352.47457506820137 0 352.47457506820137 -176.68633075756952 0 0 0 0 -336.21966145616852 102.40920787848881 0 102.40920787848881 194.46795932355599 0 0 0 0 12.742265529556391 -53.918923065724812 0 -53.918923065724812 112.67334883482545 0 0 0 0 -218.51484313535843 10.497661697452713 0 10.497661697452713 362.00033843315214 0 0 0 0 -178.02513220600167 -9.3516078720640508 0 -9.3516078720640508 123.96012375177816 0 0 0 0 -519.73971340281344 194.01433421503316 0 194.01433421503316 163.72668018098193 0 0 0 0 -1.1760012708119831 3.0737727288021119 0 3.0737727288021119 2.755490466968098 0 0 0 0 -289.38454811482006 -78.598834698655992 0 -78.598834698655992 184.47188183882827 0 0 0 0 -45.410037758584167 878.97161502214931 0 878.97161502214931 -618.76985225286626 0 0 0 0 -6.9908264598479946 -27.199198823567713 0 -27.199198823567713 27.263026969332714 0 0 0 0 -106.34257746914938 -497.1967815714379 0 -497.1967815714379 592.87102442284959 0 0 0 0 -129.38331317166148 -92.397277524236415 0 -92.397277524236415 1.7364082523126854 0 0 0 0 -7.3760079653897606 1.0579728692386254 0 1.0579728692386254 14.886545972535941 0 0 0 0 877.9722941959792 1794.361878954729 0 1794.361878954729 1481.158615576016 0 0 0 0 -284.77558791396524 -150.01962187375466 0 -150.01962187375466 3481.8984459852072 0 0 0 0 2.9153560385169519 3.9615700464404142 0 3.9615700464404142 6.5485941664722986 0 0 0 0 486.67843224195025 716.3775728399778 0 716.3775728399778 3028.058278990502 0 0 0 0 -99.495848841900781 1431.0570204389805 0 1431.0570204389805 3494.2073917536331 0 0 0 0 0.95306496112741945 -107.42554433617261 0 -107.42554433617261 820.54812635933922 0 0 0 0 -237.88091098082424 -953.40273649067967 0 -953.40273649067967 3488.003025307607 0 0 0 0 -15.630416975252132 -540.77785345118173 0 -540.77785345118173 2667.4427215822943 0 0 0 0 699.52424247766749 -1056.5786113019349 0 -1056.5786113019349 1897.2803195000597 0 0 0 0 1.1703876081348146 0.5449435130425222 0 0.5449435130425222 13.775050186585702 0 0 0 0 296.95213693716954 151.85997991841941 0 151.85997991841941 91.388841372012394 0 0 0 0 539.96069778876813 -272.30088348643767 0 -272.30088348643767 -189.35856285356567 0 0 0 0 3.0448397774993237 3.7943898103177958 0 3.7943898103177958 18.873000854873112 0 0 0 0 -195.77294135235445 499.79261682381912 0 499.79261682381912 -467.67216647271562 0 0 0 0 403.43317705405707 -49.459308004134073 0 -49.459308004134073 -307.56432242396113 0 0 0 0 -0.22917393858537147 -1.2661152720572773 0 -1.2661152720572773 2.6888911987159361 0 0 0 0 -29.384691395103516 0.31782567927439231 0 0.31782567927439231 69.862361189931107 0 0 0 0 -13.151142177179729 8.4316961606127734 0 8.4316961606127734 16.943474087456707 0 0 0 0 -0.40098574740003057 9.0012455543382615 0 9.0012455543382615 23.65017350009407 0 0 0 0 -3.7916652844426428 1.2237281842049725 0 1.2237281842049725 23.600586203154762 0 0 0 0 -5.0965878186403994 -12.329586438428578 0 -12.329586438428578 25.454768860932745 0 0 0 0 -357.11450944656963 93.192821021959389 0 93.192821021959389 136.41050840295793 0 0 0 0 8.2138871092910648 -101.85785169226983 0 -101.85785169226983 74.314734756117105 0 0 0 0 -4.4309924967136425 -3.7922408235463578 0 -3.7922408235463578 54.850647114404751 0 0 0 0 0.098044773180125236 -76.38286038764636 0 -76.38286038764636 112.21830294287065 0 0 0 0 -33.440669477730978 -12.451177737253602 0 -12.451177737253602 20.047813918310567 0 0 0 0 0.64150937217888115 -1.1365156826683886 0 -1.1365156826683886 2.5807438997965164 0 0 0 0 37.313086557672825 -31.085825279180426 0 -31.085825279180426 10.583993175328942 0 0 0 0 -86.468902616623737 -68.119001828119508 0 -68.119001828119508 -0.49499437645863509 0 0 0 0 -111.29195977138571 12.63369531891658 0 12.63369531891658 97.717285082071612 0 0 0 0 -0.16917543418520348 -51.039476504200138 0 -51.039476504200138 -25.900745995550096 0 0 0 0 -173.82306521233272 -31.154851107174181 0 -31.154851107174181 81.348553005242138 0 0 0 0 -261.31659646523366 -149.48256758516709 0 -149.48256758516709 198.00908967382566 0 0 0 0 -1.0944544974738351 -4.8513790336979401 0 -4.8513790336979401 48.293140238224964 0 0 0 0 -108.36759746276005 -48.085223825764842 0 -48.085223825764842 230.7269107534521 0 0 0 0 231.39041145413375 -423.06361715825915 0 -423.06361715825915 317.624126390524 0 0 0 0 261.97193367579126 -362.59829575121694 0 -362.59829575121694 407.51820470139501 0 0 0 0 235.24592754719947 -538.72414584958824 0 -538.72414584958824 451.88233297078114 0 0 0 0 357.48736875236756 -674.26406130751275 0 -674.26406130751275 480.69897193962061 0 0 0 0 539.97375801323051 -353.95085325292166 0 -353.95085325292166 64.179769367747213 0 0 0 0 923.33682078116954 -1029.9183760481974 0 -1029.9183760481974 620.05971056878843 0 0 0 0 641.61631016116132 -318.9025313305292 0 -318.9025313305292 254.15539647785772 0 0 0 0 67.346131112069727 -670.40223937817973 0 -670.40223937817973 1994.3545805052563 0 0 0 0 4.2967775692468164 -3.3812740909154684 0 -3.3812740909154684 2.208607372333816 0 0 0 0 1098.3069321989694 -779.58629079558523 0 -779.58629079558523 432.80848471114587 0 0 0 0 0.094455349396266208 -3.5962891677906228 0 -3.5962891677906228 14.516917560572722 0 0 0 0 1666.1349679215648 -1411.9444672381505 0 -1411.9444672381505 1087.7038680810147 0 0 0 0 -0.12554520494820592 -209.88832779263922 0 -209.88832779263922 17.544217729882803 0 0 0 0 -768.78332995116489 85.868564337375574 0 85.868564337375574 1445.323711513116 0 0 0 0 -280.51535271076051 -149.44955879136978 0 -149.44955879136978 6.7011114809356513 0 0 0 0 154.69329300977506 -421.40989537290443 0 -421.40989537290443 363.35354440390802 0 0 0 0 -1.0638999236955595 -5.784210138233977 0 -5.784210138233977 36.419291818276179 0 0 0 0 15.647770432443622 732.01549629700321 0 732.01549629700321 710.47607631268329 0 0 0 0 323.50468869355609 -1140.2984223724416 0 -1140.2984223724416 -2.2846723908547801 0 0 0 0 12.400733901958951 8.4163881391641269 0 8.4163881391641269 6.1665205464249127 0 0 0 0 762.14479471878997 845.01434093879709 0 845.01434093879709 934.52873792938249 0 0 0 0 296.23222764357683 186.20355805197556 0 186.20355805197556 210.00643722157673 0 0 0 0 -5.2594093978705452 1.0353356920224768 0 1.0353356920224768 1.4955343055909949 0 0 0 0 60.703554862132705 67.868444498551412 0 67.868444498551412 441.53969533333628 0 0 0 0 64.137243252707052 98.034717203048757 0 98.034717203048757 135.74054530678723 0 0 0 0 46.928011346422068 -69.574436057173727 0 -69.574436057173727 259.11512924324126 0 0 0 0 -44.719468158349883 -29.543972638609773 0 -29.543972638609773 110.56802614607145 0 0 0 0 -71.735780919695458 87.88420376406134 0 87.88420376406134 131.42721030906364 0 0 0 0 -38.822992770329108 57.015326372481923 0 57.015326372481923 98.577094050181131 0 0 0 0 36.451117331256739 71.315824266410914 0 71.315824266410914 58.733647765369597 0 0 0 0 -15.704226232364462 6.8893626135572923 0 6.8893626135572923 -1.358742037557219 0 0 0 0 37.943894101951798 85.304580201612453 0 85.304580201612453 130.08484703397903 0 0 0 0 -392.02028304201878 -69.508494336218973 0 -69.508494336218973 103.7418587295133 0 0 0 0 -96.013025212702118 138.17087182302657 0 138.17087182302657 177.80908862292927 0 0 0 0 -72.446510313784074 125.91733856095198 0 125.91733856095198 -42.380466673313094 0 0 0 0 -23.617345561937963 21.162721732035429 0 21.162721732035429 -1.118745157715928 0 0 0 0 -13.215736815235118 95.888790342978609 0 95.888790342978609 99.110729580045074 0 0 0 0 78.997619014438897 98.262580144686126 0 98.262580144686126 169.33075912341883 0 0 0 0 29.443684515153357 9.9608246101703415 0 9.9608246101703415 0.92051894235738985 0 0 0 0 157.60216252336647 152.73601882170078 0 152.73601882170078 137.91685535553552 0 0 0 0 64.619517008822868 75.520198537622491 0 75.520198537622491 176.52470138061472 0 0 0 0 48.610044820934618 113.3271051097297 0 113.3271051097297 304.44018725965725 0 0 0 0 499.62753757483733 21.195414427101696 0 21.195414427101696 -298.89288637528625 0 0 0 0 123.50660173591496 506.80697969918037 0 506.80697969918037 1348.7473850456981 0 0 0 0 12.488989743613699 0.525435815257417 0 0.525435815257417 0.26359078770439126 0 0 0 0 915.35322378439514 462.21562835184341 0 462.21562835184341 -280.04300601860177 0 0 0 0 923.65373441067049 390.88452259426413 0 390.88452259426413 -425.16897550433987 0 0 0 0 994.59632787644478 568.39631054800884 0 568.39631054800884 -224.46562555840683 0 0 0 0 -159.50033680291381 -107.47870049917219 0 -107.47870049917219 727.67828060569991 0 0 0 0 614.15940785379144 609.56395405265084 0 609.56395405265084 490.1415267288794 0 0 0 0 -334.1509822646949 433.92594079935225 0 433.92594079935225 16.912119600678167 0 0 0 0 -21.019152305485477 -53.583816329250112 0 -53.583816329250112 30.12952362467604 0 0 0 0 29.329685874062619 23.51431652012899 0 23.51431652012899 17.799349658348998 0 0 0 0 58.688595957826877 72.221280145641629 0 72.221280145641629 213.61916290886927 0 0 0 0 -89.501181433519378 -71.135712588326442 0 -71.135712588326442 -167.16125959157034 0 0 0 0 5.4562990152476578 -4.6440975070780919 0 -4.6440975070780919 25.207251481535785 0 0 0 0 29.184050373796765 -20.606305795135164 0 -20.606305795135164 36.179733619750778 0 0 0 0 35.792345115475477 33.301400792771872 0 33.301400792771872 34.1985267544636 0 0 0 0 43.94592739802647 57.578210272054662 0 57.578210272054662 46.668197415212816 0 0 0 0 52.543282102779116 -45.773615694334964 0 -45.773615694334964 81.515692900416354 0 0 0 0 18.174874333460593 54.244530523724912 0 54.244530523724912 289.69645696490977 0 0 0 0 48.521403413162034 24.5614951000153 0 24.5614951000153 48.192279780386514 0 0 0 0 68.586110902413964 58.049831920264126 0 58.049831920264126 263.23547197886739 0 0 0 0 -22.800716870217002 51.848262325135664 0 51.848262325135664 441.96535143114363 0 0 0 0 69.537951294410959 63.518258917523724 0 63.518258917523724 288.78111240705505 0 0 0 0 98.686687891355632 192.67450744220343 0 192.67450744220343 394.34274522762297 0 0 0 0 40.462181111693553 -102.27199261778208 0 -102.27199261778208 1140.0154621972736 0 0 0 0 42.64697749728839 -157.22661718332375 0 -157.22661718332375 325.14047450221727 0 0 0 0 9.7362169549674036 150.82695103763405 0 150.82695103763405 682.9371757676754 0 0 0 0 109.56123966562359 181.02291372853841 0 181.02291372853841 359.98541238550297 0 0 0 0 245.97512965791111 322.78507435734798 0 322.78507435734798 491.30857934186861 0 0 0 0 196.9877597525732 92.005112189324919 0 92.005112189324919 300.28125435236956 0 0 0 0 128.62814566857878 177.78496263851693 0 177.78496263851693 360.00602914816557 0 0 0 0 96.792192219958167 156.58598227693591 0 156.58598227693591 346.41605135107687 0 0 0 0 47.234979637169545 129.78481916127049 0 129.78481916127049 362.32784566937431 0 0 0 0 66.596600669683085 172.09740411846542 0 172.09740411846542 386.5770624594395 0 0 0 0 94.85264166879324 105.30744146809297 0 105.30744146809297 321.02900180599369 0 0 0 0 48.789532363213539 58.752946221250014 0 58.752946221250014 309.92293628082945 0 0 0 0 62.135253436599726 127.25669270879554 0 127.25669270879554 375.68980814102156 0 0 0 0 76.576540685194232 174.9919860264377 0 174.9919860264377 380.60219183152878 0 0 0 0 99.938482640523887 178.43006926258479 0 178.43006926258479 373.82501530863453 0 0 0 0 118.99369418228434 167.38338606566276 0 167.38338606566276 361.54547154893407 0 0 0 0 112.82938250294467 168.76566577036925 0 168.76566577036925 397.89191467944283 0 0 0 0 152.70664276566504 126.47870051118991 0 126.47870051118991 373.25958630311902 0 0 0 0 126.36863330783763 115.62698899232385 0 115.62698899232385 434.69699467875876 0 0 0 0 120.26331210382637 155.74885686907618 0 155.74885686907618 372.75773439085924 0 0 0 0 -209.08192057135034 -208.38761683968863 0 -208.38761683968863 -13.055087131376832 0 0 0 0 -172.66525233657546 -58.100773681124494 0 -58.100773681124494 299.72405057127048 0 0 0 0 -1.0168745163016926 -0.34725591876697859 0 -0.34725591876697859 3.3962382878599033 0 0 0 0 240.91061304092 405.07036468507943 0 405.07036468507943 724.24911052708808 0 0 0 0 48.403476705522507 26.77954709675555 0 26.77954709675555 175.1599753940036 0 0 0 0 -52.602157919600359 134.33861752336981 0 134.33861752336981 486.35868619839323 0 0 0 0 -36.644109167458737 -6.2348540157673824 0 -6.2348540157673824 319.75461534294186 0 0 0 0 2.5146861590683329 -84.360619229023655 0 -84.360619229023655 86.917521643444275 0 0 0 0 -0.02852808186816258 -0.43895824511572012 0 -0.43895824511572012 0.39936157437082337 0 0 0 0 -50.220320936008193 -43.537330917823283 0 -43.537330917823283 299.0471226051036 0 0 0 0 0.81146374699233093 36.304898392866903 0 36.304898392866903 180.09760581168391 0 0 0 0 46.667105957930517 -21.888141666075512 0 -21.888141666075512 157.89530852307314 0 0 0 0 -0.18983808401926883 -0.89573789441416807 0 -0.89573789441416807 0.60115568519302987 0 0 0 0 -17.005086665042654 17.494018099269503 0 17.494018099269503 265.92110690584656 0 0 0 0 36.673476928451805 41.301944189282345 0 41.301944189282345 158.94559450315379 0 0 0 0 36.003857831668938 -67.293571373238578 0 -67.293571373238578 266.44306050584834 0 0 0 0 -11.176369666536743 -17.616080613246854 0 -17.616080613246854 279.07419524853833 0 0 0 0 65.198877378335737 -60.56983892267494 0 -60.56983892267494 232.16535305648429 0 0 0 0 89.825059019245373 -42.774283604332773 0 -42.774283604332773 253.20653457311559 0 0 0 0 132.38378705998502 -2.5768245871172724 0 -2.5768245871172724 275.63044194615691 0 0 0 0 134.61497236131805 -96.908515043448816 0 -96.908515043448816 274.51598921190481 0 0 0 0 160.65375801643927 -149.18871765438325 0 -149.18871765438325 349.52358871283491 0 0 0 0 296.64107349283165 -33.392655629301501 0 -33.392655629301501 249.67429599750739 0 0 0 0 191.43834298520915 68.554732459649117 0 68.554732459649117 249.25337272205428 0 0 0 0 3.8964403761312951 20.646108573564874 0 20.646108573564874 140.97432732855577 0 0 0 0 97.533392018438974 -55.837962567148963 0 -55.837962567148963 222.26828880894675 0 0 0 0 82.260158138401039 -147.76754263400537 0 -147.76754263400537 241.00422353079426 0 0 0 0 65.416276474475453 -149.97539225831582 0 -149.97539225831582 303.18059736157579 0 0 0 0 -13.362274180708098 -3.6079091435902626 0 -3.6079091435902626 42.153470663913595 0 0 0 0 93.524829651338649 -163.83702670284538 0 -163.83702670284538 131.27333490492396 0 0 0 0 -4.6691380384924628 -139.43985992939955 0 -139.43985992939955 494.57317235123878 0 0 0 0 46.363470598487218 -107.64076959381615 0 -107.64076959381615 318.30978434623654 0 0 0 0 -25.495868071548067 -174.56125974419865 0 -174.56125974419865 497.77482915262385 0 0 0 0 -0.17739175854469202 -0.78150062064771109 0 -0.78150062064771109 0.66592811576665523 0 0 0 0 18.016460392665635 5.928094056569293 0 5.928094056569293 209.8769930952366 0 0 0 0 -1.8863732591054685 78.803903080930155 0 78.803903080930155 327.5146131103906 0 0 0 0 70.63847274727928 43.217369540681204 0 43.217369540681204 223.09726849367135 0 0 0 0 212.47230131671228 369.74766990684975 0 369.74766990684975 946.93070275275136 0 0 0 0 964.25812222106981 27.057765288177393 0 27.057765288177393 -25.258341098279004 0 0 0 0 233.90136683524861 -307.92737432721066 0 -307.92737432721066 149.47929538303015 0 0 0 0 0.8477650545077996 3.2693205990320453 0 3.2693205990320453 13.36023300616551 0 0 0 0 188.63943517863328 -401.46736941447722 0 -401.46736941447722 488.44643624066543 0 0 0 0 908.83049983372712 375.74351620946527 0 375.74351620946527 159.0648950251616 0 0 0 0 -12.310424286260002 -282.41917465267409 0 -282.41917465267409 969.13109514214216 0 0 0 0 186.57833185459504 466.87331849569341 0 466.87331849569341 1325.6601402843164 0 0 0 0 48.196574769248627 47.308824259951621 0 47.308824259951621 283.80404930680015 0 0 0 0 -482.33475015228396 -3.7873978103170884 0 -3.7873978103170884 673.68667521672455 0 0 0 0 527.90476769192514 -711.12248415904389 0 -711.12248415904389 787.50986157851139 0 0 0 0 53.904584402684122 -115.27105883982063 0 -115.27105883982063 54.842380943679245 0 0 0 0 -30.557909272673442 -413.7008767173499 0 -413.7008767173499 391.76364224134932 0 0 0 0 248.52332059950641 -639.84732317414091 0 -639.84732317414091 199.99008528603377 0 0 0 0 -2.7299079927196779 -27.355381607667422 0 -27.355381607667422 82.25107301579348 0 0 0 0 -727.45975272924284 -417.60633838636903 0 -417.60633838636903 322.72859073424479 0 0 0 0 -566.43625374850217 46.59526825112448 0 46.59526825112448 16.232112919573296 0 0 0 0 -478.12769442913668 -203.58469986766431 0 -203.58469986766431 47.471610345710815 0 0 0 0 -30.380012419735976 511.66647390133403 0 511.66647390133403 -203.59429264964456 0 0 0 0 -57.057861748918185 -11.551523569387427 0 -11.551523569387427 48.728110812800878 0 0 0 0 -0.79060636246780014 -11.953386246339242 0 -11.953386246339242 7.3113959686327235 0 0 0 0 -93.864750892493248 -28.430545921724843 0 -28.430545921724843 41.967118324882904 0 0 0 0 19.373113377059781 14.681687400327974 0 14.681687400327974 34.070526265761146 0 0 0 0 8.0526200105271748 -7.6077107193777778 0 -7.6077107193777778 24.3244167521121 0 0 0 0 9.0219420124566589 15.727231652423551 0 15.727231652423551 51.199439420890144 0 0 0 0 -441.05343616498158 82.947257396002442 0 82.947257396002442 395.37933763092133 0 0 0 0 -526.63985832656545 237.53713366645388 0 237.53713366645388 136.50063647957222 0 0 0 0 52.087880212334312 15.681540454098467 0 15.681540454098467 32.826676137030518 0 0 0 0 -15.077751944718329 -34.667790413044713 0 -34.667790413044713 171.53458408365805 0 0 0 0 33.405074161934863 -47.934906941894951 0 -47.934906941894951 145.2264327807643 0 0 0 0 7.7510655321349091 16.370985377364349 0 16.370985377364349 28.869592849713868 0 0 0 0 -456.02719706441621 445.69951655595742 0 445.69951655595742 25.53754360242965 0 0 0 0 6.2450528699739607 26.933916792111631 0 26.933916792111631 90.30930580477434 0 0 0 0 -92.491911529074969 33.832397273828064 0 33.832397273828064 -87.960602364667466 0 0 0 0 -67.206533894407585 41.287416725754497 0 41.287416725754497 -5.8731169862821844 0 0 0 0 227.63064603639378 170.75500969803124 0 170.75500969803124 -144.44461574219167 0 0 0 0 -189.21231300269682 -48.184097303762769 0 -48.184097303762769 138.04730829060645 0 0 0 0 0.33538086208863421 6.1263570178823201 0 6.1263570178823201 39.031441857347268 0 0 0 0 67.426845077141024 330.09294468800908 0 330.09294468800908 -91.545521757091592 0 0 0 0 268.6342288044716 -57.263889294054934 0 -57.263889294054934 95.605551601953266 0 0 0 0 56.956118028798301 1.9408924023518921 0 1.9408924023518921 111.15817429250455 0 0 0 0 23.600363596443458 -13.977894467749138 0 -13.977894467749138 113.94182811101928 0 0 0 0 0.44256131544679889 0.60497994715431247 0 0.60497994715431247 -1.7823889769833556 0 0 0 0 31.513470445680014 -32.703370770401307 0 -32.703370770401307 107.25360494406777 0 0 0 0 59.809299584707333 -11.880305417829732 0 -11.880305417829732 103.30550165717068 0 0 0 0 37.128478337566776 32.02425084740662 0 32.02425084740662 87.859225040709134 0 0 0 0 -2.1566331815611193 6.8428758969093906 0 6.8428758969093906 98.04477812930827 0 0 0 0 66.914982185835015 1.2890723233904282 0 1.2890723233904282 81.262643183148612 0 0 0 0 -1.280576876854866 -16.508948511602284 0 -16.508948511602284 132.15839634961958 0 0 0 0 -50.347387626402906 8.2315049513354097 0 8.2315049513354097 57.27402118064856 0 0 0 0 -1.2556641122509973 -17.191405697529262 0 -17.191405697529262 53.31303032487267 0 0 0 0 -30.863449057252183 35.237727689187523 0 35.237727689187523 100.91569314301159 0 0 0 0 -51.368366996639452 3.8428261631433998 0 3.8428261631433998 67.65236874475886 0 0 0 0 -69.913576751961955 31.168616569916594 0 31.168616569916594 55.60322934998112 0 0 0 0 -64.157367508894822 15.765782349892106 0 15.765782349892106 -45.491195539510954 0 0 0 0 -93.952321106321506 -18.906844765399001 0 -18.906844765399001 68.422659385192674 0 0 0 0 16.838478300774113 -2.3728838847450788 0 -2.3728838847450788 190.4473950537249 0 0 0 0 5.0260359608620799 -8.279714696955331 0 -8.279714696955331 11.850256207692837 0 0 0 0 8.1217533573399123 27.387015349329886 0 27.387015349329886 196.89913421692427 0 0 0 0 1.4723412479453479 -2.8089553308933191 0 -2.8089553308933191 5.0888414489128166 0 0 0 0 67.738867701160416 -318.3966703256192 0 -318.3966703256192 26.971580406998328 0 0 0 0 -145.95740571236001 -84.978571911817198 0 -84.978571911817198 40.3829015851843 0 0 0 0 26.981199046367692 -3.4231120773056318 0 -3.4231120773056318 -40.22210623589126 0 0 0 0 45.28782225854809 -98.095778948215866 0 -98.095778948215866 215.31063700382219 0 0 0 0 78.728302105507282 -25.150514109311189 0 -25.150514109311189 74.570635826390571 0 0 0 0 -3.0241048209727523 -165.36787591844586 0 -165.36787591844586 173.32075622447155 0 0 0 0 11.045571129363452 -326.95889271023952 0 -326.95889271023952 636.64187056318406 0 0 0 0 -15.363276815542122 -129.39277708927875 0 -129.39277708927875 440.51118740103993 0 0 0 0 14.503616668358518 -261.98509862624815 0 -261.98509862624815 592.2326221911627 0 0 0 0 40.104988685828175 -140.19690685335991 0 -140.19690685335991 346.61766437374172 0 0 0 0 -11.321195701365184 51.404954841210611 0 51.404954841210611 257.9034282062712 0 0 0 0 70.629714166582744 -45.814691284205765 0 -45.814691284205765 135.46824814498905 0 0 0 0 -75.048844390978047 -52.706442055297885 0 -52.706442055297885 -27.401772908973726 0 0 0 0 -16.820732663741182 3.6230413412195048 0 3.6230413412195048 7.397194133269295 0 0 0 0 -132.74063666722304 -163.17909733186207 0 -163.17909733186207 -17.430835964743892 0 0 0 0 -153.54076862096417 8.7748115799377047 0 8.7748115799377047 -0.80374999943160219 0 0 0 0 -159.26013225305678 121.74089291095515 0 121.74089291095515 -87.088050477199431 0 0 0 0 63.988370585090706 -164.60800677509906 0 -164.60800677509906 371.38182890498865 0 0 0 0 12.726398129938389 -7.3212349773111782 0 -7.3212349773111782 169.4482146524133 0 0 0 0 28.722985251339196 24.285624519747216 0 24.285624519747216 176.7514156949419 0 0 0 0 -50.133362127711735 372.72040392357303 0 372.72040392357303 768.09967499523191 0 0 0 0 5.7234065097652529 6.2604422512670581 0 6.2604422512670581 7.2347740971988372 0 0 0 0 -50.377121698064457 8.8086621378506607 0 8.8086621378506607 15.483317877831723 0 0 0 0 3.5188159716449494 -0.18150827478583409 0 -0.18150827478583409 0.28049937661010915 0 0 0 0 3.052986304920978 -0.68124274856018019 0 -0.68124274856018019 4.3914785861015844 0 0 0 0 2.4863431941794261 -1.2415346762063564 0 -1.2415346762063564 5.4238112374644061 0 0 0 0 1.527695824975412 -0.55379201098881126 0 -0.55379201098881126 0.90872385692868818 0 0 0 0 4.2282409401374572 0.84207946519071442 0 0.84207946519071442 -0.69389518021868923 0 0 0 0 1.9388299062338774 -2.0809395196083642 0 -2.0809395196083642 4.465219474574269 0 0 0 0 3.9503783253476286 0.38544421692131436 0 0.38544421692131436 5.5652453908548978 0 0 0 0 70.037840459910512 -105.70104577420534 0 -105.70104577420534 232.73121784845625 0 0 0 0 303.52614131203018 -494.05375417960158 0 -494.05375417960158 314.30965319716779 0 0 0 0 13.280511939236931 92.708622056879904 0 92.708622056879904 874.63892763270633 0 0 0 0 -39.513896483495955 -162.69877983816605 0 -162.69877983816605 411.87493993823227 0 0 0 0 -22.670177469885402 -44.14268136769897 0 -44.14268136769897 392.94103468384492 0 0 0 0 0.56608455673356417 -1.5394136258274145 0 -1.5394136258274145 -1.4538914230751914 0 0 0 0 6.5108480245557985 -10.033233232364182 0 -10.033233232364182 3.3024046416612691 0 0 0 0 2.8524215749621362 -3.1805461682652094 0 -3.1805461682652094 1.4146617387934839 0 0 0 0 4.1310203471794011 -2.7431297153862033 0 -2.7431297153862033 1.3994354114765883 0 0 0 0 3.955992612892997 -5.8892717214122037 0 -5.8892717214122037 -5.0795118039651186 0 0 0 0 6.1553293894567105 -9.2260145998952794 0 -9.2260145998952794 3.4859045157209039 0 0 0 0 6.5996847357419028 -9.1212312049647153 0 -9.1212312049647153 2.2933862662976026 0 0 0 0 4.4806227604302666 -5.6461933327347751 0 -5.6461933327347751 -1.2605193612230252 0 0 0 0 2.3524388312880546 -7.09167724467261 0 -7.09167724467261 9.5060602671874221 0 0 0 0 1.3267411023798559 -6.1252786103423205 0 -6.1252786103423205 9.1522489052367746 0 0 0 0 6.8217887625842195 -9.810188782903424 0 -9.810188782903424 2.5296664441311805 0 0 0 0 -0.15239798233623691 -1.996323582478567 0 -1.996323582478567 12.571008413338504 0 0 0 0 2.9575505392367631 -6.3207942118478968 0 -6.3207942118478968 8.3680825421724876 0 0 0 0 2.2008470458040392 -5.4430100941090132 0 -5.4430100941090132 7.8756223756536201 0 0 0 0 3.1470752414579692 13.874237989355606 0 13.874237989355606 10.24259149813679 0 0 0 0 -0.98329862090796105 -7.1087773354308297 0 -7.1087773354308297 23.957209262720951 0 0 0 0 -26.746285004815036 -54.488672064685488 0 -54.488672064685488 20.140618073895894 0 0 0 0 -1.4812682176088856 -19.854181334711029 0 -19.854181334711029 -0.91843361928658851 0 0 0 0 -0.88130600845886065 -8.4246780604484286 0 -8.4246780604484286 -0.49609392136966335 0 0 0 0 -134.17884268660328 21.738853176981138 0 21.738853176981138 18.600402787116764 0 0 0 0 -141.88312363398927 15.066899496732731 0 15.066899496732731 25.154156483033148 0 0 0 0 -116.31964256654283 51.972017293846875 0 51.972017293846875 34.641973103041892 0 0 0 0 -25.984399084780762 -4.8518732236898359 0 -4.8518732236898359 64.95678297890845 0 0 0 0 -119.05081390598207 22.173521335505939 0 22.173521335505939 12.681174898851168 0 0 0 0 -5.6086396876256188 -3.9792698531561967 0 -3.9792698531561967 5.5025154353304799 0 0 0 0 238.52730104613045 -930.01654927468917 0 -930.01654927468917 354.26316773348663 0 0 0 0 -20.403387322961407 769.04204267614841 0 769.04204267614841 369.84922430113113 0 0 0 0 -34.045123547327421 -62.144942753257055 0 -62.144942753257055 1019.202361910724 0 0 0 0 423.67044282432926 146.4377347274276 0 146.4377347274276 21.767327326035399 0 0 0 0 767.91707053117261 270.43839453884721 0 270.43839453884721 23.160477612567774 0 0 0 0 956.24628914336427 -64.75680678653589 0 -64.75680678653589 -117.39494518264837 0 0 0 0 352.12397906703063 -236.14009570614871 0 -236.14009570614871 -139.13877197771399 0 0 0 0 -624.06213922721122 -548.49768179889361 0 -548.49768179889361 383.06627224780095 0 0 0 0 -41.890422730183531 69.208837419898884 0 69.208837419898884 50.306669896590392 0 0 0 0 -106.96755873310832 -1.7458370054224019 0 -1.7458370054224019 54.819936826412686 0 0 0 0 -0.20924692507397111 6.3262025722277082 0 6.3262025722277082 63.324892510569107 0 0 0 0 -508.89519938014911 355.24201723460914 0 355.24201723460914 110.11814473443883 0 0 0 0 -218.11752273533159 44.441814099012731 0 44.441814099012731 126.44723656354404 0 0 0 0 4.2414832507553761 6.4363049932341987 0 6.4363049932341987 9.6355885237453549 0 0 0 0 20.632311813008982 291.7690441284758 0 291.7690441284758 -138.02979262902954 0 0 0 0 -55.248651881177466 280.19709298333328 0 280.19709298333328 -116.98341565867258 0 0 0 0 190.85113994255835 -353.6725222072655 0 -353.6725222072655 752.46073402524053 0 0 0 0 200.96907297153842 -268.72394253338393 0 -268.72394253338393 336.80364980556624 0 0 0 0 -17.196948136724131 -156.67032886726702 0 -156.67032886726702 605.20306189847543 0 0 0 0 118.09785130351702 -83.926708211201912 0 -83.926708211201912 56.482766953994542 0 0 0 0 32.385613347106755 -145.74264380189197 0 -145.74264380189197 370.97919955919497 0 0 0 0 -16.144491616055348 -93.785041428112891 0 -93.785041428112891 370.1289617065475 0 0 0 0 1.3312324032707892 -1.169952471450749 0 -1.169952471450749 -0.74682987821477553 0 0 0 0 -23.868388945759307 -122.87980008662089 0 -122.87980008662089 307.63260322879432 0 0 0 0 11.792149636728027 59.973925595078981 0 59.973925595078981 236.4329270244798 0 0 0 0 -1.1843472658624492 -0.04671568129126058 0 -0.04671568129126058 1.9710070999897766 0 0 0 0 11.925546761503028 68.179293414073982 0 68.179293414073982 524.15347136493347 0 0 0 0 -32.065905980612015 -5.1879723040956094 0 -5.1879723040956094 166.60276324048027 0 0 0 0 1.6444090182601077 -0.43009827798719868 0 -0.43009827798719868 -0.29421332175945736 0 0 0 0 -186.36544674198649 -204.33366154726536 0 -204.33366154726536 91.76064927235484 0 0 0 0 -556.17128968907127 143.1670363800913 0 143.1670363800913 139.88884176136344 0 0 0 0 4.1170849329728298 -0.62595645575493108 0 -0.62595645575493108 -13.69013288628048 0 0 0 0 3.3013492130171471 -3.7830514051538557 0 -3.7830514051538557 1.2286624589614803 0 0 0 0 1.8632937247471091 -2.0891762932478741 0 -2.0891762932478741 -5.1129187394908513 0 0 0 0 2.358507394346816 -4.1711071412646561 0 -4.1711071412646561 1.3001960242695532 0 0 0 0 1.8557397553522819 -1.7669287174437969 0 -1.7669287174437969 -0.52687928724584765 0 0 0 0 2.9973736060192095 -7.3779373050529102 0 -7.3779373050529102 3.5823787319750409 0 0 0 0 6.2305183607795698 -6.6931408428508803 0 -6.6931408428508803 -2.4089682078956685 0 0 0 0 1.2548727747171142 -4.1477657389368687 0 -4.1477657389368687 -5.2305473142146184 0 0 0 0 2.9880053087970833 -3.9309068979336814 0 -3.9309068979336814 -5.2597160143706319 0 0 0 0 0.7281643051555875 -4.1124401959750685 0 -4.1124401959750685 -2.2999215049712802 0 0 0 0 8.0826140465987919 -9.5770103544928133 0 -9.5770103544928133 -10.973527652731718 0 0 0 0 75.681926634122419 -63.587952297611992 0 -63.587952297611992 13.280957405298977 0 0 0 0 8.0942863155041778 -36.054867105716767 0 -36.054867105716767 5.7930690301600407 0 0 0 0 371.83148675871007 -125.59727881670369 0 -125.59727881670369 -411.71690618636057 0 0 0 0 -3.5096158540437736 -3.7669922399696318 0 -3.7669922399696318 10.454035189727708 0 0 0 0 146.18035767859192 -59.779703614556638 0 -59.779703614556638 107.10257530269155 0 0 0 0 232.30925114299407 68.6260745918662 0 68.6260745918662 -440.61368449203655 0 0 0 0 357.55919015993345 -248.18806371870596 0 -248.18806371870596 -114.5071175100893 0 0 0 0 -94.730564763097505 56.659891030287099 0 56.659891030287099 97.251167157715827 0 0 0 0 -3.1387364497016499 7.5523740420652281 0 7.5523740420652281 79.333065535143419 0 0 0 0 -840.00266399294867 -290.06073398536137 0 -290.06073398536137 290.98939532232907 0 0 0 0 -396.64231829540154 39.587241729150264 0 39.587241729150264 -222.6036000156455 0 0 0 0 -19.756138294926302 25.762075711253232 0 25.762075711253232 67.050944441054526 0 0 0 0 -6.3353687701789214 19.93754133897701 0 19.93754133897701 32.039621978714251 0 0 0 0 -23.477987156924087 -67.319332839278104 0 -67.319332839278104 9.9110923589360027 0 0 0 0 -1.0513100703838063 10.240431862192054 0 10.240431862192054 29.401406755790049 0 0 0 0 4.976531633472435 5.0554436661682551 0 5.0554436661682551 22.047427401201052 0 0 0 0 0.002420241573702353 4.9014381284472499 0 4.9014381284472499 31.533487413378197 0 0 0 0 -101.99385564638942 0.39523847122109146 0 0.39523847122109146 95.782059127410321 0 0 0 0 106.63817284781862 91.461504418715776 0 91.461504418715776 53.150089531238336 0 0 0 0 0.16030864531060551 15.466235299645859 0 15.466235299645859 4.7818333606192027 0 0 0 0 23.673418187776633 71.804240768124146 0 71.804240768124146 150.54222224070327 0 0 0 0 2.2865692942403202 1.4310607896908776 0 1.4310607896908776 16.995771537372555 0 0 0 0 57.823683856409446 5.7704155199189699 0 5.7704155199189699 -11.173500257737032 0 0 0 0 106.69978568851502 29.27473733970146 0 29.27473733970146 99.243275432534574 0 0 0 0 400.56069147289031 181.94160627496785 0 181.94160627496785 28.846250563585272 0 0 0 0 0.52162236694483644 2.6129409505857213 0 2.6129409505857213 6.1247342022488453 0 0 0 0 30.908148544179141 -41.795617660118296 0 -41.795617660118296 77.556188616888903 0 0 0 0 898.89695831459358 523.19727730765544 0 523.19727730765544 236.76008582889335 0 0 0 0 -55.863040882396376 77.12194633891886 0 77.12194633891886 596.33278180926573 0 0 0 0 3.9408777970670599 -25.125608502959949 0 -25.125608502959949 40.251339590773568 0 0 0 0 100.23699313502743 78.929698177229511 0 78.929698177229511 -108.45053936259683 0 0 0 0 10.259810143241339 73.87313946080576 0 73.87313946080576 86.717319806295563 0 0 0 0 0.25182917666434634 -2.0817226800380126 0 -2.0817226800380126 1.5205526870262105 0 0 0 0 -22.026186461914165 -71.458282757166671 0 -71.458282757166671 328.96050968599593 0 0 0 0 62.813412447963799 -98.807218746256694 0 -98.807218746256694 50.169814249962656 0 0 0 0 3.8827055066126377 -10.162968197233567 0 -10.162968197233567 10.786563841858879 0 0 0 0 20.520977723528461 -2.6933334207951702 0 -2.6933334207951702 7.1128412573452806 0 0 0 0 6.8074600221498756 -7.5257517039931088 0 -7.5257517039931088 13.17300200489494 0 0 0 0 16.04765496418986 -15.488754749749205 0 -15.488754749749205 43.283277005160926 0 0 0 0 1.3405757090894967 -1.6469646361276808 0 -1.6469646361276808 1.9825117790402871 0 0 0 0 49.867930680801635 -30.771567794199655 0 -30.771567794199655 19.939612209927873 0 0 0 0 3.2293639606353572 -4.0728929021432947 0 -4.0728929021432947 -2.6341702407758198 0 0 0 0 8.5991151914222428 -9.9766408813193266 0 -9.9766408813193266 2.6849275502681849 0 0 0 0 -15.66967490656225 1.3405204478094674 0 1.3405204478094674 -3.8707774767080991 0 0 0 0 3.7309942956181246 -3.7967838651418333 0 -3.7967838651418333 -3.3375618473618189 0 0 0 0 2.9108774761266432 0.98457884479830682 0 0.98457884479830682 -5.1487397346509169 0 0 0 0 6.4742532580985426 -8.8836630596342729 0 -8.8836630596342729 6.8103001104318537 0 0 0 0 11.202332204850105 -8.2218390787794284 0 -8.2218390787794284 -8.4916018303439955 0 0 0 0 2.8044482131017805 -3.8579168730817983 0 -3.8579168730817983 -3.426943792694324 0 0 0 0 40.500249251313562 16.748018538200995 0 16.748018538200995 -32.026447292244484 0 0 0 0 157.72950761477296 -61.061271391927221 0 -61.061271391927221 -18.452465984844821 0 0 0 0 -15.863473537046161 5.36799944654922 0 5.36799944654922 48.979007392405038 0 0 0 0 20.835856142410421 -100.46756641813772 0 -100.46756641813772 15.935532526957104 0 0 0 0 1.4384052022634526 -2.6368268481417019 0 -2.6368268481417019 1.6128644896204491 0 0 0 0 53.681990588281678 170.82316976807851 0 170.82316976807851 170.82929063112897 0 0 0 0 97.870978965164682 9.0886113744709291 0 9.0886113744709291 391.08695792402978 0 0 0 0 38.757122388997203 63.612816853152253 0 63.612816853152253 510.36246495200612 0 0 0 0 168.49612787759679 -111.96906627441058 0 -111.96906627441058 463.90460629646884 0 0 0 0 -42.508284363549478 -22.306406186662116 0 -22.306406186662116 466.28264633049548 0 0 0 0 -0.22838234924359213 -1.133343633486561 0 -1.133343633486561 2.3526884169181557 0 0 0 0 197.72938909835045 -70.081197484782024 0 -70.081197484782024 430.35361709198696 0 0 0 0 201.91883854479738 -91.584150489143212 0 -91.584150489143212 473.41025835505934 0 0 0 0 352.48652431499187 97.116531843741541 0 97.116531843741541 499.42518532277245 0 0 0 0 272.2284453432826 102.67120694242294 0 102.67120694242294 627.28591375804535 0 0 0 0 383.9370288979178 283.5767557510535 0 283.5767557510535 550.25597536999112 0 0 0 0 313.65427594160496 94.755144371932147 0 94.755144371932147 375.7970196446804 0 0 0 0 385.66419530780462 541.87969230130966 0 541.87969230130966 694.104154484623 0 0 0 0 692.57742263637908 269.80262795141698 0 269.80262795141698 347.46608689491404 0 0 0 0 131.65288878429351 228.48309897240074 0 228.48309897240074 454.81115108698577 0 0 0 0 168.40869650899461 176.59660028405779 0 176.59660028405779 527.66217027023276 0 0 0 0 18.082242300431972 60.345105279247946 0 60.345105279247946 72.824307497557129 0 0 0 0 0.044840148811301717 -3.5986781087669755 0 -3.5986781087669755 18.69048979412392 0 0 0 0 -368.63397445455212 -37.993201811083054 0 -37.993201811083054 70.408371292880474 0 0 0 0 -68.556105766457677 -35.329042201725315 0 -35.329042201725315 107.65379126608241 0 0 0 0 -4.8203541811772084 -6.320288974826326 0 -6.320288974826326 0.45637895889376523 0 0 0 0 -7.5233342557663718 -9.4584373565958231 0 -9.4584373565958231 126.34296943982918 0 0 0 0 -108.05687884769759 14.221357183378132 0 14.221357183378132 318.38366833491818 0 0 0 0 -37.71764744540269 -47.151795602352649 0 -47.151795602352649 152.79759306603228 0 0 0 0 -19.685674207396687 -101.35556343640474 0 -101.35556343640474 315.71634120197632 0 0 0 0 28.112866042884434 -41.47755856675758 0 -41.47755856675758 14.198218533170802 0 0 0 0 35.141352951623048 -0.22778438952263969 0 -0.22778438952263969 -8.5100551708737839 0 0 0 0 -0.063878231547581876 -0.52113628835055081 0 -0.52113628835055081 -0.66425864513939104 0 0 0 0 4.9811908364245028 -70.297155321161881 0 -70.297155321161881 104.52187177535961 0 0 0 0 90.09335058256022 -230.29479813739363 0 -230.29479813739363 378.19139731333053 0 0 0 0 26.260305098084245 -87.055539566754305 0 -87.055539566754305 95.328068115906717 0 0 0 0 -38.820219448461103 -40.874263447180056 0 -40.874263447180056 437.07899057606301 0 0 0 0 197.06756467942665 -124.01446781839741 0 -124.01446781839741 324.7880294211609 0 0 0 0 15.325427042994306 -46.73367714323831 0 -46.73367714323831 444.47321829362227 0 0 0 0 -186.08880928319559 -125.84283465644694 0 -125.84283465644694 399.14261738170353 0 0 0 0 -178.7402344780312 -21.449005162485264 0 -21.449005162485264 327.09232067078483 0 0 0 0 -211.12838593078368 -33.037620952190991 0 -33.037620952190991 360.0467458031635 0 0 0 0 -39.9924996604136 -100.85080179461764 0 -100.85080179461764 362.37634575117409 0 0 0 0 -137.35653181017369 -62.111029826526647 0 -62.111029826526647 359.37895449860116 0 0 0 0 -131.82126341956962 -30.297759953381501 0 -30.297759953381501 425.55549020496983 0 0 0 0 -87.996537659014393 88.344767932559989 0 88.344767932559989 429.98847896807274 0 0 0 0 -227.29595218927716 -9.287343414620409 0 -9.287343414620409 491.76761370555323 0 0 0 0 -188.98222880850767 41.430307259301117 0 41.430307259301117 408.76570026668196 0 0 0 0 -220.76506049987438 -70.229525201026263 0 -70.229525201026263 408.22077807435198 0 0 0 0 -228.13942679505817 -89.012693608412519 0 -89.012693608412519 284.51684780984215 0 0 0 0 -273.22865717630339 8.4406301571762015 0 8.4406301571762015 276.51741628646414 0 0 0 0 -149.55830478083999 -4.1964584280849522 0 -4.1964584280849522 38.63815340007568 0 0 0 0 -203.41915278136366 -94.639724255579495 0 -94.639724255579495 353.24330253665903 0 0 0 0 -223.13348437054492 -5.6750102506944131 0 -5.6750102506944131 454.54156916573265 0 0 0 0 -70.143887609703597 -157.34684099651713 0 -157.34684099651713 183.52094074198249 0 0 0 0 -195.06383414250377 55.213442317686713 0 55.213442317686713 81.406295705719458 0 0 0 0 8.5300534431407868 -7.3630201484738791 0 -7.3630201484738791 -271.29333313511597 0 0 0 0 -188.00056560287157 -136.37577053774658 0 -136.37577053774658 80.030186390940798 0 0 0 0 -155.27107676699961 44.937925854988862 0 44.937925854988862 325.47655047044191 0 0 0 0 392.48563321368039 -191.85061399181359 0 -191.85061399181359 369.51552651205566 0 0 0 0 94.188671862999399 227.42696363571486 0 227.42696363571486 347.18109782225656 0 0 0 0 151.36984171285167 406.64582866106412 0 406.64582866106412 663.07416729040415 0 0 0 0 -153.08384064493475 -4.0019215001848352 0 -4.0019215001848352 945.17904872648069 0 0 0 0 0.059395820122825072 -1.5432960650857055 0 -1.5432960650857055 7.4600063259131275 0 0 0 0 -180.93435847891476 127.04794055797925 0 127.04794055797925 734.56961800453428 0 0 0 0 -144.5905912783237 -51.509064714908163 0 -51.509064714908163 480.67350286294823 0 0 0 0 157.15044170965996 -176.46270642608943 0 -176.46270642608943 -130.17284334912983 0 0 0 0 127.93258578559642 -22.227004179541836 0 -22.227004179541836 -46.331098978203954 0 0 0 0 -45.813213222752438 -127.08317612583778 0 -127.08317612583778 -82.887510567758 0 0 0 0 84.0733913465765 -46.782220111694187 0 -46.782220111694187 -39.250778261804953 0 0 0 0 33.135007541246637 -29.460756809861778 0 -29.460756809861778 -35.260245848839986 0 0 0 0 52.609775797676775 42.106701033517311 0 42.106701033517311 -98.236865514831152 0 0 0 0 86.284538762989769 -32.222060546046123 0 -32.222060546046123 -35.501411206256307 0 0 0 0 12.681877083057785 22.844913494508901 0 22.844913494508901 19.569512070975911 0 0 0 0 6.3565120401422064 -54.899807052828692 0 -54.899807052828692 -31.855260011419887 0 0 0 0 8.6198873452654023 4.7250718542527892 0 4.7250718542527892 -5.7402298992624523 0 0 0 0 -176.83878102500967 249.68769644233544 0 249.68769644233544 -208.55036726393155 0 0 0 0 -145.24788815240754 214.7658385455652 0 214.7658385455652 -245.30519044446555 0 0 0 0 -92.62760915995932 121.58528105902042 0 121.58528105902042 -149.59340108605829 0 0 0 0 -228.10729409136638 178.01610135632473 0 178.01610135632473 -116.26854361449659 0 0 0 0 -5.7323830939525386 4.5496021214744005 0 4.5496021214744005 10.0487863198681 0 0 0 0 -321.20314390106387 136.17951077570842 0 136.17951077570842 -57.79194782122795 0 0 0 0 -330.9718480103802 326.96961295051369 0 326.96961295051369 -315.68510267736565 0 0 0 0 -241.95475971647284 135.33042513185865 0 135.33042513185865 -82.828943405547761 0 0 0 0 -285.09794648613934 128.39644515212785 0 128.39644515212785 44.931817997588951 0 0 0 0 -282.32199105636937 66.826835507850774 0 66.826835507850774 150.79478388777352 0 0 0 0 -295.35714892199348 19.24479310976767 0 19.24479310976767 86.348507917478855 0 0 0 0 -397.42074885856618 219.49928434551111 0 219.49928434551111 26.020743023902469 0 0 0 0 -279.04687005298001 216.7893108679782 0 216.7893108679782 -226.7818257591498 0 0 0 0 431.72913434587224 206.25787192954886 0 206.25787192954886 -219.90033069224955 0 0 0 0 -486.8514624101208 443.78496026490393 0 443.78496026490393 -124.40398389101028 0 0 0 0 -23.179869564579178 211.49684444827744 0 211.49684444827744 -188.50965991485282 0 0 0 0 18.572257466989129 27.864859451179786 0 27.864859451179786 27.493193642619516 0 0 0 0 -410.21594710834142 413.40156855662644 0 413.40156855662644 -298.38853896831279 0 0 0 0 -449.13708838248704 606.38945817396598 0 606.38945817396598 -409.20547187612101 0 0 0 0 -490.45780181986629 250.18616543593814 0 250.18616543593814 95.958020448335446 0 0 0 0 -301.89739070995165 93.000360559741239 0 93.000360559741239 57.836368846845289 0 0 0 0 -295.5552708993855 119.09466350622097 0 119.09466350622097 104.45860163051111 0 0 0 0 -228.40548325971304 -75.201483933125928 0 -75.201483933125928 271.04163767199498 0 0 0 0 -292.1955533702141 -40.795161677061628 0 -40.795161677061628 324.47251837643853 0 0 0 0 -15.807423546742484 -141.05286626532143 0 -141.05286626532143 256.22794290782622 0 0 0 0 312.59292915920332 60.037482048388483 0 60.037482048388483 194.74919185145336 0 0 0 0 108.38483783415222 -152.89709185060929 0 -152.89709185060929 173.72261957799492 0 0 0 0 -548.29802433064697 279.76968024442795 0 279.76968024442795 333.21164326314283 0 0 0 0 1384.383129174756 1630.9655484961022 0 1630.9655484961022 -543.39983723365003 0 0 0 0 414.84879165546408 -155.75637406630267 0 -155.75637406630267 -104.94905251586897 0 0 0 0 37.201953624961334 399.58079320254728 0 399.58079320254728 5416.5461885166478 0 0 0 0 2252.6481446010894 900.20816360593562 0 900.20816360593562 3499.2755439270113 0 0 0 0 8.6338567308079561 10.154438762602702 0 10.154438762602702 12.410029984340895 0 0 0 0 -154.92281675349156 -461.12996349364084 0 -461.12996349364084 2454.6092077686189 0 0 0 0 -739.02374807409785 261.56205816794682 0 261.56205816794682 3502.9374243741004 0 0 0 0 102.27463487768898 216.98648751897417 0 216.98648751897417 1075.2988749549877 0 0 0 0 -200.25595035971577 445.75479163811178 0 445.75479163811178 1007.0265867018861 0 0 0 0 16.538401940144681 23.886814450823476 0 23.886814450823476 28.924403978291323 0 0 0 0 206.61629631889679 -108.21210677571435 0 -108.21210677571435 110.25288344255387 0 0 0 0 210.61805851839591 232.97400729277433 0 232.97400729277433 871.55744409830459 0 0 0 0 365.70555988550501 645.68675675760096 0 645.68675675760096 925.61815308559744 0 0 0 0 -211.58706263358073 522.0157687888277 0 522.0157687888277 2579.5519674949537 0 0 0 0 -394.84421047435325 572.13889669683704 0 572.13889669683704 2581.7046110832598 0 0 0 0 525.13057533277083 1373.1545136790228 0 1373.1545136790228 2375.2894575795144 0 0 0 0 3.5200591486478428 5.124931939224119 0 5.124931939224119 8.9712335128116933 0 0 0 0 1069.4021239404274 143.08663077204255 0 143.08663077204255 3493.0894475860396 0 0 0 0 -399.97537990588978 637.06321333429059 0 637.06321333429059 3830.1387953674275 0 0 0 0 741.28824779932233 741.41614867977478 0 741.41614867977478 480.77152018052584 0 0 0 0 565.98166523311693 69.661852880410152 0 69.661852880410152 -0.51247589355625678 0 0 0 0 159.27420286659668 -363.41676670134621 0 -363.41676670134621 -163.89967522170627 0 0 0 0 159.20608566612282 426.93531577435715 0 426.93531577435715 1583.6025397492449 0 0 0 0 169.68700573560125 439.75860452047345 0 439.75860452047345 1470.5285369350368 0 0 0 0 357.24201665280123 255.10621354474551 0 255.10621354474551 798.26908977625135 0 0 0 0 127.53918117500092 12.914132131809538 0 12.914132131809538 977.25087486412303 0 0 0 0 313.59120740829201 300.25049090720313 0 300.25049090720313 846.61079519327541 0 0 0 0 277.5625036327977 75.121825804077162 0 75.121825804077162 515.1819066965727 0 0 0 0 440.88325964187288 147.11771632032833 0 147.11771632032833 431.79035949977049 0 0 0 0 679.2401973054782 357.01836044576703 0 357.01836044576703 292.01667717107193 0 0 0 0 705.41043621577296 790.7023765076874 0 790.7023765076874 766.1199694203533 0 0 0 0 487.88934344694115 434.81698141191555 0 434.81698141191555 771.00848826831225 0 0 0 0 434.28162774303797 520.40030657057923 0 520.40030657057923 1137.1432641064348 0 0 0 0 213.12435456246556 930.85145251653557 0 930.85145251653557 1869.2097996241464 0 0 0 0 214.8264619262647 959.33325038718954 0 959.33325038718954 1880.8899894408314 0 0 0 0 282.04759277654875 1565.4595679634149 0 1565.4595679634149 2927.0531246673272 0 0 0 0 748.23647809278373 1010.9435454758532 0 1010.9435454758532 1176.7497413880985 0 0 0 0 547.83032151521491 724.22340412061021 0 724.22340412061021 1006.400050243079 0 0 0 0 846.48072625276222 1496.6051085553445 0 1496.6051085553445 1160.6212343705502 0 0 0 0 243.77312837004737 1098.3201561436899 0 1098.3201561436899 2967.5900140226368 0 0 0 0 68.07059298106202 973.76794964411965 0 973.76794964411965 4189.2217502227613 0 0 0 0 984.61386655014121 2395.7071105167006 0 2395.7071105167006 3174.7180501191178 0 0 0 0 -287.19398914172967 1117.2198417300042 0 1117.2198417300042 3499.8714790937374 0 0 0 0 -355.24239770614696 685.52028395335583 0 685.52028395335583 2788.844631988808 0 0 0 0 -337.02484191723977 571.90483857001914 0 571.90483857001914 2691.6797404378158 0 0 0 0 -235.70292793232244 204.575352398213 0 204.575352398213 2057.5505976404365 0 0 0 0 -644.4428681570771 302.16110509830469 0 302.16110509830469 3499.5088319549614 0 0 0 0 -632.21774062781799 21.463796434829419 0 21.463796434829419 2595.7133889542019 0 0 0 0 -625.09066937437149 -153.16566658099509 0 -153.16566658099509 3499.1210659194803 0 0 0 0 -459.22159536050179 -398.67835783585997 0 -398.67835783585997 2451.1167388105569 0 0 0 0 -237.60058411413473 224.05797428150669 0 224.05797428150669 2312.9064076081886 0 0 0 0 -201.49728574474352 -775.5093374514372 0 -775.5093374514372 3500.230814239525 0 0 0 0 -459.8242811584862 -433.17047699144678 0 -433.17047699144678 3085.6040306642662 0 0 0 0 385.53917681622329 -656.29663426742741 0 -656.29663426742741 1016.9984916521753 0 0 0 0 189.95166404396306 -1124.0182503950309 0 -1124.0182503950309 2167.4702846316686 0 0 0 0 92.440123154714684 -350.04227284619628 0 -350.04227284619628 1088.3541797407161 0 0 0 0 -138.10003692893986 -367.74231748117018 0 -367.74231748117018 1419.946695858418 0 0 0 0 -58.295981385911546 -539.05848677069025 0 -539.05848677069025 1478.1768737879393 0 0 0 0 -80.373487487168632 107.17083084673868 0 107.17083084673868 981.63308699213667 0 0 0 0 243.68975162315866 -90.776263290850693 0 -90.776263290850693 124.8546429399612 0 0 0 0 136.1066487068164 120.29974464043335 0 120.29974464043335 173.3354505657444 0 0 0 0 263.73001269603742 -515.27944605019093 0 -515.27944605019093 644.08070750855768 0 0 0 0 -62.216482754821186 -154.96019248244556 0 -154.96019248244556 1668.2505964667253 0 0 0 0 -229.48675314953834 -322.51652806216771 0 -322.51652806216771 2423.9005819069143 0 0 0 0 -60.949557555287925 -152.78879928035076 0 -152.78879928035076 1620.9045849004397 0 0 0 0 -8.5631051112200396 -171.48355860607626 0 -171.48355860607626 1595.2774366027334 0 0 0 0 0.7352258388753885 -0.98605499994528856 0 -0.98605499994528856 0.66462582020930228 0 0 0 0 37.956716590774022 -21.414365309527057 0 -21.414365309527057 -8.6932775286877586 0 0 0 0 158.1355923472924 214.47527843503451 0 214.47527843503451 1192.0693133366585 0 0 0 0 101.21447386572413 -241.4539067351734 0 -241.4539067351734 712.74560984448181 0 0 0 0 -1.3708235514171494 0.47706119648004375 0 0.47706119648004375 0.74842635292910131 0 0 0 0 402.74284587801753 53.306333363676458 0 53.306333363676458 118.7577984241434 0 0 0 0 57.81327951124058 308.20747492757073 0 308.20747492757073 256.81572103564031 0 0 0 0 363.67458197521842 108.00917113352807 0 108.00917113352807 591.48047857515121 0 0 0 0 334.53268112624573 202.05844681273447 0 202.05844681273447 290.15070143578851 0 0 0 0 47.728259420663562 301.05846663856937 0 301.05846663856937 508.82797066376952 0 0 0 0 321.84632190212471 534.8528819101266 0 534.8528819101266 790.74057429991626 0 0 0 0 2.205489769737369 -19.713997925735384 0 -19.713997925735384 40.252563180772995 0 0 0 0 81.384843932699823 332.71237181304969 0 332.71237181304969 346.55577225628804 0 0 0 0 89.561651528702896 220.75777228799052 0 220.75777228799052 215.5149091325984 0 0 0 0 -93.781405295995683 93.018390729750536 0 93.018390729750536 354.0327549136 0 0 0 0 43.692695480696671 34.360821039330403 0 34.360821039330403 5.4672942856850568 0 0 0 0 -15.713219688144846 29.949661032680979 0 29.949661032680979 130.58434931340889 0 0 0 0 -3.7307151699080183 2.5851510314716784 0 2.5851510314716784 2.2786367279172026 0 0 0 0 -11.486392215458636 -13.719037936723907 0 -13.719037936723907 44.776096637091541 0 0 0 0 39.186764030731496 -85.087133409700982 0 -85.087133409700982 129.96282098142456 0 0 0 0 -24.342936658580896 -7.7819462734632907 0 -7.7819462734632907 66.101859181762848 0 0 0 0 -0.33027415161115425 2.6973307601456007 0 2.6973307601456007 12.962522660192597 0 0 0 0 -3.5565588520139499 12.548331754591345 0 12.548331754591345 48.467534863130368 0 0 0 0 -37.900906367016319 -1.1133382893463022 0 -1.1133382893463022 63.424165125800755 0 0 0 0 -60.112991639922996 103.04237874445971 0 103.04237874445971 186.3704531438907 0 0 0 0 -53.675703435130117 7.0430022339460265 0 7.0430022339460265 67.938004970218117 0 0 0 0 1.9778468780805798 16.321729115880842 0 16.321729115880842 50.403453046975883 0 0 0 0 -13.336490600258912 7.9543098076483147 0 7.9543098076483147 47.49490329069522 0 0 0 0 2.7478137675909693 9.7123488980528236 0 9.7123488980528236 35.69460480633461 0 0 0 0 -5.8772183265564308 11.282395858061136 0 11.282395858061136 45.277403193162172 0 0 0 0 -8.9309823387825844 -7.4040720603166257 0 -7.4040720603166257 11.647514807625086 0 0 0 0 3.2821258685535213 11.16707167668028 0 11.16707167668028 34.245200268254848 0 0 0 0 -13.001681175904444 -5.7033677480925871 0 -5.7033677480925871 26.248688819732855 0 0 0 0 -9.0680334387986612 -4.7256650120453045 0 -4.7256650120453045 10.443011941951401 0 0 0 0 120.58604148106042 224.04206953983521 0 224.04206953983521 72.122443665664377 0 0 0 0 -17.629624795609288 15.383807998263364 0 15.383807998263364 86.451905798463486 0 0 0 0 -6.1482532098014042 -1.8625252554827618 0 -1.8625252554827618 9.7846159335552159 0 0 0 0 -3.9924108327306502 6.5745280607277223 0 6.5745280607277223 4.8952793657090723 0 0 0 0 -0.038868821306095924 7.9291567034379113 0 7.9291567034379113 26.825039686031232 0 0 0 0 -3.5528344325445156 7.4691066285747389 0 7.4691066285747389 32.372859690442155 0 0 0 0 -9.217066714612935 1.2968374008731303 0 1.2968374008731303 15.279867521765638 0 0 0 0 -54.656338366915406 118.15380135720989 0 118.15380135720989 130.32345418902696 0 0 0 0 201.12072014051591 174.88633650432166 0 174.88633650432166 170.55068471085542 0 0 0 0 306.61549732423555 218.1952988979283 0 218.1952988979283 62.843051118544281 0 0 0 0 159.71759876044689 318.58613096354566 0 318.58613096354566 248.97961479832884 0 0 0 0 -116.43590751317333 -144.03325716630479 0 -144.03325716630479 186.12277424936838 0 0 0 0 138.78380532387746 -141.06934086273668 0 -141.06934086273668 -148.38012517752213 0 0 0 0 331.10050753615633 59.087619062882368 0 59.087619062882368 -90.403618435053886 0 0 0 0 727.14341413601437 -147.82631767700082 0 -147.82631767700082 77.895683056965936 0 0 0 0 946.60371318633747 639.49715288861762 0 639.49715288861762 433.12609173593228 0 0 0 0 535.60731669842755 462.94315432513213 0 462.94315432513213 197.15276497979721 0 0 0 0 412.43586743149535 227.49629776691654 0 227.49629776691654 127.63501208599337 0 0 0 0 45.47858095771403 220.53625959099099 0 220.53625959099099 744.14735557562381 0 0 0 0 222.43457992863523 579.07963177223792 0 579.07963177223792 605.1370505476516 0 0 0 0 158.05745175505172 444.78516652591316 0 444.78516652591316 383.43046106056499 0 0 0 0 210.50742383611808 191.80946157375365 0 191.80946157375365 184.55834596004956 0 0 0 0 148.15494458154217 235.65136636504212 0 235.65136636504212 161.11231297767881 0 0 0 0 167.33133232472096 368.5312141312188 0 368.5312141312188 452.88230870153166 0 0 0 0 239.2267269301019 506.0559045537666 0 506.0559045537666 418.35195503440991 0 0 0 0 439.73916451570244 444.57066373686939 0 444.57066373686939 262.14742564658991 0 0 0 0 151.5807072311045 393.30214333912772 0 393.30214333912772 436.4536953166571 0 0 0 0 280.87545122897507 398.70430504068099 0 398.70430504068099 378.51302425116774 0 0 0 0 164.79550554375101 367.05322129004708 0 367.05322129004708 270.48397404497882 0 0 0 0 219.47287734813563 361.56081211089986 0 361.56081211089986 202.88551929707342 0 0 0 0 64.26701893002155 200.27297093307061 0 200.27297093307061 192.35484634175373 0 0 0 0 160.67665351431549 449.83693480338843 0 449.83693480338843 343.51264868051294 0 0 0 0 144.39976860481124 414.93963665696901 0 414.93963665696901 373.59473374798836 0 0 0 0 -9.5027582598631852 14.734316759303738 0 14.734316759303738 71.486985362603946 0 0 0 0 -8.6976530246192851 -22.602465892841337 0 -22.602465892841337 52.607099982859722 0 0 0 0 -11.042458771145903 -21.397213428451778 0 -21.397213428451778 71.182811180119586 0 0 0 0 -22.815869776927265 3.8923771218008869 0 3.8923771218008869 17.673166772408798 0 0 0 0 351.4638228385819 244.43244846024254 0 244.43244846024254 55.451286482236355 0 0 0 0 -6.7508449556939638 -3.9658574549177388 0 -3.9658574549177388 55.587988219002455 0 0 0 0 3.5170599506391227 -16.854825809742124 0 -16.854825809742124 58.495922734881844 0 0 0 0 0.01108881813728857 -4.9607164854336645 0 -4.9607164854336645 55.686355193792451 0 0 0 0 -19.156670496427068 -15.704264965569337 0 -15.704264965569337 58.685672285478887 0 0 0 0 -9.4354557089585498 12.692486649305319 0 12.692486649305319 33.99615784404422 0 0 0 0 -8.5626204249592348 11.208954273845478 0 11.208954273845478 73.722733575087545 0 0 0 0 -97.028169378052553 218.690894063413 0 218.690894063413 77.933030148900798 0 0 0 0 -23.96857424258252 -9.8675262318200581 0 -9.8675262318200581 34.46910874969533 0 0 0 0 3.2238053710370629 5.4958530042150162 0 5.4958530042150162 7.889620632934732 0 0 0 0 -11.526660612020351 13.927700678278143 0 13.927700678278143 144.17380903371122 0 0 0 0 -53.636992296040262 -68.204885409853887 0 -68.204885409853887 82.916371391840585 0 0 0 0 -196.26381940184092 -92.062321426522885 0 -92.062321426522885 253.33623749157414 0 0 0 0 -31.134759402766576 90.052769836886 0 90.052769836886 349.39908233651022 0 0 0 0 -3.2483218598282022 -3.9110912966052727 0 -3.9110912966052727 1.9253784129486995 0 0 0 0 -44.494006239364353 -43.203842814707059 0 -43.203842814707059 -16.183484785946348 0 0 0 0 -41.975136067043422 -111.10566971145818 0 -111.10566971145818 274.54835856776481 0 0 0 0 -175.32745890573369 -17.765905587306406 0 -17.765905587306406 227.05411349108181 0 0 0 0 0.30811736717777904 -2.7240344108431245 0 -2.7240344108431245 -0.038065052002401956 0 0 0 0 9.8748202538017722 0.079832883384369779 0 0.079832883384369779 27.608005637885071 0 0 0 0 -12.006185757945696 -9.2746864120028185 0 -9.2746864120028185 9.9428027789490621 0 0 0 0 -7.5605633951290656 11.325118721002582 0 11.325118721002582 64.241182954841861 0 0 0 0 -152.95690765596282 -26.92709821963922 0 -26.92709821963922 7.5870936402243387 0 0 0 0 -8.5820282877394956 -4.8300286837587052 0 -4.8300286837587052 11.486560735516214 0 0 0 0 -18.010399674352811 4.0371478281813324 0 4.0371478281813324 53.490819364669733 0 0 0 0 -21.326120466032478 -8.6548620839009693 0 -8.6548620839009693 14.32104555527547 0 0 0 0 -45.583254257785484 -41.072259814819517 0 -41.072259814819517 -10.309271297170199 0 0 0 0 -28.321657874019404 -29.388545077727777 0 -29.388545077727777 48.30682257228063 0 0 0 0 -20.325925529916148 -12.000439906192447 0 -12.000439906192447 14.794375803081664 0 0 0 0 -299.38772870619158 -78.941386256850137 0 -78.941386256850137 280.94390354433472 0 0 0 0 -184.20289574252172 -174.39397577591569 0 -174.39397577591569 28.444238257865436 0 0 0 0 -106.13545696827913 -9.3733736463636887 0 -9.3733736463636887 23.107640949828408 0 0 0 0 -89.145179717158655 127.91707927952024 0 127.91707927952024 217.27419269319262 0 0 0 0 -26.828132125279581 20.648251318312759 0 20.648251318312759 55.979853291739573 0 0 0 0 -59.514910680094495 28.614375262803321 0 28.614375262803321 54.060513203639857 0 0 0 0 -23.149951280029427 28.020000934063091 0 28.020000934063091 2.9072663184788325 0 0 0 0 -32.896619203261366 32.337827758202366 0 32.337827758202366 29.067645210426519 0 0 0 0 20.547991003666908 5.3727061515203332 0 5.3727061515203332 33.135185076649577 0 0 0 0 129.32490252566731 87.275765713450937 0 87.275765713450937 34.520735471664068 0 0 0 0 185.26705684857149 -317.62449597989689 0 -317.62449597989689 19.702441442947929 0 0 0 0 1.3837877335813844 1.6808773864165572 0 1.6808773864165572 2.1726760417076907 0 0 0 0 -118.98967750764808 -4.9823416956726305 0 -4.9823416956726305 142.66843933665132 0 0 0 0 60.026828182116788 -91.857361636859423 0 -91.857361636859423 110.13743379433959 0 0 0 0 -35.468893689517586 -65.722762149233859 0 -65.722762149233859 167.79363301034573 0 0 0 0 1.2051288073171846 1.7981602569096689 0 1.7981602569096689 11.109382427559787 0 0 0 0 20.264763009955004 4.2358714102138038 0 4.2358714102138038 28.575187887312495 0 0 0 0 0.58037468190823915 -23.733799913145901 0 -23.733799913145901 52.881123731810476 0 0 0 0 -3.2099937370420548 -13.752276678383168 0 -13.752276678383168 42.938620829310821 0 0 0 0 -6.2693513948161126 3.0382914240983609 0 3.0382914240983609 23.191406569764354 0 0 0 0 -5.481748810378825 -3.2976279396082107 0 -3.2976279396082107 31.347988905109833 0 0 0 0 -10.856720693772932 5.4337171454410402 0 5.4337171454410402 25.811027661279404 0 0 0 0 -12.977374942441884 9.659806606088523 0 9.659806606088523 42.810561616000996 0 0 0 0 -69.711606101755194 -24.816450119720685 0 -24.816450119720685 47.592872332053958 0 0 0 0 -5.5472564066709413 7.5036447032642162 0 7.5036447032642162 40.946057578171747 0 0 0 0 -6.1044203264594969 3.9513372381790504 0 3.9513372381790504 46.137341020072753 0 0 0 0 -12.313838431259683 9.9928115892967071 0 9.9928115892967071 33.898857606801812 0 0 0 0 -5.3509087306143295 5.0262409966789932 0 5.0262409966789932 43.447050558467375 0 0 0 0 -0.27260424436117248 10.765623019596541 0 10.765623019596541 47.583898260221929 0 0 0 0 -130.09600685005478 50.595891181292245 0 50.595891181292245 55.968268828193686 0 0 0 0 -2.1052658073124233 1.5546350078061923 0 1.5546350078061923 7.6590498280366832 0 0 0 0 7.4839208159132795 -1.1427155250175929 0 -1.1427155250175929 50.303321472758398 0 0 0 0 -30.144402815882309 37.950606644471009 0 37.950606644471009 52.445059491439679 0 0 0 0 -4.1962426616987702 2.185914718595976 0 2.185914718595976 8.4191458197482802 0 0 0 0 -3.3804474080155051 12.521358841614074 0 12.521358841614074 70.607289368927923 0 0 0 0 81.818950605985052 89.447865490205913 0 89.447865490205913 -186.6963504239302 0 0 0 0 279.9253403385585 257.61428466912184 0 257.61428466912184 -117.71128667360676 0 0 0 0 -100.0995738309521 313.70953179565981 0 313.70953179565981 365.50156614543357 0 0 0 0 19.360261076854385 -9.4316926681267432 0 -9.4316926681267432 203.34595006803056 0 0 0 0 3.5922639244142345 4.0874201379293069 0 4.0874201379293069 18.207998134950412 0 0 0 0 -237.19680798630799 -16.113421877385008 0 -16.113421877385008 49.120962400141991 0 0 0 0 -253.65836455901251 78.148818335931537 0 78.148818335931537 49.878072437204764 0 0 0 0 -194.18135660667986 -10.512204458996166 0 -10.512204458996166 46.003066413827923 0 0 0 0 -41.188716907259845 6.3959665568911532 0 6.3959665568911532 47.863867315955758 0 0 0 0 -57.83398854488297 99.114849115037941 0 99.114849115037941 -53.235914602753837 0 0 0 0 185.33027626206751 -40.863483212962819 0 -40.863483212962819 -175.71997197909332 0 0 0 0 -28.357292095131953 -269.02025135264284 0 -269.02025135264284 542.95293894091901 0 0 0 0 16.850046924668391 -236.88485624205441 0 -236.88485624205441 176.67984880843687 0 0 0 0 2.7115039143049002 11.569172625807175 0 11.569172625807175 38.18126203357351 0 0 0 0 1006.7525647936534 -1980.9066322993722 0 -1980.9066322993722 3366.7968163389614 0 0 0 0 1.0406274539790705 3.155184830685501 0 3.155184830685501 16.69070979608173 0 0 0 0 215.59214271750739 450.00288004456615 0 450.00288004456615 99.722156038417666 0 0 0 0 27.387367136873245 680.45191720922719 0 680.45191720922719 1361.0348832064956 0 0 0 0 -494.36108276561907 -590.62329941035796 0 -590.62329941035796 3353.4314184247237 0 0 0 0 466.62500238152336 -937.3089522144187 0 -937.3089522144187 3300.8444243230851 0 0 0 0 70.267367031449339 -315.72993101622455 0 -315.72993101622455 3784.4471950542356 0 0 0 0 841.58716229045956 -596.16358832586639 0 -596.16358832586639 3499.2651498186533 0 0 0 0 -240.50504296845958 147.44767656737793 0 147.44767656737793 2902.0278717116112 0 0 0 0 386.35393898471432 55.302450630184126 0 55.302450630184126 199.35884207959862 0 0 0 0 211.52418966698215 -725.95111380563776 0 -725.95111380563776 338.3519188679287 0 0 0 0 2.1027572256585429 -2.8142139771375225 0 -2.8142139771375225 4.0204261754287316 0 0 0 0 -86.092983034551295 -767.47306165277359 0 -767.47306165277359 3501.0849183501537 0 0 0 0 -163.51345964628393 -1110.3253052153079 0 -1110.3253052153079 2767.0542381178225 0 0 0 0 -199.57710317347789 -1186.4756515744127 0 -1186.4756515744127 3494.8851385913222 0 0 0 0 942.98576663086931 -1711.0023764513587 0 -1711.0023764513587 2380.1131204448639 0 0 0 0 4.9662917940534168 6.8263930392087442 0 6.8263930392087442 20.584734737815513 0 0 0 0 -138.39355543025113 -175.14161254861665 0 -175.14161254861665 437.20895984382253 0 0 0 0 1490.8551201439334 1119.0772661317446 0 1119.0772661317446 414.43389263723691 0 0 0 0 119.41133184583965 1792.8666482352321 0 1792.8666482352321 3492.2049683842329 0 0 0 0 -55.604767766050813 1255.5069915355439 0 1255.5069915355439 2329.6114475174109 0 0 0 0 -170.90928588866169 1116.5567063255262 0 1116.5567063255262 3501.3941658015001 0 0 0 0 -94.438597126807224 632.86043887708638 0 632.86043887708638 3401.8275246528119 0 0 0 0 -326.31993488627779 24.839260966912661 0 24.839260966912661 1814.0387931528458 0 0 0 0 8.1852604269574023 9.4371147175504966 0 9.4371147175504966 4.9901081834209347 0 0 0 0 -111.22252231315542 105.3599793608073 0 105.3599793608073 -36.382580535446323 0 0 0 0 569.24706988106777 607.80388039642366 0 607.80388039642366 479.53976269720897 0 0 0 0 -163.89612961036505 -22.490327760115406 0 -22.490327760115406 209.10329042002559 0 0 0 0 4.1600784278044962 4.7092440459930529 0 4.7092440459930529 4.4729352189405311 0 0 0 0 98.859199628047122 427.20665466876744 0 427.20665466876744 -326.10171570006423 0 0 0 0 21.572568750888763 -52.299712211366568 0 -52.299712211366568 135.26492293262345 0 0 0 0 -106.92241678991775 18.022080819498115 0 18.022080819498115 183.82651086885744 0 0 0 0 -192.36353981094209 95.491968103101044 0 95.491968103101044 132.85625332614291 0 0 0 0 -129.34913171615653 -21.047475214090809 0 -21.047475214090809 77.469036672757284 0 0 0 0 -135.53004518139596 -17.52952878828728 0 -17.52952878828728 141.5093744977919 0 0 0 0 -4.044869171715618 1.9020055522414623 0 1.9020055522414623 53.963115871763875 0 0 0 0 -1.3159375611744508 15.618967505410183 0 15.618967505410183 79.848328632154335 0 0 0 0 3.486447798027557 7.3050436712530455 0 7.3050436712530455 15.211160634869053 0 0 0 0 -0.63384744979495444 2.2911447569425292 0 2.2911447569425292 17.582454424874093 0 0 0 0 8.8117765593467539 7.4393482664991097 0 7.4393482664991097 64.81210449223363 0 0 0 0 -4.4779854093649192 7.5277806703379611 0 7.5277806703379611 53.035472936780934 0 0 0 0 -5.6869587058898947 -5.3488658353972074 0 -5.3488658353972074 39.946363101671167 0 0 0 0 -7.0866142923005162 -8.5605018140773161 0 -8.5605018140773161 40.065235394022885 0 0 0 0 5.8603396337638749 16.55549026199397 0 16.55549026199397 50.017327714931426 0 0 0 0 -22.888429395862659 -54.508803639912003 0 -54.508803639912003 -24.178433044942722 0 0 0 0 -194.02187294772602 7.6633213065588279 0 7.6633213065588279 90.342696562755009 0 0 0 0 -1.8618903151455015 -9.8797322535183412 0 -9.8797322535183412 54.324565868164427 0 0 0 0 169.90370833108614 -232.69395173533667 0 -232.69395173533667 63.203477865468813 0 0 0 0 -329.56261388107998 -39.119183850951231 0 -39.119183850951231 3499.0036668519333 0 0 0 0 -340.38777325565917 205.50992013297764 0 205.50992013297764 2682.8065583706139 0 0 0 0 -224.49947355522181 378.07428673446702 0 378.07428673446702 2649.2788763563813 0 0 0 0 -88.680804805026469 193.86362998745608 0 193.86362998745608 2298.6452691784179 0 0 0 0 -351.88781049454877 429.02748921180728 0 429.02748921180728 3499.1994424694349 0 0 0 0 18.502092774193066 604.00816467003915 0 604.00816467003915 2654.3405408882591 0 0 0 0 81.595559674096876 941.62093892301891 0 941.62093892301891 2972.6223232026568 0 0 0 0 108.74273965394241 139.94038696457392 0 139.94038696457392 450.83812014191972 0 0 0 0 -70.844065617030651 -88.92969275735777 0 -88.92969275735777 986.11200424937851 0 0 0 0 53.744596392309404 -187.82778601226164 0 -187.82778601226164 624.92368797097879 0 0 0 0 152.79315124180414 -165.61351830042258 0 -165.61351830042258 629.87238473176694 0 0 0 0 312.85463027797954 1052.748736417022 0 1052.748736417022 1430.1228142640193 0 0 0 0 198.39558726910096 419.9665772862727 0 419.9665772862727 1813.4935381216801 0 0 0 0 417.29231206309822 -41.646103816547111 0 -41.646103816547111 34.287408512522234 0 0 0 0 -11.878505146977091 -451.70666833003452 0 -451.70666833003452 1254.9603427097372 0 0 0 0 5.7694570232567992 5.6834601791852961 0 5.6834601791852961 7.5436433965321186 0 0 0 0 831.32676039516741 67.425734591182845 0 67.425734591182845 -95.334106673519273 0 0 0 0 189.07200528718195 260.59236929014241 0 260.59236929014241 1879.5950011372024 0 0 0 0 90.766041539202661 75.650509513101497 0 75.650509513101497 104.04592697452608 0 0 0 0 169.32478710035639 256.90568781951333 0 256.90568781951333 301.8890346011467 0 0 0 0 0.23010940076028064 -0.84653695479111946 0 -0.84653695479111946 0.82151997922279207 0 0 0 0 19.615885356373838 -143.74515929195331 0 -143.74515929195331 -416.7044877153312 0 0 0 0 139.81655012210035 -350.61349756208438 0 -350.61349756208438 -145.32472118700753 0 0 0 0 13.495131822016168 15.009121117303437 0 15.009121117303437 17.11367794329945 0 0 0 0 89.120789736143223 181.38058259114223 0 181.38058259114223 82.114426488886238 0 0 0 0 195.09910969285647 171.59522934537017 0 171.59522934537017 143.84737640582898 0 0 0 0 235.91982785019422 85.021026316220741 0 85.021026316220741 -59.995394088604371 0 0 0 0 59.05244554346681 -110.5453893422532 0 -110.5453893422532 140.76882804718844 0 0 0 0 180.88133782648509 7.8261716428714863 0 7.8261716428714863 216.39608422261153 0 0 0 0 113.61222001101214 -133.31081846076631 0 -133.31081846076631 203.21430865874208 0 0 0 0 33.831406133527935 -73.431977467927936 0 -73.431977467927936 173.93213225609725 0 0 0 0 106.17338801541985 -38.019882684675395 0 -38.019882684675395 -22.008409599318838 0 0 0 0 136.25390325225987 -101.57656174371186 0 -101.57656174371186 -2.0701285819413897 0 0 0 0 102.77127733363659 -35.851466595631791 0 -35.851466595631791 -11.769683001795784 0 0 0 0 85.075846431815535 -21.952736232375173 0 -21.952736232375173 1.2329440672256169 0 0 0 0 128.33003237169191 -3.21573807558525 0 -3.21573807558525 44.634046221966855 0 0 0 0 60.510002222906905 -85.916337289359944 0 -85.916337289359944 137.89522023449535 0 0 0 0 91.94179194370713 -51.466036791949591 0 -51.466036791949591 -4.6393815850096871 0 0 0 0 126.4012330102978 -81.572124249199987 0 -81.572124249199987 124.40326167577587 0 0 0 0 274.8256360597311 -28.979366161234793 0 -28.979366161234793 142.98266200747457 0 0 0 0 -0.49271204926800438 1.8312849549352848 0 1.8312849549352848 3.6699617744661097 0 0 0 0 106.19965036219673 -75.100517278140615 0 -75.100517278140615 99.810786286820075 0 0 0 0 58.985152931707262 -24.907779390547148 0 -24.907779390547148 128.91934047166433 0 0 0 0 74.786770404239178 -55.759203573448758 0 -55.759203573448758 165.21955992784933 0 0 0 0 124.33350604786028 -114.06020759022795 0 -114.06020759022795 159.1475404538669 0 0 0 0 67.683243044943083 -100.0723433219755 0 -100.0723433219755 134.20243027147808 0 0 0 0 -8.6346866964016442 -31.200867095004241 0 -31.200867095004241 45.60982995759332 0 0 0 0 -9.1783374649225955 -10.411660124240143 0 -10.411660124240143 70.929904686039663 0 0 0 0 -10.043589528627141 -2.8416055070842816 0 -2.8416055070842816 29.13974403136163 0 0 0 0 -7.2305663852512225 -1.9380777422338724 0 -1.9380777422338724 46.725222799494077 0 0 0 0 14.880303738922168 19.489972052183745 0 19.489972052183745 23.38324455601775 0 0 0 0 -42.199551830703513 49.099314901906837 0 49.099314901906837 46.546383805409278 0 0 0 0 39.953869246444128 32.349707070883596 0 32.349707070883596 49.207192195710377 0 0 0 0 -17.310220935306461 -17.9226084202528 0 -17.9226084202528 71.440423906253272 0 0 0 0 113.03264280293661 22.208224255322421 0 22.208224255322421 43.888866831490304 0 0 0 0 3.1105293792971906 17.701253935865225 0 17.701253935865225 48.113701383364969 0 0 0 0 46.249397093602056 -7.9851847792415356 0 -7.9851847792415356 51.422078589180273 0 0 0 0 45.575304191221562 51.123618311202307 0 51.123618311202307 82.852629777487891 0 0 0 0 102.54866431621855 82.716608176069712 0 82.716608176069712 80.952286418767471 0 0 0 0 -25.183214652058041 -2.2684405160598544 0 -2.2684405160598544 85.684090093855048 0 0 0 0 2.0005453054358133 -7.6927339698491952 0 -7.6927339698491952 53.039019348084572 0 0 0 0 5.3471273186823964 -8.7610308642988457 0 -8.7610308642988457 66.778764460413527 0 0 0 0 -17.405799582340876 -35.377076931190459 0 -35.377076931190459 118.7835690221109 0 0 0 0 -3.4161434522338832 -3.2063679585719242 0 -3.2063679585719242 14.337813922841974 0 0 0 0 2.9525200320936165 -10.763892654604206 0 -10.763892654604206 66.610133857348359 0 0 0 0 -60.192739887684063 45.486047230246072 0 45.486047230246072 74.062148082614385 0 0 0 0 -2.5339420452768664 13.628134279416138 0 13.628134279416138 22.835502767011263 0 0 0 0 -35.161396377303404 9.9144323630675704 0 9.9144323630675704 76.825949286943796 0 0 0 0 -8.4473179109266603 -17.027348082291677 0 -17.027348082291677 66.673103412786702 0 0 0 0 -13.972652869682825 -13.307306559288804 0 -13.307306559288804 96.963161962088407 0 0 0 0 -7.4330565465370455 -11.775454217828155 0 -11.775454217828155 115.40370224454273 0 0 0 0 -3.6920553633347026 -14.28119323418332 0 -14.28119323418332 75.031419253733475 0 0 0 0 -8.414093768302596 2.0958059588510807 0 2.0958059588510807 25.185055330664454 0 0 0 0 -31.536940961422715 -8.5118764278831804 0 -8.5118764278831804 95.066845566212578 0 0 0 0 2.2108075595425589 48.112697079979398 0 48.112697079979398 142.30557838901586 0 0 0 0 -50.828620401961189 56.378049887453017 0 56.378049887453017 207.42238283628103 0 0 0 0 -112.11814556670629 -45.904495818326723 0 -45.904495818326723 135.22271541583541 0 0 0 0 -0.76936381164104795 -0.68552022282575109 0 -0.68552022282575109 0.10787134175489399 0 0 0 0 -64.080871837347786 14.28633381902182 0 14.28633381902182 174.66247977540843 0 0 0 0 -70.129004610629181 -89.745951982178667 0 -89.745951982178667 178.61928909425683 0 0 0 0 26.880706566698677 -44.092210888776208 0 -44.092210888776208 77.361694906721823 0 0 0 0 20.177041347841396 -53.203714693969232 0 -53.203714693969232 79.725909122234953 0 0 0 0 -55.998789843572695 29.395253887664694 0 29.395253887664694 -2.9443886994558852 0 0 0 0 -105.99360530410468 -57.528330000360711 0 -57.528330000360711 133.27105667107389 0 0 0 0 -31.882623188613252 -32.733685600862373 0 -32.733685600862373 65.276205819525785 0 0 0 0 -41.199174095203034 9.0843457530718297 0 9.0843457530718297 39.667591684134095 0 0 0 0 0.60873539674639687 -13.706586273137873 0 -13.706586273137873 50.699123766913544 0 0 0 0 -118.25097394549675 71.910449432283713 0 71.910449432283713 6.7347234759399726 0 0 0 0 -4.4267399268073859 -43.639694439609229 0 -43.639694439609229 60.58766558433399 0 0 0 0 -0.96555678380231447 -2.7932943383060085 0 -2.7932943383060085 3.9400971106448637 0 0 0 0 -125.55497150273959 -23.480893168465627 0 -23.480893168465627 90.733188527650782 0 0 0 0 42.913250085507116 -6.6853987656995741 0 -6.6853987656995741 54.025110767426668 0 0 0 0 -5.6791530067594067 -77.019875666152075 0 -77.019875666152075 -1.4234281676897353 0 0 0 0 58.287828260360584 -44.350234287630883 0 -44.350234287630883 40.930693437056107 0 0 0 0 2.3428199861159555 7.9044907124662132 0 7.9044907124662132 20.910874377419532 0 0 0 0 6.45659657234458 -65.341980293352663 0 -65.341980293352663 99.148878595238784 0 0 0 0 60.140642184232092 -69.285838344272634 0 -69.285838344272634 55.248330993410491 0 0 0 0 21.302855793734125 19.220677626475663 0 19.220677626475663 77.233610421254525 0 0 0 0 123.65276232070846 -126.54767254925173 0 -126.54767254925173 72.592897490441828 0 0 0 0 -1.2778550005226874 -0.66699137369057837 0 -0.66699137369057837 5.3078392724458112 0 0 0 0 160.02914031135424 -111.88887041737325 0 -111.88887041737325 21.423683884415368 0 0 0 0 74.244711360661313 -108.66221108727041 0 -108.66221108727041 68.283591007922951 0 0 0 0 -73.973216133405003 56.701077991441707 0 56.701077991441707 69.739837148452352 0 0 0 0 78.068657050279796 -32.934227245042166 0 -32.934227245042166 14.327908013234264 0 0 0 0 37.729958357586838 -53.847792378914164 0 -53.847792378914164 29.819324388718996 0 0 0 0 115.31535372004373 78.026129940967621 0 78.026129940967621 28.218392482172931 0 0 0 0 186.47304968921162 -58.152355125643226 0 -58.152355125643226 1.6811723359023745 0 0 0 0 -8.9850841556256 12.215707964649482 0 12.215707964649482 60.597081167526994 0 0 0 0 -2.6975318941144906 31.244984717535772 0 31.244984717535772 60.418239642360277 0 0 0 0 -2.1230470370960886 3.901854612521312 0 3.901854612521312 4.4083061271845878 0 0 0 0 -148.4896978905108 -34.39185903712314 0 -34.39185903712314 40.649861459062777 0 0 0 0 2.1467694334442626 2.7983399403372005 0 2.7983399403372005 57.422196406525472 0 0 0 0 -3.1411605417146942 11.589395038805801 0 11.589395038805801 37.68554531700461 0 0 0 0 4.105138868854965 -2.934642841508321 0 -2.934642841508321 49.78063839119568 0 0 0 0 -2.1812339546152089 -2.896405194250292 0 -2.896405194250292 49.803559468829917 0 0 0 0 0.46118525380620667 2.1070377712132995 0 2.1070377712132995 48.092008923553294 0 0 0 0 0.12200196830203236 -5.6617856275142495 0 -5.6617856275142495 32.399221515359109 0 0 0 0 2.4722677858518978 -9.6295648870021751 0 -9.6295648870021751 66.66429976736157 0 0 0 0 1.320559926167391 -11.500440203673065 0 -11.500440203673065 66.582992186102288 0 0 0 0 -8.8721857438291103 9.2970943190226318 0 9.2970943190226318 30.755085165242765 0 0 0 0 0.34883952976406363 -2.222172163274081 0 -2.222172163274081 49.265108215582131 0 0 0 0 -0.45320217248672634 -1.8988011189685494 0 -1.8988011189685494 68.911063352178644 0 0 0 0 -0.95806322011821976 9.5197197143461381 0 9.5197197143461381 54.993826946398485 0 0 0 0 -1.174929841221001 9.669037122298505 0 9.669037122298505 69.477310546978742 0 0 0 0 -10.90468533407855 -25.209894369206921 0 -25.209894369206921 47.205776220634569 0 0 0 0 -6.0640150408817135 -1.5154882545612054 0 -1.5154882545612054 96.408858005932416 0 0 0 0 -4.5282616400913867 19.983087327313115 0 19.983087327313115 101.70002005081687 0 0 0 0 -2.7048505586041562 16.545690638572164 0 16.545690638572164 50.879467144123652 0 0 0 0 -37.025556060879353 33.706894213505279 0 33.706894213505279 130.75802288663121 0 0 0 0 19.563673326809749 -79.029096062395553 0 -79.029096062395553 33.121725976629051 0 0 0 0 -1.217357544491759 -3.3606545538220085 0 -3.3606545538220085 8.8837925481644504 0 0 0 0 4.8203413727810585 -49.520563592181972 0 -49.520563592181972 207.71068140260991 0 0 0 0 29.373666131079062 80.985222850299294 0 80.985222850299294 249.84422395893381 0 0 0 0 15.131966740358621 99.372277855326615 0 99.372277855326615 221.03640777676276 0 0 0 0 5.7220139475916767 4.5632869008344343 0 4.5632869008344343 148.94573390800412 0 0 0 0 -0.96921754277354921 16.28306308865541 0 16.28306308865541 111.74138046305552 0 0 0 0 4.1134740100228555 134.34382117016179 0 134.34382117016179 357.6072538410225 0 0 0 0 37.130954066597496 86.089114841493256 0 86.089114841493256 227.56598788359406 0 0 0 0 16.974210461117764 118.49226656729934 0 118.49226656729934 340.67058210959078 0 0 0 0 56.128622030805218 109.4632973469993 0 109.4632973469993 202.34317352498931 0 0 0 0 8.627801820563036 29.397541290690128 0 29.397541290690128 159.41955853964532 0 0 0 0 -21.283155935347168 48.569790418765706 0 48.569790418765706 150.41285332788175 0 0 0 0 -22.132587469415739 31.247181754209464 0 31.247181754209464 169.05724975794266 0 0 0 0 14.177285071373262 43.686863046460417 0 43.686863046460417 57.382467440315622 0 0 0 0 -12.349507398333117 59.508016275762998 0 59.508016275762998 98.901178080544241 0 0 0 0 -43.626791119408153 -31.363267655892116 0 -31.363267655892116 -94.976749644587926 0 0 0 0 -5.3558856353767439 8.3065584271990591 0 8.3065584271990591 21.461520136972169 0 0 0 0 51.835626353027124 -130.99410527286514 0 -130.99410527286514 -19.488144081761789 0 0 0 0 -18.689824921949253 -46.78773757175771 0 -46.78773757175771 69.520599664123921 0 0 0 0 16.317272156641479 7.9837812085652331 0 7.9837812085652331 72.843534470539453 0 0 0 0 -5.4308497952761741 -7.1921851795575549 0 -7.1921851795575549 74.16876635601875 0 0 0 0 -0.1588028443349403 23.165104744854155 0 23.165104744854155 24.761605824945157 0 0 0 0 -48.95609571152454 -56.210494768697117 0 -56.210494768697117 68.999799558208906 0 0 0 0 -12.422878320707394 -22.06814516821667 0 -22.06814516821667 53.47417907092364 0 0 0 0 -4.0038926796739815 -15.331793744773677 0 -15.331793744773677 91.30897355443085 0 0 0 0 -18.467187373936156 -55.10037481975651 0 -55.10037481975651 45.098375895416439 0 0 0 0 -9.8386966361855457 -6.7983489745540737 0 -6.7983489745540737 103.85085765157055 0 0 0 0 -59.493483083610272 13.475578947085523 0 13.475578947085523 95.756593011570658 0 0 0 0 -50.030475494639632 -77.87531095311715 0 -77.87531095311715 166.36545122889765 0 0 0 0 77.629689235080377 -30.273290779245144 0 -30.273290779245144 80.145811614176637 0 0 0 0 40.41258072848359 22.422656550450483 0 22.422656550450483 66.267992528650211 0 0 0 0 -3.0180774805751298 3.3252240432320832 0 3.3252240432320832 75.220444485657936 0 0 0 0 25.389714132868676 6.6000426773643994 0 6.6000426773643994 66.196880707237142 0 0 0 0 4.1129488946953643 3.2240968357218662 0 3.2240968357218662 33.356359293441528 0 0 0 0 -16.326285072188739 12.569137363171649 0 12.569137363171649 71.620169988664202 0 0 0 0 -3.2869389007875611 4.6523001267725022 0 4.6523001267725022 75.347929086326985 0 0 0 0 -12.595503248704745 24.02517966214873 0 24.02517966214873 124.60907420475451 0 0 0 0 -2.1450878468302266 23.391684398978917 0 23.391684398978917 12.904329113881676 0 0 0 0 -1.8204198527216704 15.767832217014075 0 15.767832217014075 71.733387908701843 0 0 0 0 17.189449539605448 35.404128072823369 0 35.404128072823369 71.803656723262975 0 0 0 0 -1.6388746258717219 -12.699237536469809 0 -12.699237536469809 43.411527072630633 0 0 0 0 -10.333626437993823 -9.0741558527778707 0 -9.0741558527778707 36.616077727807109 0 0 0 0 0.2448651246946838 43.931030921237834 0 43.931030921237834 153.19694768994304 0 0 0 0 -3.9039009971520295 5.021092700293579 0 5.021092700293579 7.418736455988892 0 0 0 0 -5.6794943085107672 -0.81992716266795185 0 -0.81992716266795185 8.0527319888053128 0 0 0 0 -126.24870348334207 56.954141016965877 0 56.954141016965877 7.5261714058724465 0 0 0 0 -111.21076612262993 104.72383544936292 0 104.72383544936292 148.43099231540691 0 0 0 0 62.958329205936195 199.43076727477455 0 199.43076727477455 379.83054032955988 0 0 0 0 -349.26116205591939 -129.79205085764261 0 -129.79205085764261 73.909253553443705 0 0 0 0 -0.43949482038932342 0.41125025216027211 0 0.41125025216027211 -0.19983093860597023 0 0 0 0 -20.88847587669062 45.611624237400974 0 45.611624237400974 156.47455003784125 0 0 0 0 -43.143011903450315 6.5931404292441584 0 6.5931404292441584 203.90556234219002 0 0 0 0 -24.268785280722568 -33.524598142052128 0 -33.524598142052128 109.28173862934636 0 0 0 0 -167.24777490938015 -104.58097237820402 0 -104.58097237820402 168.72948406550859 0 0 0 0 -108.6687326267454 -1.4519799402569333 0 -1.4519799402569333 333.82962204131763 0 0 0 0 -2.2018998969736003 1.9185592489247938 0 1.9185592489247938 162.65117537256538 0 0 0 0 -1.6720983925230257 1.5198494422911608 0 1.5198494422911608 151.42584211621215 0 0 0 0 -45.926570689256664 -22.577739119155012 0 -22.577739119155012 139.46116639280444 0 0 0 0 -21.366061886989783 -43.751405680349443 0 -43.751405680349443 69.726880961949334 0 0 0 0 71.118595012241173 -205.40073115745534 0 -205.40073115745534 39.56392607475027 0 0 0 0 43.680799480651331 135.41198121525144 0 135.41198121525144 136.67525303846503 0 0 0 0 -7.3915605937690998 210.38380610231934 0 210.38380610231934 452.33874416933372 0 0 0 0 257.44846516869757 177.17627739370414 0 177.17627739370414 304.8823688817115 0 0 0 0 294.38688281156362 648.21618852947302 0 648.21618852947302 965.86631260905688 0 0 0 0 -73.124934392425743 -45.437398244352742 0 -45.437398244352742 161.98736377478053 0 0 0 0 -23.870931813840883 -45.759114174078036 0 -45.759114174078036 166.49604603874786 0 0 0 0 -73.017603840072525 -98.413627534520856 0 -98.413627534520856 85.107368964410853 0 0 0 0 -27.942151766627365 -39.983249885447442 0 -39.983249885447442 67.344649538349174 0 0 0 0 17.079559733701899 151.7637333970647 0 151.7637333970647 373.29174721664731 0 0 0 0 -4.1754357819619372 31.782505475949591 0 31.782505475949591 208.51541757203995 0 0 0 0 177.46325652151972 168.60279494847373 0 168.60279494847373 265.91481930270947 0 0 0 0 94.14765514433293 155.79232557115211 0 155.79232557115211 305.08750591246462 0 0 0 0 101.00059417360353 135.3207985965646 0 135.3207985965646 251.73145440910548 0 0 0 0 -277.16366060983842 -111.8618588960361 0 -111.8618588960361 10.589690215146902 0 0 0 0 204.42258523438613 344.63289919589624 0 344.63289919589624 509.38920458982693 0 0 0 0 -2.0328403716744177 -5.2212891885911343 0 -5.2212891885911343 16.723153346119549 0 0 0 0 13.689819829380895 67.571080033485259 0 67.571080033485259 0.72138703669020288 0 0 0 0 -284.18262342991056 -334.66424905643623 0 -334.66424905643623 68.026361178843018 0 0 0 0 4.5334340964768671 20.654693150835442 0 20.654693150835442 141.51557768288649 0 0 0 0 168.11599897678866 131.65576074280102 0 131.65576074280102 265.28833423260278 0 0 0 0 272.49653610317773 247.82864169181096 0 247.82864169181096 373.08002354975179 0 0 0 0 122.07525056272675 164.17053700878563 0 164.17053700878563 292.56929896382917 0 0 0 0 -1.8993299362341531 -19.625998197393528 0 -19.625998197393528 314.73111950762518 0 0 0 0 74.154033180157512 68.197957820062356 0 68.197957820062356 448.01142242321703 0 0 0 0 71.828899391958203 75.112271771589178 0 75.112271771589178 429.11283986460171 0 0 0 0 -5.4846502250040885 97.21283215624544 0 97.21283215624544 424.46757519297057 0 0 0 0 82.658156605563363 126.11791447140638 0 126.11791447140638 332.36174314923886 0 0 0 0 -16.12580496667556 124.76097236298699 0 124.76097236298699 359.66595004100077 0 0 0 0 -8.2259407555975486 189.87086404277233 0 189.87086404277233 587.35533657432484 0 0 0 0 149.18365449992098 200.90212552967853 0 200.90212552967853 317.37188879419182 0 0 0 0 139.13964689892919 -71.98944856349533 0 -71.98944856349533 461.0652921325734 0 0 0 0 -1.27594147243666 -1.4476423274361245 0 -1.4476423274361245 6.8331414178056695 0 0 0 0 -106.87244137142193 -25.699785464773527 0 -25.699785464773527 593.30027729062522 0 0 0 0 0.29978301112382155 -5.7751660348294536 0 -5.7751660348294536 18.286200059643306 0 0 0 0 11.264921684822866 4.0307708601994818 0 4.0307708601994818 21.536322935964563 0 0 0 0 1.1854405217852673 -8.5457899884459039 0 -8.5457899884459039 18.412154726567678 0 0 0 0 -24.352784470080223 -4.9149768902170763 0 -4.9149768902170763 25.712938637567277 0 0 0 0 0.31413923461581561 -0.89415163596117964 0 -0.89415163596117964 31.729436013782106 0 0 0 0 5.1115103051740789 -13.683146611907432 0 -13.683146611907432 18.202336438596831 0 0 0 0 -21.307187344537397 -14.81217869813554 0 -14.81217869813554 21.891123813980812 0 0 0 0 11.963219500689418 -6.1089541808075296 0 -6.1089541808075296 3.9552529052645689 0 0 0 0 18.851654487678161 3.8213331914266746 0 3.8213331914266746 20.612327682400064 0 0 0 0 14.136162813442525 6.1526514053985011 0 6.1526514053985011 27.347275173662638 0 0 0 0 2.4155126903625694 4.6160163473482463 0 4.6160163473482463 17.720896871835805 0 0 0 0 55.231907211346652 54.663847878213346 0 54.663847878213346 157.98922466360091 0 0 0 0 15.241268964985011 1.1355970473596244 0 1.1355970473596244 21.327614510795684 0 0 0 0 -149.44707502871421 317.63587321634787 0 317.63587321634787 979.08145522203995 0 0 0 0 189.34215436088095 961.91916665283497 0 961.91916665283497 1947.128827379729 0 0 0 0 3.9551062922405631 -0.4896959358247841 0 -0.4896959358247841 3.9592095608644016 0 0 0 0 -149.41513746129158 433.40427712796372 0 433.40427712796372 1141.4946723765461 0 0 0 0 266.80900777793863 -273.64836676498271 0 -273.64836676498271 -35.233917561694398 0 0 0 0 54.585030171943913 248.04202055404676 0 248.04202055404676 666.11403106024954 0 0 0 0 290.39547692911822 -66.416480301653792 0 -66.416480301653792 969.68771744340484 0 0 0 0 1058.5501630532867 167.84506384793349 0 167.84506384793349 465.78732375804975 0 0 0 0 876.87117120856101 945.16427449438379 0 945.16427449438379 994.10375151352491 0 0 0 0 467.16269198147029 645.84859405716998 0 645.84859405716998 751.16136275385179 0 0 0 0 779.87848379059687 158.16832990608964 0 158.16832990608964 12.368117907477426 0 0 0 0 278.40497008462899 328.94510525709848 0 328.94510525709848 224.89641792062321 0 0 0 0 94.413273763992834 294.11418996921202 0 294.11418996921202 221.81917049841286 0 0 0 0 222.61684514387025 89.093835054984083 0 89.093835054984083 79.561900928558316 0 0 0 0 277.22533346453434 65.347882621237659 0 65.347882621237659 -6.868167474254733 0 0 0 0 142.48946795783422 77.636965825357038 0 77.636965825357038 34.766244170517894 0 0 0 0 80.185664999129585 156.20188242258155 0 156.20188242258155 45.114861198650033 0 0 0 0 304.05391655995714 213.80781393527195 0 213.80781393527195 51.984555285685929 0 0 0 0 229.68364987168621 51.647126835108793 0 51.647126835108793 -20.533447606750997 0 0 0 0 135.29322135886196 -40.159556324018922 0 -40.159556324018922 -43.478957382067165 0 0 0 0 2.301422403442448 6.8479114586920602 0 6.8479114586920602 22.66163914493103 0 0 0 0 44.569955551756749 -3.2775081541720965 0 -3.2775081541720965 13.190524215184269 0 0 0 0 4.3901699538021148 -2.1858969415388856 0 -2.1858969415388856 25.853242987097474 0 0 0 0 72.28048160112013 148.52192736303732 0 148.52192736303732 52.698160328058293 0 0 0 0 165.06404429844815 84.193081687986705 0 84.193081687986705 15.763438633643091 0 0 0 0 37.08896765080658 55.925043395698594 0 55.925043395698594 16.396282018332386 0 0 0 0 47.561254832841314 42.270791022074263 0 42.270791022074263 33.188625322065491 0 0 0 0 34.492978335595538 131.91718639094483 0 131.91718639094483 68.966028099617688 0 0 0 0 -11.900264090367841 78.906785671073521 0 78.906785671073521 35.877901973552071 0 0 0 0 -45.264665851554469 32.993417898445841 0 32.993417898445841 32.277371854652301 0 0 0 0 14.992401599261029 -0.52783533409092342 0 -0.52783533409092342 30.416733797064808 0 0 0 0 -159.16112095913468 -4.1591412103516632 0 -4.1591412103516632 49.670979193178937 0 0 0 0 -90.277351475043361 62.947155836896854 0 62.947155836896854 33.212944131664699 0 0 0 0 42.285077199378065 -8.2524424146795354 0 -8.2524424146795354 5.3540836246102117 0 0 0 0 28.933135734998359 -6.5711489155728486 0 -6.5711489155728486 14.964673935981409 0 0 0 0 12.546117480757857 -13.582235341375053 0 -13.582235341375053 14.749469787413545 0 0 0 0 32.907976688110011 -19.19973778043277 0 -19.19973778043277 4.7069972242315998 0 0 0 0 9.361396404262905 39.556644922320629 0 39.556644922320629 58.003584521036828 0 0 0 0 -2.12636990450213 8.5168083507112726 0 8.5168083507112726 27.500101226586821 0 0 0 0 -7.9024398080056244 2.6903799691390304 0 2.6903799691390304 33.532626646589051 0 0 0 0 10.659594521043005 -3.1635976575380482 0 -3.1635976575380482 17.051990808606206 0 0 0 0 -4.2531501310386375 -0.33494080329546705 0 -0.33494080329546705 30.654803257632011 0 0 0 0 -4.1145801336181194 0.0010400610517535824 0 0.0010400610517535824 18.960057722892088 0 0 0 0 -25.010235644225645 -9.9755551568232477 0 -9.9755551568232477 23.975971722786198 0 0 0 0 -28.168602668056451 2.138052271126071 0 2.138052271126071 28.204415522399358 0 0 0 0 -55.161310024363729 6.7975430610713374 0 6.7975430610713374 31.897704748371325 0 0 0 0 -27.05850065343725 4.8933109758891078 0 4.8933109758891078 34.983355595191824 0 0 0 0 9.4689763297722038 4.6587972525230725 0 4.6587972525230725 34.970362454317865 0 0 0 0 -8.9742794229096035 -0.73900624692032579 0 -0.73900624692032579 53.140204500217806 0 0 0 0 -35.912112208327642 51.065195479241083 0 51.065195479241083 76.464685170576558 0 0 0 0 -1.0963882815419219 0.50603560176065798 0 0.50603560176065798 -0.036934496083389945 0 0 0 0 -3.3607396278530359 -348.28287242139049 0 -348.28287242139049 -163.78265185535565 0 0 0 0 -162.05267873933099 40.489750139284297 0 40.489750139284297 -72.365820283015637 0 0 0 0 -102.52367063840211 27.759205375950842 0 27.759205375950842 68.418012688998715 0 0 0 0 -53.806529760485404 -20.237939250179664 0 -20.237939250179664 52.397308634289345 0 0 0 0 28.888915780782327 84.32980567073281 0 84.32980567073281 163.14047397972899 0 0 0 0 -55.394879528490378 -64.381402677565347 0 -64.381402677565347 21.824093693681789 0 0 0 0 -104.29209332020253 -89.031546895432257 0 -89.031546895432257 9.5031807462837605 0 0 0 0 -62.330892235118085 -27.659153624761529 0 -27.659153624761529 35.774543469371565 0 0 0 0 -68.946257613973785 -26.998959544878744 0 -26.998959544878744 37.502508525689336 0 0 0 0 -157.27093835222519 -33.600533305418139 0 -33.600533305418139 62.654531252075685 0 0 0 0 34.282761983664386 118.73608325354417 0 118.73608325354417 230.67527509585852 0 0 0 0 -55.219597828089036 -68.210560168885422 0 -68.210560168885422 -0.34858687666201149 0 0 0 0 -44.856993536352228 -27.192269766940157 0 -27.192269766940157 58.012707578425108 0 0 0 0 -0.023514297061410616 56.57745817192972 0 56.57745817192972 212.94428373150663 0 0 0 0 27.534605170458235 110.53970220152223 0 110.53970220152223 279.75088679854343 0 0 0 0 -67.222903711331355 -82.62689606191816 0 -82.62689606191816 14.754640360086341 0 0 0 0 -35.883063952298578 -33.98654269629877 0 -33.98654269629877 63.016354130327876 0 0 0 0 -46.181203388287685 -51.362159273758152 0 -51.362159273758152 5.7192993286989804 0 0 0 0 -54.580124983963174 -52.89985400527803 0 -52.89985400527803 14.79233897512313 0 0 0 0 -54.232852954249779 -61.056085470452672 0 -61.056085470452672 42.834664145062561 0 0 0 0 -50.242372287217563 -59.868651969300117 0 -59.868651969300117 13.082633177835305 0 0 0 0 -14.484472558567518 -78.865859356221335 0 -78.865859356221335 14.961098308862802 0 0 0 0 -16.89165168229033 -19.928736686266348 0 -19.928736686266348 21.832930823915376 0 0 0 0 -39.217442704966174 -29.435716926904206 0 -29.435716926904206 20.188808046987106 0 0 0 0 -49.611601350492606 -44.437943641569291 0 -44.437943641569291 23.48179979987799 0 0 0 0 -68.831328187821967 -57.122817713634504 0 -57.122817713634504 18.495750107555068 0 0 0 0 -43.241040215064118 -44.337685490048898 0 -44.337685490048898 6.6230128075258108 0 0 0 0 -27.136426957256731 -32.479463555064285 0 -32.479463555064285 14.060884154147061 0 0 0 0 4.4221394173084718 -29.461321595885238 0 -29.461321595885238 -4.0034264164278284 0 0 0 0 -43.707034469550877 -43.230237064290122 0 -43.230237064290122 12.677739644208486 0 0 0 0 7.1072345392481111 -55.645981612076866 0 -55.645981612076866 670.4175763835101 0 0 0 0 -20.627163958511915 -46.204923001094357 0 -46.204923001094357 -14.915671660732187 0 0 0 0 8.9995328937543313 -6.4111443907924865 0 -6.4111443907924865 3.0606163816027774 0 0 0 0 -43.876577241474934 -40.112256341136344 0 -40.112256341136344 -21.354946900079085 0 0 0 0 52.179267214636155 74.637722409725029 0 74.637722409725029 549.75097015319625 0 0 0 0 3.8684222082911219 40.115455237566493 0 40.115455237566493 789.37635840875737 0 0 0 0 -60.387346713475836 -62.170403396057736 0 -62.170403396057736 886.17782635880576 0 0 0 0 4.5340083811220779 266.55747929406698 0 266.55747929406698 1053.1471061961493 0 0 0 0 -8.3701512498796546 178.53828897747735 0 178.53828897747735 541.18423620706017 0 0 0 0 47.364280740130539 -216.36197923159853 0 -216.36197923159853 44.664403084086587 0 0 0 0 -100.88062604030597 -245.471768223244 0 -245.471768223244 459.89275483332312 0 0 0 0 16.23286914173309 -125.47131669349255 0 -125.47131669349255 -160.13145879405783 0 0 0 0 2.6475442105153841 -2.5485422958763166 0 -2.5485422958763166 1.6666075350280565 0 0 0 0 8.7229926526049439 132.61389272929227 0 132.61389272929227 662.65507322084159 0 0 0 0 -106.82710780020648 -72.501332315336185 0 -72.501332315336185 1150.958427906502 0 0 0 0 -129.56860049266027 189.25094682570125 0 189.25094682570125 415.6118649397265 0 0 0 0 73.429226655950742 -93.464301827420059 0 -93.464301827420059 363.45950664486736 0 0 0 0 -65.985957592355533 225.85418501594177 0 225.85418501594177 -244.53332986417809 0 0 0 0 -148.81959614527443 218.00045601796592 0 218.00045601796592 215.79112419741432 0 0 0 0 99.085411012090788 145.07723737355627 0 145.07723737355627 107.63055281235211 0 0 0 0 51.452762962964769 -50.06449049867615 0 -50.06449049867615 451.60248085485364 0 0 0 0 69.386248087563388 152.2588664955947 0 152.2588664955947 204.96380291641617 0 0 0 0 101.07232091324073 242.32950598485149 0 242.32950598485149 -57.494880991840546 0 0 0 0 0.59965493555466765 46.894668958677357 0 46.894668958677357 66.994314116353053 0 0 0 0 -1.0344565840889075 -1.3733832356905111 0 -1.3733832356905111 -1.0017207485162132 0 0 0 0 -19.784093090639999 100.85357846941406 0 100.85357846941406 226.11735535776461 0 0 0 0 272.1231756885652 151.74008388285074 0 151.74008388285074 57.269980843608209 0 0 0 0 125.23803184510462 36.587043773532059 0 36.587043773532059 95.939901283971267 0 0 0 0 133.96843974224066 255.99205125759909 0 255.99205125759909 335.93018362455769 0 0 0 0 61.441223410182374 134.70685329799016 0 134.70685329799016 433.96771276251093 0 0 0 0 49.698091926606821 174.13161979349388 0 174.13161979349388 470.18364364700392 0 0 0 0 68.029559726445939 79.414498643874879 0 79.414498643874879 318.01493259325071 0 0 0 0 95.422036430552396 175.57041757206753 0 175.57041757206753 36.348485940538012 0 0 0 0 159.51292955356848 229.37931635314453 0 229.37931635314453 65.867383984204935 0 0 0 0 78.46573666567474 97.226139516358671 0 97.226139516358671 -34.78453508493476 0 0 0 0 50.222690694263292 188.06732268417545 0 188.06732268417545 63.15214415004084 0 0 0 0 105.79642942873397 47.913557031792152 0 47.913557031792152 89.34714664616331 0 0 0 0 1.5444069402284559 0.35865636188108407 0 0.35865636188108407 14.318204615413293 0 0 0 0 1.5592953415445017 -4.2941370598527229 0 -4.2941370598527229 32.337378802661505 0 0 0 0 74.032152993288548 11.798331784755646 0 11.798331784755646 53.005829299348989 0 0 0 0 -397.44489194664902 -140.10099718294805 0 -140.10099718294805 26.07888935230585 0 0 0 0 -614.30895199287261 -281.14459888922283 0 -281.14459888922283 265.77536047674221 0 0 0 0 -345.89752342194606 -142.66563804199359 0 -142.66563804199359 -186.55416892942594 0 0 0 0 130.81525835543653 -234.06923728768743 0 -234.06923728768743 -249.79725627024891 0 0 0 0 124.0868424618775 -110.74372017896167 0 -110.74372017896167 89.446551488214027 0 0 0 0 -3.7932524288080458 -19.838616327488126 0 -19.838616327488126 30.974240650029969 0 0 0 0 1.4401728565833931 3.0764738062767245 0 3.0764738062767245 3.9620620489806697 0 0 0 0 615.9321210308658 440.02023328483483 0 440.02023328483483 288.90047478072665 0 0 0 0 -21.670467013668713 399.69392800923379 0 399.69392800923379 1121.3657888836206 0 0 0 0 203.64088566839928 520.74857618134411 0 520.74857618134411 1061.6162990946541 0 0 0 0 1.7017613124751723 -4.4695112251125906 0 -4.4695112251125906 10.822210560644294 0 0 0 0 254.84824336916154 636.61567343682873 0 636.61567343682873 1136.6300262188233 0 0 0 0 -8.1914826601528148 -410.97382983625721 0 -410.97382983625721 92.171004931922653 0 0 0 0 -34.518957400820909 -339.95473446050164 0 -339.95473446050164 813.0086462913896 0 0 0 0 86.081004838047193 585.89857151899196 0 585.89857151899196 1322.0349924350594 0 0 0 0 -202.46933641445594 -48.189890406270933 0 -48.189890406270933 1361.0268490433882 0 0 0 0 842.66534365199254 638.31229174825057 0 638.31229174825057 378.38883017900662 0 0 0 0 14.161216461975553 -8.1469903403184887 0 -8.1469903403184887 3.1342564771460424 0 0 0 0 319.9222265226399 359.16325319884709 0 359.16325319884709 694.03381093820644 0 0 0 0 216.96386041334154 -138.83454551487375 0 -138.83454551487375 234.38866343981499 0 0 0 0 311.3664536422055 332.20146501117415 0 332.20146501117415 484.51318206226279 0 0 0 0 140.17214388072125 31.523518993104517 0 31.523518993104517 244.13744157091423 0 0 0 0 -218.17365000266886 -237.00623915628967 0 -237.00623915628967 148.76028255081837 0 0 0 0 187.28703435237685 56.155615489064076 0 56.155615489064076 44.897111431168014 0 0 0 0 -302.82093072519092 23.625905054017494 0 23.625905054017494 464.0014902522089 0 0 0 0 174.58817165235035 -125.24767450067429 0 -125.24767450067429 458.66826359197148 0 0 0 0 299.98365471675453 344.03452323417514 0 344.03452323417514 592.61691953914124 0 0 0 0 137.58764577350496 -14.273778525377566 0 -14.273778525377566 392.56756285994197 0 0 0 0 486.79357926557623 335.36280499675195 0 335.36280499675195 320.58723883840867 0 0 0 0 541.73715052691182 561.50238591257948 0 561.50238591257948 596.68093015268096 0 0 0 0 125.05380005244069 704.39993753282761 0 704.39993753282761 1046.9857211994386 0 0 0 0 66.706292196921368 543.16191024337604 0 543.16191024337604 787.60789342274074 0 0 0 0 200.07999558843926 492.90262360674387 0 492.90262360674387 727.1024601739191 0 0 0 0 68.076498801994148 538.69294432546303 0 538.69294432546303 781.17416175919061 0 0 0 0 131.38787306900554 387.959338589033 0 387.959338589033 620.93636617152333 0 0 0 0 -50.420512561981923 267.36224093828059 0 267.36224093828059 727.86564799619373 0 0 0 0 104.89092835470319 472.0822214424843 0 472.0822214424843 672.9632972856507 0 0 0 0 -118.5277941090967 190.45424432676373 0 190.45424432676373 1539.6038731259396 0 0 0 0 350.62516906771043 790.11667663255503 0 790.11667663255503 1056.8939207671501 0 0 0 0 23.658505275585412 94.098433128361648 0 94.098433128361648 407.36222773435293 0 0 0 0 3.1843439345759634 196.16757039808726 0 196.16757039808726 758.58778416959194 0 0 0 0 -3.4638151473363905 -260.03307855581807 0 -260.03307855581807 617.42540485093559 0 0 0 0 70.643150771856142 -241.24490621921359 0 -241.24490621921359 -104.91453274055675 0 0 0 0 105.56286344900627 -242.31947737622977 0 -242.31947737622977 -60.666575265830033 0 0 0 0 -391.32844570625116 -683.78916260669303 0 -683.78916260669303 -358.82859165087575 0 0 0 0 -231.26251569240935 -145.0440376647166 0 -145.0440376647166 -110.16229802391172 0 0 0 0 -506.00480171211984 -467.43530962299337 0 -467.43530962299337 -17.206226508342297 0 0 0 0 40.215637061599296 -201.0272024306978 0 -201.0272024306978 -133.02302835456794 0 0 0 0 -95.568056298984686 -81.680546631912875 0 -81.680546631912875 428.49094791098469 0 0 0 0 91.375094583968803 -314.69302343323216 0 -314.69302343323216 -465.97141489257774 0 0 0 0 -30.960707107484495 -673.88087529809854 0 -673.88087529809854 -457.1073815714451 0 0 0 0 51.982914897424507 -336.69201163030812 0 -336.69201163030812 -90.518000191230385 0 0 0 0 -76.024883192650577 -544.25629369173112 0 -544.25629369173112 403.32609829850844 0 0 0 0 -340.88278830714626 55.647024523794244 0 55.647024523794244 688.91816298526828 0 0 0 0 327.34057082185461 31.437557497103626 0 31.437557497103626 176.43707702365646 0 0 0 0 129.22816958830006 316.37497797988544 0 316.37497797988544 978.15043828636408 0 0 0 0 65.541250396071703 112.19994112684071 0 112.19994112684071 347.68126793272677 0 0 0 0 12.771392613259536 -259.15747086502961 0 -259.15747086502961 858.18466273374543 0 0 0 0 3.3115755890937253 -3.5985136059010401 0 -3.5985136059010401 3.6096923765798437 0 0 0 0 83.984520174013326 -234.36172654662369 0 -234.36172654662369 332.23515252949437 0 0 0 0 90.3065212334823 -158.21727151846062 0 -158.21727151846062 350.19245067796146 0 0 0 0 156.57888800173339 -248.54059792687258 0 -248.54059792687258 171.4608773047803 0 0 0 0 89.362527491432218 -103.78855675063824 0 -103.78855675063824 237.77436715493968 0 0 0 0 103.38252510589064 -163.3417068515555 0 -163.3417068515555 132.32573330219384 0 0 0 0 109.74541268613953 -235.03064245863743 0 -235.03064245863743 138.42362904980837 0 0 0 0 61.90280034615148 -216.50276079435571 0 -216.50276079435571 71.42831980693154 0 0 0 0 41.160997655141557 -81.587599184803366 0 -81.587599184803366 49.599716181182885 0 0 0 0 -23.791876675956473 -187.71706235268357 0 -187.71706235268357 30.046321395595442 0 0 0 0 73.692416654732881 -215.73680693856841 0 -215.73680693856841 57.944401200860739 0 0 0 0 51.699613639719132 -131.65598550551658 0 -131.65598550551658 43.207899741284564 0 0 0 0 -377.98726295282177 -13.294852384191472 0 -13.294852384191472 53.133649967176098 0 0 0 0 -70.263555246626765 -62.40871971789602 0 -62.40871971789602 -20.368509228545008 0 0 0 0 -134.3428328240193 -111.0841265705385 0 -111.0841265705385 64.360361548213405 0 0 0 0 -178.07010815835804 46.68497365114672 0 46.68497365114672 12.419238737376872 0 0 0 0 -299.34224002185783 -15.513205099101469 0 -15.513205099101469 96.675935299674165 0 0 0 0 10.929347042216932 31.65010678312683 0 31.65010678312683 59.685815229575383 0 0 0 0 25.443606881097594 -186.58313896673644 0 -186.58313896673644 145.71050837846269 0 0 0 0 250.8254449260869 -387.53426086332183 0 -387.53426086332183 380.71822870689357 0 0 0 0 -253.72570471298104 -20.835808357915084 0 -20.835808357915084 243.22378192422912 0 0 0 0 -580.1701258840485 191.53685788049188 0 191.53685788049188 197.31496224032526 0 0 0 0 -762.56856806646374 92.713016771496768 0 92.713016771496768 201.30241533636581 0 0 0 0 -481.99770859152795 107.03382162104026 0 107.03382162104026 -98.730379917004029 0 0 0 0 -497.20187569516111 103.80661372093891 0 103.80661372093891 134.03137099969899 0 0 0 0 -218.28006963944176 40.348443664794104 0 40.348443664794104 42.691229063348146 0 0 0 0 -104.26954401823514 117.75056234940348 0 117.75056234940348 -50.651600680765114 0 0 0 0 0.62013766510826018 5.2841866252297116 0 5.2841866252297116 59.457645538272928 0 0 0 0 -100.40606928092893 62.448811046167975 0 62.448811046167975 48.183801357964512 0 0 0 0 -1.804578808001768 7.1044234823642398 0 7.1044234823642398 9.1705633624327305 0 0 0 0 -5.0705908129193631 109.44499793368777 0 109.44499793368777 45.713742547035508 0 0 0 0 -104.23344071110932 109.09231767186611 0 109.09231767186611 -136.75222527151345 0 0 0 0 -135.38856827925065 203.06909935218755 0 203.06909935218755 -129.49565217060444 0 0 0 0 262.87964277758533 328.50100023861387 0 328.50100023861387 110.24126326184341 0 0 0 0 -1.0198050671184093 1.1203903384020393 0 1.1203903384020393 2.0179233569239301 0 0 0 0 -42.202831115942899 -90.785507212254743 0 -90.785507212254743 68.454199406442058 0 0 0 0 201.94807416073127 90.180064663989469 0 90.180064663989469 67.497485639236402 0 0 0 0 -820.65879764549936 196.51228318672656 0 196.51228318672656 113.57943557878025 0 0 0 0 -178.75912217629411 96.266398702341576 0 96.266398702341576 192.77330191657529 0 0 0 0 -2.7901942502725223 14.186049252642531 0 14.186049252642531 75.241423045611214 0 0 0 0 -294.01998778606054 88.050136238898858 0 88.050136238898858 -6.6990014799812343 0 0 0 0 -526.09332265343892 130.06909752794309 0 130.06909752794309 62.954424247131101 0 0 0 0 -663.74061144487223 271.16632529963681 0 271.16632529963681 15.153877722397738 0 0 0 0 -605.50024756208677 155.42071923387994 0 155.42071923387994 46.247873011696356 0 0 0 0 -544.05858653113273 94.011306363150652 0 94.011306363150652 30.592490175069543 0 0 0 0 -387.79093342139515 91.031858029411524 0 91.031858029411524 5.6067647786112502 0 0 0 0 -582.45553048019428 69.483717538008932 0 69.483717538008932 40.410852118089679 0 0 0 0 -614.71606284945346 120.8248567442497 0 120.8248567442497 24.474303909140872 0 0 0 0 -446.98676525844348 44.016072213773441 0 44.016072213773441 -13.624727424481534 0 0 0 0 -583.21895842259164 135.4941078034899 0 135.4941078034899 -59.444106372786337 0 0 0 0 -866.75843028729605 150.86278225853675 0 150.86278225853675 90.796530169980542 0 0 0 0 -709.34855673960601 35.677211006986909 0 35.677211006986909 3.5854554230463691 0 0 0 0 -11.427880966817076 6.1364713072428998 0 6.1364713072428998 48.247632913077609 0 0 0 0 -213.3060971926393 -117.8895236859953 0 -117.8895236859953 129.05021209288134 0 0 0 0 -167.82185001854526 224.96328100708638 0 224.96328100708638 416.14299443746131 0 0 0 0 -99.878310150163088 145.73131050656593 0 145.73131050656593 193.329459687091 0 0 0 0 -138.73424185756267 45.616960981758893 0 45.616960981758893 33.485709357060841 0 0 0 0 -177.90060289064422 -41.766181251670787 0 -41.766181251670787 24.894085401854682 0 0 0 0 -7.4301922308139075 -2.5291921428961963 0 -2.5291921428961963 -0.89774163300917564 0 0 0 0 -51.278897011446134 -105.55663288493815 0 -105.55663288493815 -0.67233212104792983 0 0 0 0 -363.30052971840178 -85.76308542537663 0 -85.76308542537663 219.15163391729584 0 0 0 0 -13.83638871025145 13.855418091026309 0 13.855418091026309 -2.4641860950988246 0 0 0 0 -31.78212172305237 -20.841403094029374 0 -20.841403094029374 48.821296877278655 0 0 0 0 -1.573421126490933 -13.337566585723849 0 -13.337566585723849 51.550925939213585 0 0 0 0 -434.90578874787798 -224.53764860902811 0 -224.53764860902811 24.614134564224514 0 0 0 0 -188.90884764058569 -43.145044901721121 0 -43.145044901721121 -193.61009602684499 0 0 0 0 -3.4500841177884789 -2.7367074037571015 0 -2.7367074037571015 49.688057848504656 0 0 0 0 -15.984648266570263 -14.214385995028351 0 -14.214385995028351 49.927173110023432 0 0 0 0 -693.34867057040776 -44.649677132285433 0 -44.649677132285433 32.506830771875684 0 0 0 0 -600.96759236053481 90.358470694423886 0 90.358470694423886 -85.586068424508994 0 0 0 0 -369.74419499230316 -158.25969009743858 0 -158.25969009743858 58.238092812733157 0 0 0 0 -627.56776050860935 -12.098410297097871 0 -12.098410297097871 125.33162452828037 0 0 0 0 54.161686912687401 -46.993807941689738 0 -46.993807941689738 19.824263680391596 0 0 0 0 49.975011324464731 -210.70603825979924 0 -210.70603825979924 17.739195479953196 0 0 0 0 -167.6070172492536 -133.06252004258931 0 -133.06252004258931 63.582692336669425 0 0 0 0 -185.64656860724659 -40.555147633310298 0 -40.555147633310298 -11.472035430299002 0 0 0 0 33.923643648370046 -204.25069687823998 0 -204.25069687823998 5.455067040908034 0 0 0 0 -93.520752687694198 -91.752004448659136 0 -91.752004448659136 10.068112271430437 0 0 0 0 -143.65024074860878 -149.70223449769401 0 -149.70223449769401 -2.0954003769584233 0 0 0 0 -303.2918214459537 -64.684991088077368 0 -64.684991088077368 52.382763304078253 0 0 0 0 -440.01618501114535 62.808563236176269 0 62.808563236176269 34.529785693925078 0 0 0 0 -291.38364785034582 2.3770154515004833 0 2.3770154515004833 -34.736439551314106 0 0 0 0 -553.08415996767371 78.202114429535868 0 78.202114429535868 30.012790327426046 0 0 0 0 -490.06877427169024 -35.518615663459059 0 -35.518615663459059 56.572559165928396 0 0 0 0 40.452405399529049 88.958951842974329 0 88.958951842974329 92.501294831978157 0 0 0 0 42.408492940374998 81.374459734324773 0 81.374459734324773 102.42515648334665 0 0 0 0 73.587300078579105 122.79228164836786 0 122.79228164836786 38.950635238552536 0 0 0 0 -53.840724488481939 210.85821684782059 0 210.85821684782059 32.476701261501148 0 0 0 0 -0.66821891823765878 1.565086196702417 0 1.565086196702417 -0.6028467863182172 0 0 0 0 67.867541704315784 129.63077868175333 0 129.63077868175333 43.467892218668567 0 0 0 0 39.030521643748671 51.400431539970668 0 51.400431539970668 -126.69706707342993 0 0 0 0 126.39865420749311 210.57695524115843 0 210.57695524115843 -63.265624911553459 0 0 0 0 123.08818957180392 31.161919660302374 0 31.161919660302374 -355.02314111521628 0 0 0 0 52.752454442376802 79.551543038287491 0 79.551543038287491 -101.85006591970159 0 0 0 0 63.613691065470448 180.18760799311713 0 180.18760799311713 -223.15383293708146 0 0 0 0 22.274991771288114 248.22420545393834 0 248.22420545393834 -268.5151702063813 0 0 0 0 -1.6250034262575106 0.20503415936885006 0 0.20503415936885006 0.54666212781545909 0 0 0 0 82.554042087098651 394.03287240772079 0 394.03287240772079 288.21153648137624 0 0 0 0 -345.4146407137946 107.98737517568043 0 107.98737517568043 441.55231118717893 0 0 0 0 -243.75852086645534 131.86844811283299 0 131.86844811283299 216.6786651171933 0 0 0 0 164.91938963697658 147.83700689993748 0 147.83700689993748 205.33604996007489 0 0 0 0 -181.84195227358424 129.33373509430885 0 129.33373509430885 125.10275103555614 0 0 0 0 -464.20993407973265 -35.384702831266623 0 -35.384702831266623 83.870706480946865 0 0 0 0 97.774119164604599 229.55102846454793 0 229.55102846454793 109.39226812347079 0 0 0 0 -418.17881381062739 157.79839496305976 0 157.79839496305976 280.40679410205121 0 0 0 0 26.090037011221483 357.15920410194758 0 357.15920410194758 320.11013531422941 0 0 0 0 167.8990961959515 234.44173456817771 0 234.44173456817771 187.43913825821255 0 0 0 0 36.714412990184975 337.66736679779524 0 337.66736679779524 115.00486464413552 0 0 0 0 296.05554081044073 477.88285329207065 0 477.88285329207065 190.77021562460686 0 0 0 0 228.75166856847204 358.30247702632187 0 358.30247702632187 -4.4707986890716711 0 0 0 0 362.07161874860225 188.98224680046042 0 188.98224680046042 156.01260185552746 0 0 0 0 102.27700735068524 145.82636108428267 0 145.82636108428267 161.07147157719373 0 0 0 0 1.3124036184327552 0.59582864356727328 0 0.59582864356727328 -0.52586064709020519 0 0 0 0 239.37146066384943 143.71926217110013 0 143.71926217110013 -199.19557573946076 0 0 0 0 129.50784105577242 -662.08306777729194 0 -662.08306777729194 1388.7362415614161 0 0 0 0 21.446006583890153 418.10086007790414 0 418.10086007790414 1514.1348202318168 0 0 0 0 682.2660179440602 737.49905057846354 0 737.49905057846354 537.98430377884142 0 0 0 0 35.123325198260432 68.567692043088755 0 68.567692043088755 570.85748533777223 0 0 0 0 -363.41328194768676 -1102.9835176522283 0 -1102.9835176522283 94.500718768647403 0 0 0 0 -534.33361914563784 172.21041714235253 0 172.21041714235253 378.89596541261199 0 0 0 0 10.745516601736824 181.29802349951115 0 181.29802349951115 68.323660598194692 0 0 0 0 222.13521159063748 174.55224653657206 0 174.55224653657206 -81.938869906800392 0 0 0 0 -266.32596582613974 16.690149166285664 0 16.690149166285664 -93.496697512015089 0 0 0 0 -5.8964371993233362 3.8083166611379013 0 3.8083166611379013 -1.8517963146267959 0 0 0 0 -894.27621771850977 -414.09023448054359 0 -414.09023448054359 41.052427359480589 0 0 0 0 -378.49832123394253 22.976319179300845 0 22.976319179300845 256.32068104403879 0 0 0 0 509.13317855318274 121.1740165103123 0 121.1740165103123 -451.39408919072594 0 0 0 0 1415.3494918800318 -1499.1010233806501 0 -1499.1010233806501 1459.2603309215556 0 0 0 0 2.6854844073022495 -5.20651146361846 0 -5.20651146361846 19.424684678945496 0 0 0 0 184.04858444388131 -2155.8771566546266 0 -2155.8771566546266 3493.0438501469471 0 0 0 0 -440.13526463076033 -1026.4755642877826 0 -1026.4755642877826 2071.8188594087769 0 0 0 0 -1.1460704401269939 -0.019871599660138628 0 -0.019871599660138628 0.046340886604056664 0 0 0 0 404.93859506711715 -886.49730536551135 0 -886.49730536551135 2012.9896338791077 0 0 0 0 -273.37799643854009 -512.19641806026721 0 -512.19641806026721 2096.106288592342 0 0 0 0 -441.67005749170312 -748.41738149253615 0 -748.41738149253615 3500.5947301240303 0 0 0 0 -345.68364200434428 -1229.0929811798001 0 -1229.0929811798001 2121.1311357220766 0 0 0 0 -399.25530355529474 -521.1555439138865 0 -521.1555439138865 2331.1424344383195 0 0 0 0 440.31269985798986 -125.42542751840301 0 -125.42542751840301 2293.7000615051293 0 0 0 0 -1291.0538590688304 459.9803155787049 0 459.9803155787049 538.82402488250955 0 0 0 0 -575.4988561144437 310.54457276029461 0 310.54457276029461 -78.65236887834908 0 0 0 0 -0.26285164600256805 6.8380313092998577 0 6.8380313092998577 42.451827372039901 0 0 0 0 -350.09236891559914 -55.09111116015265 0 -55.09111116015265 340.14365917047053 0 0 0 0 18.065194583366122 364.02805613800592 0 364.02805613800592 452.57988842191116 0 0 0 0 -268.9504352992177 -73.25714330325718 0 -73.25714330325718 283.98207218319294 0 0 0 0 62.398992197792722 -83.432732805653359 0 -83.432732805653359 178.28360155500923 0 0 0 0 -279.55220539995986 4.4223549285716217 0 4.4223549285716217 -68.907105490536196 0 0 0 0 -761.07026285840038 -174.20101506996434 0 -174.20101506996434 111.3312186982148 0 0 0 0 15.83061427805043 10.809588075782813 0 10.809588075782813 -37.778876574291644 0 0 0 0 -1.0192596929743156 5.7925474035223239 0 5.7925474035223239 47.526880976325117 0 0 0 0 -1159.2022203273973 171.42670792176068 0 171.42670792176068 144.71781690380885 0 0 0 0 -220.48457343572954 76.74676084784187 0 76.74676084784187 172.27352054273069 0 0 0 0 2.4604203413682 -10.086799050337033 0 -10.086799050337033 44.54193948533262 0 0 0 0 -167.23534213574541 -213.46629034037869 0 -213.46629034037869 67.810324824837153 0 0 0 0 -179.3704802541732 104.65127639923594 0 104.65127639923594 157.32801087921325 0 0 0 0 162.07679964601962 26.962172323368577 0 26.962172323368577 -40.347198083451076 0 0 0 0 396.47167889349788 438.19524442059515 0 438.19524442059515 350.30040745867154 0 0 0 0 459.02363806753362 -300.69309433366004 0 -300.69309433366004 37.111660608912644 0 0 0 0 -547.44744189104267 -41.955819904764212 0 -41.955819904764212 3493.8485441852026 0 0 0 0 313.25688111294789 942.05571265448089 0 942.05571265448089 1259.2493072806137 0 0 0 0 464.18273609119547 -1090.5371369058812 0 -1090.5371369058812 1123.1745134967969 0 0 0 0 -547.3394754776067 -38.57211895859848 0 -38.57211895859848 3494.2254522870862 0 0 0 0 1.8972490504289741 4.1940347513922234 0 4.1940347513922234 18.498317875004147 0 0 0 0 1071.2594307216161 1879.9912828177103 0 1879.9912828177103 750.91084275882167 0 0 0 0 -577.41200964868165 66.291069928392972 0 66.291069928392972 346.10391051766783 0 0 0 0 181.02665682368115 949.41917083369367 0 949.41917083369367 1151.3184606612849 0 0 0 0 206.15040600063372 565.58912183140637 0 565.58912183140637 418.06739484145692 0 0 0 0 -461.66346365324432 1652.9147719638677 0 1652.9147719638677 3492.8193093174887 0 0 0 0 -499.66563802419887 1152.7097078756997 0 1152.7097078756997 2007.0396553700994 0 0 0 0 -582.66119988811499 442.58897333101777 0 442.58897333101777 3500.8578288362878 0 0 0 0 -515.93851659285087 911.08020051695348 0 911.08020051695348 2931.7728592368003 0 0 0 0 -118.26288920075473 516.85025565332762 0 516.85025565332762 1572.9374820393568 0 0 0 0 -58.213991683836028 266.39114266028628 0 266.39114266028628 1991.8534429457795 0 0 0 0 -132.44737766521379 182.99648959059596 0 182.99648959059596 2366.7939290494542 0 0 0 0 -192.48028998789471 555.16857025551144 0 555.16857025551144 1903.9156539216792 0 0 0 0 12.411657560472122 179.18990109852894 0 179.18990109852894 833.31001439682586 0 0 0 0 161.1839936610412 -27.78039711798192 0 -27.78039711798192 711.10227150070205 0 0 0 0 144.78124866758498 366.28127409970148 0 366.28127409970148 886.95596333153662 0 0 0 0 44.3409021027976 107.35356327542104 0 107.35356327542104 1456.2714677461245 0 0 0 0 173.71672087545372 137.10553143815559 0 137.10553143815559 1097.959814705835 0 0 0 0 207.98374108317682 -52.008597695170465 0 -52.008597695170465 1096.0540271371283 0 0 0 0 281.22713047285657 -134.2122892832449 0 -134.2122892832449 531.46874096755346 0 0 0 0 260.88042162487852 82.822024852222967 0 82.822024852222967 604.49806406399875 0 0 0 0 369.73242045563615 -43.825529813879257 0 -43.825529813879257 367.7243935005099 0 0 0 0 247.86694516137317 -11.07214956855023 0 -11.07214956855023 306.31755395811342 0 0 0 0 203.94872292879279 -141.32330561267008 0 -141.32330561267008 266.1714388371729 0 0 0 0 133.87820763886907 129.65193388471835 0 129.65193388471835 446.61085304035805 0 0 0 0 368.41646135728189 -51.188557644229149 0 -51.188557644229149 699.41577055116068 0 0 0 0 278.27621379154175 86.998432304251764 0 86.998432304251764 449.06508496653987 0 0 0 0 314.37479340463688 43.252436213981127 0 43.252436213981127 282.89569431258133 0 0 0 0 445.29211816433599 -116.14901172801183 0 -116.14901172801183 376.0429121669149 0 0 0 0 469.68532878477004 -71.881655018594756 0 -71.881655018594756 238.06367852252151 0 0 0 0 396.70523424630443 -40.895176242571324 0 -40.895176242571324 434.47434193602749 0 0 0 0 348.16415707982583 -81.085438372640056 0 -81.085438372640056 422.27920747600365 0 0 0 0 426.87626869856098 -94.936559765643324 0 -94.936559765643324 376.41327838281723 0 0 0 0 377.38701712372404 -137.09173610855942 0 -137.09173610855942 358.15906827192521 0 0 0 0 390.84740061971962 -94.503188992763171 0 -94.503188992763171 654.21280318311437 0 0 0 0 314.27510190811057 -102.01045463967966 0 -102.01045463967966 655.50326910863805 0 0 0 0 431.76430297756099 -179.84032897608267 0 -179.84032897608267 596.79931807045068 0 0 0 0 395.59889163741309 -316.61178930516326 0 -316.61178930516326 1192.4802543121114 0 0 0 0 319.75855827810062 -37.027501434131409 0 -37.027501434131409 895.13746505238669 0 0 0 0 228.923358443757 -49.783310533763142 0 -49.783310533763142 1319.1759401056515 0 0 0 0 519.40733532899549 -255.31055337279395 0 -255.31055337279395 1160.9174024395161 0 0 0 0 331.40393566875605 -254.9569210927657 0 -254.9569210927657 1161.8138588130969 0 0 0 0 424.06743931164243 -131.68282182695111 0 -131.68282182695111 728.3639800716337 0 0 0 0 538.48133234850036 -216.26105299877599 0 -216.26105299877599 526.03350631175272 0 0 0 0 333.38513932703864 -609.69005181994362 0 -609.69005181994362 1888.8845951313124 0 0 0 0 199.76880157207194 -120.26395922715892 0 -120.26395922715892 2447.7628844041392 0 0 0 0 494.67906397980857 -255.54356938015553 0 -255.54356938015553 2509.5428308297414 0 0 0 0 -105.66340022442759 15.046454523289867 0 15.046454523289867 2576.1421369954842 0 0 0 0 -145.90322046338991 -10.394393774207856 0 -10.394393774207856 2817.5539244121392 0 0 0 0 130.97149818468847 -124.56555727859086 0 -124.56555727859086 1829.7015272287026 0 0 0 0 169.7182008866462 -180.11458146494988 0 -180.11458146494988 1963.429822539525 0 0 0 0 266.1296203138433 -386.04310106595767 0 -386.04310106595767 2078.5355232716538 0 0 0 0 -393.29750172335662 568.00209162071405 0 568.00209162071405 3170.5366157758181 0 0 0 0 921.45278039145899 474.85607229996822 0 474.85607229996822 3555.5146502115817 0 0 0 0 -2.9972976073428046 206.82250102114631 0 206.82250102114631 3499.5079927524857 0 0 0 0 23.516757400561261 -388.69068123116813 0 -388.69068123116813 3534.976564648663 0 0 0 0 403.98010151303538 70.814240695111948 0 70.814240695111948 3303.165346867856 0 0 0 0 1405.724081898129 540.05115700242459 0 540.05115700242459 3533.0671776063541 0 0 0 0 7.2498926098480059 1.3471339378596952 0 1.3471339378596952 5.6796108995739463 0 0 0 0 -85.630710547290036 -120.28141422999033 0 -120.28141422999033 3499.8185356266695 0 0 0 0 -314.32881680725666 -296.32436873591905 0 -296.32436873591905 2860.9854606710869 0 0 0 0 -896.24709367399214 288.23509524521432 0 288.23509524521432 5477.931038643379 0 0 0 0 -19.954035562410809 1855.7350002551393 0 1855.7350002551393 4919.4740464755414 0 0 0 0 -435.02804255061801 -1464.7594747821713 0 -1464.7594747821713 487.556414534949 0 0 0 0 3.7413405237065307 -10.399118900392821 0 -10.399118900392821 22.805847898179309 0 0 0 0 -54.052965432623523 370.57931965334501 0 370.57931965334501 3980.9033258190611 0 0 0 0 423.74127484602207 -208.85634551709745 0 -208.85634551709745 1246.1914702727227 0 0 0 0 -408.84790682684297 -1197.9151530197196 0 -1197.9151530197196 2782.61574467428 0 0 0 0 12.771735915299228 -129.47198405925883 0 -129.47198405925883 3499.6076854169878 0 0 0 0 -17.110571093922829 159.46241849806393 0 159.46241849806393 2734.0746638344281 0 0 0 0 20.549146583255151 -136.98370775055082 0 -136.98370775055082 3094.4287924158853 0 0 0 0 112.93498081897314 -36.459017285887967 0 -36.459017285887967 2792.6668037702329 0 0 0 0 -130.5969734782966 -361.20288449352665 0 -361.20288449352665 2879.2838841690309 0 0 0 0 -64.30873124789359 -110.25989470706918 0 -110.25989470706918 3494.976034037747 0 0 0 0 8.2850764491170565 -1.1243682544644855 0 -1.1243682544644855 6.513155015794915 0 0 0 0 419.05971852776247 1239.5988060284762 0 1239.5988060284762 3965.8898619715583 0 0 0 0 276.40653023504206 697.91801436107926 0 697.91801436107926 1915.5996478300804 0 0 0 0 -63.310338748378399 172.78288290105411 0 172.78288290105411 3038.3366138140682 0 0 0 0 -114.17578778709496 360.04959376196894 0 360.04959376196894 2688.6595425176783 0 0 0 0 159.52536253436085 73.583383768163912 0 73.583383768163912 1966.4127046345602 0 0 0 0 55.809762878186177 342.09252708780696 0 342.09252708780696 2126.7879172062385 0 0 0 0 211.24672278443143 459.47647209646675 0 459.47647209646675 1630.5133954590856 0 0 0 0 358.9997915232683 85.125778934532718 0 85.125778934532718 1059.6379275775034 0 0 0 0 -594.83655364123251 -262.50351841767406 0 -262.50351841767406 22.500926456945308 0 0 0 0 -15.360790894611569 31.400930136689567 0 31.400930136689567 1080.6115516558639 0 0 0 0 8.94685462163784 -27.856474641919057 0 -27.856474641919057 52.032459755185215 0 0 0 0 129.28983680260549 492.04780134934117 0 492.04780134934117 800.99168423199444 0 0 0 0 164.88146036628768 -658.8211744444634 0 -658.8211744444634 1006.2644249845907 0 0 0 0 241.81892316513267 63.460578533689841 0 63.460578533689841 475.11778324457555 0 0 0 0 -68.871748752589156 207.71984747720853 0 207.71984747720853 -196.05039216128898 0 0 0 0 79.176260609249766 -295.05139521848469 0 -295.05139521848469 -384.60919264989934 0 0 0 0 -491.70197448713407 191.05691009695511 0 191.05691009695511 203.15096062316297 0 0 0 0 -85.195008257725249 105.37212903628642 0 105.37212903628642 145.73518632749619 0 0 0 0 -62.385294671009433 178.21707635873463 0 178.21707635873463 260.00090746799833 0 0 0 0 157.07075993316721 169.10728697241575 0 169.10728697241575 206.05805409818277 0 0 0 0 7.1027787694508788 -50.830414984099662 0 -50.830414984099662 424.5860972431401 0 0 0 0 240.84279105375936 -5.4807596154714702 0 -5.4807596154714702 261.93901521527732 0 0 0 0 64.09347002193681 100.69153533801727 0 100.69153533801727 288.01347182511563 0 0 0 0 60.673384327800932 142.51746061343147 0 142.51746061343147 45.817689540243009 0 0 0 0 30.164742707879213 69.18099954988611 0 69.18099954988611 168.62649089800834 0 0 0 0 -83.566513154485619 140.72488067216909 0 140.72488067216909 195.84483491053106 0 0 0 0 93.691166891496778 149.57211597008245 0 149.57211597008245 193.91070227928867 0 0 0 0 -278.63512572754098 94.463875117773568 0 94.463875117773568 275.39275398746395 0 0 0 0 -104.65692077762924 228.06732930544968 0 228.06732930544968 208.01698875095826 0 0 0 0 -85.417006752294128 163.61025008334946 0 163.61025008334946 395.05688166024629 0 0 0 0 -180.14277214654339 359.84696455856829 0 359.84696455856829 280.96392151181863 0 0 0 0 254.006334072149 -6.4054505462845555 0 -6.4054505462845555 11.700844059567316 0 0 0 0 -0.4502695450567451 0.1302419503381671 0 0.1302419503381671 -1.2290059403356395 0 0 0 0 -301.16958957095653 -182.74620095464707 0 -182.74620095464707 -22.511963890472543 0 0 0 0 0.78503520124746551 -0.059931327201155682 0 -0.059931327201155682 -2.063972474704201 0 0 0 0 -389.54294292640941 -73.464866106891122 0 -73.464866106891122 110.60702549878624 0 0 0 0 -379.25314599029684 90.025989798790306 0 90.025989798790306 152.40958921128185 0 0 0 0 -122.95062721216664 0.2054514441624633 0 0.2054514441624633 15.82332406086789 0 0 0 0 -83.335989323574495 107.86050293780136 0 107.86050293780136 50.538656919350615 0 0 0 0 -183.14828784666224 220.00046333789942 0 220.00046333789942 81.972839012087206 0 0 0 0 -10.015845254022224 41.202960529994016 0 41.202960529994016 27.575013709021732 0 0 0 0 14.660781337797188 -36.102269109450809 0 -36.102269109450809 62.467147907279269 0 0 0 0 -146.10462864335489 -145.21697290228849 0 -145.21697290228849 72.510121018021891 0 0 0 0 -180.42621017610782 -20.514000829320139 0 -20.514000829320139 158.97026339754666 0 0 0 0 -80.512574638881233 36.251399778007908 0 36.251399778007908 74.620132035063762 0 0 0 0 55.290639768797519 275.82479033296477 0 275.82479033296477 286.51105459778137 0 0 0 0 49.544587841813154 3.8900871959958749 0 3.8900871959958749 138.06688160543854 0 0 0 0 -27.585266474907257 -3.0279763110302156 0 -3.0279763110302156 185.1823196864425 0 0 0 0 -29.227671722633659 -33.940071774777607 0 -33.940071774777607 52.768693361344049 0 0 0 0 0.7664211882129166 40.32505508052418 0 40.32505508052418 123.52532373089707 0 0 0 0 -68.710980407972784 12.092340908558981 0 12.092340908558981 184.72500881142332 0 0 0 0 0.16931011752046388 5.1001682271065647 0 5.1001682271065647 9.7143537823296242 0 0 0 0 22.40906066340267 27.170910827348052 0 27.170910827348052 103.70008706727822 0 0 0 0 2.4865949335189725 84.726827767080977 0 84.726827767080977 190.915149638412 0 0 0 0 -43.528694017782072 101.49076650186908 0 101.49076650186908 103.92528465796204 0 0 0 0 -87.175850443598392 7.4481419168514549 0 7.4481419168514549 24.129059273640451 0 0 0 0 -1.8398331878321059 3.7450997484430317 0 3.7450997484430317 3.8980705852128779 0 0 0 0 -72.642844511986368 12.593858855878352 0 12.593858855878352 17.262330939964158 0 0 0 0 15.958304801055419 13.965390741277588 0 13.965390741277588 51.928642158265575 0 0 0 0 0.95904171942100547 21.85762715945441 0 21.85762715945441 40.113154237386595 0 0 0 0 -2.3229938337353815 21.441745728836395 0 21.441745728836395 69.942423736759338 0 0 0 0 -65.301140333062904 10.665198234732088 0 10.665198234732088 36.930861252374598 0 0 0 0 -53.809631841093733 53.218090378450142 0 53.218090378450142 40.009903143320116 0 0 0 0 -144.9709904485286 -30.445993405177433 0 -30.445993405177433 -20.873057260352653 0 0 0 0 -150.45730052140104 46.636453106849331 0 46.636453106849331 63.956148601471796 0 0 0 0 -112.1806534066136 -58.56774653440516 0 -58.56774653440516 -81.931100738973328 0 0 0 0 -71.789531084744794 -0.93306693731210544 0 -0.93306693731210544 -5.1978691967669874 0 0 0 0 -165.35816612803319 -14.768602760505019 0 -14.768602760505019 44.713795208299416 0 0 0 0 -106.93160446249203 17.583409360326186 0 17.583409360326186 28.930359805210173 0 0 0 0 -121.84408380777177 -0.1797726762270031 0 -0.1797726762270031 33.456077779141197 0 0 0 0 -81.824534218442977 20.852286351349903 0 20.852286351349903 42.276935633562971 0 0 0 0 -108.56486454508831 41.189277137018507 0 41.189277137018507 27.284726184603642 0 0 0 0 -72.426899169483477 48.080468101921724 0 48.080468101921724 52.005887275597161 0 0 0 0 -107.24970574446888 10.05243893070292 0 10.05243893070292 59.613054887711769 0 0 0 0 -13.307688110581694 9.4078110130358255 0 9.4078110130358255 59.084278753649414 0 0 0 0 -59.49782282805063 14.555989705080719 0 14.555989705080719 73.208100264557288 0 0 0 0 10.027045380976688 38.577229740483745 0 38.577229740483745 76.268956891228299 0 0 0 0 9.8346947302975423 42.159496954591305 0 42.159496954591305 43.890925826448438 0 0 0 0 53.265991658518374 19.930305273874183 0 19.930305273874183 69.779794956091791 0 0 0 0 87.378637984343868 12.151272442140908 0 12.151272442140908 39.884636226619477 0 0 0 0 26.86675512464069 46.807762894861298 0 46.807762894861298 34.715315191118862 0 0 0 0 63.927129930283627 9.3434830991536728 0 9.3434830991536728 38.694384542500302 0 0 0 0 133.13804876706081 30.006626644484641 0 30.006626644484641 2.8933539224090055 0 0 0 0 -7.1880153395638899 70.932817198885459 0 70.932817198885459 29.055459333831095 0 0 0 0 197.40246634457026 -71.838512551847089 0 -71.838512551847089 29.221603260688426 0 0 0 0 222.36958186278719 -93.990680964758212 0 -93.990680964758212 43.898199146962725 0 0 0 0 176.36099391463767 -19.115632263819862 0 -19.115632263819862 19.603205578619963 0 0 0 0 210.92562629037957 -37.935788269853219 0 -37.935788269853219 20.021096684795339 0 0 0 0 145.56419987064373 -29.933119984430959 0 -29.933119984430959 40.498043189218151 0 0 0 0 171.44758858922046 -40.992968416685471 0 -40.992968416685471 35.562970157567179 0 0 0 0 138.40235305644956 -14.860861536231823 0 -14.860861536231823 28.613314555292163 0 0 0 0 178.38319535501864 -79.033582825191843 0 -79.033582825191843 39.772608479281189 0 0 0 0 157.66354638609261 -63.540543796258135 0 -63.540543796258135 75.32099049432145 0 0 0 0 131.26276139699121 -54.836760342688649 0 -54.836760342688649 72.506857073443825 0 0 0 0 103.28484450503785 -31.755091029155665 0 -31.755091029155665 119.03086387291842 0 0 0 0 87.891505760635098 -9.7130853930817693 0 -9.7130853930817693 72.956675990091753 0 0 0 0 98.261764512225 -4.7525757771218196 0 -4.7525757771218196 63.318222029745812 0 0 0 0 56.542394531617447 29.316012599389069 0 29.316012599389069 96.025701333579491 0 0 0 0 74.918498271860244 -5.9647429323522374 0 -5.9647429323522374 105.85221061028278 0 0 0 0 89.013444457332525 -41.23745028135454 0 -41.23745028135454 193.45989516421105 0 0 0 0 102.23531380591533 -78.01579052269517 0 -78.01579052269517 133.20084343248891 0 0 0 0 103.74888439004476 -101.56620616759847 0 -101.56620616759847 182.01776607478678 0 0 0 0 138.01640254545987 -85.979797995372792 0 -85.979797995372792 133.59814990474842 0 0 0 0 76.719395015426386 -132.38583307166846 0 -132.38583307166846 275.42621678805153 0 0 0 0 80.446093659950009 -125.71966831364625 0 -125.71966831364625 245.81824154586502 0 0 0 0 131.60988930431296 -174.09631097095553 0 -174.09631097095553 132.14014035344007 0 0 0 0 131.74638947965042 -170.9999355668624 0 -170.9999355668624 154.8111147263262 0 0 0 0 113.87903074174831 -186.51811595888285 0 -186.51811595888285 191.45915312790021 0 0 0 0 110.38611452686308 -204.16120027732541 0 -204.16120027732541 200.41407547859126 0 0 0 0 138.19926441918943 -190.76184179842676 0 -190.76184179842676 65.034452542560757 0 0 0 0 133.90414782922116 -203.69100155616616 0 -203.69100155616616 112.24370823352001 0 0 0 0 171.5833631859249 -179.26685068341612 0 -179.26685068341612 75.745271835359745 0 0 0 0 164.55939001229225 -196.44106957702024 0 -196.44106957702024 50.319450756695005 0 0 0 0 180.55242348627394 -180.36155057385622 0 -180.36155057385622 49.088210670476656 0 0 0 0 182.63690441274906 -182.48977051985275 0 -182.48977051985275 39.071308098704321 0 0 0 0 141.17267721349725 -186.3894098922101 0 -186.3894098922101 0.659647240609047 0 0 0 0 189.79330210091393 -115.78902630595258 0 -115.78902630595258 64.457992885218118 0 0 0 0 156.94664945723605 -119.40592169028241 0 -119.40592169028241 82.611713025704375 0 0 0 0 157.2803570135917 -148.0579606342435 0 -148.0579606342435 104.01794118685939 0 0 0 0 199.2464335872894 -149.90760532476997 0 -149.90760532476997 37.977147121564485 0 0 0 0 205.6834128806122 -163.90058718060027 0 -163.90058718060027 53.998463700045249 0 0 0 0 216.28769501081672 -130.23967760399682 0 -130.23967760399682 55.178770618425915 0 0 0 0 205.43369296169385 -115.29880330253218 0 -115.29880330253218 34.648958325960848 0 0 0 0 302.62635438605912 -115.69127978599863 0 -115.69127978599863 31.307773697189987 0 0 0 0 244.90764366845337 -115.9318256130864 0 -115.9318256130864 31.309427390442579 0 0 0 0 245.70592067844541 -116.64788241378847 0 -116.64788241378847 31.951120605728647 0 0 0 0 224.4613971262846 -163.00074428665539 0 -163.00074428665539 36.042101484665181 0 0 0 0 249.91789896759758 -148.5423231890818 0 -148.5423231890818 35.701655784334434 0 0 0 0 230.25396924296439 -170.89788898036204 0 -170.89788898036204 28.864975280681392 0 0 0 0 253.90111631309023 -146.88692083279602 0 -146.88692083279602 37.719992035998985 0 0 0 0 290.711105066046 -125.83225200731977 0 -125.83225200731977 64.726452913913818 0 0 0 0 280.26953377479663 -162.773923073888 0 -162.773923073888 44.283841871059849 0 0 0 0 326.89313229918173 -131.20055383251747 0 -131.20055383251747 55.940364726928237 0 0 0 0 275.34304866872674 -118.90087721515829 0 -118.90087721515829 55.211552651569946 0 0 0 0 143.00872953385996 -202.5311685114284 0 -202.5311685114284 42.110416213196004 0 0 0 0 73.816418620716263 -151.61269418501615 0 -151.61269418501615 31.727066470448335 0 0 0 0 193.81023287106319 -177.45789073383639 0 -177.45789073383639 40.768756222634693 0 0 0 0 194.80974224825982 -181.82774630900531 0 -181.82774630900531 14.01476823201665 0 0 0 0 198.22725712979332 -148.85419748570712 0 -148.85419748570712 62.902864909381606 0 0 0 0 241.80865423560269 -188.8998819533972 0 -188.8998819533972 31.863298030279111 0 0 0 0 199.41308773794464 -178.15663759433664 0 -178.15663759433664 9.5392000044885208 0 0 0 0 119.02400342416132 -202.00794427889196 0 -202.00794427889196 38.630874943664821 0 0 0 0 60.183566806672047 -127.9480979845539 0 -127.9480979845539 92.122138111073582 0 0 0 0 217.42585027962534 -97.338728393835936 0 -97.338728393835936 133.11358148998988 0 0 0 0 212.89176797464273 -179.28355509798848 0 -179.28355509798848 91.427134893921902 0 0 0 0 54.870619036856738 -59.08235378984682 0 -59.08235378984682 225.36376345314056 0 0 0 0 288.31288324825533 -139.97559102570813 0 -139.97559102570813 117.84938284866803 0 0 0 0 307.73711071731145 -100.52033787540131 0 -100.52033787540131 108.70777522958815 0 0 0 0 348.92560093004261 -133.38149039786367 0 -133.38149039786367 112.90846250682807 0 0 0 0 261.09821719907552 -190.52888973063091 0 -190.52888973063091 86.083902503785794 0 0 0 0 314.20970660315146 -80.747466801933115 0 -80.747466801933115 220.86721295988536 0 0 0 0 292.37369992253281 -172.23864132705057 0 -172.23864132705057 207.91503712944905 0 0 0 0 393.99636012692815 -122.60605230048532 0 -122.60605230048532 212.0044946638227 0 0 0 0 310.75302211761516 -133.69874337656074 0 -133.69874337656074 347.81529304532705 0 0 0 0 330.57736540462162 -86.379995526207495 0 -86.379995526207495 198.67384911305271 0 0 0 0 363.62501063163165 -54.316230914289918 0 -54.316230914289918 272.94368890649639 0 0 0 0 381.50618411729556 -113.81827738967695 0 -113.81827738967695 188.50249576154602 0 0 0 0 303.327544172128 -81.813259486953029 0 -81.813259486953029 123.40587979301927 0 0 0 0 364.54345529491786 -118.08810332250141 0 -118.08810332250141 111.55805408506421 0 0 0 0 349.09975637238824 -54.266719713865314 0 -54.266719713865314 137.54173317507957 0 0 0 0 338.84380454594316 -53.003018783958396 0 -53.003018783958396 61.518970960198203 0 0 0 0 284.34339078946869 -35.692282623938809 0 -35.692282623938809 148.46074346776004 0 0 0 0 369.10241055171696 -14.392995449082264 0 -14.392995449082264 153.60735822374409 0 0 0 0 292.93334908640327 -46.890098893331015 0 -46.890098893331015 243.14028631120527 0 0 0 0 332.63474193820457 -5.1552648863798822 0 -5.1552648863798822 142.72160003911995 0 0 0 0 225.74461959430391 1.4805512320963317 0 1.4805512320963317 264.03303500442416 0 0 0 0 245.97236920809837 90.68892549983866 0 90.68892549983866 163.25833202924696 0 0 0 0 173.2250293463967 78.463908371988509 0 78.463908371988509 45.796744845501962 0 0 0 0 182.0692362976497 -4.8026485139853321 0 -4.8026485139853321 97.230470132140908 0 0 0 0 223.43528042415346 36.09708635872812 0 36.09708635872812 135.73148414601746 0 0 0 0 305.01256164541496 -23.82859848508815 0 -23.82859848508815 67.965684909126139 0 0 0 0 207.53702397134333 -17.937436913535748 0 -17.937436913535748 76.389825957710855 0 0 0 0 208.87688117911375 37.159603456743525 0 37.159603456743525 28.105562489217846 0 0 0 0 16.179197581549488 84.827802092659113 0 84.827802092659113 80.358357130382501 0 0 0 0 131.52746242874491 17.154864656848076 0 17.154864656848076 36.010835252483957 0 0 0 0 28.742020752033568 18.442247011989821 0 18.442247011989821 27.277432431994157 0 0 0 0 88.999204829471637 71.837962747020356 0 71.837962747020356 17.426436868016026 0 0 0 0 173.59121633845757 -3.9082268370257225 0 -3.9082268370257225 31.772939386792132 0 0 0 0 164.76765722510072 -13.323572769226303 0 -13.323572769226303 27.575540462537901 0 0 0 0 251.87132186255621 -32.903507807219285 0 -32.903507807219285 15.386504539845191 0 0 0 0 227.05113178913746 -65.994626192023134 0 -65.994626192023134 32.160671456978889 0 0 0 0 265.57664176981871 -83.430222750728717 0 -83.430222750728717 27.519547274116121 0 0 0 0 300.67836786799762 -74.976537444497808 0 -74.976537444497808 28.881156080551591 0 0 0 0 267.14750689029961 -96.668589858229097 0 -96.668589858229097 56.9307928000635 0 0 0 0 336.91177716286813 -92.918623126468447 0 -92.918623126468447 54.90239461674355 0 0 0 0 280.25520556868833 -18.900196999529726 0 -18.900196999529726 23.00854346833512 0 0 0 0 247.76620164011774 -46.817237054048746 0 -46.817237054048746 68.258946448841016 0 0 0 0 -95.296650373575645 -324.00838059529633 0 -324.00838059529633 -75.529933882149635 0 0 0 0 -735.13573726608934 -154.46176589140669 0 -154.46176589140669 873.45131057970866 0 0 0 0 -396.07249189905951 -111.27505668234517 0 -111.27505668234517 249.60245816569659 0 0 0 0 -335.32317082964482 -398.87327079378883 0 -398.87327079378883 1611.0998224363648 0 0 0 0 162.2415090088179 -706.40683428765624 0 -706.40683428765624 -192.03985705674131 0 0 0 0 181.95046452530624 -894.96032523796021 0 -894.96032523796021 428.64298506146588 0 0 0 0 -131.71442481360592 340.0612518017042 0 340.0612518017042 413.64672580906699 0 0 0 0 1825.2362638099892 -1014.5968109565911 0 -1014.5968109565911 -211.69586019146664 0 0 0 0 2.1616273890527751 -6.4293012861092613 0 -6.4293012861092613 20.576613713105303 0 0 0 0 -0.95820965570291083 -461.74613589471329 0 -461.74613589471329 3236.2847353529651 0 0 0 0 577.55507740547432 83.362895629879858 0 83.362895629879858 3495.9889649402685 0 0 0 0 -946.73122045321225 763.71443417380215 0 763.71443417380215 3272.1458579506198 0 0 0 0 295.58131445534377 -1591.2246417834504 0 -1591.2246417834504 2284.6472941826651 0 0 0 0 -1640.0920546401323 -828.74421774162329 0 -828.74421774162329 1652.6751377833789 0 0 0 0 -655.02085985034421 331.38734969232428 0 331.38734969232428 1139.6105912558414 0 0 0 0 -413.69201700466226 1442.695609522656 0 1442.695609522656 3497.5771928625618 0 0 0 0 1.7685185769156322 -14.075466327728634 0 -14.075466327728634 30.918968380610409 0 0 0 0 -924.93113795961551 -271.50294857825429 0 -271.50294857825429 411.33640217153879 0 0 0 0 -298.41759192622453 140.80981746209 0 140.80981746209 392.45906979762958 0 0 0 0 -427.16956653730392 485.76180634584671 0 485.76180634584671 886.54934954765486 0 0 0 0 -425.00887528477119 -83.911327937064925 0 -83.911327937064925 -765.44630215113284 0 0 0 0 -199.10903181304286 -1978.570776808574 0 -1978.570776808574 -256.24351352958183 0 0 0 0 2.6479595091633383 -7.4817575739169939 0 -7.4817575739169939 13.50142292939114 0 0 0 0 13.070499561297879 789.77427194191114 0 789.77427194191114 1881.9439990108658 0 0 0 0 -175.95853133604305 -331.79125306934293 0 -331.79125306934293 2295.3271915341284 0 0 0 0 -10.20194910191212 591.70715201449866 0 591.70715201449866 969.72307617506885 0 0 0 0 -391.95348984873397 -2.4759758982472704 0 -2.4759758982472704 1354.8632040736156 0 0 0 0 -417.96385162022102 155.28122585020901 0 155.28122585020901 892.4636274539007 0 0 0 0 -244.79886842589804 394.73348390650517 0 394.73348390650517 809.19303516759828 0 0 0 0 -269.61711274725906 307.57711164815555 0 307.57711164815555 1001.1789736627397 0 0 0 0 30.893115952399285 348.78396088565205 0 348.78396088565205 708.84604831459728 0 0 0 0 26.135142330959525 340.61069006448815 0 340.61069006448815 708.14542634393729 0 0 0 0 215.15010191306806 340.94719417808346 0 340.94719417808346 518.22801569329749 0 0 0 0 229.66552552864573 330.61154817123679 0 330.61154817123679 698.39287064530072 0 0 0 0 -58.1094037211613 435.12391244821265 0 435.12391244821265 919.02692809616565 0 0 0 0 108.05841182277038 258.91826516935544 0 258.91826516935544 1271.2143216327386 0 0 0 0 197.56587544678973 299.84644287721312 0 299.84644287721312 747.41513051075162 0 0 0 0 -134.6782564147826 322.68445908562717 0 322.68445908562717 788.8752331970627 0 0 0 0 -166.89455750541862 412.0130755711798 0 412.0130755711798 542.34456747808144 0 0 0 0 -772.2087097200274 348.1028271210198 0 348.1028271210198 663.73376231045404 0 0 0 0 -94.86311830174958 126.15158759154292 0 126.15158759154292 -115.47077492406243 0 0 0 0 -113.59273344802452 56.716457598621673 0 56.716457598621673 1092.574324176443 0 0 0 0 -226.97479883990934 -2164.2724827398779 0 -2164.2724827398779 1273.2406083299429 0 0 0 0 -167.66866068454078 -1413.7423992038166 0 -1413.7423992038166 -0.53276345317317464 0 0 0 0 1.1088857339252092 -6.4843821154348262 0 -6.4843821154348262 16.571936118912134 0 0 0 0 -176.40954773730522 -1505.1190083610873 0 -1505.1190083610873 2040.7820325014181 0 0 0 0 -1302.4673565575245 -1878.0341924588538 0 -1878.0341924588538 3491.697196888359 0 0 0 0 -127.76987308627946 -385.45582797582028 0 -385.45582797582028 2885.6442773634626 0 0 0 0 -544.54404307185678 -579.4728287928956 0 -579.4728287928956 3782.707975722049 0 0 0 0 -3.1127510624848722 -1.2481090423965497 0 -1.2481090423965497 5.4927359140150358 0 0 0 0 -483.88792928297244 -1449.3084728424583 0 -1449.3084728424583 2968.5996690140455 0 0 0 0 -45.365425682419755 -324.61341622844338 0 -324.61341622844338 2417.5741993943084 0 0 0 0 -45.689466514547583 -422.91708315812008 0 -422.91708315812008 2782.3078420608945 0 0 0 0 129.42380172349294 -619.60907538232277 0 -619.60907538232277 587.41893339724629 0 0 0 0 103.58678645106988 -686.36017767753219 0 -686.36017767753219 1856.8668696238019 0 0 0 0 96.40526402211276 87.615130250982475 0 87.615130250982475 1442.8443353161128 0 0 0 0 50.271508784029265 -59.121492580685299 0 -59.121492580685299 1034.13889390041 0 0 0 0 295.74828895814574 -109.5452987986173 0 -109.5452987986173 1357.4025296641921 0 0 0 0 223.58829860534979 -85.231937642660341 0 -85.231937642660341 2004.4574804514414 0 0 0 0 294.64911332200495 219.06653020498925 0 219.06653020498925 1467.478874813256 0 0 0 0 269.52699915597896 -41.089554510625021 0 -41.089554510625021 1923.9299682854689 0 0 0 0 341.36099094307156 -2.6590342603012687 0 -2.6590342603012687 1939.4236854910996 0 0 0 0 358.83264205482283 90.43001141869172 0 90.43001141869172 2568.5214670104324 0 0 0 0 359.08844934632685 -209.93643130708188 0 -209.93643130708188 2387.0548817891395 0 0 0 0 186.23467490230905 36.006111322363722 0 36.006111322363722 1990.2250439197815 0 0 0 0 320.29711754493155 1.3389158951904392 0 1.3389158951904392 1974.36525215656 0 0 0 0 364.62574002814563 -128.07689621704048 0 -128.07689621704048 1998.6485211182971 0 0 0 0 88.547445163009797 214.59511886755354 0 214.59511886755354 3095.946348047175 0 0 0 0 637.36987355885867 146.02960843604524 0 146.02960843604524 2519.5207101884444 0 0 0 0 677.19584940354753 -27.353754539068177 0 -27.353754539068177 2491.7565644933784 0 0 0 0 19.835613621009255 -104.24289037122799 0 -104.24289037122799 3548.3505396357141 0 0 0 0 -76.449207653157146 -98.389247388928197 0 -98.389247388928197 3038.6530150853268 0 0 0 0 60.318588840539263 -11.957871486010845 0 -11.957871486010845 3501.8154961886271 0 0 0 0 -2.1437155566054149 -2.7643723841121357 0 -2.7643723841121357 6.5459035237615772 0 0 0 0 344.06184676568171 -322.44585316601297 0 -322.44585316601297 2592.6705270439561 0 0 0 0 -3.5307619602145905 48.688687119196402 0 48.688687119196402 2683.7416357133116 0 0 0 0 364.95086896503756 110.42653311660615 0 110.42653311660615 1436.8077088761929 0 0 0 0 134.07987631663048 24.719581063240184 0 24.719581063240184 2166.0801161497657 0 0 0 0 103.06080951781769 -85.17886879442085 0 -85.17886879442085 2593.0526536255975 0 0 0 0 64.032281798524423 178.19421247084392 0 178.19421247084392 2143.7499919346501 0 0 0 0 354.14374150134734 84.250325933207932 0 84.250325933207932 1003.3750303685738 0 0 0 0 169.81278196564438 331.15575815417833 0 331.15575815417833 1387.7456403704418 0 0 0 0 361.10665652498301 66.328179916512454 0 66.328179916512454 1202.6669309047429 0 0 0 0 388.90557124105669 159.01470036210594 0 159.01470036210594 841.07892753689521 0 0 0 0 140.84678305224679 381.06416882079793 0 381.06416882079793 1031.5809035320272 0 0 0 0 41.648889692600505 350.7237270152109 0 350.7237270152109 766.23273898633488 0 0 0 0 199.15874026187885 207.71900344455935 0 207.71900344455935 584.66558678258298 0 0 0 0 498.018507447091 255.20913885024493 0 255.20913885024493 262.63663547258329 0 0 0 0 -51.457068118502065 -60.484440900989284 0 -60.484440900989284 254.3301379535551 0 0 0 0 147.57169109536164 -25.836018288959167 0 -25.836018288959167 199.3319439889965 0 0 0 0 303.33132815425319 297.80363225413384 0 297.80363225413384 338.47111066387151 0 0 0 0 132.46980362524982 62.755479844898218 0 62.755479844898218 237.54069039813112 0 0 0 0 -48.902795312581816 -123.37585965719336 0 -123.37585965719336 114.40216324312314 0 0 0 0 163.55019865085487 133.6357541019679 0 133.6357541019679 81.483764337303001 0 0 0 0 -48.468596567006216 -39.779166393230298 0 -39.779166393230298 94.373286740083131 0 0 0 0 17.800640234987451 -39.92889814602119 0 -39.92889814602119 66.198769909616061 0 0 0 0 -40.835174381754769 -7.9761098311500973 0 -7.9761098311500973 117.98564595998323 0 0 0 0 0.56600507135044609 3.3648176940478152 0 3.3648176940478152 95.958952356100781 0 0 0 0 8.8387246515640072 7.9020241686812369 0 7.9020241686812369 59.31935718945897 0 0 0 0 -3.138548898157751 21.168120829286636 0 21.168120829286636 121.88784243924056 0 0 0 0 -0.23340594124600145 19.423803053000498 0 19.423803053000498 41.931652906854112 0 0 0 0 -26.533321808345136 -18.392238454036487 0 -18.392238454036487 86.824222776187526 0 0 0 0 9.4342849367258168 15.21556217820762 0 15.21556217820762 62.723497286107886 0 0 0 0 -0.48872970724881171 10.485533588645794 0 10.485533588645794 52.928187881771919 0 0 0 0 -6.2489740485920962 6.0848899289113092 0 6.0848899289113092 23.583040543739827 0 0 0 0 -2.6567908021886524 20.608051640656413 0 20.608051640656413 76.45730103639653 0 0 0 0 -45.762398190090607 23.978583395204623 0 23.978583395204623 61.012870830261818 0 0 0 0 19.1147925091079 60.490910244750467 0 60.490910244750467 35.801023360720137 0 0 0 0 9.7666875232125037 22.346388130514043 0 22.346388130514043 39.481712356271828 0 0 0 0 8.7258953564682997 12.599574785828736 0 12.599574785828736 54.666768548428081 0 0 0 0 17.877633476002302 52.18811981313047 0 52.18811981313047 59.35237930948324 0 0 0 0 42.390975346495466 -91.445708476492655 0 -91.445708476492655 -20.470765868521994 0 0 0 0 7.9774130940058967 4.4038549841934582 0 4.4038549841934582 48.973422502800531 0 0 0 0 5.6048047738107574 -1.5781120250466927 0 -1.5781120250466927 54.181441703488645 0 0 0 0 4.2522758944878616 0.42890038043506706 0 0.42890038043506706 1.8612340209923559 0 0 0 0 134.55207392062783 -120.99370828799147 0 -120.99370828799147 34.619828644311383 0 0 0 0 91.853974213750746 113.17431065180426 0 113.17431065180426 -6.0416572540889319 0 0 0 0 5.273734378305825 10.134062945069374 0 10.134062945069374 -13.15868773592598 0 0 0 0 79.307803489753695 59.13182706524276 0 59.13182706524276 28.395431232027477 0 0 0 0 4.5086096081140568 123.85749052454776 0 123.85749052454776 46.288260201248704 0 0 0 0 -74.457507958512963 38.129873470056282 0 38.129873470056282 59.351453167357249 0 0 0 0 -3.2772998614356084 51.726739145691681 0 51.726739145691681 43.07352315440221 0 0 0 0 -10.63193771777685 88.63521114125615 0 88.63521114125615 70.025695718897623 0 0 0 0 173.98974287511828 -96.281989512965083 0 -96.281989512965083 -294.92249482536863 0 0 0 0 -72.34043437321975 152.06587961532205 0 152.06587961532205 -15.875694523114362 0 0 0 0 -104.23100087582691 273.52678326580281 0 273.52678326580281 393.40886514607701 0 0 0 0 23.011483730810028 -23.518747728103335 0 -23.518747728103335 417.41635309949925 0 0 0 0 57.246784338595027 39.657931018489307 0 39.657931018489307 254.34297755481384 0 0 0 0 152.56772778645745 158.50311883077666 0 158.50311883077666 244.9169083833176 0 0 0 0 115.21250443326667 229.20236772000453 0 229.20236772000453 398.85141352504434 0 0 0 0 95.794788711180445 94.173351485122112 0 94.173351485122112 466.40799455654633 0 0 0 0 82.552901650418335 202.58352789584023 0 202.58352789584023 440.85596042573161 0 0 0 0 83.88672425149278 241.66160819779668 0 241.66160819779668 520.16391894956178 0 0 0 0 -115.5174449043709 212.48400866226439 0 212.48400866226439 637.92097988937894 0 0 0 0 -139.2246442330364 152.84962058166002 0 152.84962058166002 818.63992724681157 0 0 0 0 -178.31868693026945 -71.24871967893705 0 -71.24871967893705 668.40652872701685 0 0 0 0 -172.47395901412892 -34.67645640289993 0 -34.67645640289993 520.57263279875042 0 0 0 0 -173.58290899816586 -217.43364403601299 0 -217.43364403601299 1001.5766198713536 0 0 0 0 90.360144445271317 -338.37409754229157 0 -338.37409754229157 374.95263102030731 0 0 0 0 -155.69578808108349 -138.66411936929944 0 -138.66411936929944 973.20112662044994 0 0 0 0 -76.49194150940032 151.05186694274016 0 151.05186694274016 383.32181771750038 0 0 0 0 145.17520798580267 -186.72354484109383 0 -186.72354484109383 67.176599359183456 0 0 0 0 -99.391343781637715 151.31346018738259 0 151.31346018738259 34.106130076484078 0 0 0 0 -3.730935561386088 1.309114669392045 0 1.309114669392045 5.4407745683313848 0 0 0 0 -31.73174097718902 12.268706964961893 0 12.268706964961893 47.851739783395715 0 0 0 0 89.093847449736131 63.556105506697349 0 63.556105506697349 -239.69392066101864 0 0 0 0 33.329861887728271 -53.090288223931566 0 -53.090288223931566 77.932487821341056 0 0 0 0 3.5829050922508934 25.344230447494184 0 25.344230447494184 42.941965178192447 0 0 0 0 -7.520085774240215 54.747665777780639 0 54.747665777780639 69.725522429769626 0 0 0 0 82.093573118863787 38.250181811061339 0 38.250181811061339 -45.265093826317752 0 0 0 0 -0.96007030911125035 -0.049691030040904138 0 -0.049691030040904138 -11.291904124255893 0 0 0 0 1.9776716283830311 39.584477859336886 0 39.584477859336886 0.29534663036755404 0 0 0 0 11.176501222862775 28.740636769172852 0 28.740636769172852 75.20360102027189 0 0 0 0 77.647663935256332 121.50536088820809 0 121.50536088820809 -25.118754912648001 0 0 0 0 -10.950483418509904 24.960602368390937 0 24.960602368390937 140.8678327811358 0 0 0 0 -13.623694158292409 44.331688223610399 0 44.331688223610399 130.11971916096809 0 0 0 0 0.0057400153457733694 48.145661820766691 0 48.145661820766691 173.91428934893338 0 0 0 0 2.132714081990406 40.046162078193447 0 40.046162078193447 142.89747519319644 0 0 0 0 -3.3847957857805611 59.806720126332948 0 59.806720126332948 166.16274597994925 0 0 0 0 -8.3714107741497372 39.228455856897597 0 39.228455856897597 3.7725740506273944 0 0 0 0 -14.431598863458733 -5.0717921102259425 0 -5.0717921102259425 50.100438216371003 0 0 0 0 7.5859182043413291 40.555542515750858 0 40.555542515750858 91.25189455349755 0 0 0 0 -1.5456994136138709 10.881703152702549 0 10.881703152702549 2.5441112782134496 0 0 0 0 -136.59306170808486 63.878887184015184 0 63.878887184015184 52.402310241664964 0 0 0 0 -9.127739163284323 11.373157164474833 0 11.373157164474833 28.790159888914786 0 0 0 0 -0.097288000971846436 2.4190857258716107 0 2.4190857258716107 80.568416782908855 0 0 0 0 -323.78552240429008 151.79649588734537 0 151.79649588734537 101.34988215025805 0 0 0 0 -1.1947882926193787 -7.6216012976366905 0 -7.6216012976366905 72.47820700054632 0 0 0 0 0.13457699769350143 -39.527643867920112 0 -39.527643867920112 9.7077800504630432 0 0 0 0 -195.69203702639243 264.24300070464597 0 264.24300070464597 -12.923789044834848 0 0 0 0 -2.6599739244462626 -1.915380368409231 0 -1.915380368409231 0.93262108126953081 0 0 0 0 48.707662937506029 66.71889198289864 0 66.71889198289864 -54.694850263127591 0 0 0 0 384.94430120213673 -64.49147082309355 0 -64.49147082309355 -59.725731702538042 0 0 0 0 -232.17735664005795 -227.61232885739082 0 -227.61232885739082 201.4469620301752 0 0 0 0 151.46302397677209 263.30139349732781 0 263.30139349732781 -160.9738875576295 0 0 0 0 393.82300884054735 551.88259090120118 0 551.88259090120118 1166.5796193915667 0 0 0 0 1053.3560912794624 -752.62381519737391 0 -752.62381519737391 589.16109650550061 0 0 0 0 1.8598028661937338 -12.921746089031654 0 -12.921746089031654 52.915317228945696 0 0 0 0 0.00049298265960530385 3.9100213981291745 0 3.9100213981291745 16.316485578940046 0 0 0 0 -15.649069320082873 14.144635786844447 0 14.144635786844447 217.86345673222968 0 0 0 0 -29.662072912475921 14.656222255813191 0 14.656222255813191 318.53186955611818 0 0 0 0 0.37929799376118506 0.47297202429939489 0 0.47297202429939489 -0.024247716788408979 0 0 0 0 -20.526235222276824 31.624710047683038 0 31.624710047683038 229.80582458095887 0 0 0 0 0.050377532185591815 56.40409603079852 0 56.40409603079852 242.29103052116989 0 0 0 0 -8.4834796122850111 25.48438891321166 0 25.48438891321166 171.32450160468579 0 0 0 0 -0.019477707650314507 45.195335041091312 0 45.195335041091312 192.86110395292053 0 0 0 0 -24.936364798916827 24.4202257644356 0 24.4202257644356 209.46075092919637 0 0 0 0 -4.1335108305379009 36.540366542496486 0 36.540366542496486 149.91169913407794 0 0 0 0 -9.5802010552566372 44.029719699714406 0 44.029719699714406 214.33932732265384 0 0 0 0 -38.468768041273677 64.782283799395373 0 64.782283799395373 300.85720672641764 0 0 0 0 -40.762123288665492 50.91539944082615 0 50.91539944082615 230.14995452030962 0 0 0 0 -16.428214113838692 4.0683195994788548 0 4.0683195994788548 147.01741985707849 0 0 0 0 -41.678291783546342 -14.455688995367382 0 -14.455688995367382 229.37171161567676 0 0 0 0 -23.903549799836597 4.8907091747059894 0 4.8907091747059894 217.36224666809721 0 0 0 0 -9.7901657150914332 20.743656152502808 0 20.743656152502808 169.22451275517233 0 0 0 0 -51.701855854907478 -50.087707068541931 0 -50.087707068541931 414.92202116482076 0 0 0 0 -49.837239119400863 -29.440569701317145 0 -29.440569701317145 596.85390700472635 0 0 0 0 -4.7643471176605772 99.238238440324494 0 99.238238440324494 171.768202875508 0 0 0 0 25.936328469483669 143.95401453036175 0 143.95401453036175 325.64485069188231 0 0 0 0 36.998653061773211 216.72163583774818 0 216.72163583774818 541.54817854013527 0 0 0 0 19.24541418345143 174.43715736897138 0 174.43715736897138 352.40563879381807 0 0 0 0 128.41391392642527 97.123302758467617 0 97.123302758467617 7.4242406605626456 0 0 0 0 13.317323836589026 50.520775099568709 0 50.520775099568709 132.61126612691442 0 0 0 0 -2.9497810088636696 -4.2300069808591445 0 -4.2300069808591445 21.267779461397197 0 0 0 0 4.4277630687633973 36.82804184788256 0 36.82804184788256 156.36382413011597 0 0 0 0 22.764160112335347 -1.5097060997004519 0 -1.5097060997004519 19.434978885779856 0 0 0 0 5.9297711419590087 30.468481614923803 0 30.468481614923803 124.6116109067807 0 0 0 0 17.344437812841193 44.554969420132693 0 44.554969420132693 112.08049429296807 0 0 0 0 0.81005000282348094 1.1951495260095157 0 1.1951495260095157 5.0514094578959572 0 0 0 0 0.76868272810182248 3.374217636170215 0 3.374217636170215 26.965933882253012 0 0 0 0 -16.459668611916641 -11.443778871544055 0 -11.443778871544055 15.661694773945783 0 0 0 0 -1.5867367145886577 2.7285355267426041 0 2.7285355267426041 7.449256177516645 0 0 0 0 -5.757984900559677 -1.9809313934092643 0 -1.9809313934092643 48.668208805553149 0 0 0 0 -7.7336393202544969 -9.1243265093216905 0 -9.1243265093216905 31.149207995676989 0 0 0 0 -21.340960059195822 0.88572441585711204 0 0.88572441585711204 26.421977164845885 0 0 0 0 -0.75682595380214934 0.90232521988764347 0 0.90232521988764347 31.491435400006594 0 0 0 0 -14.946962787346365 10.23410954013525 0 10.23410954013525 27.322575663711177 0 0 0 0 4.6406275874551284 12.694020499387989 0 12.694020499387989 38.520603051205399 0 0 0 0 1.5659114788931894 7.5963490793910751 0 7.5963490793910751 41.910633193180615 0 0 0 0 -54.698343251091075 -17.311571405138238 0 -17.311571405138238 93.13989264711563 0 0 0 0 -2.5019500282132321 1.5264837713957888 0 1.5264837713957888 48.76494151861948 0 0 0 0 -3.9749084829284129 -13.610773807376972 0 -13.610773807376972 39.107717661881907 0 0 0 0 -7.9634293899620729 -5.9926856494275853 0 -5.9926856494275853 24.562450738681946 0 0 0 0 -8.9135784758680074 -10.893253346432175 0 -10.893253346432175 36.066492696896603 0 0 0 0 -0.1015289053438686 0.53133381292957438 0 0.53133381292957438 4.0507010117513289 0 0 0 0 96.090829610753417 300.50421423347143 0 300.50421423347143 324.57992794568418 0 0 0 0 86.193454020318427 92.879676879485487 0 92.879676879485487 276.36164163573994 0 0 0 0 34.250460831142163 -56.366032273028395 0 -56.366032273028395 447.8174848202616 0 0 0 0 63.267864267189225 -12.253196217970981 0 -12.253196217970981 -60.055771544226445 0 0 0 0 -0.96509084732074646 0.37241361410958973 0 0.37241361410958973 -7.8974668880604781 0 0 0 0 -4.5943220608664914 -16.172785716218783 0 -16.172785716218783 26.948379802887942 0 0 0 0 1581.2902390179709 2199.2244884475367 0 2199.2244884475367 1481.7012084222661 0 0 0 0 424.4240392537904 72.223952384141739 0 72.223952384141739 250.258282554365 0 0 0 0 -612.62451465272147 1178.8513486918964 0 1178.8513486918964 2199.4850051366375 0 0 0 0 241.12026869793272 47.257489056821214 0 47.257489056821214 470.17351270646031 0 0 0 0 110.7052358411496 190.27819623802498 0 190.27819623802498 1162.8170684076613 0 0 0 0 -0.52749356369967959 13.844990067770368 0 13.844990067770368 -19.469520717232569 0 0 0 0 2.3629637319419166 18.131617112602783 0 18.131617112602783 42.231321717915279 0 0 0 0 420.90687820195114 -157.26047873338393 0 -157.26047873338393 5.9551126500009559 0 0 0 0 181.1501917651135 -186.09972821998235 0 -186.09972821998235 52.048861451970879 0 0 0 0 -2.7888223510765884 3.2620718998410609 0 3.2620718998410609 10.277684489647243 0 0 0 0 14.682796755224899 35.466822605842026 0 35.466822605842026 1147.868012165156 0 0 0 0 4.9727914806916171 5.9263796477244171 0 5.9263796477244171 -3.8322024742717531 0 0 0 0 -15.536059355011503 -122.33761486088042 0 -122.33761486088042 1365.2769309501473 0 0 0 0 33.139258300867596 1122.7669478334283 0 1122.7669478334283 340.92825527774403 0 0 0 0 12.573836006002693 240.9738809948467 0 240.9738809948467 469.21835256629856 0 0 0 0 10.525945808167648 220.46059637858889 0 220.46059637858889 278.38216142597958 0 0 0 0 -27.609865676691697 -65.050374576501781 0 -65.050374576501781 647.51707260566764 0 0 0 0 -37.909691342416181 7.8960743381030625 0 7.8960743381030625 329.59438265848439 0 0 0 0 -61.514795334265727 -19.485238729706907 0 -19.485238729706907 334.68938048780547 0 0 0 0 -2.2667080552692442 -7.8915383279439553 0 -7.8915383279439553 8.0689941184877512 0 0 0 0 -42.610501569522057 -16.084153944284481 0 -16.084153944284481 89.960280275503465 0 0 0 0 -17.528273157269467 -35.648608564601062 0 -35.648608564601062 21.947364407184679 0 0 0 0 60.845222112556712 -192.28251989964338 0 -192.28251989964338 367.07465904396668 0 0 0 0 52.640105831669644 -111.44399326107668 0 -111.44399326107668 93.531219943979522 0 0 0 0 70.405449949733793 -201.76850402045238 0 -201.76850402045238 291.68628243342755 0 0 0 0 -47.366166297996415 -2.8379805307777133 0 -2.8379805307777133 144.54106271184719 0 0 0 0 -77.709956768026132 18.592695678773453 0 18.592695678773453 262.06364604517876 0 0 0 0 -75.240807396079617 14.89895845065621 0 14.89895845065621 223.97699585411465 0 0 0 0 -67.937658676250066 41.691347743049846 0 41.691347743049846 238.72761011096736 0 0 0 0 -2.5247155315855707 110.3049926019994 0 110.3049926019994 170.39620498067234 0 0 0 0 4.4559581080914086 38.275117563138338 0 38.275117563138338 147.84289557154989 0 0 0 0 5.7700975987149832 28.52260384555359 0 28.52260384555359 72.09907451768305 0 0 0 0 -1.8054588116119703 15.5494092785666 0 15.5494092785666 75.620710091883666 0 0 0 0 1.2062430434034468 56.02420709800208 0 56.02420709800208 155.54785972464015 0 0 0 0 -67.98397993014504 49.912689585675025 0 49.912689585675025 172.45461675873958 0 0 0 0 -15.763323146889888 15.552210542402463 0 15.552210542402463 194.89438507529849 0 0 0 0 1.0304778779791377 22.565246725534962 0 22.565246725534962 147.66550973101403 0 0 0 0 -53.272037914562134 8.19129362134845 0 8.19129362134845 197.00706237534177 0 0 0 0 25.548502771583316 -67.820274316181894 0 -67.820274316181894 25.774013132515392 0 0 0 0 -16.297466473270674 31.857636899014324 0 31.857636899014324 166.61695114700706 0 0 0 0 -24.119258455085152 -30.668926098403347 0 -30.668926098403347 29.034702398574993 0 0 0 0 -1.9934198668094711 -3.2787388220655771 0 -3.2787388220655771 -2.9228772294492558 0 0 0 0 22.187632108255571 -26.399784085802821 0 -26.399784085802821 82.442716182151344 0 0 0 0 -6.4859805981670888 6.7578016562692937 0 6.7578016562692937 76.441194143208122 0 0 0 0 48.769118289882215 16.160382748339543 0 16.160382748339543 77.5447295922786 0 0 0 0 -7.5471301817877361 -4.7058714125123515 0 -4.7058714125123515 41.767901381259435 0 0 0 0 -30.653329852460956 24.386558493388293 0 24.386558493388293 50.012952304168721 0 0 0 0 14.456786454928874 2.8077878822041384 0 2.8077878822041384 53.51417918655352 0 0 0 0 -5.9251892952086109 -11.074361572624184 0 -11.074361572624184 77.26972483742793 0 0 0 0 -17.561716057555486 23.183475956673647 0 23.183475956673647 83.417235601475113 0 0 0 0 16.405090865619542 21.032736045479396 0 21.032736045479396 74.542469364561839 0 0 0 0 11.19467214919581 0.19448517678938515 0 0.19448517678938515 38.637626319308765 0 0 0 0 -17.216529282767851 35.043477836436068 0 35.043477836436068 118.50463957866305 0 0 0 0 -16.779609917616021 22.38276704926534 0 22.38276704926534 6.1312757610721746 0 0 0 0 32.836620358998061 82.557623427266662 0 82.557623427266662 44.895946616532456 0 0 0 0 -2.5630413180643465 6.929503547419138 0 6.929503547419138 7.2307720917251004 0 0 0 0 5.8370127086112689 12.142694816740914 0 12.142694816740914 7.1138046789565124 0 0 0 0 -7.1029677775746851 23.751239734667308 0 23.751239734667308 8.0546301451854845 0 0 0 0 -21.027575067769931 5.4106502304603055 0 5.4106502304603055 49.323124044793076 0 0 0 0 -0.65570793200214594 10.549101063026701 0 10.549101063026701 53.001421847809297 0 0 0 0 -60.341215398318724 100.21485669779577 0 100.21485669779577 36.220033431338379 0 0 0 0 -0.64755877338802748 49.06789717382344 0 49.06789717382344 75.65586471624556 0 0 0 0 -351.10035131460154 147.02605006440717 0 147.02605006440717 85.085946803272236 0 0 0 0 -0.71848945896102911 1.8827843802905591 0 1.8827843802905591 32.912047229779546 0 0 0 0 -9.3907726681864006 40.268818349526555 0 40.268818349526555 19.040005594346439 0 0 0 0 201.90987700982078 102.1935679744347 0 102.1935679744347 -26.247555022360757 0 0 0 0 -6.6350881611741812 112.78506625758723 0 112.78506625758723 31.740919209667481 0 0 0 0 0.87119236899457064 9.376616674955585 0 9.376616674955585 23.333050745364744 0 0 0 0 79.480630487423241 123.73133950814372 0 123.73133950814372 4.9299828389339382 0 0 0 0 -3.774503766039258 8.1963847925914024 0 8.1963847925914024 0.092458827800044219 0 0 0 0 7.6466195476623398 2.9676185380230891 0 2.9676185380230891 29.388565413995821 0 0 0 0 1.878175311632178 16.364414194234683 0 16.364414194234683 -4.4244514119652649 0 0 0 0 0.2247058676722693 0.84378659535758516 0 0.84378659535758516 4.9957683857515605 0 0 0 0 -2.0462219986634409 19.069144146906183 0 19.069144146906183 25.415198925198638 0 0 0 0 2.8949011875333781 13.086982826614985 0 13.086982826614985 41.996939664826641 0 0 0 0 9.7598538021939021 14.943189021782018 0 14.943189021782018 18.143945737450849 0 0 0 0 0.53145434040266082 20.0687585817941 0 20.0687585817941 15.794419489502616 0 0 0 0 5.7693547100041087 14.671278955589514 0 14.671278955589514 -2.7036765334923984 0 0 0 0 -3.4781339550845587 6.2597383625106886 0 6.2597383625106886 0.24954835822245514 0 0 0 0 5.6593258383520606 8.5104320012469543 0 8.5104320012469543 0.63158203173952643 0 0 0 0 0.33046527490478184 7.0901896677387413 0 7.0901896677387413 20.374820869110408 0 0 0 0 5.5672255580154797 12.536237023370632 0 12.536237023370632 35.8293215731901 0 0 0 0 2.1078345907993992 14.841955807625027 0 14.841955807625027 39.038208493759157 0 0 0 0 -46.677235010575714 55.142810288918554 0 55.142810288918554 68.412175176039455 0 0 0 0 5.8613788694267441 11.553040825761855 0 11.553040825761855 38.087422688236984 0 0 0 0 0.027531558636975317 7.5542118021671492 0 7.5542118021671492 36.72858100096613 0 0 0 0 -87.020245437005997 7.9544885728973895 0 7.9544885728973895 70.144507286531734 0 0 0 0 15.91115692891151 5.864947604448389 0 5.864947604448389 31.827203837397974 0 0 0 0 -0.56313134093420558 11.653121295967139 0 11.653121295967139 32.7102302552521 0 0 0 0 2.3517815960353801 7.1828876988583943 0 7.1828876988583943 39.472703170700697 0 0 0 0 -12.892047084968908 -4.1751672988393693 0 -4.1751672988393693 29.894962357539043 0 0 0 0 -6.2683972289427743 -2.6327403978084476 0 -2.6327403978084476 24.900982521343394 0 0 0 0 -4.8402722360614749 -2.0404680746866859 0 -2.0404680746866859 21.669727841785573 0 0 0 0 3.3833510146926109 4.5247860105300788 0 4.5247860105300788 25.28416456431296 0 0 0 0 2.2007499581942014 2.1694275710651709 0 2.1694275710651709 22.238477575563593 0 0 0 0 -3.8472553137254408 4.5930498141588032 0 4.5930498141588032 37.587298149606795 0 0 0 0 -5.3603345554802457 -0.43791484689765525 0 -0.43791484689765525 19.134667400597721 0 0 0 0 -0.91629655056566861 4.4933068059617653 0 4.4933068059617653 22.089304041452124 0 0 0 0 2.6974104097543119 4.9740952223996828 0 4.9740952223996828 41.067711097319261 0 0 0 0 0.43001440269017621 13.938809133651375 0 13.938809133651375 29.917316947685322 0 0 0 0 -0.28736955520933449 -0.68045234572730351 0 -0.68045234572730351 -0.3848954746595723 0 0 0 0 -3.1217002293642508 18.303540238848655 0 18.303540238848655 55.550393958044879 0 0 0 0 5.7440534909719645 10.395973676946596 0 10.395973676946596 -3.432172793065547 0 0 0 0 1.3715051295262128 9.5532219317101408 0 9.5532219317101408 1.338141697091487 0 0 0 0 1.5890000026574853 11.15756179804157 0 11.15756179804157 10.2851245841739 0 0 0 0 5.4707770967434044 18.663277699852188 0 18.663277699852188 3.3836056088075566 0 0 0 0 11.027943173191034 11.125172508742253 0 11.125172508742253 13.33933402672119 0 0 0 0 8.8041138151866107 16.098862008955621 0 16.098862008955621 25.9879340507905 0 0 0 0 -0.75011449442238742 3.8593191909094458 0 3.8593191909094458 19.140827230934519 0 0 0 0 10.391614758275864 13.309341087537177 0 13.309341087537177 21.05863575291005 0 0 0 0 -5.2666040818547986 1.5024767334703029 0 1.5024767334703029 16.645718450550646 0 0 0 0 -4.7687447358998334 1.2381607999559492 0 1.2381607999559492 21.275337384679005 0 0 0 0 10.130610481025203 10.456801958772672 0 10.456801958772672 4.2638517298004643 0 0 0 0 -3.558761312662428 4.313764979102416 0 4.313764979102416 26.664090290527383 0 0 0 0 -0.98379695517271104 0.73448555502255886 0 0.73448555502255886 4.0104063035631441 0 0 0 0 -1.1830599474892765 4.2798732594965259 0 4.2798732594965259 20.777418246218076 0 0 0 0 -0.0037343162317426399 5.0738805330922174 0 5.0738805330922174 21.25721855989832 0 0 0 0 -0.81153566677582667 5.1646596920181764 0 5.1646596920181764 20.801559871606287 0 0 0 0 -0.002239476722314357 4.2803428860788699 0 4.2803428860788699 21.655894606970833 0 0 0 0 -0.43858527080312548 4.6985361680199276 0 4.6985361680199276 19.845833460494759 0 0 0 0 -0.60339686284883964 1.833365798255727 0 1.833365798255727 19.568597406832851 0 0 0 0 -0.82116712176639695 1.8017741247458616 0 1.8017741247458616 25.615818500824389 0 0 0 0 5.2010902037093274 98.458146777229558 0 98.458146777229558 205.88892029470298 0 0 0 0 0.1998668892247224 96.286314469893114 0 96.286314469893114 218.07460803599679 0 0 0 0 -14.022459459044285 115.78426432023116 0 115.78426432023116 210.76258209720254 0 0 0 0 -13.213481324651184 123.22852735155902 0 123.22852735155902 233.66722367520924 0 0 0 0 -14.986492346972454 118.76080907546202 0 118.76080907546202 283.32279212781577 0 0 0 0 26.591290903480058 202.60717893834953 0 202.60717893834953 438.64531675711623 0 0 0 0 8.6030795103415585 52.415778671023872 0 52.415778671023872 146.94366914934653 0 0 0 0 -53.151551567234492 72.295878144228482 0 72.295878144228482 284.43637108544499 0 0 0 0 80.851900768001997 -86.757531634732004 0 -86.757531634732004 51.300560066658363 0 0 0 0 5.3197865706100202 2.5970592864483706 0 2.5970592864483706 0.42207547613600838 0 0 0 0 12.039433755183381 22.059754916241218 0 22.059754916241218 59.218738963601936 0 0 0 0 -51.991146159670734 42.112723452311911 0 42.112723452311911 203.87085577866492 0 0 0 0 9.4075849070616187 33.904779021722788 0 33.904779021722788 130.92127953619638 0 0 0 0 9.6300428751428022 1.7257101859298416 0 1.7257101859298416 4.5379473669743859 0 0 0 0 -338.69898452840539 -242.76790080004503 0 -242.76790080004503 11.629673590694438 0 0 0 0 -7.6704807600094478 -7.5744329647876683 0 -7.5744329647876683 22.315082488069763 0 0 0 0 -277.40896129752912 9.5768432088116242 0 9.5768432088116242 73.283770739129977 0 0 0 0 -236.86053541828252 -246.2118879779182 0 -246.2118879779182 177.36390160620795 0 0 0 0 -330.20863518997135 94.59535730695643 0 94.59535730695643 407.62839673594863 0 0 0 0 -499.97497083629924 -582.57142934202056 0 -582.57142934202056 -312.37571155782643 0 0 0 0 -3.8081993626672848 1.9527098523314379 0 1.9527098523314379 9.3078554371884081 0 0 0 0 -850.02133075077063 -56.768163620698033 0 -56.768163620698033 151.96553891418444 0 0 0 0 -132.0182154548138 -381.26480436209749 0 -381.26480436209749 -405.02066816424485 0 0 0 0 -547.51278331467847 -474.15055729132291 0 -474.15055729132291 -158.94777134947071 0 0 0 0 6.303594408515119 -11.383298132682711 0 -11.383298132682711 17.937596668621538 0 0 0 0 -526.74354883220576 -24.731381034725928 0 -24.731381034725928 65.345812566494715 0 0 0 0 79.303294900852393 92.226715549149958 0 92.226715549149958 152.03053213974454 0 0 0 0 22.489047589989923 76.158668914766167 0 76.158668914766167 176.72542730734858 0 0 0 0 49.213305521565303 76.602298557605536 0 76.602298557605536 169.96460110713087 0 0 0 0 49.292783063903471 63.337418830309616 0 63.337418830309616 149.62791364922305 0 0 0 0 45.820968542859873 108.15599943286361 0 108.15599943286361 219.87341837954591 0 0 0 0 43.070995166508055 65.820856187390746 0 65.820856187390746 229.0550550789776 0 0 0 0 35.256844278038443 66.285752914889599 0 66.285752914889599 237.34055114728108 0 0 0 0 94.359666124673481 138.49697464305063 0 138.49697464305063 297.89363180939108 0 0 0 0 4.8775724247536862 -9.0686119444439299 0 -9.0686119444439299 11.814280528213416 0 0 0 0 95.712703155562522 138.72959794104827 0 138.72959794104827 256.04998866800452 0 0 0 0 42.724601019440342 63.112895499056322 0 63.112895499056322 333.64845506520942 0 0 0 0 91.3085729202012 90.114569877638132 0 90.114569877638132 251.61847916311126 0 0 0 0 91.103760085375015 93.332406397414161 0 93.332406397414161 310.75495362131551 0 0 0 0 28.511806410424953 36.277357549661247 0 36.277357549661247 540.08134399231494 0 0 0 0 32.125267175176617 -1.2178471620063647 0 -1.2178471620063647 297.8765208406403 0 0 0 0 59.202637665062525 -173.91815018252964 0 -173.91815018252964 413.28161863048445 0 0 0 0 54.515965143199764 -7.6293312481029716 0 -7.6293312481029716 260.71007015263604 0 0 0 0 44.131086796433578 -9.9710836018421105 0 -9.9710836018421105 302.40863435411666 0 0 0 0 51.408943406927847 13.790621417800139 0 13.790621417800139 171.43972684488108 0 0 0 0 48.574174995174644 52.056411620163999 0 52.056411620163999 125.86296133490487 0 0 0 0 73.929792439738549 4.5737301684639533 0 4.5737301684639533 131.22814252351236 0 0 0 0 42.724541630385602 57.24207109548297 0 57.24207109548297 154.82433247097651 0 0 0 0 55.748344288337876 28.455647209979361 0 28.455647209979361 203.3588498942845 0 0 0 0 28.548252643666274 89.544875020168547 0 89.544875020168547 207.6892369320849 0 0 0 0 29.523303842491714 83.763641225321408 0 83.763641225321408 188.58703318622429 0 0 0 0 24.193450395081868 105.30537129252662 0 105.30537129252662 151.1268526155327 0 0 0 0 57.034728542902485 186.72414821552593 0 186.72414821552593 200.94928431036169 0 0 0 0 27.388022231612013 123.59603577848611 0 123.59603577848611 205.66040809339029 0 0 0 0 37.228925856954902 119.45219358462964 0 119.45219358462964 84.719762615291984 0 0 0 0 9.1800315414859597 72.316841435935203 0 72.316841435935203 125.82710663779289 0 0 0 0 36.983625244607197 77.764953671208787 0 77.764953671208787 81.717651097264024 0 0 0 0 10.840040853014216 79.908666884210106 0 79.908666884210106 33.002399969418548 0 0 0 0 -144.72785709148911 108.29680461265525 0 108.29680461265525 40.333003825132309 0 0 0 0 -106.64575077891641 127.02090702361238 0 127.02090702361238 -66.214622567074912 0 0 0 0 -105.59403895648256 21.667057961509272 0 21.667057961509272 40.585372414207086 0 0 0 0 -66.956056513422482 35.908830647458672 0 35.908830647458672 -8.2167164032362052 0 0 0 0 -0.82738920160975837 -0.33524431282032197 0 -0.33524431282032197 -0.37391862510608576 0 0 0 0 -89.897429485845805 -28.695466369565111 0 -28.695466369565111 164.55339997715237 0 0 0 0 109.17764719613297 -185.04509338514617 0 -185.04509338514617 117.48279483662918 0 0 0 0 -69.586018137978925 -153.7709727633378 0 -153.7709727633378 -65.461867159487156 0 0 0 0 50.876699940642766 -129.15147412368424 0 -129.15147412368424 95.17788634270255 0 0 0 0 -95.503235588924099 -11.76248276388651 0 -11.76248276388651 61.122952933961642 0 0 0 0 174.49160447810073 138.27051640718128 0 138.27051640718128 16.664667661199928 0 0 0 0 52.105949232426497 157.80622989669428 0 157.80622989669428 247.42769123931066 0 0 0 0 -24.534688068273784 -15.502196558179392 0 -15.502196558179392 79.533724492978877 0 0 0 0 -15.208917324811409 1.3109141113964142 0 1.3109141113964142 40.930477544548921 0 0 0 0 -15.013875269316486 2.9101021385213244 0 2.9101021385213244 54.004822666349355 0 0 0 0 -6.2484299048906582 2.6297397800591762 0 2.6297397800591762 31.33886169332979 0 0 0 0 38.127469205048556 -56.606335764430696 0 -56.606335764430696 115.04180743673351 0 0 0 0 -2.1170553292909036 17.584770205512363 0 17.584770205512363 3.3481469648247639 0 0 0 0 66.442010639129876 198.854549693031 0 198.854549693031 -77.290449062769767 0 0 0 0 -25.641856702668203 2.2955948531723891 0 2.2955948531723891 119.51546957336865 0 0 0 0 -1.4375412071094615 16.362594003978302 0 16.362594003978302 70.485795575089469 0 0 0 0 -6.2767916785137512 2.5593397324149691 0 2.5593397324149691 66.353947667658275 0 0 0 0 -8.0166026117440197 2.650463830344961 0 2.650463830344961 166.47457262394892 0 0 0 0 32.797711621416965 -20.967907195619773 0 -20.967907195619773 151.20707317860797 0 0 0 0 -13.067919058179541 -30.425912926002638 0 -30.425912926002638 163.54485008331176 0 0 0 0 -13.652204994952626 -4.820553602585278 0 -4.820553602585278 142.05850563202694 0 0 0 0 -0.74179247999563813 4.4630129407014465 0 4.4630129407014465 106.6843330370375 0 0 0 0 -11.93144339839364 0.77737723461177666 0 0.77737723461177666 35.877253192666103 0 0 0 0 -11.028854724763377 3.4991254923515811 0 3.4991254923515811 47.507341287768099 0 0 0 0 -54.985588574091707 -1.2482993288067519 0 -1.2482993288067519 21.7414496514848 0 0 0 0 -17.672686726476968 -73.338578330636665 0 -73.338578330636665 177.60839910031791 0 0 0 0 -5.3230683054529635 -0.8643947852053202 0 -0.8643947852053202 7.0210832679781561 0 0 0 0 -115.60305034946759 -61.86553013829689 0 -61.86553013829689 181.90319427414943 0 0 0 0 -6.1666264337186476 -17.565331244750269 0 -17.565331244750269 124.81179940409493 0 0 0 0 -2.7432321649100739 -4.9991205419646718 0 -4.9991205419646718 8.2241106546814962 0 0 0 0 -41.706100737284032 33.114633557983325 0 33.114633557983325 109.62548962165602 0 0 0 0 -46.789907902018058 64.379998337441066 0 64.379998337441066 69.298937316871161 0 0 0 0 -10.415015031145405 -11.040142173097109 0 -11.040142173097109 0.69604516296251973 0 0 0 0 -75.082153679338262 -55.68040412060509 0 -55.68040412060509 6.2965091890182521 0 0 0 0 -27.09067735607141 -90.668739068503783 0 -90.668739068503783 97.363399326808576 0 0 0 0 -28.366094646931515 2.9034325676002481 0 2.9034325676002481 99.710040443154867 0 0 0 0 -121.57017880036983 -59.268594503590066 0 -59.268594503590066 132.7275884164701 0 0 0 0 -7.4451062400402481 5.2325059463836219 0 5.2325059463836219 92.246643834613394 0 0 0 0 -33.509600686916428 6.464809368733313 0 6.464809368733313 49.066359293152345 0 0 0 0 -16.404389621008519 -8.6064183600374662 0 -8.6064183600374662 48.784482952628593 0 0 0 0 -7.7127245097883463 10.140294255672529 0 10.140294255672529 47.724480096073378 0 0 0 0 -36.738914929568523 -87.825297959596355 0 -87.825297959596355 60.771109576773597 0 0 0 0 25.761093115420863 -27.288633833224594 0 -27.288633833224594 100.9932222202217 0 0 0 0 45.29876989873577 -90.307760153582421 0 -90.307760153582421 266.56261011703464 0 0 0 0 30.084366403062631 55.278197569503391 0 55.278197569503391 167.26607185364992 0 0 0 0 -48.122377580802095 84.972870242738281 0 84.972870242738281 189.35237982114995 0 0 0 0 -228.91795455708643 -66.346799894734431 0 -66.346799894734431 165.8586712885517 0 0 0 0 -1.6729282858673575 6.9402671737142416 0 6.9402671737142416 88.408908053789276 0 0 0 0 -467.48598471652667 -346.51958491322875 0 -346.51958491322875 915.39992447380791 0 0 0 0 338.45536411773719 438.75193334886717 0 438.75193334886717 630.35823486071422 0 0 0 0 -7.585187069764288 -0.43536397458228748 0 -0.43536397458228748 523.23555611101074 0 0 0 0 105.51246626618286 138.43572338876766 0 138.43572338876766 246.61874868633458 0 0 0 0 486.83225124279829 -13.967898747871004 0 -13.967898747871004 124.02321524648869 0 0 0 0 -297.37444609192153 299.68538091403752 0 299.68538091403752 109.74229558568004 0 0 0 0 31.798626770290184 -71.375545457165572 0 -71.375545457165572 465.82226632517995 0 0 0 0 -1.9210087128402296 -2.3524116172104925 0 -2.3524116172104925 -3.6866090211057099 0 0 0 0 59.9248511489061 103.09470745507861 0 103.09470745507861 231.64200410227204 0 0 0 0 71.333521743695655 119.73616699432023 0 119.73616699432023 330.90792977370074 0 0 0 0 92.830955694204704 115.3417640073676 0 115.3417640073676 220.58486575569259 0 0 0 0 95.257497002701257 119.27580913349084 0 119.27580913349084 238.81998660151294 0 0 0 0 15.452989158593027 -96.452837610024289 0 -96.452837610024289 261.49458343224251 0 0 0 0 1.2587051815852559 1.3787859022768894 0 1.3787859022768894 8.40070989008737 0 0 0 0 419.61328712516342 588.06207942541005 0 588.06207942541005 132.13141143070789 0 0 0 0 -8.0808568257161824 -45.357962735455658 0 -45.357962735455658 331.39241218100506 0 0 0 0 13.807267221391598 27.181637804307229 0 27.181637804307229 50.314356965609477 0 0 0 0 8.9281704721207262 13.952606228938393 0 13.952606228938393 15.969095984340413 0 0 0 0 3.3715303825961822 -1.5808216835138893 0 -1.5808216835138893 6.1047360281230567 0 0 0 0 102.72376304795046 81.508618170246336 0 81.508618170246336 176.40051814297476 0 0 0 0 5.2667836646356925 0.49350548459551646 0 0.49350548459551646 -17.841938128327456 0 0 0 0 10.509881365136607 10.173535473601078 0 10.173535473601078 -9.3520942126997397 0 0 0 0 20.545525002837678 22.995318038959667 0 22.995318038959667 -5.3605881400580842 0 0 0 0 19.591635146147837 47.690564805077884 0 47.690564805077884 103.47587398863107 0 0 0 0 28.74111026504761 55.679339090405847 0 55.679339090405847 107.72661017322389 0 0 0 0 -4.1711343634639464 17.9452434225799 0 17.9452434225799 72.442364780568795 0 0 0 0 -5.121077955859036 18.605849919515208 0 18.605849919515208 60.227340026569436 0 0 0 0 7.0797689205519418 47.996924370185297 0 47.996924370185297 117.51163756861934 0 0 0 0 -11.037831852341006 0.62496574432462637 0 0.62496574432462637 47.290233533583972 0 0 0 0 -146.31776440219852 98.670115269382677 0 98.670115269382677 194.9728925977397 0 0 0 0 -3.2179633222323702 14.70060144431017 0 14.70060144431017 83.06742672263735 0 0 0 0 78.780408022633765 19.020480039704125 0 19.020480039704125 31.129820802656468 0 0 0 0 0.24215044457623058 -2.2975501790549373 0 -2.2975501790549373 1.2903104442993296 0 0 0 0 101.56573795256645 216.84383353512385 0 216.84383353512385 312.54795073438436 0 0 0 0 3.2760871347883196 7.2589584670422482 0 7.2589584670422482 -35.910221353122324 0 0 0 0 12.597849546776843 50.684248037545331 0 50.684248037545331 117.76904257122078 0 0 0 0 11.527241109559764 25.568172771788269 0 25.568172771788269 1.9015833800113313 0 0 0 0 29.507626749094015 53.51714054056356 0 53.51714054056356 77.386065366477851 0 0 0 0 102.88473150692552 78.851512914770865 0 78.851512914770865 4.7505104303054395 0 0 0 0 56.70351302293227 63.911700127975564 0 63.911700127975564 76.791215912628104 0 0 0 0 13.758608867252406 57.090322959906189 0 57.090322959906189 106.57244485651609 0 0 0 0 2.4798762766258733 82.654504852354876 0 82.654504852354876 93.984503489395138 0 0 0 0 2.0052857598466574 63.850133676846895 0 63.850133676846895 135.10823098494438 0 0 0 0 37.674780330301246 83.476747793472896 0 83.476747793472896 84.442161587649025 0 0 0 0 1.2370490993321823 99.28500394166349 0 99.28500394166349 80.037616859248374 0 0 0 0 39.717327787544264 75.605134514837118 0 75.605134514837118 69.387174301664345 0 0 0 0 232.91112927797622 113.60521608938143 0 113.60521608938143 53.800677679624641 0 0 0 0 -33.325952975945711 15.24122209782945 0 15.24122209782945 57.53156586670957 0 0 0 0 28.930164368280543 28.961352851609035 0 28.961352851609035 130.41310298292956 0 0 0 0 -9.8253498455356585 15.15971098396288 0 15.15971098396288 86.159068780836577 0 0 0 0 -23.142673188457909 13.557032157528141 0 13.557032157528141 66.032355072634516 0 0 0 0 8.348784053021518 52.152347161303624 0 52.152347161303624 123.95333346791449 0 0 0 0 8.7639647230357696 53.792047024313433 0 53.792047024313433 122.16096633166308 0 0 0 0 47.518164515848184 113.1326166705112 0 113.1326166705112 54.866415121941827 0 0 0 0 50.001220654099598 82.238081833784236 0 82.238081833784236 140.89938807196449 0 0 0 0 32.769092800117505 46.114723864302505 0 46.114723864302505 117.42189976277587 0 0 0 0 -36.901538766236627 -2.4959140065620886 0 -2.4959140065620886 128.04982753926197 0 0 0 0 -36.7569201975748 32.164421168010449 0 32.164421168010449 215.98021407569468 0 0 0 0 -10.054852931823014 3.2916003400496407 0 3.2916003400496407 6.180799408766859 0 0 0 0 -6.9688584245022867 116.06083831356955 0 116.06083831356955 94.993801826378331 0 0 0 0 -8.7223575570440062 44.132187336385414 0 44.132187336385414 61.479714618355501 0 0 0 0 -27.80816673597333 25.046854469508219 0 25.046854469508219 -5.2815030091659594 0 0 0 0 -8.2146639925249474 116.51502064408851 0 116.51502064408851 123.27157083715429 0 0 0 0 11.757967074252974 69.17673759815807 0 69.17673759815807 141.34702364105033 0 0 0 0 -35.621283729216429 120.97439722278796 0 120.97439722278796 108.48813367501134 0 0 0 0 -37.188499930326543 82.869180636480451 0 82.869180636480451 105.58021480525167 0 0 0 0 -54.186897707141725 113.44223464197421 0 113.44223464197421 78.180995399423409 0 0 0 0 -99.60254115232874 80.762744691528496 0 80.762744691528496 112.22579282644438 0 0 0 0 -123.37836756827255 98.066525773669127 0 98.066525773669127 107.81736031183391 0 0 0 0 -8.7302363561933891 31.46446883495129 0 31.46446883495129 74.320682230651414 0 0 0 0 -131.06340864064532 81.946868047438329 0 81.946868047438329 119.23047662409954 0 0 0 0 -139.42635139994923 93.904643225047039 0 93.904643225047039 122.36309566523414 0 0 0 0 -72.305579506834761 76.393487592635211 0 76.393487592635211 99.578995011979714 0 0 0 0 -17.927315319912431 18.487312872164935 0 18.487312872164935 77.270699046742862 0 0 0 0 -24.814990319966796 90.201738261093851 0 90.201738261093851 102.31599593750434 0 0 0 0 25.116512063886603 15.208728251152934 0 15.208728251152934 143.15663448504711 0 0 0 0 -10.106006748001306 21.409381348538773 0 21.409381348538773 30.32394662387378 0 0 0 0 3.2069905809088524 34.491274423773781 0 34.491274423773781 59.060412116859979 0 0 0 0 18.235185788669924 36.779336026007513 0 36.779336026007513 143.34424210248108 0 0 0 0 -12.116135018130308 21.559018779797043 0 21.559018779797043 166.56445271120901 0 0 0 0 -8.465526197144527 22.737236328415747 0 22.737236328415747 136.0132533956421 0 0 0 0 -3.3988094032209801 44.138368597694353 0 44.138368597694353 101.59532599363774 0 0 0 0 -1.9497160810204832 14.980700468942814 0 14.980700468942814 140.21161226257937 0 0 0 0 -20.064360296766608 46.343275673694734 0 46.343275673694734 128.47260720424129 0 0 0 0 -19.60455198054018 46.853720221242838 0 46.853720221242838 129.01305707161373 0 0 0 0 -35.585607973721835 40.222187656036112 0 40.222187656036112 125.740409382488 0 0 0 0 -75.422361769905478 51.581679146987881 0 51.581679146987881 131.98125974535651 0 0 0 0 15.994018850721886 19.428193522871879 0 19.428193522871879 123.95035365423973 0 0 0 0 19.340130059003513 45.105115380505595 0 45.105115380505595 121.81036258273525 0 0 0 0 -35.569870183358489 21.509738390577695 0 21.509738390577695 120.20434055227088 0 0 0 0 4.9999127834084902 38.044620684682741 0 38.044620684682741 124.33446965456824 0 0 0 0 -3.5161237650795556 34.734947586148337 0 34.734947586148337 88.602519394431511 0 0 0 0 11.307392499105845 24.006057127229724 0 24.006057127229724 61.429729983214202 0 0 0 0 -16.455322145639109 -6.6670515745050594 0 -6.6670515745050594 30.424910056290997 0 0 0 0 13.384272748878715 27.819852159440416 0 27.819852159440416 83.711668516640202 0 0 0 0 -7.7551862850866655 -9.7867808462760877 0 -9.7867808462760877 40.828135396106518 0 0 0 0 -111.65072334674255 12.181278154428583 0 12.181278154428583 122.21671605071606 0 0 0 0 -130.33482592650569 4.6493607969387085 0 4.6493607969387085 124.60585613759758 0 0 0 0 -10.129546656887783 31.495368112984579 0 31.495368112984579 44.224944826630235 0 0 0 0 -139.12891540238991 -102.73975219449858 0 -102.73975219449858 -24.494578769987129 0 0 0 0 -2.2161967277774028 2.8181309725452621 0 2.8181309725452621 8.6291416942637369 0 0 0 0 -8.7298657059817266 -7.8744535927651924 0 -7.8744535927651924 23.979277746003675 0 0 0 0 7.3912213628336758 11.063008068857016 0 11.063008068857016 53.312863381728675 0 0 0 0 3.682873277884493 8.8315253969034302 0 8.8315253969034302 14.861115961304606 0 0 0 0 9.6031094469162781 24.17386524550966 0 24.17386524550966 57.498520596138405 0 0 0 0 14.009214704570695 20.216027105903777 0 20.216027105903777 46.242617667510785 0 0 0 0 10.233380813332474 17.678363547647677 0 17.678363547647677 53.797671135056589 0 0 0 0 -249.74201394014887 145.55055494610679 0 145.55055494610679 178.82876207059599 0 0 0 0 -296.58317152470181 139.24561269925471 0 139.24561269925471 337.70125476842077 0 0 0 0 -80.896732257833264 382.98973774389015 0 382.98973774389015 594.26089378516917 0 0 0 0 -148.321252745028 -21.71133858156827 0 -21.71133858156827 459.37388179148547 0 0 0 0 -516.58706268671472 -230.22708132032494 0 -230.22708132032494 153.46961664030096 0 0 0 0 -337.05346080239633 -81.956860912301636 0 -81.956860912301636 125.58824581315275 0 0 0 0 -417.69186228416379 86.487438027903409 0 86.487438027903409 260.03096851569717 0 0 0 0 -198.10803033724505 120.50354782379145 0 120.50354782379145 196.15031450924289 0 0 0 0 -189.52024295564476 138.16826292938504 0 138.16826292938504 210.2818958600983 0 0 0 0 -131.72701005320937 13.001590310283518 0 13.001590310283518 146.39255262371444 0 0 0 0 -92.837270914608098 66.431834517792595 0 66.431834517792595 161.71402026926808 0 0 0 0 -206.61871964471518 34.996352170877799 0 34.996352170877799 153.22474033868639 0 0 0 0 -147.2206202998118 147.29042950662551 0 147.29042950662551 167.60835649257751 0 0 0 0 -44.741505069433742 225.99059363498236 0 225.99059363498236 208.84872171677125 0 0 0 0 -236.48986469305044 176.1096199197691 0 176.1096199197691 228.11238772889192 0 0 0 0 79.944999182862603 251.72107944583149 0 251.72107944583149 159.4531912903476 0 0 0 0 -78.677868624426992 315.42522393250692 0 315.42522393250692 308.8394809047013 0 0 0 0 -36.009496227351292 200.79740393564862 0 200.79740393564862 144.01848217635052 0 0 0 0 -2.8735143259823417 206.69269799666654 0 206.69269799666654 136.03637436514691 0 0 0 0 -35.154407371148992 158.89218379759768 0 158.89218379759768 121.14797972207452 0 0 0 0 -13.012643140557163 134.12463560659171 0 134.12463560659171 80.071215640418814 0 0 0 0 -46.407993753938058 131.84174418278417 0 131.84174418278417 115.13472237061433 0 0 0 0 -14.778062526270105 104.32734213145886 0 104.32734213145886 56.299047723230615 0 0 0 0 -68.466219748439528 107.78900708557558 0 107.78900708557558 118.62295402602467 0 0 0 0 -139.23750028215261 89.90477409541927 0 89.90477409541927 151.05588632183935 0 0 0 0 -92.615741500193224 151.01479347200802 0 151.01479347200802 167.76710834798178 0 0 0 0 -64.726414711152813 86.67620153947064 0 86.67620153947064 145.40807046367263 0 0 0 0 -34.461702134087943 83.047529541276162 0 83.047529541276162 110.41205633472418 0 0 0 0 -17.689641272417703 62.580609798937076 0 62.580609798937076 81.131827441044152 0 0 0 0 -50.177729018178859 73.152823354335851 0 73.152823354335851 115.84380529651389 0 0 0 0 -36.537076271945807 100.77368218493211 0 100.77368218493211 79.501774722004484 0 0 0 0 -14.189755507331256 63.742662575852592 0 63.742662575852592 78.982509768377213 0 0 0 0 -24.351160473263235 109.51270303914498 0 109.51270303914498 44.510735985342762 0 0 0 0 -43.481263251418341 94.123155610330286 0 94.123155610330286 62.052505167936033 0 0 0 0 -33.272754983913956 103.27008666421898 0 103.27008666421898 72.300952534895259 0 0 0 0 -24.517817891988045 88.693558562797989 0 88.693558562797989 39.33920401877549 0 0 0 0 -44.076525493485178 110.68633251943902 0 110.68633251943902 3.2805343099535094 0 0 0 0 -31.66334800220443 83.428206677752314 0 83.428206677752314 44.420897730307274 0 0 0 0 -32.848785785611653 75.175131695687014 0 75.175131695687014 -37.466947719331074 0 0 0 0 24.629321953896408 -94.168963676791464 0 -94.168963676791464 104.40358361935432 0 0 0 0 -11.658684795695535 59.719897087465142 0 59.719897087465142 -28.544073558514356 0 0 0 0 -7.4405956844201455 37.97763818738531 0 37.97763818738531 46.318818584069959 0 0 0 0 27.08475276412787 -1.2845601123699453 0 -1.2845601123699453 125.90406674973201 0 0 0 0 -4.1885396694811163 -23.825779173863026 0 -23.825779173863026 22.392114926136131 0 0 0 0 -3.6423262091453439 25.943955144613227 0 25.943955144613227 13.130650714390228 0 0 0 0 -0.64915139538549882 26.349369815399612 0 26.349369815399612 6.3339533602467881 0 0 0 0 -18.060031364462361 47.765515505061558 0 47.765515505061558 87.184469278894539 0 0 0 0 -23.250965385941129 -8.1297907627013046 0 -8.1297907627013046 152.60365104043012 0 0 0 0 -7.493470868703298 -4.1439867532317294 0 -4.1439867532317294 109.62381429078232 0 0 0 0 -12.505067277927594 27.183409973433299 0 27.183409973433299 136.65043925217469 0 0 0 0 -19.594385280505776 -1.5691578055848368 0 -1.5691578055848368 121.65188409929397 0 0 0 0 -22.457245713698853 -10.918519741855562 0 -10.918519741855562 109.98406889390026 0 0 0 0 -11.150304997552439 -2.3212276135018328 0 -2.3212276135018328 109.60085375001427 0 0 0 0 -14.003696827327701 6.2842820909718284 0 6.2842820909718284 84.147656309010927 0 0 0 0 -12.179222156625656 8.6916250333015341 0 8.6916250333015341 107.14603768422603 0 0 0 0 -11.51717395034297 -20.9327295228384 0 -20.9327295228384 27.493119189639359 0 0 0 0 -8.0381935530994788 -4.6364851848637301 0 -4.6364851848637301 25.870030388199524 0 0 0 0 -53.313932017961633 4.3152709062269423 0 4.3152709062269423 100.31804685451789 0 0 0 0 -44.845124196450342 16.531061738845892 0 16.531061738845892 110.84137037972687 0 0 0 0 -20.475801015621727 21.632653041176269 0 21.632653041176269 52.813687116475393 0 0 0 0 -21.531712588155642 31.720519392147253 0 31.720519392147253 94.341272049603504 0 0 0 0 -32.356284936137051 23.927446759327722 0 23.927446759327722 178.2024171734156 0 0 0 0 -25.138597572429958 -4.1351624684982653 0 -4.1351624684982653 25.971374969255479 0 0 0 0 -7.5346441481169357 33.104081801644227 0 33.104081801644227 60.443596419917014 0 0 0 0 -16.01698264255748 12.106681014671949 0 12.106681014671949 108.39721466159244 0 0 0 0 -22.459661632565258 62.93981591204647 0 62.93981591204647 106.4643479527731 0 0 0 0 -40.731112653940727 38.575327552542149 0 38.575327552542149 88.654314642830286 0 0 0 0 -47.583137249912397 30.752281069566379 0 30.752281069566379 121.85401472593367 0 0 0 0 -59.750125130316519 46.968445013422752 0 46.968445013422752 104.86596752704645 0 0 0 0 -77.682452866072708 29.356170521299646 0 29.356170521299646 56.844979979199707 0 0 0 0 -51.181836711537471 60.063784067784582 0 60.063784067784582 91.428096118077519 0 0 0 0 -8.1176137136474935 11.344390764270827 0 11.344390764270827 22.346977863015923 0 0 0 0 -10.188811040477958 145.87387457751902 0 145.87387457751902 340.787279242865 0 0 0 0 -53.044727998742417 33.764103350682149 0 33.764103350682149 118.93949684766267 0 0 0 0 229.65498930017384 56.722711576869187 0 56.722711576869187 90.572244929084263 0 0 0 0 82.072838750355004 128.9230678968961 0 128.9230678968961 66.360585661663208 0 0 0 0 126.90669336430187 -12.973819426531009 0 -12.973819426531009 49.91996465549164 0 0 0 0 121.19831513790268 76.010770500521176 0 76.010770500521176 222.61339799806592 0 0 0 0 169.29649609372973 66.153114919296058 0 66.153114919296058 103.10828551604209 0 0 0 0 22.664660486309003 239.0774916181399 0 239.0774916181399 189.64149048503896 0 0 0 0 -144.60119404213219 88.287850975779293 0 88.287850975779293 123.79194921304588 0 0 0 0 -11.662223229909614 59.008495708008923 0 59.008495708008923 19.025958108279156 0 0 0 0 -31.776333076053561 100.74475724814693 0 100.74475724814693 107.51653320081823 0 0 0 0 -48.986287221415523 42.12546907896558 0 42.12546907896558 71.746529184179963 0 0 0 0 -65.293860373966027 67.978593833076047 0 67.978593833076047 76.431011077220319 0 0 0 0 65.390268995552105 75.559034473586507 0 75.559034473586507 -35.061434010931407 0 0 0 0 -35.74269931465642 42.228290555049171 0 42.228290555049171 31.838912323597469 0 0 0 0 -19.14339542376581 39.620140016944788 0 39.620140016944788 195.9922274565688 0 0 0 0 -1.6849496298409576 -19.45588992890498 0 -19.45588992890498 -61.552658077896922 0 0 0 0 2.7750990964211724 50.160551282111555 0 50.160551282111555 125.71803945420834 0 0 0 0 -24.502545317133777 -36.013796374444411 0 -36.013796374444411 37.225065911446549 0 0 0 0 -35.569566227180985 16.473794123514381 0 16.473794123514381 94.796545722027076 0 0 0 0 -40.50904776853281 38.036153301009108 0 38.036153301009108 48.687599206605228 0 0 0 0 -10.443197175515465 -1.0360948581182328 0 -1.0360948581182328 15.870997629006638 0 0 0 0 -15.779190427509226 56.775421127926165 0 56.775421127926165 83.274357033253182 0 0 0 0 -9.3540540745860952 44.656735344865211 0 44.656735344865211 80.372872040930048 0 0 0 0 -36.239861567473412 18.644133379682899 0 18.644133379682899 77.678894959040917 0 0 0 0 -5.2452066035577811 1.2262928746869335 0 1.2262928746869335 4.9091169296776798 0 0 0 0 -31.363612247840454 22.299188685959351 0 22.299188685959351 61.302708774429377 0 0 0 0 -28.735873243843344 32.031103881105082 0 32.031103881105082 43.306368311692495 0 0 0 0 37.413315917710747 8.1190226806284045 0 8.1190226806284045 94.408011006678862 0 0 0 0 -3.020890404905856 -22.827685126008873 0 -22.827685126008873 127.95578354226745 0 0 0 0 -26.212776220295464 31.351976402384025 0 31.351976402384025 91.004391965427203 0 0 0 0 10.136985504021604 48.863157082716498 0 48.863157082716498 80.305942475941265 0 0 0 0 -3.8571176128556885 18.220829890211462 0 18.220829890211462 118.34234306914732 0 0 0 0 -2.5277940409919211 67.397205982604646 0 67.397205982604646 108.61312298462144 0 0 0 0 4.0430683158454261 25.56438104217429 0 25.56438104217429 28.030102998212797 0 0 0 0 -15.284394928016127 75.483904717955738 0 75.483904717955738 112.97934737025207 0 0 0 0 2.5661778949158744 47.007623023894013 0 47.007623023894013 53.654467180565916 0 0 0 0 -69.812574220783745 97.735052995703882 0 97.735052995703882 129.4571857455885 0 0 0 0 -9.1897466495245226 89.012263654207345 0 89.012263654207345 50.797956382972188 0 0 0 0 23.089585161437753 83.831923372286838 0 83.831923372286838 51.410541775883758 0 0 0 0 0.51815005583660989 32.253851029583416 0 32.253851029583416 59.522295347499643 0 0 0 0 -29.564522274279625 48.970371932533453 0 48.970371932533453 167.36926140339347 0 0 0 0 -50.590633553288285 55.868761710869876 0 55.868761710869876 111.47811553344945 0 0 0 0 -271.30449844313171 64.116969922266435 0 64.116969922266435 103.79947671270929 0 0 0 0 1.9674112335484888 16.897940528339902 0 16.897940528339902 -0.70297516254049697 0 0 0 0 -119.38668819898339 119.40095012146048 0 119.40095012146048 103.99843900284031 0 0 0 0 46.146937689607284 90.85307162382378 0 90.85307162382378 151.56099536566762 0 0 0 0 -10.549655052128628 105.42657806650095 0 105.42657806650095 113.44928643608 0 0 0 0 -43.123102385608945 45.778775151695299 0 45.778775151695299 175.48922683754063 0 0 0 0 -51.792167020242459 66.983493706306035 0 66.983493706306035 157.36479986004997 0 0 0 0 -24.067208759990308 89.509356351954921 0 89.509356351954921 275.33014181478939 0 0 0 0 -54.729383466013132 -4.343612291268073 0 -4.343612291268073 262.18869309504134 0 0 0 0 -49.329967087869818 -5.7900658959479188 0 -5.7900658959479188 222.39185823670414 0 0 0 0 2.9396379426208341 25.670593859700602 0 25.670593859700602 147.81425149436836 0 0 0 0 -43.295425713109523 5.3350943676559837 0 5.3350943676559837 234.94043639958545 0 0 0 0 219.13213820009378 -85.243409803922987 0 -85.243409803922987 10.44345895234801 0 0 0 0 1.2764257649997148 122.79128510628129 0 122.79128510628129 161.49059455381939 0 0 0 0 -8.8162221939903702 4.2270866260587354 0 4.2270866260587354 36.727903690978565 0 0 0 0 48.472048925667195 161.45439653712674 0 161.45439653712674 355.76418305262632 0 0 0 0 -16.95303544898162 12.171742101002792 0 12.171742101002792 -7.8033683873612461 0 0 0 0 34.850876212845264 29.114851899596033 0 29.114851899596033 271.81038499371789 0 0 0 0 -24.883691336188576 58.250077012551628 0 58.250077012551628 291.47508474810456 0 0 0 0 -78.727960700903168 400.92615071065302 0 400.92615071065302 955.15268602507422 0 0 0 0 107.22424227186661 198.47177036353241 0 198.47177036353241 349.08801682072226 0 0 0 0 -663.08923400786171 -66.32400061179942 0 -66.32400061179942 585.52832053121529 0 0 0 0 -7.2958269794220785 4.2284599383023078 0 4.2284599383023078 -0.19902759834883454 0 0 0 0 -187.98619260648684 -116.94918104490353 0 -116.94918104490353 469.78170334582319 0 0 0 0 -174.2951337515583 -10.177152699344333 0 -10.177152699344333 236.31125419924501 0 0 0 0 -84.710685219519291 -238.12693770309852 0 -238.12693770309852 569.60299016259341 0 0 0 0 -16.552631672914849 -43.010778083981393 0 -43.010778083981393 30.828277621872573 0 0 0 0 -30.202678404961375 -158.68189426971003 0 -158.68189426971003 50.412004927129601 0 0 0 0 -55.557109678934467 -144.70609118847642 0 -144.70609118847642 20.346959230748325 0 0 0 0 -41.727824008536118 -15.573028678642004 0 -15.573028678642004 135.26856381483958 0 0 0 0 -19.639145245435706 -41.474864060241373 0 -41.474864060241373 28.890162421228084 0 0 0 0 53.398520480466686 -171.55646177770541 0 -171.55646177770541 -114.37018028273815 0 0 0 0 -78.808249659829812 -58.466750610458803 0 -58.466750610458803 211.61890321734245 0 0 0 0 66.424502650298564 -21.772207108140719 0 -21.772207108140719 -9.0323667626653332 0 0 0 0 129.59803018095135 -178.82195629010312 0 -178.82195629010312 288.07653651438886 0 0 0 0 95.704226649913835 5.5214517513741157 0 5.5214517513741157 388.46167804372817 0 0 0 0 -1.4432309861531394 15.730327994853724 0 15.730327994853724 412.96342544796062 0 0 0 0 18.518151906506318 -12.8568133011795 0 -12.8568133011795 214.4684032457626 0 0 0 0 -65.220403592015828 1.4019239730660047 0 1.4019239730660047 335.17744770154968 0 0 0 0 13.663729814079488 101.49301117591313 0 101.49301117591313 319.94774556014454 0 0 0 0 10.058130673096457 113.11085511973943 0 113.11085511973943 288.55003576107265 0 0 0 0 -29.370090849033659 84.887868461817561 0 84.887868461817561 278.8511562916392 0 0 0 0 24.991180685450672 158.28959392354591 0 158.28959392354591 232.95414547899418 0 0 0 0 77.964755756442173 217.1596964181299 0 217.1596964181299 341.66275781320837 0 0 0 0 190.19001177045357 214.54180131754401 0 214.54180131754401 307.76525786709317 0 0 0 0 165.22760799249954 231.64474386097572 0 231.64474386097572 321.55302421440138 0 0 0 0 62.228576537730987 212.27610305401322 0 212.27610305401322 562.49103152108728 0 0 0 0 -59.68301681840876 -31.259233902819688 0 -31.259233902819688 144.94873460029339 0 0 0 0 -41.504941250565025 5.5479559245786731 0 5.5479559245786731 124.62866289835074 0 0 0 0 -51.810391442111722 -36.452454756741645 0 -36.452454756741645 161.93663628234208 0 0 0 0 -48.002987906394083 22.396205962475506 0 22.396205962475506 242.1921095362195 0 0 0 0 -18.550985869231226 72.106217545620893 0 72.106217545620893 196.38864669325994 0 0 0 0 -21.69505305716666 76.03494484431576 0 76.03494484431576 203.76315023670031 0 0 0 0 -38.335289101773924 38.803719833857031 0 38.803719833857031 165.46911384724081 0 0 0 0 -24.02468210457846 51.432676660646393 0 51.432676660646393 131.80570572978468 0 0 0 0 -43.809390322463173 37.542476327274017 0 37.542476327274017 87.37279162654886 0 0 0 0 -42.111136116056514 53.347875714067413 0 53.347875714067413 164.53239654673962 0 0 0 0 10.006578402402738 89.342325424164301 0 89.342325424164301 136.92310526063375 0 0 0 0 134.95178170902 100.73272414771782 0 100.73272414771782 10.590796161763137 0 0 0 0 55.656631675854442 160.51756373002718 0 160.51756373002718 95.990685123928415 0 0 0 0 1.1884101689111048 100.37864729095963 0 100.37864729095963 134.9452744233422 0 0 0 0 14.928785858912306 126.76044156795251 0 126.76044156795251 163.9336232914502 0 0 0 0 6.1795909033417047 136.26410308390768 0 136.26410308390768 211.57220621917804 0 0 0 0 27.810697030668962 186.70159605784283 0 186.70159605784283 176.53841815363558 0 0 0 0 41.323164135898878 180.60829399962677 0 180.60829399962677 165.19324823733768 0 0 0 0 30.780588375637308 222.52470233376516 0 222.52470233376516 135.49707005402888 0 0 0 0 94.055949963346563 237.74160736477756 0 237.74160736477756 128.85083925336949 0 0 0 0 -8.5452596021350473 231.89148162318452 0 231.89148162318452 144.76976779134566 0 0 0 0 194.20871514741521 237.82667231596133 0 237.82667231596133 73.878139722248306 0 0 0 0 91.826407345719986 196.41004524166738 0 196.41004524166738 58.968017976163537 0 0 0 0 90.197703663021457 166.1270755951773 0 166.1270755951773 88.951242572038609 0 0 0 0 158.39119615239906 220.97436819633367 0 220.97436819633367 109.13149049755884 0 0 0 0 237.30641693266443 73.428512200072873 0 73.428512200072873 46.826237122877501 0 0 0 0 115.84724710656701 156.9563603319184 0 156.9563603319184 -7.9239837258282932 0 0 0 0 58.327995292778724 -6.7718663990381174 0 -6.7718663990381174 -123.83679087314522 0 0 0 0 266.1489440430405 227.19117356595962 0 227.19117356595962 123.26757412531879 0 0 0 0 252.22774714774823 277.70515230302408 0 277.70515230302408 213.34448304170655 0 0 0 0 69.01551996849048 -138.17551527571777 0 -138.17551527571777 -242.47474381979555 0 0 0 0 -0.71090649110120196 0.84873670254702915 0 0.84873670254702915 1.2173329961078707 0 0 0 0 149.92729396529649 196.73282712017681 0 196.73282712017681 248.69650977177662 0 0 0 0 164.2014696095921 242.58457533972251 0 242.58457533972251 245.02352463475836 0 0 0 0 34.36166779229552 147.12024954581284 0 147.12024954581284 234.27559359464794 0 0 0 0 28.404523465907914 178.36962172100903 0 178.36962172100903 248.87425188310954 0 0 0 0 77.490710033553114 220.54774447742238 0 220.54774447742238 184.87547003480722 0 0 0 0 100.11311597028816 164.30268220214202 0 164.30268220214202 179.8971832668467 0 0 0 0 38.511033292556021 186.78129111097951 0 186.78129111097951 157.05717043371988 0 0 0 0 -27.797182563943352 206.69548954023048 0 206.69548954023048 153.35733445477672 0 0 0 0 9.0220941894940552 208.23388110161613 0 208.23388110161613 89.884841587743722 0 0 0 0 51.008843850462199 65.918530543161978 0 65.918530543161978 25.343252848906559 0 0 0 0 1.7019191950666253 -7.3869943357395798 0 -7.3869943357395798 28.977130798651643 0 0 0 0 -305.16728196717759 -27.580358019236883 0 -27.580358019236883 121.31191827198199 0 0 0 0 -209.25448449598389 -84.528948622843018 0 -84.528948622843018 69.775250424674596 0 0 0 0 229.6413300487402 173.15653644753183 0 173.15653644753183 88.763315202057129 0 0 0 0 -107.2103418382394 59.024952470368589 0 59.024952470368589 102.27291127110038 0 0 0 0 -53.268753051552267 23.00714241440437 0 23.00714241440437 11.162175508266955 0 0 0 0 -165.28384009746151 -12.559918572325842 0 -12.559918572325842 79.932384521045606 0 0 0 0 -281.00358554617105 54.865033036745444 0 54.865033036745444 79.951877687242813 0 0 0 0 -182.44458280185063 85.539214473152242 0 85.539214473152242 9.9613293705187971 0 0 0 0 22.24320675252784 -111.95570145046077 0 -111.95570145046077 -113.69222412338786 0 0 0 0 12.286195633238094 -202.74577665470133 0 -202.74577665470133 124.61210660020879 0 0 0 0 6.5864090383420262 -196.71055650487688 0 -196.71055650487688 146.26965568267042 0 0 0 0 -11.827262048121156 -182.51711915501437 0 -182.51711915501437 158.28015385972685 0 0 0 0 -23.959690827621671 -83.416223865337088 0 -83.416223865337088 85.884128601119301 0 0 0 0 -27.647005060591255 -74.60954950921132 0 -74.60954950921132 407.69348996861663 0 0 0 0 45.152314578203004 12.229386608651112 0 12.229386608651112 101.13752143141028 0 0 0 0 -29.2741359298725 67.811930309748277 0 67.811930309748277 123.51243667564995 0 0 0 0 -59.043933065599049 4.9969375726286671 0 4.9969375726286671 188.56049414315203 0 0 0 0 58.737805272685364 70.365317661322479 0 70.365317661322479 159.60601186495478 0 0 0 0 115.18422590176669 105.95032374046059 0 105.95032374046059 226.36079334827082 0 0 0 0 161.52396015341765 -78.227346048115578 0 -78.227346048115578 235.96670277710655 0 0 0 0 -7.481173068895032 26.590231941161619 0 26.590231941161619 473.61413698174874 0 0 0 0 1.1779745368662589 22.426025960508923 0 22.426025960508923 267.73976161680184 0 0 0 0 30.621625605082954 38.326450401596958 0 38.326450401596958 159.01623589685187 0 0 0 0 30.38572967114942 92.194094855145522 0 92.194094855145522 185.88881543187017 0 0 0 0 6.2088900949529489 86.244299730122293 0 86.244299730122293 340.54514700152504 0 0 0 0 54.328039823072686 77.526091280382389 0 77.526091280382389 156.54048575353227 0 0 0 0 101.84853126475355 235.15148699397832 0 235.15148699397832 438.34149903236539 0 0 0 0 4.7374218122998926 -1.045488961592099 0 -1.045488961592099 -1.5144585620819555 0 0 0 0 -41.28030217477135 -311.37048251166561 0 -311.37048251166561 -50.203562866765424 0 0 0 0 -31.615427951714082 -247.38904949712742 0 -247.38904949712742 260.25327616259165 0 0 0 0 -0.39691009931266308 -95.186693045201537 0 -95.186693045201537 20.311168426938821 0 0 0 0 -11.019808097089481 -93.909804195018296 0 -93.909804195018296 255.03788417385658 0 0 0 0 -306.45337712380206 -70.425559054296173 0 -70.425559054296173 98.366077848128043 0 0 0 0 -67.588590800554812 -7.4383687870722497 0 -7.4383687870722497 -83.153029666609655 0 0 0 0 13.122431395360763 50.768616386485519 0 50.768616386485519 171.00518362063303 0 0 0 0 -164.40611509597147 -14.132934972774819 0 -14.132934972774819 205.70086263673147 0 0 0 0 -68.499154517572606 -78.634170661469398 0 -78.634170661469398 73.665755980444374 0 0 0 0 -89.095254848019977 -56.03509649001353 0 -56.03509649001353 226.29775565709861 0 0 0 0 -54.428475959575735 24.923325471445423 0 24.923325471445423 392.06632829565206 0 0 0 0 -23.094704155304498 49.647401694459404 0 49.647401694459404 222.33678945667634 0 0 0 0 3.3793713653740269 108.4093899761574 0 108.4093899761574 107.74423995346297 0 0 0 0 91.062619912350783 47.581536055149627 0 47.581536055149627 131.2056505334258 0 0 0 0 -232.39458276810547 -230.921836892172 0 -230.921836892172 10.950846121704672 0 0 0 0 9.4310453475518443 54.639785215782467 0 54.639785215782467 150.41351306957222 0 0 0 0 9.3722943787745798 15.324469135859658 0 15.324469135859658 26.899097274533403 0 0 0 0 -121.85292161075449 -153.63794090302326 0 -153.63794090302326 -56.955605894181645 0 0 0 0 -184.35365095059387 -69.698738436738495 0 -69.698738436738495 130.41766186724635 0 0 0 0 -143.72602167624427 -95.770660452544689 0 -95.770660452544689 77.122330995596712 0 0 0 0 -90.391186756387469 -3.4615881337376777 0 -3.4615881337376777 121.27594502670763 0 0 0 0 -169.49543672583241 -24.772593749177759 0 -24.772593749177759 163.92217543334118 0 0 0 0 -86.638469986399286 -35.521672600909369 0 -35.521672600909369 -39.938902119494742 0 0 0 0 -119.18583792072604 25.11912900939933 0 25.11912900939933 35.60650108315167 0 0 0 0 -60.809109516365424 23.833344803038926 0 23.833344803038926 334.86731472943984 0 0 0 0 -163.3966447877292 -59.990323280509983 0 -59.990323280509983 170.7294468597247 0 0 0 0 -24.424660457987059 -27.175479184023587 0 -27.175479184023587 111.80945948690939 0 0 0 0 -122.35414143167509 -87.28115911756322 0 -87.28115911756322 188.82011592829076 0 0 0 0 -127.98457959620282 82.997076165658655 0 82.997076165658655 311.47741236965521 0 0 0 0 -25.857245657527528 33.322423542747856 0 33.322423542747856 150.39719910943313 0 0 0 0 4.3541797408142884 47.14013116012211 0 47.14013116012211 186.88895483495435 0 0 0 0 169.62970474856593 78.569450130940822 0 78.569450130940822 238.00627120409627 0 0 0 0 -47.799868863809934 396.37131207573839 0 396.37131207573839 716.51347959863779 0 0 0 0 142.20329688540733 323.21762575316097 0 323.21762575316097 382.95192571496591 0 0 0 0 -1.341935119816668 1.2117566113192311 0 1.2117566113192311 -4.6667503775735213 0 0 0 0 -282.44151656994472 -217.9246995763242 0 -217.9246995763242 9.0937615496995932 0 0 0 0 -463.85572569764963 29.534398251606035 0 29.534398251606035 427.45585415526875 0 0 0 0 759.97594635662608 -96.093432524066884 0 -96.093432524066884 256.21689686394348 0 0 0 0 86.970585120112446 -34.892359354231303 0 -34.892359354231303 952.94871902836894 0 0 0 0 7.0019032564341614 539.53054526718552 0 539.53054526718552 784.4047368648753 0 0 0 0 -179.67690237529314 -380.02264165700763 0 -380.02264165700763 671.38496990666772 0 0 0 0 222.83275477036364 400.96872632614213 0 400.96872632614213 441.73782395225135 0 0 0 0 243.75743669259555 343.44368344203576 0 343.44368344203576 594.44743256250513 0 0 0 0 17.842563221608543 -369.56868497380856 0 -369.56868497380856 379.40381330999662 0 0 0 0 1.0048728908146902 -2.9611985257736251 0 -2.9611985257736251 10.538103791051668 0 0 0 0 68.162748312068288 -277.69531064941475 0 -277.69531064941475 140.30671238337527 0 0 0 0 -30.485848792988691 -248.90525572912884 0 -248.90525572912884 114.71016108380718 0 0 0 0 -29.973555945745829 -204.40012150682742 0 -204.40012150682742 377.39995809594984 0 0 0 0 -16.226540400162776 -145.79063001140457 0 -145.79063001140457 128.45294947545926 0 0 0 0 -192.74149579973528 -3.9959356487161131 0 -3.9959356487161131 628.96788085681328 0 0 0 0 -295.93694886354751 -171.26665672872332 0 -171.26665672872332 384.36772773374105 0 0 0 0 -67.903858414905528 -36.016346717984561 0 -36.016346717984561 786.56408717076556 0 0 0 0 0.70627991801624701 1.2790721809749073 0 1.2790721809749073 1.0461899225560387 0 0 0 0 -52.133045855035277 34.008450572320726 0 34.008450572320726 438.1939956978822 0 0 0 0 0.17021462330100406 167.68066307338449 0 167.68066307338449 482.994437428526 0 0 0 0 -48.466453964683524 31.532663673118805 0 31.532663673118805 318.40240664745943 0 0 0 0 20.495894755392271 37.25465443173016 0 37.25465443173016 -53.11887303871481 0 0 0 0 -0.15210086917332474 143.00182776534959 0 143.00182776534959 234.3268259644974 0 0 0 0 22.712817826550008 73.879397433112899 0 73.879397433112899 -3.778026973883243 0 0 0 0 -39.110305120525197 40.901193527959549 0 40.901193527959549 332.71199309020449 0 0 0 0 -21.997718931980685 135.97074253092433 0 135.97074253092433 386.64206898021803 0 0 0 0 6.3556405453349498 22.180710953904054 0 22.180710953904054 181.53636348094733 0 0 0 0 6.4245760775437164 8.164652058365931 0 8.164652058365931 3.1822643530044985 0 0 0 0 -72.994778820528381 8.6751157315266028 0 8.6751157315266028 468.09746128405095 0 0 0 0 51.68065921018524 175.07699475622212 0 175.07699475622212 551.01498130246182 0 0 0 0 -84.743695637109681 68.982675014427514 0 68.982675014427514 533.57903675387206 0 0 0 0 -85.687161720263475 77.253326747399115 0 77.253326747399115 478.60855594208988 0 0 0 0 12.586173544284009 85.36174999499417 0 85.36174999499417 234.88972047381685 0 0 0 0 36.55779453895525 202.20987875740684 0 202.20987875740684 457.94665286862437 0 0 0 0 83.860760572525407 87.531644859665903 0 87.531644859665903 49.754618045364623 0 0 0 0 -8.7479764001791409 96.116195807771874 0 96.116195807771874 441.9211726749636 0 0 0 0 -0.031408936598243287 -1.1191877592144124 0 -1.1191877592144124 5.3394204211083434 0 0 0 0 -35.664704963516897 -44.696163314692967 0 -44.696163314692967 -24.371768121010973 0 0 0 0 16.813770410799577 -117.36569123740492 0 -117.36569123740492 182.38328765689221 0 0 0 0 3.2269020367128531 -6.0464282973730406 0 -6.0464282973730406 5.5135064872279145 0 0 0 0 -54.795992410802455 -11.529439422098221 0 -11.529439422098221 -81.833773541511619 0 0 0 0 40.489317066887224 217.46027672726632 0 217.46027672726632 484.22449353434786 0 0 0 0 295.26315920585876 129.34036904668756 0 129.34036904668756 201.35567774127412 0 0 0 0 100.2921035422105 194.01652833254775 0 194.01652833254775 442.49523369874356 0 0 0 0 6.5056424791525842 153.37592106789816 0 153.37592106789816 488.93021522597701 0 0 0 0 -17.789294992545592 125.11582270760846 0 125.11582270760846 708.75168713054154 0 0 0 0 334.50888149322418 183.99009499201202 0 183.99009499201202 490.84784079375459 0 0 0 0 4.2544239594127475 11.831293453156832 0 11.831293453156832 -3.2936890438431874 0 0 0 0 -1.1100281038321089 6.1118554944089283 0 6.1118554944089283 3.2659911181965526 0 0 0 0 110.94557077721447 -152.59551294977427 0 -152.59551294977427 222.85614982596599 0 0 0 0 167.21457514888743 53.999965191724186 0 53.999965191724186 85.351291013677837 0 0 0 0 -2.316404230754888 4.0889562499735774 0 4.0889562499735774 -3.5789871763145698 0 0 0 0 -0.17892061951049243 1.4650598154426859 0 1.4650598154426859 0.20834604907368259 0 0 0 0 350.84574870116194 152.5609347372083 0 152.5609347372083 -49.810676886540023 0 0 0 0 100.88811993155286 89.017582637286978 0 89.017582637286978 366.47603176126722 0 0 0 0 116.40449401752812 49.221610987209715 0 49.221610987209715 379.84102789091412 0 0 0 0 167.51840664755082 285.75097051194462 0 285.75097051194462 583.15898122582075 0 0 0 0 163.33861412824075 179.59885437784033 0 179.59885437784033 515.37623470954713 0 0 0 0 234.73486763603 483.70601334848834 0 483.70601334848834 1091.9331820139487 0 0 0 0 -1.5452353810367754 0.59364356625546577 0 0.59364356625546577 4.1479528623610804 0 0 0 0 74.605167865246358 -2.40946852019988 0 -2.40946852019988 1023.8327998771274 0 0 0 0 -13.07782018034186 181.64047722612304 0 181.64047722612304 883.98383155080319 0 0 0 0 -92.424282730072719 276.65453356981016 0 276.65453356981016 1058.1102962229857 0 0 0 0 -208.08438649097002 -13.714366714459175 0 -13.714366714459175 1058.0459657788015 0 0 0 0 -81.288539567165117 -61.417074637072801 0 -61.417074637072801 506.70494688418694 0 0 0 0 -42.825057704149003 75.065116883022711 0 75.065116883022711 869.96737361748092 0 0 0 0 103.89467329861782 106.15641078696353 0 106.15641078696353 323.13507490520351 0 0 0 0 115.10488840311453 71.113258875762313 0 71.113258875762313 314.68071381302434 0 0 0 0 82.010641604395801 -10.999782311600939 0 -10.999782311600939 151.24520981739624 0 0 0 0 -281.8793569010968 -387.5429708422671 0 -387.5429708422671 326.36702777836035 0 0 0 0 38.764509810969628 130.83287721060515 0 130.83287721060515 -110.80017911635514 0 0 0 0 -643.73412645287772 216.55749023648241 0 216.55749023648241 1138.0664868868189 0 0 0 0 -0.4105014929121743 2.5117156431690972 0 2.5117156431690972 12.035117786913702 0 0 0 0 612.69654005134248 1261.4066422827636 0 1261.4066422827636 737.72495394753059 0 0 0 0 476.87276183532504 918.57789330928063 0 918.57789330928063 1142.9670736599946 0 0 0 0 -287.39411046509485 -1069.8724551928753 0 -1069.8724551928753 1426.5370386639115 0 0 0 0 387.1793205091667 -239.01267113285576 0 -239.01267113285576 -50.222485580437933 0 0 0 0 57.389960528753704 -221.70346809850162 0 -221.70346809850162 462.68720455965376 0 0 0 0 154.89852681879211 -3.4811996180360438 0 -3.4811996180360438 -138.66520107351243 0 0 0 0 826.05240421946928 -719.49256443751801 0 -719.49256443751801 406.12649986188626 0 0 0 0 -99.62756499990337 -310.07643437939987 0 -310.07643437939987 232.28262563863245 0 0 0 0 1.599000663767014 -2.0334834860488797 0 -2.0334834860488797 3.5342617980573436 0 0 0 0 46.696913444751431 -141.23581315784759 0 -141.23581315784759 -7.9830748204694828 0 0 0 0 -42.1245453139245 25.646548637036176 0 25.646548637036176 -3.5027497506318923 0 0 0 0 -17.112097602186367 -41.83641442047643 0 -41.83641442047643 30.694560347732306 0 0 0 0 -43.625694728339113 -45.790492802188965 0 -45.790492802188965 89.508040877040912 0 0 0 0 94.6543647812573 -159.32043842081475 0 -159.32043842081475 -232.48032412740577 0 0 0 0 -22.0773046060458 -37.695266814916977 0 -37.695266814916977 88.659236058607348 0 0 0 0 -19.796583472820203 15.502867378410883 0 15.502867378410883 83.736868343142305 0 0 0 0 -25.437169964199711 6.3179474825642501 0 6.3179474825642501 73.799796753890405 0 0 0 0 -58.950786072302435 -6.5876090401088732 0 -6.5876090401088732 69.346199057006743 0 0 0 0 -10.409500843414207 58.586897225650318 0 58.586897225650318 -13.311717434196908 0 0 0 0 -10.60054068086265 -13.542929966355587 0 -13.542929966355587 -4.6265972612018231 0 0 0 0 -39.268319889777786 28.622116621258101 0 28.622116621258101 79.435550089969183 0 0 0 0 -8.1646037880764197 78.945620835322188 0 78.945620835322188 129.62064252863638 0 0 0 0 175.06554809922818 210.16930510975362 0 210.16930510975362 331.28614956166712 0 0 0 0 -85.276358729795902 96.005392325023422 0 96.005392325023422 127.82949505464239 0 0 0 0 -2.1265723275087609 -1.2125777622040061 0 -1.2125777622040061 -0.13543969447285065 0 0 0 0 58.444735292406222 -75.256880653090775 0 -75.256880653090775 139.27493538656563 0 0 0 0 -14.379821043850825 172.81409829976019 0 172.81409829976019 210.25321794769843 0 0 0 0 -205.45515191440063 -88.529287255805684 0 -88.529287255805684 60.185885601094924 0 0 0 0 -205.84452706334014 57.594419822882628 0 57.594419822882628 308.57767857641738 0 0 0 0 79.583021273751001 -59.241243805678096 0 -59.241243805678096 119.80588420967979 0 0 0 0 133.39669991015035 -53.092063098767539 0 -53.092063098767539 110.4535085476964 0 0 0 0 7.8875587287384405 -107.78808201829452 0 -107.78808201829452 135.39081402762167 0 0 0 0 14.893753139665023 -89.138873907935704 0 -89.138873907935704 154.32227345107822 0 0 0 0 -72.950259134466251 -78.371261796564795 0 -78.371261796564795 161.35007664424484 0 0 0 0 124.65120199993544 -105.26208566869173 0 -105.26208566869173 129.22646904360226 0 0 0 0 -2.9254583839647239 123.23739465415565 0 123.23739465415565 44.365629252250073 0 0 0 0 1.7170576921179439 1.4238278620624953 0 1.4238278620624953 -0.25004922405031493 0 0 0 0 12.444490395040702 -270.50415266685013 0 -270.50415266685013 3.6733726644597482 0 0 0 0 -21.65921880993119 -65.504819129146199 0 -65.504819129146199 170.4567102391884 0 0 0 0 -7.2100122406139775 -3.7141868618390106 0 -3.7141868618390106 -3.6481342295266757 0 0 0 0 3.3568256748039857 -30.698770959759713 0 -30.698770959759713 154.10522068565297 0 0 0 0 2.2590973389033024 -78.384645973907027 0 -78.384645973907027 137.94483545841649 0 0 0 0 -16.214302326450706 -43.269031794523471 0 -43.269031794523471 95.739376816862205 0 0 0 0 1.297669806065695 0.77731503733684804 0 0.77731503733684804 0.34576004302371643 0 0 0 0 4.8139569093054888 -117.55857490531344 0 -117.55857490531344 247.54377319974628 0 0 0 0 5.6898049283918226 25.628929640195565 0 25.628929640195565 203.99568760718103 0 0 0 0 4.338976514769314 -56.287159510835181 0 -56.287159510835181 89.26729958641954 0 0 0 0 -16.257632095004116 -9.5371755570882613 0 -9.5371755570882613 12.487117918054423 0 0 0 0 4.1313233559640139 -79.95174298222264 0 -79.95174298222264 96.069420106422513 0 0 0 0 107.11088992435702 51.803919909959404 0 51.803919909959404 65.316721123010211 0 0 0 0 -21.32296171315091 -41.063237261549347 0 -41.063237261549347 24.211318262418544 0 0 0 0 -1.3051719967269406 -0.28090752546128783 0 -0.28090752546128783 13.961775929631273 0 0 0 0 -9.912801066986912 -23.487596129531738 0 -23.487596129531738 18.604214118542842 0 0 0 0 -17.088421276129317 -35.590093192872274 0 -35.590093192872274 17.874433259916941 0 0 0 0 -6.8172168573257803 -20.188298954352007 0 -20.188298954352007 22.608348399368793 0 0 0 0 -15.444497519230026 -23.341257999131813 0 -23.341257999131813 82.798089271520439 0 0 0 0 -14.784860170733282 -25.553348550980445 0 -25.553348550980445 17.090151805001369 0 0 0 0 -12.108042817690603 -91.086586499979603 0 -91.086586499979603 38.181776092329983 0 0 0 0 8.2990276194095713 -16.358651260532497 0 -16.358651260532497 -22.133145155879902 0 0 0 0 -13.005891665095987 -4.4699827340082265 0 -4.4699827340082265 9.4979948597901966 0 0 0 0 -12.922453292183491 -6.2063462982187048 0 -6.2063462982187048 33.462788123899372 0 0 0 0 -7.0391313759294576 -2.0651109665723482 0 -2.0651109665723482 33.584368062454516 0 0 0 0 -18.077769141358903 -25.158751792198331 0 -25.158751792198331 53.20722290541957 0 0 0 0 -25.081485048543072 -36.143771279312205 0 -36.143771279312205 -24.917220898147207 0 0 0 0 -20.275356651520902 -3.4983004319057898 0 -3.4983004319057898 89.857330097810291 0 0 0 0 -17.916496155651735 -39.790230507847212 0 -39.790230507847212 6.9245180863779296 0 0 0 0 -13.822396872974199 -16.24659832873013 0 -16.24659832873013 30.954593396635644 0 0 0 0 -5.8021716791699873 7.5799879629921634 0 7.5799879629921634 33.293922441080213 0 0 0 0 0.29801776705506366 -5.0830986616070604 0 -5.0830986616070604 -3.6204071493947367 0 0 0 0 -26.186360787188761 28.674851269795909 0 28.674851269795909 45.174278744489129 0 0 0 0 1.0294375434422762 2.2072383221568259 0 2.2072383221568259 9.4157748921145981 0 0 0 0 2.1319681629267109 22.095236213906901 0 22.095236213906901 252.66751107003074 0 0 0 0 1.4614328916989905 -15.446287911538093 0 -15.446287911538093 51.486282815327286 0 0 0 0 -27.106551778386727 -26.437207959668498 0 -26.437207959668498 26.065164832916707 0 0 0 0 -24.662075969990383 -23.625607008965744 0 -23.625607008965744 44.461681118467823 0 0 0 0 -9.7050523011527492 -15.111043648264399 0 -15.111043648264399 21.923423002807269 0 0 0 0 -15.222158472945523 -7.8621752886101604 0 -7.8621752886101604 41.437857279423042 0 0 0 0 -24.624659422195691 -5.7506739806121914 0 -5.7506739806121914 55.094746774295345 0 0 0 0 -10.383995828249937 -24.465925779694686 0 -24.465925779694686 2.9787223668271849 0 0 0 0 0.24467253269155798 4.9075799321999654 0 4.9075799321999654 11.347298467320826 0 0 0 0 -72.517345481650409 -11.689807613496669 0 -11.689807613496669 39.297823765809881 0 0 0 0 -71.079998093391623 -21.064281868522812 0 -21.064281868522812 96.816612009846722 0 0 0 0 -2.1495026172178768 -17.734665977572149 0 -17.734665977572149 74.356970045999333 0 0 0 0 -32.091972179746335 -71.017560480715474 0 -71.017560480715474 28.892899770784425 0 0 0 0 -2.5975554575634305 -15.666937541187508 0 -15.666937541187508 87.365842345781857 0 0 0 0 -32.911198133264406 -64.199105728992436 0 -64.199105728992436 -20.072169901002781 0 0 0 0 -10.172994978245697 -17.258504702171194 0 -17.258504702171194 13.411237894710212 0 0 0 0 -12.312210129902461 -11.513844168253556 0 -11.513844168253556 33.998229118174748 0 0 0 0 13.737580117267498 -59.376336915061984 0 -59.376336915061984 107.90355763998377 0 0 0 0 -85.907949778436887 -57.101710323695443 0 -57.101710323695443 230.76445772626903 0 0 0 0 -80.509136154947555 94.856572618447899 0 94.856572618447899 -20.427938322631235 0 0 0 0 -89.2352859461962 97.500480188673464 0 97.500480188673464 114.64626732539909 0 0 0 0 -78.599448402354028 78.249797935874085 0 78.249797935874085 30.461532203960815 0 0 0 0 -34.724182641260995 47.566004476779199 0 47.566004476779199 21.823285132762976 0 0 0 0 -132.10734860616503 62.231117995419481 0 62.231117995419481 81.811219763374538 0 0 0 0 -6.7302504004555228 16.236891470759389 0 16.236891470759389 37.960035143690902 0 0 0 0 -71.13584861164054 20.522804746986367 0 20.522804746986367 15.409549112780951 0 0 0 0 -15.669813832184879 -2.1909325867183824 0 -2.1909325867183824 35.568416509572046 0 0 0 0 0.28194439286291662 27.149782806257349 0 27.149782806257349 24.65371302106513 0 0 0 0 0.84622416109321463 39.158998960535918 0 39.158998960535918 24.220880240566999 0 0 0 0 -25.926806744407372 -2.1864362308288037 0 -2.1864362308288037 49.471523173735477 0 0 0 0 -109.20997609160713 -48.884555309816278 0 -48.884555309816278 125.60093272611266 0 0 0 0 -22.406419325586285 9.6963059433692251 0 9.6963059433692251 19.826980200043181 0 0 0 0 -25.623729612845182 -8.683937205481925 0 -8.683937205481925 65.173706357614719 0 0 0 0 -9.3704729053148359 1.8566188819127589 0 1.8566188819127589 52.035072974085551 0 0 0 0 -7.5607289175032939 -8.6710114963274201 0 -8.6710114963274201 4.3261033894735874 0 0 0 0 -97.492951993715451 -9.4756423701128369 0 -9.4756423701128369 54.538918945370824 0 0 0 0 -55.244509643550828 22.342898628150579 0 22.342898628150579 14.243393481447129 0 0 0 0 -68.620427102240569 185.64060880934994 0 185.64060880934994 -136.2747011005813 0 0 0 0 -24.451908653262166 0.87692873503601731 0 0.87692873503601731 55.618135851313127 0 0 0 0 -6.8146201722017903 2.7339911832375066 0 2.7339911832375066 35.510373043587151 0 0 0 0 -0.44954669276996073 7.7890325124898254 0 7.7890325124898254 19.47203486718729 0 0 0 0 -307.30776089855135 198.89557645000605 0 198.89557645000605 -128.47618621579022 0 0 0 0 -57.300159380726654 32.29624099470675 0 32.29624099470675 37.557124512648443 0 0 0 0 -510.56003547773867 444.36291556539436 0 444.36291556539436 -4.4693385550635867 0 0 0 0 -3.7105586312328831 8.1011654592334992 0 8.1011654592334992 29.505458939366463 0 0 0 0 181.94529876098707 434.07856953746523 0 434.07856953746523 -168.39610699325567 0 0 0 0 -406.97770558551497 347.00545872001385 0 347.00545872001385 299.88249700375309 0 0 0 0 -452.76115288372057 115.73296552432294 0 115.73296552432294 -322.99541813369433 0 0 0 0 113.95845947272375 -11.282931433001067 0 -11.282931433001067 200.57520870881126 0 0 0 0 1.1209536864133034 182.58050896213479 0 182.58050896213479 -111.56137190232403 0 0 0 0 6.2149522373716195 109.9118409326511 0 109.9118409326511 -267.25880633023917 0 0 0 0 -0.45453469308854605 1.9541843039330615 0 1.9541843039330615 6.6108263372458538 0 0 0 0 26.931393086270006 20.794813414642704 0 20.794813414642704 45.944983222536393 0 0 0 0 -0.068293728257634342 19.472784871692035 0 19.472784871692035 82.927456435631029 0 0 0 0 -29.67609392364659 1.0011100920346507 0 1.0011100920346507 61.002303725195816 0 0 0 0 -2.7495065962466443 -5.8799204358769117 0 -5.8799204358769117 5.9111297498130284 0 0 0 0 11.444505426820619 -48.741365427413257 0 -48.741365427413257 105.53646612582088 0 0 0 0 -48.953448464198793 23.123265564907342 0 23.123265564907342 100.10944031446707 0 0 0 0 47.997670962808996 -39.84850899167941 0 -39.84850899167941 51.943565070745535 0 0 0 0 0.062853722022707642 34.705302078909881 0 34.705302078909881 -0.48492881716811098 0 0 0 0 -117.83065059590132 -79.993861411770922 0 -79.993861411770922 -27.349823208875023 0 0 0 0 -528.06714776179183 35.501865887614258 0 35.501865887614258 403.35134089646454 0 0 0 0 -3.1346774770978691 -8.7048983362950132 0 -8.7048983362950132 67.520274561296731 0 0 0 0 -418.68524992310506 32.647737321887689 0 32.647737321887689 -54.508895078994101 0 0 0 0 -194.37677672933933 277.46314247076225 0 277.46314247076225 -129.36551891897761 0 0 0 0 -365.54983209771967 0.032399916250142269 0 0.032399916250142269 340.5213633106614 0 0 0 0 -319.12634404038181 133.23751457194885 0 133.23751457194885 647.88380827731453 0 0 0 0 -467.87705015242864 504.8472728236593 0 504.8472728236593 283.67006767617568 0 0 0 0 -31.058675948317614 -37.132207846167148 0 -37.132207846167148 564.53071879401978 0 0 0 0 -305.92703622780391 -37.841365108382888 0 -37.841365108382888 778.17255412772647 0 0 0 0 -0.41717049357066571 -236.34519344274304 0 -236.34519344274304 699.94428697761032 0 0 0 0 -415.18700309011138 80.320635472235153 0 80.320635472235153 455.64483061473584 0 0 0 0 -203.651333331366 101.36877734796144 0 101.36877734796144 399.69180041135405 0 0 0 0 -146.68189887978224 -71.706149251622264 0 -71.706149251622264 529.83129554822517 0 0 0 0 -368.79870622587168 125.95933885940758 0 125.95933885940758 499.87599887748365 0 0 0 0 -454.58213517331023 122.61496218331013 0 122.61496218331013 461.33300804095052 0 0 0 0 37.085557090866359 -117.50108062101572 0 -117.50108062101572 150.15862930525327 0 0 0 0 276.27710841105363 -683.35680562978814 0 -683.35680562978814 980.25128780238447 0 0 0 0 -104.16557094735708 -284.4279146654444 0 -284.4279146654444 923.47607411610079 0 0 0 0 -207.07620525067978 -202.70771493537541 0 -202.70771493537541 767.5452036478091 0 0 0 0 85.410892958547265 -359.8238743677357 0 -359.8238743677357 603.75610814898391 0 0 0 0 183.33183838486002 -565.11599456136173 0 -565.11599456136173 762.09430822102877 0 0 0 0 489.95498600578776 -928.41313611467194 0 -928.41313611467194 740.95605829624401 0 0 0 0 402.48248072537058 -872.29992164039322 0 -872.29992164039322 929.24829165020492 0 0 0 0 408.99591702014442 -705.41397284570212 0 -705.41397284570212 508.63515279954299 0 0 0 0 351.01888361869169 -557.42346993266256 0 -557.42346993266256 279.14065563692202 0 0 0 0 0.011754199782971125 -140.71876435886224 0 -140.71876435886224 -191.76470570306992 0 0 0 0 -395.05089927116552 41.359066521254135 0 41.359066521254135 593.50807955634809 0 0 0 0 1486.8466211932819 -1425.3929692362635 0 -1425.3929692362635 308.6151414665801 0 0 0 0 1.8795924970490057 -7.9742725818086608 0 -7.9742725818086608 24.282840934796297 0 0 0 0 -0.50929552465318373 -608.81598186547956 0 -608.81598186547956 1629.8211988145486 0 0 0 0 1169.5829080644767 -549.27273304243135 0 -549.27273304243135 329.42324900569838 0 0 0 0 1.7474842512152993 9.6497413660019333 0 9.6497413660019333 -5.2267781093030408 0 0 0 0 -1559.1794247248326 -297.62760763413098 0 -297.62760763413098 686.28560647241829 0 0 0 0 -67.893906573834101 74.307090307265753 0 74.307090307265753 55.578608159819851 0 0 0 0 907.42575537108053 588.35246020401246 0 588.35246020401246 151.25612182033365 0 0 0 0 14.906853008609687 -1785.9196918373782 0 -1785.9196918373782 1322.2473661705098 0 0 0 0 -891.44939779408651 890.28748555932543 0 890.28748555932543 1305.1698562291713 0 0 0 0 -407.99698317934599 149.39185318839736 0 149.39185318839736 146.23147427744698 0 0 0 0 -1305.3624076095739 -604.83367635843024 0 -604.83367635843024 906.66029517314746 0 0 0 0 851.93557444793259 -865.36733991694928 0 -865.36733991694928 458.13217466141214 0 0 0 0 60.026803890088559 -1078.6841202004434 0 -1078.6841202004434 1004.6478328428275 0 0 0 0 -299.73160277489296 -634.81485801801318 0 -634.81485801801318 740.97696006228216 0 0 0 0 444.92512988838098 -923.55972568264406 0 -923.55972568264406 837.66917523782467 0 0 0 0 419.15324167290055 -876.940281899806 0 -876.940281899806 763.68692269228632 0 0 0 0 825.23348704932141 -518.25088419800159 0 -518.25088419800159 456.91793574177427 0 0 0 0 993.56879514153479 -818.96030444356438 0 -818.96030444356438 529.99491592508275 0 0 0 0 1617.1282039470316 -432.71555585734313 0 -432.71555585734313 33.775550435704645 0 0 0 0 1240.17251408015 -127.79612242456642 0 -127.79612242456642 -46.648174253874458 0 0 0 0 849.8805940843049 -552.69739926364855 0 -552.69739926364855 420.15151173475897 0 0 0 0 1719.7669412229625 -751.59611153400328 0 -751.59611153400328 142.94508730224334 0 0 0 0 151.59326248102116 202.82087731122738 0 202.82087731122738 80.113268851404428 0 0 0 0 258.05226229881737 -309.41579979358357 0 -309.41579979358357 325.62651684414595 0 0 0 0 275.3451812991334 -330.80780874085031 0 -330.80780874085031 304.16070284729358 0 0 0 0 855.9177341450777 28.621720900497166 0 28.621720900497166 -103.78233772316889 0 0 0 0 -95.523223628670166 -195.59826314719976 0 -195.59826314719976 434.79553436677088 0 0 0 0 0.60307890395312924 8.0198647222333577 0 8.0198647222333577 30.401217986577336 0 0 0 0 -46.593631322072724 14.403756384588632 0 14.403756384588632 43.933593297124389 0 0 0 0 -10.672033328496582 18.665306512237294 0 18.665306512237294 3.7714646274398547 0 0 0 0 -32.670059396950819 74.002072666065942 0 74.002072666065942 -1.3924398274393752 0 0 0 0 -111.39035249142034 62.252188031714468 0 62.252188031714468 24.345555775846151 0 0 0 0 1.1387071097949359 7.4308783012399786 0 7.4308783012399786 23.083849441071777 0 0 0 0 -3.6927230887625413 5.3548384447099124 0 5.3548384447099124 44.95081550983997 0 0 0 0 -66.758893380826521 84.338235956398421 0 84.338235956398421 90.56090745376423 0 0 0 0 -78.923379732079411 20.209497395393555 0 20.209497395393555 0.97245184394705575 0 0 0 0 -81.485456773994883 27.575203299660643 0 27.575203299660643 -5.5813309559307527 0 0 0 0 -66.056679222953335 40.087820189561171 0 40.087820189561171 -36.616707270703046 0 0 0 0 -23.958681851193433 19.743099215862458 0 19.743099215862458 49.469747954630293 0 0 0 0 -214.44016091716549 44.932447574545222 0 44.932447574545222 14.928772007813677 0 0 0 0 3.6603787877406155 8.7135527066869685 0 8.7135527066869685 19.40589830216922 0 0 0 0 62.741418608467939 21.875395879884309 0 21.875395879884309 -13.664148908152129 0 0 0 0 79.327213414425955 -569.23238458094829 0 -569.23238458094829 2214.569324543234 0 0 0 0 1525.7938942785768 -1393.8232931738239 0 -1393.8232931738239 897.28624907619087 0 0 0 0 -66.755782560872831 -41.181986400497408 0 -41.181986400497408 50.050362875557767 0 0 0 0 -0.11297677140391116 1.4934421917531715 0 1.4934421917531715 15.194040707448153 0 0 0 0 -2.0220114010382524 -4.3505643139168626 0 -4.3505643139168626 12.255366687383741 0 0 0 0 1698.1161330465434 -1079.9053091759297 0 -1079.9053091759297 353.40863645914942 0 0 0 0 1291.304932131301 -1055.1129207898921 0 -1055.1129207898921 614.02405881986488 0 0 0 0 1270.2661676222788 -1198.8859109073965 0 -1198.8859109073965 765.77390557504259 0 0 0 0 1247.4319752728343 -1313.6990311937407 0 -1313.6990311937407 860.10216149094049 0 0 0 0 1038.2253795744691 -1085.7841707593834 0 -1085.7841707593834 825.21632981766015 0 0 0 0 1090.5782523131511 -1249.4101915626452 0 -1249.4101915626452 1015.5417521919007 0 0 0 0 696.30914329661027 -844.30796950432705 0 -844.30796950432705 749.9975331512469 0 0 0 0 826.12820514797022 -1023.5213548094325 0 -1023.5213548094325 863.05014115339145 0 0 0 0 1092.1038476050235 -888.2974789851869 0 -888.2974789851869 612.81014674567268 0 0 0 0 1247.2203586221221 -922.97594944154844 0 -922.97594944154844 565.70754382916493 0 0 0 0 1083.171013190753 -1001.547365808452 0 -1001.547365808452 632.91524127361481 0 0 0 0 747.03501498361948 -909.15676848759176 0 -909.15676848759176 848.74264153104014 0 0 0 0 875.36029667611001 -1137.3073573887086 0 -1137.3073573887086 1011.145848936867 0 0 0 0 631.59918251274212 -965.03183187598188 0 -965.03183187598188 911.84893126937095 0 0 0 0 294.5590348039259 -677.66284399811411 0 -677.66284399811411 962.07074111701513 0 0 0 0 614.19826985925829 -983.17352253009449 0 -983.17352253009449 1112.7726900409325 0 0 0 0 599.70851691147345 -973.63403471811034 0 -973.63403471811034 1226.4557110060123 0 0 0 0 250.76579819517428 -534.61243757067132 0 -534.61243757067132 1193.6126019541698 0 0 0 0 1053.2654052722146 -1572.3284985510109 0 -1572.3284985510109 2047.47827164107 0 0 0 0 1118.3407896899171 -1405.3898898372499 0 -1405.3898898372499 1296.6572412835667 0 0 0 0 1078.2529714793855 -1244.5519371858099 0 -1244.5519371858099 1035.7236767923459 0 0 0 0 981.3227213136488 -1182.835692658613 0 -1182.835692658613 1008.6270766319431 0 0 0 0 979.70044069206051 -1186.5794209034939 0 -1186.5794209034939 1031.9581381883472 0 0 0 0 812.14983226578624 -1279.9389260046009 0 -1279.9389260046009 1494.3019824150833 0 0 0 0 532.12532625388849 -986.5252870672266 0 -986.5252870672266 1404.9558215870929 0 0 0 0 724.36211146597998 -1350.4631147543696 0 -1350.4631147543696 2062.3970782077522 0 0 0 0 569.47985472538676 -1125.2229342158753 0 -1125.2229342158753 2653.5212609944865 0 0 0 0 447.14157957547468 -786.77642574226047 0 -786.77642574226047 1777.7360434088041 0 0 0 0 382.06146988283581 -891.60348990731291 0 -891.60348990731291 1909.7363266051398 0 0 0 0 288.69203728117395 -314.96909150410102 0 -314.96909150410102 1297.5577118622605 0 0 0 0 299.85358975304553 -512.25807170210464 0 -512.25807170210464 2417.5983556719439 0 0 0 0 686.84656492187423 -305.44377675464784 0 -305.44377675464784 1370.2841131265159 0 0 0 0 794.42096410556405 162.91323223983636 0 162.91323223983636 2572.8078747692052 0 0 0 0 192.91732216112723 -581.47010013319232 0 -581.47010013319232 1159.7273965449422 0 0 0 0 172.56672350881581 -399.85914464917732 0 -399.85914464917732 1260.748963929771 0 0 0 0 -201.32293573545576 -56.449280144559452 0 -56.449280144559452 1103.2411486444016 0 0 0 0 181.0826411758535 158.42485608737479 0 158.42485608737479 1616.3494162979478 0 0 0 0 357.26035732511991 400.98243755324802 0 400.98243755324802 603.14959324089432 0 0 0 0 78.946468662814425 -466.5900404099022 0 -466.5900404099022 2000.2399653881439 0 0 0 0 1071.122186917114 -426.11686252914296 0 -426.11686252914296 490.39763006428257 0 0 0 0 697.0862828458994 -8.1736512947682058 0 -8.1736512947682058 1218.8352402249111 0 0 0 0 91.966193746998215 -722.15111733678896 0 -722.15111733678896 1826.1112777020753 0 0 0 0 34.33305763865792 -460.35065334190585 0 -460.35065334190585 1819.2221473661193 0 0 0 0 694.2367752056125 -910.17760704823013 0 -910.17760704823013 2078.7497235142218 0 0 0 0 628.97737833407882 -869.27941162622301 0 -869.27941162622301 3303.6414887531428 0 0 0 0 791.74008092124859 207.19678861909779 0 207.19678861909779 3443.7238191255019 0 0 0 0 2117.1687694399152 -234.5890121764096 0 -234.5890121764096 1153.8155124730038 0 0 0 0 -78.882121309419745 240.96189401219453 0 240.96189401219453 1019.5622970785444 0 0 0 0 -45.065434600479421 -373.07973332529218 0 -373.07973332529218 1442.2617830845884 0 0 0 0 337.6091331425032 1.1018119256405043 0 1.1018119256405043 974.10816612429335 0 0 0 0 -11.398595859667694 -239.23771301405213 0 -239.23771301405213 625.39295227163529 0 0 0 0 131.10496705045352 -276.7882858513658 0 -276.7882858513658 474.80529881508846 0 0 0 0 30.677398669255126 63.166850664427329 0 63.166850664427329 845.47526358417963 0 0 0 0 -57.280566392377295 -32.535816590829199 0 -32.535816590829199 235.8561945403053 0 0 0 0 47.710192573549648 300.45821586156671 0 300.45821586156671 440.12666175529012 0 0 0 0 -4.168242850556453 350.71475870107679 0 350.71475870107679 125.91718840041722 0 0 0 0 1.0748280670628567 2.9104474182468252 0 2.9104474182468252 8.9361929169997723 0 0 0 0 -99.690696384959665 -90.275824174677837 0 -90.275824174677837 75.367287131868579 0 0 0 0 -49.73922206154657 23.813272318391682 0 23.813272318391682 -25.004623507229553 0 0 0 0 -59.385234542464332 40.100278542859087 0 40.100278542859087 -52.336340617024689 0 0 0 0 -182.13848317295015 31.820591697687632 0 31.820591697687632 117.4851058942586 0 0 0 0 2.2637797125305248 2.3477900114017558 0 2.3477900114017558 2.1219537777387245 0 0 0 0 95.017352094293983 33.886926896837394 0 33.886926896837394 -53.698045163415372 0 0 0 0 41.671998577966406 352.61289749445496 0 352.61289749445496 -62.874787273887705 0 0 0 0 1.9036954849782539 1.5914320105308235 0 1.5914320105308235 0.81351321663385079 0 0 0 0 -82.210561427018547 -171.50811661278567 0 -171.50811661278567 80.448118888471072 0 0 0 0 14.719312193717087 -153.01311973702468 0 -153.01311973702468 149.22001483169151 0 0 0 0 59.095061028045166 -58.005043933280831 0 -58.005043933280831 145.55327990584192 0 0 0 0 257.15016318381095 -105.88143192575808 0 -105.88143192575808 125.99119011450239 0 0 0 0 134.01839441075936 -172.28128229490176 0 -172.28128229490176 253.70686336193467 0 0 0 0 507.83331449870184 -224.7299185727461 0 -224.7299185727461 371.78589271617238 0 0 0 0 283.17783916667577 -18.593920681880263 0 -18.593920681880263 192.83679682556249 0 0 0 0 8.7227858354981436 309.9326122115599 0 309.9326122115599 589.13942781547667 0 0 0 0 191.24597553736749 88.519842716908897 0 88.519842716908897 759.92573920921132 0 0 0 0 166.1136391631826 231.65478940616595 0 231.65478940616595 145.68822182028089 0 0 0 0 85.423197115675976 230.31258834292748 0 230.31258834292748 664.42170189028184 0 0 0 0 -99.299783081014539 503.92812700557988 0 503.92812700557988 343.59480516885378 0 0 0 0 0.53174275185464026 -0.96866864529224017 0 -0.96866864529224017 2.1016026233544949 0 0 0 0 161.62299847347822 292.65611940871167 0 292.65611940871167 466.68855915685708 0 0 0 0 -51.898714131690141 176.66289980223257 0 176.66289980223257 522.34669588170073 0 0 0 0 25.834579519188821 162.37268323684634 0 162.37268323684634 342.14598930744978 0 0 0 0 367.8675192167957 -126.42855614655127 0 -126.42855614655127 422.57554569375861 0 0 0 0 247.37305039837156 67.839487585959432 0 67.839487585959432 271.47268502390943 0 0 0 0 -606.12504908616665 -116.97197234376654 0 -116.97197234376654 206.26570782243289 0 0 0 0 198.20847249483722 316.08336413928919 0 316.08336413928919 163.97688092199678 0 0 0 0 108.63552728466721 111.46285422913206 0 111.46285422913206 -257.38097102893516 0 0 0 0 84.796557078901969 -143.28305107197957 0 -143.28305107197957 5.602528387807979 0 0 0 0 -248.38701644361254 217.70322279535867 0 217.70322279535867 213.2323708749318 0 0 0 0 72.87656951720237 11.916696048723679 0 11.916696048723679 340.97477860955405 0 0 0 0 266.24181865953142 -514.66292707329558 0 -514.66292707329558 433.70358949651745 0 0 0 0 149.50211258148556 77.774524526934329 0 77.774524526934329 -110.28879213688197 0 0 0 0 208.29386997887423 -318.67062772435929 0 -318.67062772435929 -106.86318660371762 0 0 0 0 347.92574310943928 -237.74487400794169 0 -237.74487400794169 260.90529036730368 0 0 0 0 347.90867407524638 -746.71651587958331 0 -746.71651587958331 1148.1726307197168 0 0 0 0 453.82849590583328 -19.673129310180229 0 -19.673129310180229 649.10150330580655 0 0 0 0 253.08090396055741 -727.28731385221181 0 -727.28731385221181 570.94150778494077 0 0 0 0 243.53247256166833 -488.21501946663921 0 -488.21501946663921 543.53779804689111 0 0 0 0 1257.368065804676 -43.378685776886414 0 -43.378685776886414 59.590863213641569 0 0 0 0 1148.3691387151976 -983.79260653277015 0 -983.79260653277015 387.67280957617913 0 0 0 0 6.534198308196121 17.13428497429198 0 17.13428497429198 8.6599517761672473 0 0 0 0 -3.5459291509769173 4.9710588290657824 0 4.9710588290657824 9.929140708628978 0 0 0 0 717.83505037429313 -592.60282747429301 0 -592.60282747429301 32.242978753012721 0 0 0 0 243.30497107123483 -216.17722205676546 0 -216.17722205676546 53.640260673720149 0 0 0 0 167.55535695743856 -613.20782019241597 0 -613.20782019241597 422.89705441854312 0 0 0 0 224.66901254942604 -460.47401720083872 0 -460.47401720083872 442.6592484968487 0 0 0 0 210.41525070297757 -618.34302605879202 0 -618.34302605879202 413.73497765803768 0 0 0 0 257.94151241300278 -600.90748296637321 0 -600.90748296637321 223.07484503637534 0 0 0 0 126.29526236371839 -524.58941434542066 0 -524.58941434542066 755.90244534451631 0 0 0 0 125.48079250387491 -66.72987715484669 0 -66.72987715484669 738.52539779724611 0 0 0 0 198.44242361939951 -98.298790401522638 0 -98.298790401522638 314.59236921544652 0 0 0 0 458.62683248963185 -17.452568735279783 0 -17.452568735279783 326.6999118503154 0 0 0 0 -83.329406023694901 149.53091786579535 0 149.53091786579535 163.78076178773335 0 0 0 0 98.599611400639105 120.20396193576744 0 120.20396193576744 67.710979966199375 0 0 0 0 -127.32258380443727 -15.923421071292978 0 -15.923421071292978 80.165984780160215 0 0 0 0 -3.1170089734228745 6.6235122309777026 0 6.6235122309777026 91.088694849296559 0 0 0 0 100.47207652074871 -186.17671675575912 0 -186.17671675575912 195.26860081962514 0 0 0 0 -64.270891324249988 -202.26312250463525 0 -202.26312250463525 391.91408889964805 0 0 0 0 14.84344705591127 26.276451852863829 0 26.276451852863829 102.60081317968434 0 0 0 0 18.898302628275928 26.506072084735933 0 26.506072084735933 98.145624670964025 0 0 0 0 -5.3497215291299085 12.797699551447295 0 12.797699551447295 99.224498343945015 0 0 0 0 2.170528771348728 36.248385401784617 0 36.248385401784617 101.50849450923852 0 0 0 0 32.816207201367263 45.677153854090534 0 45.677153854090534 20.633913059809373 0 0 0 0 29.549294794504156 35.84016651442289 0 35.84016651442289 100.7467735708633 0 0 0 0 21.47725835964772 19.21024047100218 0 19.21024047100218 109.12009436908556 0 0 0 0 30.064505268420866 42.20099296137542 0 42.20099296137542 25.7944992489318 0 0 0 0 54.476508867204984 106.57858591951845 0 106.57858591951845 283.56581948175153 0 0 0 0 176.5646455269034 -578.27175661938963 0 -578.27175661938963 533.89338230741487 0 0 0 0 583.26580494208474 -439.9261205138946 0 -439.9261205138946 505.89301065258041 0 0 0 0 450.6924842261742 -759.45124096413929 0 -759.45124096413929 614.10543002905615 0 0 0 0 529.93829549698876 20.445476966488059 0 20.445476966488059 -835.68191932849004 0 0 0 0 -188.29576858595192 -254.80890232043748 0 -254.80890232043748 514.21131412117393 0 0 0 0 273.98880296005336 -725.46439173424733 0 -725.46439173424733 63.30790175886068 0 0 0 0 -310.24623159795919 361.79795989438571 0 361.79795989438571 398.08529975255351 0 0 0 0 694.20283710829381 552.32334501426885 0 552.32334501426885 -1164.8601430666313 0 0 0 0 23.257218019663398 47.923464275290797 0 47.923464275290797 21.718719984650775 0 0 0 0 -213.91488823849159 -150.87134164598683 0 -150.87134164598683 154.3621647261898 0 0 0 0 13.748948495169145 72.006089092872571 0 72.006089092872571 38.333580452861497 0 0 0 0 -0.84253368633565628 76.820950362343865 0 76.820950362343865 100.42309577633159 0 0 0 0 18.118844457093559 46.908798134929384 0 46.908798134929384 94.273048437884427 0 0 0 0 17.112765260723677 45.012354889338894 0 45.012354889338894 94.265792279798916 0 0 0 0 5.1618636276969383 43.516738852844355 0 43.516738852844355 119.14386529456533 0 0 0 0 -8.7442866800941772 30.104804236798373 0 30.104804236798373 112.59780787696218 0 0 0 0 -0.16670562499001562 41.899963115814899 0 41.899963115814899 127.64571538729615 0 0 0 0 0.77072169512626765 49.561489572389291 0 49.561489572389291 102.58917579136323 0 0 0 0 -0.33036084929000253 55.759963456963305 0 55.759963456963305 104.82785807308392 0 0 0 0 4.2137408344422624 66.995797200455854 0 66.995797200455854 145.27713694189515 0 0 0 0 28.681891730540841 52.874779143428896 0 52.874779143428896 112.23079092652188 0 0 0 0 9.5677681791997173 33.561790012092388 0 33.561790012092388 131.72554651855899 0 0 0 0 21.99891324521181 55.409968473077242 0 55.409968473077242 143.60465094314713 0 0 0 0 -0.022041411218424858 104.0808531965813 0 104.0808531965813 184.90848737661145 0 0 0 0 49.948383757566738 47.554658731867676 0 47.554658731867676 144.22824085355387 0 0 0 0 47.97413391310414 102.0573491078103 0 102.0573491078103 212.46054510654358 0 0 0 0 -74.757563066102534 2.5167112987619475 0 2.5167112987619475 54.71080869724392 0 0 0 0 182.49442741953703 116.92134656859071 0 116.92134656859071 72.272303573641693 0 0 0 0 0.30587237902925168 -1.6838896369831673 0 -1.6838896369831673 0.36167035388086788 0 0 0 0 90.161843190413364 31.427900215676345 0 31.427900215676345 0.29978458743426017 0 0 0 0 16.197628365208089 39.393853630659578 0 39.393853630659578 16.863601901844959 0 0 0 0 51.849698541842372 100.09932568034856 0 100.09932568034856 117.50831278400074 0 0 0 0 54.557982537062941 65.67616433447256 0 65.67616433447256 -24.372861253585143 0 0 0 0 -123.5604072667893 387.36795110324601 0 387.36795110324601 -543.89688455045689 0 0 0 0 1.3992149560650557 42.010656225868843 0 42.010656225868843 28.715510637964471 0 0 0 0 -281.9139590128234 622.15606005227892 0 622.15606005227892 -63.649134411047271 0 0 0 0 1.2432278858110886 11.040706805907497 0 11.040706805907497 2.7174858761142673 0 0 0 0 0.5416453939809216 30.985828224285797 0 30.985828224285797 -9.6307536294189049 0 0 0 0 -0.14233664746689215 18.549759083933168 0 18.549759083933168 54.564791317505296 0 0 0 0 8.547735167127712 42.692061547691992 0 42.692061547691992 2.0302687393705128 0 0 0 0 2.0608870328469493 45.805544267059304 0 45.805544267059304 29.532107487408211 0 0 0 0 -29.855081587516906 -0.9781569987826515 0 -0.9781569987826515 76.105754674006675 0 0 0 0 -8.3025363548823066 26.128984193522186 0 26.128984193522186 14.446042767979108 0 0 0 0 -27.808574221759045 35.429849253981956 0 35.429849253981956 64.313932580287656 0 0 0 0 -6.6011963645032665 22.968138598165751 0 22.968138598165751 49.36903999374772 0 0 0 0 -17.166387521387151 -58.070154048778932 0 -58.070154048778932 12.621761322348902 0 0 0 0 35.97006991487433 71.888144948745321 0 71.888144948745321 125.94216330167546 0 0 0 0 3.235876226439359 34.164348263155262 0 34.164348263155262 100.48962851284887 0 0 0 0 0.060812221304839653 3.0725039774462743 0 3.0725039774462743 13.426688872956532 0 0 0 0 0.16784025111519441 37.515763995430461 0 37.515763995430461 86.857009075471069 0 0 0 0 0.03536162682576105 51.96580125140872 0 51.96580125140872 128.57595979096368 0 0 0 0 -2.1256075205128582 29.342655598638885 0 29.342655598638885 119.79061421586084 0 0 0 0 -0.63550392803654177 23.883983589917989 0 23.883983589917989 37.385175705247093 0 0 0 0 -11.513642083829836 -9.4769998919218779 0 -9.4769998919218779 67.047127781024756 0 0 0 0 -3.5326988136692918 27.495524029116439 0 27.495524029116439 11.725490324385248 0 0 0 0 3.2421657605122931 -0.35854506512215778 0 -0.35854506512215778 10.007264148938106 0 0 0 0 28.686727840365165 17.742315919495013 0 17.742315919495013 -1.958535267978732 0 0 0 0 4.6767884949933318 -3.2928148750291797 0 -3.2928148750291797 0.39804920183968306 0 0 0 0 89.240675041139639 -8.8021572170805484 0 -8.8021572170805484 57.919054969366698 0 0 0 0 22.381199054839954 -33.606590093730119 0 -33.606590093730119 65.355198828685388 0 0 0 0 43.155198577431293 60.343274828523136 0 60.343274828523136 25.522067739406339 0 0 0 0 69.269390131864412 8.5505771301296818 0 8.5505771301296818 86.730327501514694 0 0 0 0 71.57448581426911 88.328181193944033 0 88.328181193944033 49.165202026502811 0 0 0 0 0.45027985745582555 55.056894886403825 0 55.056894886403825 36.205541843446554 0 0 0 0 0.41433159923326457 55.242510569565638 0 55.242510569565638 38.262693677170319 0 0 0 0 16.812714574369238 55.436225167166413 0 55.436225167166413 26.647052339612856 0 0 0 0 0.77543236326164333 57.467580181277299 0 57.467580181277299 37.787674333263567 0 0 0 0 0.75966763681367411 57.699100340053519 0 57.699100340053519 35.158774124909542 0 0 0 0 -17.653694313652068 40.11016356161781 0 40.11016356161781 49.081109820865095 0 0 0 0 -20.348799431900261 46.589165242905437 0 46.589165242905437 36.616492680528609 0 0 0 0 -68.776455757611984 36.052233070622606 0 36.052233070622606 49.630138278879713 0 0 0 0 -66.749132870592803 37.487519099775454 0 37.487519099775454 36.572976679548447 0 0 0 0 -30.281587100594152 80.697702666740952 0 80.697702666740952 50.287611414634739 0 0 0 0 -51.793671147372606 24.913020981966838 0 24.913020981966838 54.485277740561287 0 0 0 0 -178.009202181398 -64.594218183423436 0 -64.594218183423436 -1.2178253998135915 0 0 0 0 -142.49102767206523 -10.44978831278604 0 -10.44978831278604 -29.466066445856995 0 0 0 0 -113.23338262896505 -130.71104776230641 0 -130.71104776230641 128.73516545683378 0 0 0 0 -194.83033629425063 59.34882410379214 0 59.34882410379214 121.96719351546926 0 0 0 0 -1.3899096322272815 0.82510794585994063 0 0.82510794585994063 2.2613783071183491 0 0 0 0 -24.096893552243273 184.04208711825049 0 184.04208711825049 9.0858729351311922 0 0 0 0 -138.92882384131144 195.11672272983924 0 195.11672272983924 120.86107535907649 0 0 0 0 48.904955199110191 -115.02297367111169 0 -115.02297367111169 -16.395484535256401 0 0 0 0 -414.89101279562055 -269.92197336935351 0 -269.92197336935351 245.3174472130122 0 0 0 0 -119.5545801001017 259.79895300116186 0 259.79895300116186 -202.48374705304741 0 0 0 0 -0.57040353957249046 -0.033010880432030376 0 -0.033010880432030376 1.014905464376028 0 0 0 0 -170.9194465366254 -174.36879553820472 0 -174.36879553820472 -14.388025562695475 0 0 0 0 -53.81041966599696 -3.2326193721382879 0 -3.2326193721382879 -137.99940733723633 0 0 0 0 -1.9975782726778704 -0.49120325924249642 0 -0.49120325924249642 10.883555022106073 0 0 0 0 -0.25133342969456596 -9.2918156428331002 0 -9.2918156428331002 43.990576421408093 0 0 0 0 -122.95374386459844 -109.07727338205586 0 -109.07727338205586 84.752308619412361 0 0 0 0 -53.820209418477134 4.392964849675991 0 4.392964849675991 66.739585599214479 0 0 0 0 -89.695712928544708 19.143953477068862 0 19.143953477068862 65.675630299425393 0 0 0 0 284.85398653257926 123.68783366943535 0 123.68783366943535 173.6572342824511 0 0 0 0 812.32322936678975 249.58106526460324 0 249.58106526460324 191.83043690249906 0 0 0 0 344.54822821204925 138.84587000143074 0 138.84587000143074 86.725192397105275 0 0 0 0 380.56454630010558 209.12291141512105 0 209.12291141512105 106.15150701282255 0 0 0 0 122.72492182465248 356.95207894792838 0 356.95207894792838 417.07622887499747 0 0 0 0 68.48353652611604 302.86861910413791 0 302.86861910413791 187.27875941969978 0 0 0 0 -28.279171076330385 161.48087376577314 0 161.48087376577314 172.6908449176899 0 0 0 0 33.913655322564409 -23.615615610920941 0 -23.615615610920941 312.83916842288818 0 0 0 0 -22.621981932273684 52.646200182942266 0 52.646200182942266 233.32928530102072 0 0 0 0 -361.2677664196035 -101.50820998309064 0 -101.50820998309064 407.71572236605425 0 0 0 0 130.57881641511176 228.54081863417014 0 228.54081863417014 970.50214045551547 0 0 0 0 -0.42260849652103827 -0.26232918749174239 0 -0.26232918749174239 8.7052446356799464 0 0 0 0 491.46543972156542 -319.15564424487093 0 -319.15564424487093 209.79495993662204 0 0 0 0 212.32912049634967 -78.691504515984889 0 -78.691504515984889 57.622944853297668 0 0 0 0 181.74228840725141 -176.7389872437343 0 -176.7389872437343 10.59753785279463 0 0 0 0 -10.800763568011462 -225.42881412929273 0 -225.42881412929273 78.654834544213372 0 0 0 0 89.426005695016556 -158.79079309213921 0 -158.79079309213921 119.27874312525091 0 0 0 0 -2.7120259822204389 -128.12803511641687 0 -128.12803511641687 121.8400396038196 0 0 0 0 49.245329906794723 -118.51420406313264 0 -118.51420406313264 123.03861228754977 0 0 0 0 -1.1445835479848718 0.79683963406734293 0 0.79683963406734293 15.810432763076108 0 0 0 0 120.90494434076209 -117.59453780465265 0 -117.59453780465265 82.236260429122922 0 0 0 0 107.75891555387716 -114.5074344743316 0 -114.5074344743316 86.289929049969942 0 0 0 0 -1.3164454089218811 -1.1695017152331602 0 -1.1695017152331602 9.1814466796366219 0 0 0 0 -35.335700113662824 30.916843813858577 0 30.916843813858577 67.336365227045462 0 0 0 0 -11.959496893535597 24.033929819439862 0 24.033929819439862 15.721622748758421 0 0 0 0 -127.57285577613402 78.822981115379662 0 78.822981115379662 73.765974380869011 0 0 0 0 37.59001738024017 53.543079073482659 0 53.543079073482659 -0.43573162255052011 0 0 0 0 -3.9879487814616397 9.2542073298393248 0 9.2542073298393248 4.8682881272493148 0 0 0 0 -207.99808727873824 336.33288980812358 0 336.33288980812358 -216.65530947208754 0 0 0 0 -222.50595544886801 86.440878860128578 0 86.440878860128578 19.467632468993543 0 0 0 0 -304.71753493347205 162.64195914404991 0 162.64195914404991 43.546147993802151 0 0 0 0 -410.71371717659349 269.17221281742241 0 269.17221281742241 293.5581730697013 0 0 0 0 -260.23696906760597 -76.884847118752077 0 -76.884847118752077 481.91864237212576 0 0 0 0 -10.870124593695436 -224.81093933450757 0 -224.81093933450757 285.95088676829619 0 0 0 0 -160.3950032644625 2.4294839729991509 0 2.4294839729991509 210.96438530627347 0 0 0 0 -106.44149412616139 -42.293237449681328 0 -42.293237449681328 154.64582863252144 0 0 0 0 -116.99434302712018 -119.45902783545807 0 -119.45902783545807 197.70679104204464 0 0 0 0 -2.856389007447433 -128.58493918189197 0 -128.58493918189197 169.04345773344539 0 0 0 0 -35.987444001817494 -102.88248838908476 0 -102.88248838908476 150.81662436507759 0 0 0 0 -48.945692224683626 -65.804167487942323 0 -65.804167487942323 168.99237342543347 0 0 0 0 -23.115416691221981 -73.469702534053795 0 -73.469702534053795 164.289031322558 0 0 0 0 -62.97601229281463 -69.708324047038332 0 -69.708324047038332 171.70803470799001 0 0 0 0 -62.220317853494635 20.091232247301377 0 20.091232247301377 123.34208278500591 0 0 0 0 -53.278702629205782 -20.278016695246151 0 -20.278016695246151 95.316057197953342 0 0 0 0 85.108754479288109 27.347276034386596 0 27.347276034386596 146.28361503539782 0 0 0 0 -40.557831339395079 -19.40640468855554 0 -19.40640468855554 242.63051198409812 0 0 0 0 -45.445527858104583 -52.697865676518632 0 -52.697865676518632 153.95167715995922 0 0 0 0 20.369470761457706 -68.692039886642306 0 -68.692039886642306 121.24520315825066 0 0 0 0 3.4695603541285891 -87.296743500191951 0 -87.296743500191951 115.27899106722907 0 0 0 0 -15.871341400861638 -43.671868833194821 0 -43.671868833194821 104.52943216398126 0 0 0 0 -15.266584830436841 -37.692679358930036 0 -37.692679358930036 161.11250814994855 0 0 0 0 9.6099935497998956 9.8494408357485668 0 9.8494408357485668 4.0418980322671487 0 0 0 0 20.965960054672905 -6.0174349661720044 0 -6.0174349661720044 57.513532174787542 0 0 0 0 21.537059956942358 -35.063305714924354 0 -35.063305714924354 104.17519154162437 0 0 0 0 -5.2950278072215724 -22.633201101411032 0 -22.633201101411032 119.00063821814547 0 0 0 0 -0.086951589095406234 18.207187561194587 0 18.207187561194587 118.94167832892344 0 0 0 0 -20.930890717258592 -39.192483617002836 0 -39.192483617002836 -34.22309618385043 0 0 0 0 51.461466037443643 -23.728318094355927 0 -23.728318094355927 -47.272344216871716 0 0 0 0 41.222497212986127 -52.421951060947322 0 -52.421951060947322 64.94591113365459 0 0 0 0 82.934447082747283 -77.339310573388502 0 -77.339310573388502 77.600765380484518 0 0 0 0 27.876846054191446 110.28434052347438 0 110.28434052347438 213.32782141117787 0 0 0 0 21.695279175602991 -34.713051784776326 0 -34.713051784776326 83.336774860919832 0 0 0 0 0.80008316035674909 6.0062125224560887 0 6.0062125224560887 14.451876206400044 0 0 0 0 11.605956376653921 -577.0507267487119 0 -577.0507267487119 456.24799194812658 0 0 0 0 116.4650523328819 -138.02312332708971 0 -138.02312332708971 81.872745620450587 0 0 0 0 -7.5547058244355867 38.19676089326822 0 38.19676089326822 389.7276736034546 0 0 0 0 -10.454469316985524 137.76189977245667 0 137.76189977245667 416.8902294311556 0 0 0 0 0.1225850882582924 -0.54479178614953128 0 -0.54479178614953128 7.2529753403831023 0 0 0 0 -77.930490511476819 5.154008759323915 0 5.154008759323915 603.82229715166613 0 0 0 0 430.06807502972879 -392.64792241458053 0 -392.64792241458053 652.27455263576849 0 0 0 0 -50.470250234844571 -70.579219495004509 0 -70.579219495004509 781.99922856120975 0 0 0 0 -49.24928761450974 -210.32047892358969 0 -210.32047892358969 838.73958085864069 0 0 0 0 -7.8370822328106442 -200.99961363921466 0 -200.99961363921466 669.94685367427883 0 0 0 0 13.819874744975095 -88.164016156893922 0 -88.164016156893922 713.26700890754 0 0 0 0 -103.12353882779098 -251.65073300298536 0 -251.65073300298536 591.88425708622526 0 0 0 0 -72.007609511015744 -101.14277489983942 0 -101.14277489983942 735.90875132192741 0 0 0 0 229.05569056631248 114.66819937275432 0 114.66819937275432 825.63633109170041 0 0 0 0 -57.850254818506073 -213.05108795683191 0 -213.05108795683191 573.1621969875996 0 0 0 0 -42.110678784099946 -505.16436470879125 0 -505.16436470879125 789.17369066184619 0 0 0 0 3.8223985336888937 3.001225998834478 0 3.001225998834478 -3.4588704974553934 0 0 0 0 -128.73024019425975 -238.45664304919774 0 -238.45664304919774 1159.8648791713058 0 0 0 0 30.791309849610116 -68.726879664463922 0 -68.726879664463922 693.58073072397383 0 0 0 0 127.37849364252725 -67.371001754352619 0 -67.371001754352619 424.09342903732613 0 0 0 0 140.77525233665347 -113.93257501935295 0 -113.93257501935295 417.13797363874619 0 0 0 0 127.23845403149426 -185.03368015430897 0 -185.03368015430897 633.24815220521123 0 0 0 0 146.04133098684179 -129.42450501470739 0 -129.42450501470739 411.25671118033642 0 0 0 0 160.22301398906143 -134.36634450721067 0 -134.36634450721067 411.72785018615832 0 0 0 0 -9.529516414059799 34.762737349192321 0 34.762737349192321 633.47189715001878 0 0 0 0 -15.421674927087167 -17.535291491590215 0 -17.535291491590215 647.17147011996713 0 0 0 0 -7.5742514856592607 -33.108390770066762 0 -33.108390770066762 751.59719576733551 0 0 0 0 30.468762337804947 124.89653283562802 0 124.89653283562802 699.93898976726268 0 0 0 0 188.00437994745153 -75.200912037616945 0 -75.200912037616945 586.66435585310683 0 0 0 0 138.25433539116602 -49.431370307007455 0 -49.431370307007455 603.19854790277896 0 0 0 0 108.64549196783628 -39.5287711653109 0 -39.5287711653109 415.03314065828454 0 0 0 0 98.177868612856855 -97.229980843161684 0 -97.229980843161684 602.02404070571356 0 0 0 0 104.11787400062394 -94.302916399425158 0 -94.302916399425158 422.09427340951515 0 0 0 0 77.166440404238301 -88.79526887182692 0 -88.79526887182692 304.47060269300709 0 0 0 0 50.374873234229199 5.9402843239804497 0 5.9402843239804497 420.47865504960646 0 0 0 0 45.816296668434916 -70.838267573948542 0 -70.838267573948542 553.42887343952316 0 0 0 0 44.234465904167848 -44.046719531758299 0 -44.046719531758299 287.4063239942916 0 0 0 0 -12.711848428878966 -61.906791930949112 0 -61.906791930949112 323.55806767717877 0 0 0 0 8.0465156092914185 -78.994798018991787 0 -78.994798018991787 130.33627476432594 0 0 0 0 -58.555008877502587 -5.5589679750846699 0 -5.5589679750846699 266.53785746758513 0 0 0 0 -10.37657066067095 90.226667705152067 0 90.226667705152067 140.9107287165898 0 0 0 0 -10.48737804783832 137.21500572142395 0 137.21500572142395 516.63692493867711 0 0 0 0 -295.27133400228877 -333.64198608682636 0 -333.64198608682636 63.049917698524951 0 0 0 0 -60.307041791714369 -43.279871066611122 0 -43.279871066611122 -302.07166456893901 0 0 0 0 454.98625981546911 -466.94578417356752 0 -466.94578417356752 653.52949034853373 0 0 0 0 1.459260652168588 4.2998980520630425 0 4.2998980520630425 10.938073884343481 0 0 0 0 108.46031731555559 -215.45257633412257 0 -215.45257633412257 974.17313290314632 0 0 0 0 18.528159400317236 -0.92539708554249955 0 -0.92539708554249955 67.000555668804736 0 0 0 0 -251.36855797032104 444.37773116573953 0 444.37773116573953 40.259632314810005 0 0 0 0 279.32387712938612 -906.97960271342708 0 -906.97960271342708 1241.0024008625187 0 0 0 0 22.496218765750093 12.189943720059006 0 12.189943720059006 16.020980754882974 0 0 0 0 104.04410932466999 -228.35977520701999 0 -228.35977520701999 1001.4592816383301 0 0 0 0 -1833.5654487842421 -609.76896523516916 0 -609.76896523516916 2285.4685677995731 0 0 0 0 74.062024169132201 -204.99354822104215 0 -204.99354822104215 988.42552540914039 0 0 0 0 -269.69208652736006 102.84304312500899 0 102.84304312500899 1117.1276233438402 0 0 0 0 1057.3273267832592 -58.380480078689288 0 -58.380480078689288 1022.7593880038694 0 0 0 0 21.491197147994285 7.5133389326936282 0 7.5133389326936282 0.3969238281897205 0 0 0 0 -242.23297227884996 360.55190085106733 0 360.55190085106733 669.61683100330265 0 0 0 0 53.226695446968733 -45.291404684841837 0 -45.291404684841837 189.61332682079228 0 0 0 0 69.763269892999233 7.855006838333793 0 7.855006838333793 64.294755484352208 0 0 0 0 40.53279874673899 17.093241010254133 0 17.093241010254133 113.31670205262708 0 0 0 0 1.5455193285597488 11.783024154414306 0 11.783024154414306 112.65216186107136 0 0 0 0 16.364834751864691 -25.37212944800558 0 -25.37212944800558 85.601234655216103 0 0 0 0 -5.2536605593086279 -7.0226537881389959 0 -7.0226537881389959 160.37109777444857 0 0 0 0 3.6736591973385657 -27.10289451785502 0 -27.10289451785502 99.662975163722876 0 0 0 0 8.5592770472430857 -13.143166517576901 0 -13.143166517576901 116.53306271182373 0 0 0 0 16.233917388482951 -13.138301661761943 0 -13.138301661761943 86.798417081014122 0 0 0 0 2.9822105386192561 -6.1820973873400362 0 -6.1820973873400362 117.12418403202901 0 0 0 0 -1.1653819804378145 6.9175796266936231 0 6.9175796266936231 117.78299921291409 0 0 0 0 23.181261295419972 -22.661184464668622 0 -22.661184464668622 119.03695424436228 0 0 0 0 14.752155286984816 13.630191523758185 0 13.630191523758185 154.85421007448167 0 0 0 0 -8.9938582223112462 37.692672126511752 0 37.692672126511752 195.41564065921557 0 0 0 0 -4.6078878470143536 20.078380428933087 0 20.078380428933087 298.42052801429236 0 0 0 0 2.5107635870168394 -0.67396228148224679 0 -0.67396228148224679 -1.617827880306578 0 0 0 0 57.267143644739463 138.86995179549194 0 138.86995179549194 280.55792067479342 0 0 0 0 -12.138488354328729 20.323070231035672 0 20.323070231035672 111.86136398767121 0 0 0 0 -10.291116263540971 27.820442902986542 0 27.820442902986542 122.84936993749579 0 0 0 0 -12.668507223439519 21.223520583313075 0 21.223520583313075 137.88560090535611 0 0 0 0 -13.351049559085368 13.937319675984327 0 13.937319675984327 107.2562276564131 0 0 0 0 -1.2810015464365279 7.9320710409065214 0 7.9320710409065214 108.95524654255132 0 0 0 0 -10.018132948578568 3.0213673835169175 0 3.0213673835169175 127.60605826702522 0 0 0 0 -2.0251047389247105 16.564131555125641 0 16.564131555125641 88.22056255757343 0 0 0 0 2.3117500325879519 -2.7623957134746888 0 -2.7623957134746888 102.58873822755413 0 0 0 0 -13.022554705135917 9.2583722351628239 0 9.2583722351628239 118.03434148949964 0 0 0 0 8.1336341696496675 105.18947249993016 0 105.18947249993016 98.622878738715372 0 0 0 0 -32.30090428584748 -0.96621639656112279 0 -0.96621639656112279 76.374845563970354 0 0 0 0 254.86482230656839 -84.009264055799576 0 -84.009264055799576 267.12107076768916 0 0 0 0 25.773314161059716 -13.911992608391301 0 -13.911992608391301 394.57174339609628 0 0 0 0 74.171751738557745 51.163370556644423 0 51.163370556644423 10.905489106135345 0 0 0 0 60.740116297703935 162.79642246106232 0 162.79642246106232 40.372563803415687 0 0 0 0 17.44911684293038 -193.92562893919239 0 -193.92562893919239 521.08949228914571 0 0 0 0 111.13315567539394 -204.58451479328505 0 -204.58451479328505 341.46238812673255 0 0 0 0 148.71697240261256 -233.69281369828241 0 -233.69281369828241 981.99442718928913 0 0 0 0 8.8567880574593829 11.035847679675584 0 11.035847679675584 13.082829608982593 0 0 0 0 -157.86929870040331 15.860232142746099 0 15.860232142746099 974.20885636215098 0 0 0 0 214.13952412127401 -150.44696071553335 0 -150.44696071553335 627.89670265496534 0 0 0 0 98.090005378455317 -301.02118287465419 0 -301.02118287465419 654.02243360428838 0 0 0 0 107.0318426998947 -226.61916940502124 0 -226.61916940502124 982.5427006403097 0 0 0 0 -121.30957829241834 96.102809320793313 0 96.102809320793313 225.83316541352542 0 0 0 0 94.899920392152126 -293.35213437596394 0 -293.35213437596394 578.68487271574122 0 0 0 0 325.52416434848055 -161.51694269026484 0 -161.51694269026484 95.850443039598758 0 0 0 0 91.262500500632541 -242.65579888918364 0 -242.65579888918364 349.6239747624204 0 0 0 0 57.461844408168872 -330.13783547752973 0 -330.13783547752973 490.351571201958 0 0 0 0 -65.999229168521651 -224.92169223720703 0 -224.92169223720703 423.50741054202081 0 0 0 0 -35.681268823951541 -106.71570008104391 0 -106.71570008104391 308.34170920890756 0 0 0 0 306.90269131710374 -405.24606666772161 0 -405.24606666772161 433.39270558935823 0 0 0 0 165.55687485797444 -271.97646976316537 0 -271.97646976316537 366.97643299600168 0 0 0 0 77.24445801321599 -345.15226838128001 0 -345.15226838128001 487.54591486859135 0 0 0 0 34.571177388766955 -312.55197344408953 0 -312.55197344408953 539.96754772375243 0 0 0 0 -0.58752161126540159 -185.914403437484 0 -185.914403437484 405.48404302206472 0 0 0 0 0.58047392748085258 -314.48611667471596 0 -314.48611667471596 537.72266905161086 0 0 0 0 22.088145089392128 -237.00205523431941 0 -237.00205523431941 370.95968621164502 0 0 0 0 465.08759454196752 -43.886304334580927 0 -43.886304334580927 100.47524783989502 0 0 0 0 6.427332574612489 -2.6153479167902276 0 -2.6153479167902276 -1.4740411078338838 0 0 0 0 50.579860529354846 48.837467850578832 0 48.837467850578832 153.22942425787187 0 0 0 0 211.75447516948043 -27.38436357252067 0 -27.38436357252067 -106.47518025276349 0 0 0 0 47.765248826864649 46.255191701748387 0 46.255191701748387 16.615660907804198 0 0 0 0 -35.352997412088371 44.113503605480219 0 44.113503605480219 257.35915705603838 0 0 0 0 22.721724745817291 57.333708769139641 0 57.333708769139641 82.157405203848199 0 0 0 0 53.573652048046995 62.952076399961925 0 62.952076399961925 102.88002516725101 0 0 0 0 17.782882556318761 1.6493880016633966 0 1.6493880016633966 29.343784584221964 0 0 0 0 56.026799861379004 11.73703594383187 0 11.73703594383187 167.37776348219995 0 0 0 0 47.076294235375826 44.938851302285912 0 44.938851302285912 166.41341783895041 0 0 0 0 -0.75846415357113983 4.7867742765886518 0 4.7867742765886518 3.7531571855006209 0 0 0 0 -10.065426254185695 -14.943396816608583 0 -14.943396816608583 43.114564109564526 0 0 0 0 4.0054855767812114 -74.087339245441399 0 -74.087339245441399 -122.15305368951522 0 0 0 0 73.570255214261124 -43.504499628324993 0 -43.504499628324993 -423.97837263351539 0 0 0 0 79.642659450444626 4.4389960347616579 0 4.4389960347616579 -138.55005110302591 0 0 0 0 61.864133481954923 5.6362492568950984 0 5.6362492568950984 -77.973570219968678 0 0 0 0 42.200343756821894 -0.85392242681518837 0 -0.85392242681518837 -40.738440253975568 0 0 0 0 43.720459215212031 -38.914179718900414 0 -38.914179718900414 -55.287066358869197 0 0 0 0 51.171798352035694 -1.3191091243788833 0 -1.3191091243788833 -49.848845471922687 0 0 0 0 1.4858814680555952 -75.606843214762193 0 -75.606843214762193 -60.668993609899189 0 0 0 0 21.208431655963068 -31.735775289220328 0 -31.735775289220328 17.971233055708581 0 0 0 0 41.101513759424051 -40.838338209030553 0 -40.838338209030553 -1.5108851515396964 0 0 0 0 44.011684863660776 10.984293503053777 0 10.984293503053777 -70.654648454044946 0 0 0 0 51.293832159339217 16.853762375205406 0 16.853762375205406 -80.63929265972547 0 0 0 0 40.437980143069154 38.584257378932058 0 38.584257378932058 50.073331367420138 0 0 0 0 39.886869803012814 55.656664586625993 0 55.656664586625993 0.56962296906749543 0 0 0 0 23.748648964815352 -21.011647380792716 0 -21.011647380792716 48.416661758760682 0 0 0 0 55.106481246066323 -23.099152271412095 0 -23.099152271412095 -7.5050287054327782 0 0 0 0 29.707445148747865 19.81847821779138 0 19.81847821779138 167.541795170142 0 0 0 0 66.899836997897637 -31.988051873570839 0 -31.988051873570839 -7.175756491968059 0 0 0 0 39.73587264935486 7.1169434101684601 0 7.1169434101684601 53.0889215413481 0 0 0 0 62.462491057936859 -13.485926789784571 0 -13.485926789784571 17.028386003396008 0 0 0 0 53.497941060952144 -31.442230202541396 0 -31.442230202541396 109.91249594093097 0 0 0 0 56.19897537255747 19.1738223187931 0 19.1738223187931 113.63290635874728 0 0 0 0 54.504889434560027 -14.341731443142635 0 -14.341731443142635 72.18919850790553 0 0 0 0 27.699263526759751 -23.949915426273947 0 -23.949915426273947 76.865422689064872 0 0 0 0 33.226473143993644 -28.60278402500262 0 -28.60278402500262 15.542924957590003 0 0 0 0 62.264872634288622 46.28313568264457 0 46.28313568264457 129.370168808382 0 0 0 0 30.793082853082524 47.536197618965161 0 47.536197618965161 126.00541862171667 0 0 0 0 8.1624967774296238 -9.5676228509837529 0 -9.5676228509837529 80.198648348741699 0 0 0 0 117.50749902932148 86.356696879975061 0 86.356696879975061 117.86453177005751 0 0 0 0 138.08222291095444 82.568048940494918 0 82.568048940494918 131.81080438329082 0 0 0 0 77.433990820070903 45.740465717510233 0 45.740465717510233 112.17331969460065 0 0 0 0 142.82474217216804 84.819648998654884 0 84.819648998654884 116.94531912256934 0 0 0 0 305.49728053120634 114.61851160076549 0 114.61851160076549 121.98457998172307 0 0 0 0 228.6139901856659 -1.7975112461808749 0 -1.7975112461808749 143.51137029264646 0 0 0 0 104.46988910658547 3.1078707499445954 0 3.1078707499445954 114.10480093340448 0 0 0 0 128.00836348682788 34.547167452416033 0 34.547167452416033 137.84591284979251 0 0 0 0 41.176485244282958 -26.314338856951508 0 -26.314338856951508 122.20735868238989 0 0 0 0 66.57085993464716 -10.681268441352586 0 -10.681268441352586 116.23280744559997 0 0 0 0 85.816729443755321 -26.68106982896461 0 -26.68106982896461 111.91925796464784 0 0 0 0 122.02035907407844 45.055786580625863 0 45.055786580625863 144.03285356023298 0 0 0 0 99.237880165233946 -6.1487226133576769 0 -6.1487226133576769 35.44062197052699 0 0 0 0 11.710221129773345 80.327719570905629 0 80.327719570905629 270.73729441851901 0 0 0 0 40.667889048945653 233.06263846433285 0 233.06263846433285 154.79089444021156 0 0 0 0 160.41403223190719 155.02722595285013 0 155.02722595285013 158.89986862978367 0 0 0 0 8.3209712707952548 0.62084683871455582 0 0.62084683871455582 -8.392330378842658 0 0 0 0 70.166686091775773 82.61769569003809 0 82.61769569003809 134.95718801992916 0 0 0 0 101.41838687342897 105.18884200327557 0 105.18884200327557 137.3074271534424 0 0 0 0 170.83568741939962 153.5055969296518 0 153.5055969296518 156.30826741053897 0 0 0 0 166.52261447587807 171.00447675102259 0 171.00447675102259 188.47062894365081 0 0 0 0 46.637577579065692 119.99121104000733 0 119.99121104000733 213.59491134735435 0 0 0 0 199.87367148537305 151.72735361545347 0 151.72735361545347 148.13965500683662 0 0 0 0 63.689107013306057 9.5535268154089863 0 9.5535268154089863 156.34235397754856 0 0 0 0 211.2383923614907 37.896655285938323 0 37.896655285938323 139.2949405080908 0 0 0 0 -34.448212244504475 -13.267739352991413 0 -13.267739352991413 85.061418638365197 0 0 0 0 0.287272833273164 37.068987149689747 0 37.068987149689747 140.3923497564756 0 0 0 0 0.71836716035426917 32.486052045527188 0 32.486052045527188 29.740733063165173 0 0 0 0 -21.406289450658733 10.884589098248398 0 10.884589098248398 86.938466450852502 0 0 0 0 -19.847069362247453 -2.9718305693501179 0 -2.9718305693501179 56.333376194638973 0 0 0 0 -11.449011124945173 35.964356973554459 0 35.964356973554459 75.775902273635438 0 0 0 0 249.90932971241273 48.108470032448167 0 48.108470032448167 99.459454342787467 0 0 0 0 162.052023228498 244.14688031356854 0 244.14688031356854 322.48262897798122 0 0 0 0 -2.7226104583105695 6.9674573246383602 0 6.9674573246383602 28.054508017850331 0 0 0 0 132.8708156783614 149.29156151333154 0 149.29156151333154 267.73088065472984 0 0 0 0 141.24217984356073 5.9467540919795283 0 5.9467540919795283 222.94038292771438 0 0 0 0 48.198810114532534 117.65850064099141 0 117.65850064099141 117.05266926271543 0 0 0 0 108.3270892771834 83.44165621749562 0 83.44165621749562 129.78903020277357 0 0 0 0 104.48592359725444 121.99281949386022 0 121.99281949386022 143.82377493887907 0 0 0 0 169.97473397993963 177.46376534783849 0 177.46376534783849 159.46344966327433 0 0 0 0 237.08225775523533 200.45978617733635 0 200.45978617733635 178.31385555262023 0 0 0 0 176.79908937522578 152.98759090715066 0 152.98759090715066 156.10740933733177 0 0 0 0 -11.259585896485945 -20.655951144797896 0 -20.655951144797896 65.117828745239223 0 0 0 0 16.768659411758563 11.643234426308481 0 11.643234426308481 70.896850632263522 0 0 0 0 193.8323342218755 198.07794092660151 0 198.07794092660151 174.9361903412937 0 0 0 0 146.59627246798118 129.92781687653041 0 129.92781687653041 176.82787281728088 0 0 0 0 199.13891461251342 172.28274751643198 0 172.28274751643198 144.36075976688153 0 0 0 0 -4.7740912055392357 -31.423774437826182 0 -31.423774437826182 87.741260772380571 0 0 0 0 23.849297952478082 -31.043468299325468 0 -31.043468299325468 47.172571452247212 0 0 0 0 -25.164476294676206 24.701963990180957 0 24.701963990180957 12.723418592346206 0 0 0 0 -39.557674900346683 -39.282789391032566 0 -39.282789391032566 13.467061238094175 0 0 0 0 10.326798607107548 -12.877902186541633 0 -12.877902186541633 52.129070238137501 0 0 0 0 73.150070487226913 -43.31709259913805 0 -43.31709259913805 15.655009609792614 0 0 0 0 45.75655170806931 136.28152620203764 0 136.28152620203764 64.631921991422132 0 0 0 0 -26.481795503064859 -6.1006383196236129 0 -6.1006383196236129 -5.1550126760084822 0 0 0 0 -0.97927782083115744 2.1333146110405075 0 2.1333146110405075 1.7257405293364485 0 0 0 0 -51.693883377951352 -18.897440764874773 0 -18.897440764874773 -10.929386323530707 0 0 0 0 -1.7082555097662251 -5.0304502329886134 0 -5.0304502329886134 14.471300128919495 0 0 0 0 -9.5487711065543408 -76.866391612318694 0 -76.866391612318694 51.929871018321137 0 0 0 0 -13.930771502984499 82.872902388406146 0 82.872902388406146 196.4097827369842 0 0 0 0 19.970722876159016 29.972522974912863 0 29.972522974912863 157.81113087106496 0 0 0 0 39.730923577673821 69.917650625760871 0 69.917650625760871 188.28072015689031 0 0 0 0 33.11158631283979 127.88122564142759 0 127.88122564142759 235.55575376895285 0 0 0 0 92.372284199293063 68.720724112743483 0 68.720724112743483 148.56674583569111 0 0 0 0 109.45646579590539 139.01730418331499 0 139.01730418331499 232.38993562187261 0 0 0 0 84.161588485813809 94.31250065815766 0 94.31250065815766 254.31314183397626 0 0 0 0 377.32253945225239 213.91651455995816 0 213.91651455995816 213.58760042838151 0 0 0 0 184.37359475027552 14.441637615095715 0 14.441637615095715 434.68358210643783 0 0 0 0 160.31170117122019 160.19331460118337 0 160.19331460118337 216.30536193135219 0 0 0 0 88.073250862642453 65.296689305085238 0 65.296689305085238 261.16564147237659 0 0 0 0 164.48333458384514 195.51608151390974 0 195.51608151390974 245.8166607224066 0 0 0 0 80.604493900853413 113.68739431092581 0 113.68739431092581 272.49969489022351 0 0 0 0 156.30257209545675 122.83856838747238 0 122.83856838747238 139.15228534585913 0 0 0 0 102.17378882110643 95.29268588492414 0 95.29268588492414 142.63638784556861 0 0 0 0 30.988531056540523 34.326396314267186 0 34.326396314267186 116.95485705185638 0 0 0 0 219.95515880527455 59.886438977084254 0 59.886438977084254 83.306987068230228 0 0 0 0 93.843594227835638 122.18857632842537 0 122.18857632842537 69.542240913346177 0 0 0 0 117.15300641564318 56.250691766861564 0 56.250691766861564 -7.2044136687072751 0 0 0 0 147.60550768981557 150.70063530168045 0 150.70063530168045 106.63177613634616 0 0 0 0 77.083628298445547 79.52028630600762 0 79.52028630600762 103.39456772630751 0 0 0 0 112.95303954796509 116.05683278006472 0 116.05683278006472 94.738822950770555 0 0 0 0 29.030423088108364 62.179908135953156 0 62.179908135953156 43.318751213264477 0 0 0 0 26.181644003409019 -12.361978356657346 0 -12.361978356657346 47.1443717393322 0 0 0 0 27.81238239999675 36.192485773201497 0 36.192485773201497 113.61407424495701 0 0 0 0 -0.7094022567652658 -6.5728719009134551 0 -6.5728719009134551 17.12631909442608 0 0 0 0 -0.92384339423369966 -4.0801708186609176 0 -4.0801708186609176 24.255317097380612 0 0 0 0 0.016804308274004143 -7.1848236753157835 0 -7.1848236753157835 25.050740340331686 0 0 0 0 -16.847560638219875 -6.5661993353205617 0 -6.5661993353205617 32.239118405748741 0 0 0 0 -10.644472410906019 -15.682225423654018 0 -15.682225423654018 17.638982752265292 0 0 0 0 -14.14222991846691 -4.6047042708378285 0 -4.6047042708378285 27.630944444033958 0 0 0 0 -35.417338239960372 -11.985418824613589 0 -11.985418824613589 25.160143126580806 0 0 0 0 -14.756970716243814 -17.907039317662566 0 -17.907039317662566 16.541660010014311 0 0 0 0 -0.46204958655491168 -6.5360600010390115 0 -6.5360600010390115 16.04659227446534 0 0 0 0 -26.8649765385926 -4.3406565280602081 0 -4.3406565280602081 10.433515589837043 0 0 0 0 -29.644652940423839 -12.949066194698389 0 -12.949066194698389 17.859024461232366 0 0 0 0 -10.747666158272295 -38.795882328352491 0 -38.795882328352491 -24.979244888265384 0 0 0 0 -2.6437890219197904 -0.76161908374043463 0 -0.76161908374043463 2.0326907800169778 0 0 0 0 -40.0639763576728 -12.519004647756447 0 -12.519004647756447 8.6629877835875959 0 0 0 0 -11.298952194471084 0.32902812116159197 0 0.32902812116159197 26.053538265193524 0 0 0 0 -31.473949298373554 -5.2085514321006485 0 -5.2085514321006485 12.339951894100523 0 0 0 0 -9.3762632852935894 20.829278119744004 0 20.829278119744004 27.908357286214596 0 0 0 0 -8.3078230860522275 4.0752874147011511 0 4.0752874147011511 29.038479379354357 0 0 0 0 -22.30500361389204 4.1179442613283754 0 4.1179442613283754 35.936690635448031 0 0 0 0 -39.480511709909479 -20.808687469245342 0 -20.808687469245342 6.0229190376558108 0 0 0 0 -1.7692687637211257 3.0931836863278122 0 3.0931836863278122 6.1792918354526591 0 0 0 0 -4.185351581444074 2.1659365181299037 0 2.1659365181299037 7.20516056219234 0 0 0 0 -5.9588336999178537 -1.1426439088162965 0 -1.1426439088162965 17.313885386566056 0 0 0 0 -9.8740594521023013 -8.6540830188932887 0 -8.6540830188932887 32.31029197429234 0 0 0 0 -15.00546618502085 -5.0133543429128622 0 -5.0133543429128622 31.50883969059214 0 0 0 0 -22.138567332594903 -1.0985474842112808 0 -1.0985474842112808 31.706184289723751 0 0 0 0 -5.0984601481541176 2.6532380874850787 0 2.6532380874850787 22.664648814956308 0 0 0 0 -8.5936369148076821 -0.30095815274280113 0 -0.30095815274280113 20.581043987049462 0 0 0 0 -13.236925134318881 -3.0298526912883972 0 -3.0298526912883972 29.781513233469013 0 0 0 0 2.663776836488978 -3.3891533428250114 0 -3.3891533428250114 1.2851262701151427 0 0 0 0 -4.7169223688155597 -5.2047167239175209 0 -5.2047167239175209 17.054277588768077 0 0 0 0 3.3027836865585414 -24.737712879876199 0 -24.737712879876199 32.799835759607959 0 0 0 0 0.29672731614571468 -0.90667370505114064 0 -0.90667370505114064 -0.46958116381455284 0 0 0 0 -6.6199866623719572 -15.541514954237755 0 -15.541514954237755 44.914910917992529 0 0 0 0 1.2287445499496243 -31.02349997167039 0 -31.02349997167039 81.400441874666285 0 0 0 0 1.3257564692539745 -43.562906038219808 0 -43.562906038219808 67.402668059527059 0 0 0 0 -17.109011852211552 -36.234087789844125 0 -36.234087789844125 37.447167325008195 0 0 0 0 -19.761747489155823 -26.291140450604871 0 -26.291140450604871 68.403362301934976 0 0 0 0 3.0091932326104143 -25.118983170723368 0 -25.118983170723368 32.470159867709299 0 0 0 0 -3.5142570527900716 1.7406177570605905 0 1.7406177570605905 16.549821868071376 0 0 0 0 -2.1858507101005671 -1.5546893358514353 0 -1.5546893358514353 31.259942585464159 0 0 0 0 25.256609427691728 4.4782133841708855 0 4.4782133841708855 8.3441739461559337 0 0 0 0 -4.0609339776546491 1.9985772451464534 0 1.9985772451464534 7.4790968880039124 0 0 0 0 40.016313981996177 1.1108312307752612 0 1.1108312307752612 11.746993030588783 0 0 0 0 -2.5090549758146921 1.461552084277983 0 1.461552084277983 4.9046581705012784 0 0 0 0 1.7773895307291241 23.084640910172311 0 23.084640910172311 95.833989643870154 0 0 0 0 0.67200381503027984 -1.9093985020813449 0 -1.9093985020813449 2.6901822483360149 0 0 0 0 -0.36283390767493984 12.364696773820469 0 12.364696773820469 46.054998546962452 0 0 0 0 -1.7316545924011137 4.3073434307116685 0 4.3073434307116685 5.9757551772263895 0 0 0 0 -4.1260302064855381 4.8484371447978489 0 4.8484371447978489 12.595491783714131 0 0 0 0 -0.11815642356132372 -20.296863120531548 0 -20.296863120531548 22.19027569406289 0 0 0 0 -0.14960147148485703 -28.464236393784631 0 -28.464236393784631 70.696756351204385 0 0 0 0 -6.1867646016580693 -11.407020798120357 0 -11.407020798120357 58.151345956512159 0 0 0 0 1.7546792512221145 -35.170216009504657 0 -35.170216009504657 70.0410894203319 0 0 0 0 -5.7482470960903811 -14.535422146731435 0 -14.535422146731435 76.210129921179032 0 0 0 0 13.596563017574226 -36.077019280377499 0 -36.077019280377499 22.05016358049761 0 0 0 0 17.143114464703103 -59.295412474748446 0 -59.295412474748446 97.88907243809598 0 0 0 0 10.745815651979584 -25.473401210324994 0 -25.473401210324994 21.952653779323221 0 0 0 0 -6.0889672735247586 7.17758824273551 0 7.17758824273551 145.16293708838748 0 0 0 0 27.360802883282304 8.0563648685229055 0 8.0563648685229055 137.22895756356593 0 0 0 0 -57.444327649367551 -12.265083789961864 0 -12.265083789961864 153.8032941453348 0 0 0 0 -2.6156999606441786 -1.7692714388663262 0 -1.7692714388663262 140.572227752873 0 0 0 0 -10.864652399272927 26.49181130249508 0 26.49181130249508 162.3206992412488 0 0 0 0 64.520052145173395 -90.824190937388266 0 -90.824190937388266 94.620358877953549 0 0 0 0 47.433599915733794 -54.404567694553407 0 -54.404567694553407 59.322077104305208 0 0 0 0 137.6264613144217 -61.002141321306226 0 -61.002141321306226 -21.898358827653283 0 0 0 0 160.41175753981952 -188.20115995587184 0 -188.20115995587184 161.0738211598582 0 0 0 0 54.728902684716672 33.22645108801936 0 33.22645108801936 -1.5111778355858405 0 0 0 0 53.34803516298166 -50.932775511141472 0 -50.932775511141472 60.57430786974146 0 0 0 0 8.2730908074590843 -43.158991109867202 0 -43.158991109867202 85.613900314856437 0 0 0 0 50.365546702727443 -30.473940872529056 0 -30.473940872529056 20.810183552868693 0 0 0 0 15.963902446717839 -43.85402057041938 0 -43.85402057041938 65.368843599172124 0 0 0 0 -10.504570611277813 -56.67754344109926 0 -56.67754344109926 137.04753907614941 0 0 0 0 -23.019155737245455 -55.057065914941631 0 -55.057065914941631 137.3707031308013 0 0 0 0 -15.410521070043615 -80.813879413690302 0 -80.813879413690302 224.56160556743635 0 0 0 0 -46.82262021616225 -39.309647919902091 0 -39.309647919902091 222.64322220054601 0 0 0 0 -75.886503925761644 -4.0175878910595202 0 -4.0175878910595202 198.46261812027842 0 0 0 0 -67.10291831158338 -40.651073914593326 0 -40.651073914593326 350.12383143183979 0 0 0 0 -76.533963570920605 63.256516335868582 0 63.256516335868582 252.41620366593997 0 0 0 0 0.69546165603969712 -110.74623257174972 0 -110.74623257174972 351.19998892554213 0 0 0 0 -80.909907714604287 42.900133580542615 0 42.900133580542615 533.38030034741678 0 0 0 0 -15.491657430412488 -125.69287709483706 0 -125.69287709483706 373.54723682965414 0 0 0 0 -22.529009997502726 -93.174285389075521 0 -93.174285389075521 233.96113961129777 0 0 0 0 -3.7573303204271724 -99.351047561950054 0 -99.351047561950054 760.14209035747626 0 0 0 0 129.78521474370064 48.624014885870565 0 48.624014885870565 480.04562570316921 0 0 0 0 156.40419926679078 269.634112765179 0 269.634112765179 1356.1060465417977 0 0 0 0 204.1705337970343 -273.21236012733061 0 -273.21236012733061 452.11460507732772 0 0 0 0 0.15055757892027444 -0.44202304698477946 0 -0.44202304698477946 5.714828481254429 0 0 0 0 64.864974212738161 420.84881003882037 0 420.84881003882037 838.63029697815364 0 0 0 0 169.05646599606553 253.49440988658898 0 253.49440988658898 1106.4449653472839 0 0 0 0 -38.948016306811041 185.23130366682562 0 185.23130366682562 869.59541929098486 0 0 0 0 4.0613004219412687 254.7071646086406 0 254.7071646086406 842.6489112163581 0 0 0 0 134.52510761284066 156.70039139963774 0 156.70039139963774 869.06677656876855 0 0 0 0 9.0433431243036466 224.89828603947899 0 224.89828603947899 879.51433435874742 0 0 0 0 235.26220644318164 -235.11487427565044 0 -235.11487427565044 176.50922981402255 0 0 0 0 432.48602760710128 352.37218835255408 0 352.37218835255408 262.91577075961686 0 0 0 0 -6.674631469666565 -10.336283370579395 0 -10.336283370579395 -78.200123763941519 0 0 0 0 -116.35566998429567 -16.643914427379059 0 -16.643914427379059 54.338057071348885 0 0 0 0 -1.7306026998905821 -0.67065479246465287 0 -0.67065479246465287 15.728214819663748 0 0 0 0 -1.1500145290527399 1.5864445931183297 0 1.5864445931183297 2.7066574911438721 0 0 0 0 -114.05668335772316 -19.041347491183842 0 -19.041347491183842 14.010044005903183 0 0 0 0 -42.579651526379166 -4.7205060456362844 0 -4.7205060456362844 34.490410385435098 0 0 0 0 208.9151712118437 124.79111565183666 0 124.79111565183666 -29.949757143233001 0 0 0 0 13.832268918369664 201.92051706901293 0 201.92051706901293 11.786550836462993 0 0 0 0 370.80878888302686 15.916200196583304 0 15.916200196583304 -24.987649374317698 0 0 0 0 179.93693543315931 29.144677309062899 0 29.144677309062899 85.855712897107878 0 0 0 0 -343.24571000947253 -236.41512823458152 0 -236.41512823458152 286.82215371175698 0 0 0 0 -1.6503129295189218 -0.24775305375094092 0 -0.24775305375094092 5.3193197541501505 0 0 0 0 -8.0938112501607975 247.39924009657989 0 247.39924009657989 861.83286860809312 0 0 0 0 -5.8517971259286696 224.74419408398808 0 224.74419408398808 833.41234056073154 0 0 0 0 -21.588926382451973 169.92148837131572 0 169.92148837131572 795.34159803191869 0 0 0 0 -70.053746880128529 280.76510558169775 0 280.76510558169775 831.02216851647995 0 0 0 0 -56.595227181911469 308.73047346690873 0 308.73047346690873 740.03244085926963 0 0 0 0 343.60521322522629 -111.09241866169253 0 -111.09241866169253 105.51984771995012 0 0 0 0 275.87709032393866 419.01097863375799 0 419.01097863375799 529.58635599634727 0 0 0 0 -99.84054496158933 -129.6081158974448 0 -129.6081158974448 120.49115295497586 0 0 0 0 -181.68778511504206 150.26309525150464 0 150.26309525150464 92.408073005823098 0 0 0 0 -2.5863456738332751 -0.65955702272601258 0 -0.65955702272601258 8.5577926116065015 0 0 0 0 -197.39472181697374 -27.930651686235421 0 -27.930651686235421 47.718100933314417 0 0 0 0 13.294833802949142 12.859627030135016 0 12.859627030135016 51.705671733379859 0 0 0 0 -47.102527057482803 38.017315617986242 0 38.017315617986242 -33.723645530160866 0 0 0 0 0.52857268802806345 -1.5467048291955585 0 -1.5467048291955585 1.8416198157677997 0 0 0 0 19.559684793792258 36.966450990854355 0 36.966450990854355 17.941705971334159 0 0 0 0 -34.118383772500238 105.00136784095503 0 105.00136784095503 38.056085169184371 0 0 0 0 32.963437290697129 118.95920114466117 0 118.95920114466117 25.593729115425958 0 0 0 0 -66.443496874460834 23.769923345073039 0 23.769923345073039 29.350853494310286 0 0 0 0 163.32359766602349 166.09519321315292 0 166.09519321315292 58.361719107635508 0 0 0 0 -8.3769966592808487 -3.6729931665304321 0 -3.6729931665304321 13.744165710577363 0 0 0 0 -3.9833082397537041 -0.14869015730678825 0 -0.14869015730678825 1.8848667780997523 0 0 0 0 34.164484511228238 55.867295587173658 0 55.867295587173658 75.375346643986632 0 0 0 0 -11.34631659952538 -3.0137467449276301 0 -3.0137467449276301 13.698734972253078 0 0 0 0 -0.96504874206077318 -2.2714722636712708 0 -2.2714722636712708 8.9273765137719749 0 0 0 0 25.280174880957929 43.995974142127125 0 43.995974142127125 77.299918957643968 0 0 0 0 -12.49475436316061 66.632534023578046 0 66.632534023578046 66.220001593866982 0 0 0 0 127.02379874156395 58.780691660444063 0 58.780691660444063 21.327123607872636 0 0 0 0 -3.0589213525577517 3.8109311122263989 0 3.8109311122263989 15.634526044921941 0 0 0 0 -8.6509205064812704 1.7657243030471363 0 1.7657243030471363 19.520107637194087 0 0 0 0 -37.775164230890368 -12.802473964644378 0 -12.802473964644378 7.0089613959789858 0 0 0 0 -66.409124845449696 -9.6509335816808743 0 -9.6509335816808743 28.459298919609864 0 0 0 0 -0.89724173269082286 0.7975911701814411 0 0.7975911701814411 2.4070399895220973 0 0 0 0 159.99512890172082 148.00089353768544 0 148.00089353768544 9.3096529740505503 0 0 0 0 -1.4932238107567173 1.7775785670887174 0 1.7775785670887174 7.5693492893799359 0 0 0 0 -31.447544033169834 -18.189139263952711 0 -18.189139263952711 2.6519881897693267 0 0 0 0 61.494433610296255 139.08850518671352 0 139.08850518671352 84.041862114118146 0 0 0 0 67.085681770309748 107.49737910719705 0 107.49737910719705 17.964328365662368 0 0 0 0 -9.2113992564472937 -75.383214728499297 0 -75.383214728499297 479.34104933232447 0 0 0 0 -100.17969130794518 108.91977638243043 0 108.91977638243043 -89.976475662931989 0 0 0 0 -1.5165355109186471 -1.3089630160108747 0 -1.3089630160108747 -0.18364511040011244 0 0 0 0 -109.70540123620049 -45.318295236522317 0 -45.318295236522317 409.33340391800994 0 0 0 0 -17.872416919803072 -90.187192572922868 0 -90.187192572922868 322.65001319784824 0 0 0 0 30.80619414809189 -3.384132442981354 0 -3.384132442981354 91.576091461865872 0 0 0 0 49.003796088214585 -91.496831468611163 0 -91.496831468611163 199.70540797614922 0 0 0 0 109.75949270161709 43.130262215883249 0 43.130262215883249 187.91790212786145 0 0 0 0 -145.50773887048672 101.1906705642341 0 101.1906705642341 500.24192419716564 0 0 0 0 -2.9449429026147627 -1.8488656124778373 0 -1.8488656124778373 1.0151700477464249 0 0 0 0 118.1309947793834 -182.81454135655713 0 -182.81454135655713 107.42426591689582 0 0 0 0 -292.8335494313942 -38.9849614016548 0 -38.9849614016548 452.11044545743243 0 0 0 0 -225.61386528067305 -88.122715857012736 0 -88.122715857012736 300.10249251679488 0 0 0 0 -222.50755041450429 -141.38845410480189 0 -141.38845410480189 286.52895797153724 0 0 0 0 -202.01401257490215 -27.727536424463324 0 -27.727536424463324 566.51230114415739 0 0 0 0 -54.483969993961182 89.888050764311629 0 89.888050764311629 207.84281565535366 0 0 0 0 -76.77613197496612 135.99958292381325 0 135.99958292381325 321.8444113629788 0 0 0 0 -4.1377273631942444 -1.058164523855794 0 -1.058164523855794 11.379621603738997 0 0 0 0 -8.982714055757242 0.36440408965336246 0 0.36440408965336246 11.047969729249417 0 0 0 0 -8.5668317125946487 4.6371847141003855 0 4.6371847141003855 9.7691855077907803 0 0 0 0 -18.349271521417904 4.3126293211371376 0 4.3126293211371376 9.4714805478574817 0 0 0 0 -4.0359156212785052 -0.28691242476072887 0 -0.28691242476072887 0.29085743087214411 0 0 0 0 -5.221701587044663 1.3977510982076637 0 1.3977510982076637 8.1562432751561573 0 0 0 0 -15.030091450877194 20.246637430041233 0 20.246637430041233 -26.628443465480814 0 0 0 0 -54.432390652616959 -0.15011327702404742 0 -0.15011327702404742 38.913560472726147 0 0 0 0 -287.16386875754233 76.323761164749158 0 76.323761164749158 100.47732613248445 0 0 0 0 -128.17654612263505 17.061419447667504 0 17.061419447667504 40.342696662438811 0 0 0 0 -99.70728714998404 -31.83614963297623 0 -31.83614963297623 85.170399567119603 0 0 0 0 -87.015817833829374 25.573954991910057 0 25.573954991910057 65.610812575367163 0 0 0 0 -54.485712433908702 13.258898208048322 0 13.258898208048322 66.381064609005989 0 0 0 0 -52.674399861019992 14.743058275392741 0 14.743058275392741 29.415051125753052 0 0 0 0 -65.16926459921163 -3.5904493580574695 0 -3.5904493580574695 46.477700023249781 0 0 0 0 -75.912249478246849 -31.187886383276236 0 -31.187886383276236 25.036387854453096 0 0 0 0 -38.623346481098451 -21.604608329383609 0 -21.604608329383609 62.791234401354814 0 0 0 0 -39.212422453610998 22.114483087266308 0 22.114483087266308 63.991485852980986 0 0 0 0 -46.145078159264813 23.018509571970526 0 23.018509571970526 65.852845442737816 0 0 0 0 -38.966235399539073 20.608060878696961 0 20.608060878696961 50.815852874769007 0 0 0 0 -35.833679655068408 35.611870172566341 0 35.611870172566341 77.899274797621729 0 0 0 0 -50.344553062451268 47.741871596362216 0 47.741871596362216 254.29597124220163 0 0 0 0 -49.711300159136954 27.831355770028495 0 27.831355770028495 108.56673809127454 0 0 0 0 8.7536072584189242 -56.545627221950781 0 -56.545627221950781 60.927467264341431 0 0 0 0 -8.1927475998027148 3.3174125400637422 0 3.3174125400637422 13.806229582563901 0 0 0 0 -1.0126966565217828 -0.097678969813994598 0 -0.097678969813994598 3.95255912765953 0 0 0 0 103.77372798481429 -149.00191101012194 0 -149.00191101012194 -0.45166234669250116 0 0 0 0 64.353462484031297 173.83426507893455 0 173.83426507893455 168.05460557356037 0 0 0 0 33.131829706922872 142.09403413248219 0 142.09403413248219 81.251201777650749 0 0 0 0 -25.20428917188292 5.0648086200599209 0 5.0648086200599209 47.114814828061753 0 0 0 0 -12.632129320531803 -9.7658583917311077 0 -9.7658583917311077 13.369121042543442 0 0 0 0 -27.618700799102953 -30.278967584543352 0 -30.278967584543352 37.769083451175902 0 0 0 0 -13.707772669493124 6.376986693417166 0 6.376986693417166 36.173759769117169 0 0 0 0 -14.074200848323926 6.6451031744154534 0 6.6451031744154534 43.012259764791452 0 0 0 0 -7.209494301640305 11.059819988942849 0 11.059819988942849 19.223899018473958 0 0 0 0 -13.853691439399427 21.560830205185539 0 21.560830205185539 22.311570202451549 0 0 0 0 16.423180364896325 31.176988871242429 0 31.176988871242429 -25.825191772518338 0 0 0 0 -12.703121872231026 -10.020598663122851 0 -10.020598663122851 16.064162331664662 0 0 0 0 31.530724480144272 103.16844134277108 0 103.16844134277108 -16.749120873420907 0 0 0 0 -13.709638357267977 89.367683299999044 0 89.367683299999044 104.34845026649157 0 0 0 0 -20.647748561324988 60.17877887517534 0 60.17877887517534 30.184288980291967 0 0 0 0 -12.996154203934566 41.436810308807253 0 41.436810308807253 57.726938306248485 0 0 0 0 -22.88645265100422 16.737015372635597 0 16.737015372635597 70.877296133234267 0 0 0 0 -10.281377304914713 48.793335070133253 0 48.793335070133253 125.52876435221697 0 0 0 0 -13.190354749487597 31.327641247213251 0 31.327641247213251 53.107256136285287 0 0 0 0 -1.3127358493984502 34.184608358960759 0 34.184608358960759 40.277909079226447 0 0 0 0 -1.0833356189077676 27.125336723857572 0 27.125336723857572 51.757222481651297 0 0 0 0 -14.199211683367167 6.3767190218522263 0 6.3767190218522263 3.327242533708457 0 0 0 0 -10.921168559568741 6.0782501718458661 0 6.0782501718458661 44.805946753630451 0 0 0 0 -4.9044594074856569 1.2569528322854389 0 1.2569528322854389 5.2391636472815257 0 0 0 0 -46.934629788593156 23.705061715305874 0 23.705061715305874 77.284783121573128 0 0 0 0 -45.089121972248904 21.130987074475343 0 21.130987074475343 70.226507760046843 0 0 0 0 -58.440187454201805 12.591869672353369 0 12.591869672353369 68.850256335238555 0 0 0 0 -52.620684996734781 31.081644651767419 0 31.081644651767419 65.930701468686493 0 0 0 0 -25.758411789745878 22.846842656204899 0 22.846842656204899 39.435444215844655 0 0 0 0 -26.826254760682787 16.760060013217299 0 16.760060013217299 115.10418041907906 0 0 0 0 163.737328974501 96.219359904956946 0 96.219359904956946 12.817552358761532 0 0 0 0 -149.57978104669019 -18.348841567569252 0 -18.348841567569252 160.02174363426457 0 0 0 0 -9.3213325004981016 -26.124438242035467 0 -26.124438242035467 50.753458520573986 0 0 0 0 -3.0440777147300748 0.91518911028201089 0 0.91518911028201089 1.7493704234387124 0 0 0 0 38.148828950432289 38.145907055801217 0 38.145907055801217 30.177189668251231 0 0 0 0 -15.200411679823951 -1.4017412344478899 0 -1.4017412344478899 9.3916474993352139 0 0 0 0 -32.526444082097441 -5.9627171901693146 0 -5.9627171901693146 13.746294520547053 0 0 0 0 -5.0893593829565127 -2.754567490066421 0 -2.754567490066421 11.703075853582682 0 0 0 0 -2.241525958164857 -20.435645021281744 0 -20.435645021281744 17.349685099692579 0 0 0 0 6.9725326936404599 41.296925729966006 0 41.296925729966006 94.317322133320886 0 0 0 0 2.1219880603566708 31.963289248681122 0 31.963289248681122 78.48138960270046 0 0 0 0 -0.20685987756269242 4.9262299306863042 0 4.9262299306863042 52.487899528996422 0 0 0 0 -4.4854814574720514 -1.7033886503085398 0 -1.7033886503085398 0.75238698925571157 0 0 0 0 2.8834233532106737 -27.463227889996233 0 -27.463227889996233 -6.9791968566578362 0 0 0 0 -15.587948134180976 -8.1976744425564334 0 -8.1976744425564334 15.312044900185189 0 0 0 0 5.3322223620343721 49.558132458048931 0 49.558132458048931 57.057970243989985 0 0 0 0 -31.030832316910164 15.515727665679151 0 15.515727665679151 95.795952209656207 0 0 0 0 -36.977856725237871 -22.832175056950291 0 -22.832175056950291 84.95798868376005 0 0 0 0 8.0700673135252146 39.56293342850222 0 39.56293342850222 49.930015672283844 0 0 0 0 28.642049933860108 8.5771114023114023 0 8.5771114023114023 1.9354613463256101 0 0 0 0 -20.868125720966418 -46.385965748682793 0 -46.385965748682793 23.853751231387832 0 0 0 0 -13.243032336584484 -0.82873688760969344 0 -0.82873688760969344 21.811011208601897 0 0 0 0 -57.051646175412316 -13.305097224601923 0 -13.305097224601923 28.591264578553819 0 0 0 0 -56.872630262066764 -14.064814975565355 0 -14.064814975565355 15.546598591143265 0 0 0 0 -21.289029928237142 37.274279436758661 0 37.274279436758661 76.088541802341751 0 0 0 0 -46.399486150603479 -39.852639458560816 0 -39.852639458560816 -0.99841226035277941 0 0 0 0 -39.982790492260392 -47.818459684671325 0 -47.818459684671325 -4.853525478465599 0 0 0 0 -12.906336535186178 -1.9467834796294881 0 -1.9467834796294881 23.288173916026047 0 0 0 0 31.773587244078044 18.19368059041517 0 18.19368059041517 -8.5576742187840864 0 0 0 0 -28.013206231642471 -83.951094758761428 0 -83.951094758761428 71.971627536942833 0 0 0 0 -73.815672686479957 21.928133483099373 0 21.928133483099373 47.924559661330022 0 0 0 0 -51.076809508518636 10.594572995340968 0 10.594572995340968 -42.249729977022071 0 0 0 0 173.48816459479076 205.03106773856325 0 205.03106773856325 186.91739061387852 0 0 0 0 155.10069002447108 220.80044622481 0 220.80044622481 229.70123469925602 0 0 0 0 -2.7349311872242481 -2.4777649080634419 0 -2.4777649080634419 10.470573243425903 0 0 0 0 126.34532559564832 193.49363193765384 0 193.49363193765384 234.2546580922899 0 0 0 0 139.70904599517417 187.77555415288589 0 187.77555415288589 269.70634494020305 0 0 0 0 81.897231493036088 183.00693314305317 0 183.00693314305317 238.42418680165338 0 0 0 0 136.48380148618457 203.60034699374319 0 203.60034699374319 238.89277809417763 0 0 0 0 -53.292996057766459 -43.057482523844328 0 -43.057482523844328 10.995257851391216 0 0 0 0 -149.81542406606604 -95.2927347190398 0 -95.2927347190398 -12.336781544741825 0 0 0 0 -51.791017949630259 -49.388311104603417 0 -49.388311104603417 -15.274038832962106 0 0 0 0 -44.686998385727748 -48.633460506205665 0 -48.633460506205665 12.606724804383589 0 0 0 0 -20.515392059201986 -19.918690569960745 0 -19.918690569960745 -7.581303573835612 0 0 0 0 -15.704771322945369 1.4112344124963592 0 1.4112344124963592 22.765517191184742 0 0 0 0 -11.682298429470393 9.2165687574579351 0 9.2165687574579351 9.2392378414133418 0 0 0 0 -13.254182901918512 13.975368105863936 0 13.975368105863936 3.7510629953630996 0 0 0 0 -13.43199321108159 -4.8911814727468936 0 -4.8911814727468936 51.857570735066474 0 0 0 0 -10.542973479825378 -9.047525108366699 0 -9.047525108366699 52.820578829307124 0 0 0 0 -8.5615048030090986 -11.281833622364179 0 -11.281833622364179 36.927836735923925 0 0 0 0 -13.515008745624352 3.2295106805068983 0 3.2295106805068983 21.344537105898922 0 0 0 0 -49.753930290566132 28.950313450777685 0 28.950313450777685 27.502783552932669 0 0 0 0 -2.347630986103816 -2.0232072319100158 0 -2.0232072319100158 7.1346871026025553 0 0 0 0 -129.06188770867175 0.8426109634747263 0 0.8426109634747263 36.363019534563591 0 0 0 0 -154.7794136979428 -49.071889519640536 0 -49.071889519640536 -97.382498738079448 0 0 0 0 -2.6777680890510194 -0.23910163597635048 0 -0.23910163597635048 5.2019391620568101 0 0 0 0 -13.21807958010686 -26.351357977941007 0 -26.351357977941007 -98.094403998333291 0 0 0 0 -66.107882129368591 -126.23184272155959 0 -126.23184272155959 -57.18277605058438 0 0 0 0 -20.400107473204116 -55.405026949266357 0 -55.405026949266357 3.4168774713107268 0 0 0 0 -12.655480830109809 -21.827796299618967 0 -21.827796299618967 -3.1305462537482072 0 0 0 0 -61.628760103943932 -49.337025159119548 0 -49.337025159119548 261.94232289052161 0 0 0 0 279.87398902284986 140.29678687069372 0 140.29678687069372 97.345756430266192 0 0 0 0 3.0491737191157426 -31.101141128357085 0 -31.101141128357085 50.736884716889108 0 0 0 0 154.05119818409639 223.32581874585503 0 223.32581874585503 346.17608262615568 0 0 0 0 257.32732424299979 181.35294494526738 0 181.35294494526738 138.36227742788651 0 0 0 0 188.2792876698295 177.60560249234732 0 177.60560249234732 174.87636550030675 0 0 0 0 57.427208280476407 198.04143622877746 0 198.04143622877746 216.74646683659194 0 0 0 0 -93.969106861354703 81.204872755357883 0 81.204872755357883 202.42442348906297 0 0 0 0 123.86777402487314 170.71458187629287 0 170.71458187629287 212.53967836882475 0 0 0 0 57.340909017209924 188.71150512235545 0 188.71150512235545 272.40466851785277 0 0 0 0 285.58851940440763 205.23547334988416 0 205.23547334988416 212.93364951771036 0 0 0 0 278.70230077913129 354.07286718299201 0 354.07286718299201 289.2115794895999 0 0 0 0 118.92902253193716 240.57987175871625 0 240.57987175871625 279.43193607096327 0 0 0 0 -67.696120701504697 31.712021631740754 0 31.712021631740754 54.196131408184243 0 0 0 0 -14.805986789221379 12.707774994621161 0 12.707774994621161 50.174516387284257 0 0 0 0 -12.315558608165702 21.265924425538515 0 21.265924425538515 55.618482933371979 0 0 0 0 -21.865781690651602 2.5673859623336739 0 2.5673859623336739 82.279882428865676 0 0 0 0 16.592968624367131 -47.452722552116256 0 -47.452722552116256 91.960693630972003 0 0 0 0 0.59435987385328559 0.072593406959106432 0 0.072593406959106432 -1.0060690066092004 0 0 0 0 -4.5323655001911902 -7.0291993795535745 0 -7.0291993795535745 40.815261946211422 0 0 0 0 -10.849142027616153 8.4707235493710868 0 8.4707235493710868 39.625983544032351 0 0 0 0 -7.3856947263354584 7.2825406234475265 0 7.2825406234475265 15.118390340304767 0 0 0 0 -14.931053841876746 21.886601603940107 0 21.886601603940107 23.256487217715403 0 0 0 0 -8.3210407740471055 -9.2141896600428481 0 -9.2141896600428481 50.056899591669435 0 0 0 0 -12.168483462001859 -6.5198053655904005 0 -6.5198053655904005 52.724762732957288 0 0 0 0 -7.1792957240823245 -5.0080977338463128 0 -5.0080977338463128 30.796421671156917 0 0 0 0 -5.4570979174413878 -20.534568046607092 0 -20.534568046607092 34.566672337874706 0 0 0 0 -9.0894376881274184 -4.9409746106703096 0 -4.9409746106703096 39.621547152421954 0 0 0 0 -61.152271989395828 -50.970961685946804 0 -50.970961685946804 83.840312792231998 0 0 0 0 -72.288862955167133 81.998713591598062 0 81.998713591598062 47.767810207384628 0 0 0 0 7.4727617098662886 6.1183220500820372 0 6.1183220500820372 11.366407259326902 0 0 0 0 -34.81770417000962 1.9767697131694604 0 1.9767697131694604 23.505165301595298 0 0 0 0 -9.3685428795834014 -10.464288381475058 0 -10.464288381475058 49.523676304090714 0 0 0 0 -6.1371973451988424 -21.301780327927361 0 -21.301780327927361 52.274806459658066 0 0 0 0 -1.1759845696059905 -1.2135343403320642 0 -1.2135343403320642 5.0407560991455833 0 0 0 0 -35.656727938291908 6.2817158514118034 0 6.2817158514118034 10.929958703662578 0 0 0 0 -72.320956763686809 64.458699038860459 0 64.458699038860459 -4.8543462364914376 0 0 0 0 -63.303504515507029 7.9082648252889385 0 7.9082648252889385 29.72097164535694 0 0 0 0 -74.923930512537481 -29.341626657509494 0 -29.341626657509494 20.111523175132902 0 0 0 0 -67.559085355087973 -12.128783957467363 0 -12.128783957467363 30.251517371504974 0 0 0 0 -38.82896469452271 -5.3683098836315821 0 -5.3683098836315821 35.367067705804402 0 0 0 0 -2.8666547329253067 -3.0845197667880528 0 -3.0845197667880528 12.261186736389924 0 0 0 0 -34.999112841796887 4.1366834432279802 0 4.1366834432279802 23.157215944982482 0 0 0 0 -1.7217824338949335 -4.0259835671432267 0 -4.0259835671432267 16.398794535232181 0 0 0 0 20.322125320129089 53.47168989110105 0 53.47168989110105 194.05884738277018 0 0 0 0 -1.2821337924692671 27.023573314876558 0 27.023573314876558 189.27126182643406 0 0 0 0 5.7869714735788875 37.727350471881437 0 37.727350471881437 205.24786143044867 0 0 0 0 18.825034243405412 44.950319669856299 0 44.950319669856299 173.14104405135913 0 0 0 0 37.982158729202638 219.32231555761518 0 219.32231555761518 312.5389664741856 0 0 0 0 9.9637441622091387 193.64462144663304 0 193.64462144663304 216.9926997975781 0 0 0 0 116.41943942418811 219.67033926432919 0 219.67033926432919 155.56490957876005 0 0 0 0 105.12844312178731 218.24458965076201 0 218.24458965076201 211.83891488847303 0 0 0 0 105.8426314829462 225.53593811284955 0 225.53593811284955 259.25595900261396 0 0 0 0 152.64493677620135 163.86905156601301 0 163.86905156601301 207.92601993941662 0 0 0 0 249.13867827210993 295.10929241421104 0 295.10929241421104 313.25712374495015 0 0 0 0 -2.4555261294134016 -1.4711571888552752 0 -1.4711571888552752 8.5172421845639477 0 0 0 0 47.271143519912584 111.07114809933955 0 111.07114809933955 41.477350214975559 0 0 0 0 80.341102820955712 141.21405811961631 0 141.21405811961631 206.2092682563989 0 0 0 0 -3.6168475270375424 -9.4912796449064274 0 -9.4912796449064274 28.552908827648139 0 0 0 0 -315.70755425198467 -187.546030280997 0 -187.546030280997 215.82572912262185 0 0 0 0 33.95600609318717 208.38327004700295 0 208.38327004700295 213.12857872882796 0 0 0 0 25.480860042981703 63.249090471610629 0 63.249090471610629 81.586395996233477 0 0 0 0 461.16859381424183 397.85040446394032 0 397.85040446394032 161.81300776296382 0 0 0 0 54.749730841323469 329.57811038798889 0 329.57811038798889 593.01179867377141 0 0 0 0 -30.945457293678373 38.671839199535953 0 38.671839199535953 803.01183725586861 0 0 0 0 444.1736857384268 123.88486599534249 0 123.88486599534249 -87.864037464223657 0 0 0 0 5.6570160888915009 2.2687261163458965 0 2.2687261163458965 0.22743453397175983 0 0 0 0 421.43288851384295 445.38752585067368 0 445.38752585067368 358.91003543164925 0 0 0 0 300.39038769561375 -161.60748135054382 0 -161.60748135054382 314.19385649346168 0 0 0 0 -142.08414117024063 -286.34122504732511 0 -286.34122504732511 -72.866039142084446 0 0 0 0 63.759517557162326 182.74519696050356 0 182.74519696050356 98.23202015096183 0 0 0 0 28.932866616355767 40.957616222655965 0 40.957616222655965 -46.268175814519054 0 0 0 0 103.53119798464149 132.15121222626055 0 132.15121222626055 130.25325306809555 0 0 0 0 -2.2940483487802972 -8.4091078988052459 0 -8.4091078988052459 23.99244162317347 0 0 0 0 175.55792934465262 237.24315617058255 0 237.24315617058255 299.76504846027638 0 0 0 0 130.57859970116078 160.60154702526302 0 160.60154702526302 230.9088227557404 0 0 0 0 35.309243206416795 112.42007775121965 0 112.42007775121965 262.9039607740915 0 0 0 0 22.823723383797187 111.8156835846753 0 111.8156835846753 228.6368580501894 0 0 0 0 54.796592793714808 149.71008679673781 0 149.71008679673781 213.67927404186048 0 0 0 0 28.135211222097496 145.66620274545585 0 145.66620274545585 220.82730937092924 0 0 0 0 59.215438686005655 124.02848005319447 0 124.02848005319447 212.37104979867399 0 0 0 0 52.762674149226768 101.0017344712619 0 101.0017344712619 147.60079821927502 0 0 0 0 -13.458865308477471 109.10656041240054 0 109.10656041240054 229.77477832701879 0 0 0 0 -34.944249063031748 32.994680949619578 0 32.994680949619578 174.82982315501249 0 0 0 0 -5.4828741466236579 -8.8032411668061599 0 -8.8032411668061599 28.497411325648621 0 0 0 0 41.929823980237416 69.362755245329026 0 69.362755245329026 310.77756859532019 0 0 0 0 203.83409988575659 -93.666589054497308 0 -93.666589054497308 463.58594675031964 0 0 0 0 35.899555437186791 5.474973786589544 0 5.474973786589544 238.88995383009933 0 0 0 0 -5.0346828866113356 148.37939925893897 0 148.37939925893897 308.71658236676512 0 0 0 0 43.360054023238263 206.7426665095295 0 206.7426665095295 570.77556648806421 0 0 0 0 38.196865921210701 162.55449266745472 0 162.55449266745472 240.10506838043693 0 0 0 0 136.78878347500358 148.75363105480483 0 148.75363105480483 141.68697860147586 0 0 0 0 32.675231521696332 162.82141182557916 0 162.82141182557916 240.10854034629745 0 0 0 0 -2.4725626210674818 80.052732118311724 0 80.052732118311724 172.14559392726551 0 0 0 0 -105.70230617913899 -37.67921677371487 0 -37.67921677371487 -37.759556789623275 0 0 0 0 -62.943877050743801 -14.213693920241532 0 -14.213693920241532 50.674622115360563 0 0 0 0 -74.272960444943237 -68.422787258325116 0 -68.422787258325116 -27.625521375324752 0 0 0 0 35.543475611066242 34.39753646443387 0 34.39753646443387 101.24838329529121 0 0 0 0 -5.3617023164759203 1.0208663363740342 0 1.0208663363740342 8.695251928609494 0 0 0 0 -30.211832790443168 1.2001441145011995 0 1.2001441145011995 77.863278897450073 0 0 0 0 -34.254277734339745 -16.284961517154365 0 -16.284961517154365 22.505816144495967 0 0 0 0 -51.360362316289986 -16.741467688810644 0 -16.741467688810644 45.924358290919614 0 0 0 0 -82.942884816166043 -28.08704093687993 0 -28.08704093687993 98.809237676141493 0 0 0 0 -38.954970209953899 -71.643055019587337 0 -71.643055019587337 82.560843225364806 0 0 0 0 38.658236837172808 50.028879543287985 0 50.028879543287985 84.259312104741184 0 0 0 0 -18.846515083831036 68.004493112959608 0 68.004493112959608 115.47452425994607 0 0 0 0 -18.698406343181745 -5.0359030313661499 0 -5.0359030313661499 18.343558602307141 0 0 0 0 -400.62979607561977 228.36216868858173 0 228.36216868858173 232.88541958712631 0 0 0 0 -1.684771370741271 -2.0119254045344945 0 -2.0119254045344945 11.823079380616409 0 0 0 0 79.178953448109553 133.82773635010381 0 133.82773635010381 184.5037502161249 0 0 0 0 -44.446579179811238 142.41381548317986 0 142.41381548317986 -258.92742569787515 0 0 0 0 -74.641846069635449 75.830775911315868 0 75.830775911315868 -23.35783842903038 0 0 0 0 -281.79422486408703 211.76061121677049 0 211.76061121677049 13.776882097823545 0 0 0 0 -415.05391674952693 -216.48676250599237 0 -216.48676250599237 301.27737420990888 0 0 0 0 -26.958788783944058 -4.2708931014619509 0 -4.2708931014619509 11.776165686862576 0 0 0 0 72.438390644219908 66.732810412744584 0 66.732810412744584 64.512190763554827 0 0 0 0 95.971061750753506 -124.31102264611764 0 -124.31102264611764 31.602498129883315 0 0 0 0 154.9713634171294 29.512121900780585 0 29.512121900780585 22.623005250105052 0 0 0 0 -28.066065776515643 12.929252707923297 0 12.929252707923297 81.49657724100598 0 0 0 0 -27.097844480409051 -5.077475237380213 0 -5.077475237380213 7.3879671318790727 0 0 0 0 -25.48756259242441 23.737417506536076 0 23.737417506536076 98.788003488858521 0 0 0 0 -72.079416126871365 70.142986017210205 0 70.142986017210205 208.12826346273869 0 0 0 0 -22.725835470733728 14.734010186308296 0 14.734010186308296 89.893701307219089 0 0 0 0 -47.446516394291734 -7.7483071759521422 0 -7.7483071759521422 67.253947348418848 0 0 0 0 -134.83130898474337 128.61449679812904 0 128.61449679812904 226.22784493474319 0 0 0 0 -136.53177208881607 -44.217260562669253 0 -44.217260562669253 319.8434858354376 0 0 0 0 -136.7245834384812 -13.476583449182726 0 -13.476583449182726 238.68738896806099 0 0 0 0 -58.807015342474187 -29.159033498903227 0 -29.159033498903227 91.394065036660322 0 0 0 0 -149.92304927267105 209.48990021985082 0 209.48990021985082 77.852801553063728 0 0 0 0 -300.82545456622393 -22.298507188765143 0 -22.298507188765143 124.10681256732641 0 0 0 0 -5.6604362568250011 14.090030581568513 0 14.090030581568513 26.73137837746026 0 0 0 0 10.214583521439636 148.7374977008094 0 148.7374977008094 221.91083492770304 0 0 0 0 20.718322296506813 75.186243308773555 0 75.186243308773555 203.61243217515585 0 0 0 0 13.404993684998772 59.199449667905355 0 59.199449667905355 208.4009675900549 0 0 0 0 14.569937570280331 71.283964227874776 0 71.283964227874776 120.42778055145682 0 0 0 0 341.79075241841565 303.35274190858945 0 303.35274190858945 129.70814919134091 0 0 0 0 64.751518326862424 -253.12555910159881 0 -253.12555910159881 450.35907135877642 0 0 0 0 3.3592813137135948 5.1420775104178169 0 5.1420775104178169 0.93411757743803747 0 0 0 0 -2.132650886909687 -60.737762094559002 0 -60.737762094559002 102.95697843049447 0 0 0 0 -21.979092113841034 -114.35723140998016 0 -114.35723140998016 218.58693975852293 0 0 0 0 -133.1693341978098 112.61004434571805 0 112.61004434571805 232.42715359753129 0 0 0 0 -64.449018337032612 44.804409591189142 0 44.804409591189142 263.76192243377591 0 0 0 0 -151.113841411061 216.00853447454574 0 216.00853447454574 320.63800689600794 0 0 0 0 40.672307571916463 244.58049075802592 0 244.58049075802592 638.49120646207211 0 0 0 0 502.27271116334305 152.78812720593669 0 152.78812720593669 233.38815416434954 0 0 0 0 84.636400444720493 153.05809178717755 0 153.05809178717755 234.04705300011665 0 0 0 0 3.363280839555955 106.41383929693802 0 106.41383929693802 174.26573368964455 0 0 0 0 130.79428227040444 174.266958621085 0 174.266958621085 186.03972970423638 0 0 0 0 26.560831195205537 96.908262352195379 0 96.908262352195379 111.47621694788177 0 0 0 0 -11.227764749022754 64.420199540052636 0 64.420199540052636 110.825957359489 0 0 0 0 69.906591965667758 128.30354258205898 0 128.30354258205898 65.006419598248613 0 0 0 0 26.92761437112631 -20.896516112876952 0 -20.896516112876952 47.101052568665182 0 0 0 0 -9.1366348666415433 -35.980951837282191 0 -35.980951837282191 167.62434600259803 0 0 0 0 -48.160744810455071 23.676372115027334 0 23.676372115027334 226.17433175330734 0 0 0 0 -0.79236106002645101 38.862930327479262 0 38.862930327479262 163.38078618938744 0 0 0 0 -18.618551728402615 -25.825538466454404 0 -25.825538466454404 127.43269202882352 0 0 0 0 -4.9900273257735535 39.183190006409859 0 39.183190006409859 220.38512731090304 0 0 0 0 -18.882627154856891 -54.487701696281874 0 -54.487701696281874 381.59651636539638 0 0 0 0 -3.0531587279307004 -6.4280133322915081 0 -6.4280133322915081 21.488049417890547 0 0 0 0 -0.43048254769018968 120.85360116344236 0 120.85360116344236 266.31860615582264 0 0 0 0 22.743843742809986 112.1252776161582 0 112.1252776161582 59.408840681293441 0 0 0 0 18.013572727679275 58.517319212784059 0 58.517319212784059 109.27421255884474 0 0 0 0 90.277551754523301 125.99751271838613 0 125.99751271838613 36.466852701661992 0 0 0 0 10.480659019762243 71.7158508103239 0 71.7158508103239 147.66813086812181 0 0 0 0 33.229249084112787 66.205244586953881 0 66.205244586953881 59.214831109912268 0 0 0 0 2.7334097613256745 72.822397835674565 0 72.822397835674565 186.41674547008006 0 0 0 0 110.19224156191922 99.962917288168683 0 99.962917288168683 30.479353835806251 0 0 0 0 1.2967822267237352 73.698815744181047 0 73.698815744181047 346.25325354667075 0 0 0 0 57.393823684564268 -4.6321964871167438 0 -4.6321964871167438 253.48317474374198 0 0 0 0 138.26371529777316 3.5483100992423715 0 3.5483100992423715 74.773173735899036 0 0 0 0 28.262099470382964 33.213261167387827 0 33.213261167387827 319.41234623560013 0 0 0 0 58.106544254056644 -141.28619551541487 0 -141.28619551541487 412.72702640427451 0 0 0 0 -15.552655630090158 73.040797222392939 0 73.040797222392939 240.1423472852257 0 0 0 0 1.8150347645640608 4.6244004045920519 0 4.6244004045920519 24.041825246231042 0 0 0 0 48.93638330344038 -8.057746889302507 0 -8.057746889302507 234.07962401996338 0 0 0 0 22.007031462693831 60.609712911289847 0 60.609712911289847 46.258861094770126 0 0 0 0 2.5868166552879828 -1.0960882325369994 0 -1.0960882325369994 0.21473801883473698 0 0 0 0 -6.4872267157115857 88.201195442146854 0 88.201195442146854 366.57660139829386 0 0 0 0 4.2177111250020971 -104.69261258002734 0 -104.69261258002734 -23.29319064543688 0 0 0 0 -2.3139479135415968 95.041877679603203 0 95.041877679603203 295.52589649330184 0 0 0 0 30.7408098946471 110.28528004006512 0 110.28528004006512 203.25833128028171 0 0 0 0 -12.123927835134964 19.737809060514337 0 19.737809060514337 138.94274314513677 0 0 0 0 22.426969907694001 31.439938480238197 0 31.439938480238197 59.483209243360761 0 0 0 0 -31.167191631000605 140.9434979390644 0 140.9434979390644 209.97981120041095 0 0 0 0 7.4619549955838096 16.66214999339136 0 16.66214999339136 17.370033663238772 0 0 0 0 3.332271310323641 37.862072581100513 0 37.862072581100513 28.812986479409759 0 0 0 0 63.271076481443743 65.583363746065515 0 65.583363746065515 -28.570549054147705 0 0 0 0 -19.46810664397708 -45.336389828611573 0 -45.336389828611573 229.51448364544558 0 0 0 0 4.5540464875747375 -94.578382082846133 0 -94.578382082846133 147.55048749865819 0 0 0 0 -14.762255154880222 -40.287166550129768 0 -40.287166550129768 151.91593844516319 0 0 0 0 16.441062844719454 -27.397025028567441 0 -27.397025028567441 146.19303574586229 0 0 0 0 -11.135960056531275 28.190851516229095 0 28.190851516229095 50.12851065301723 0 0 0 0 96.231866840910243 192.13148954505891 0 192.13148954505891 529.9350661730823 0 0 0 0 -0.5298747988880308 -2.5544419884546379 0 -2.5544419884546379 26.433602271191681 0 0 0 0 -11.796247396842482 -7.0277795050273539 0 -7.0277795050273539 51.524164068662671 0 0 0 0 -7.7768874414414313 11.230616632659803 0 11.230616632659803 99.099205871065351 0 0 0 0 4.628186353800146 14.68637166577544 0 14.68637166577544 3.9933352177565826 0 0 0 0 173.34025645402835 193.09757517901471 0 193.09757517901471 205.96820293616474 0 0 0 0 101.55310638672745 66.349297746250159 0 66.349297746250159 155.16727100323988 0 0 0 0 0.4764115609352686 1.5484279893472674 0 1.5484279893472674 13.341515173873946 0 0 0 0 394.13234480686515 165.64530830184231 0 165.64530830184231 88.880762494956798 0 0 0 0 117.56976004161697 254.91712411666231 0 254.91712411666231 374.31972938303807 0 0 0 0 99.745123050064649 204.25153130117724 0 204.25153130117724 243.07627088232039 0 0 0 0 57.91249688350581 164.32964836170504 0 164.32964836170504 312.49397524683627 0 0 0 0 88.491288510285813 81.781719864571642 0 81.781719864571642 99.642124458110629 0 0 0 0 150.08679788667359 169.64259741223213 0 169.64259741223213 152.48877409928537 0 0 0 0 61.261728858263041 137.00850819669813 0 137.00850819669813 214.37527111443342 0 0 0 0 51.924645103794319 118.13078037686864 0 118.13078037686864 236.16867368846215 0 0 0 0 62.046527360205801 167.83696265901017 0 167.83696265901017 242.85602935097268 0 0 0 0 76.494436477678391 149.97465333684522 0 149.97465333684522 197.80213669468139 0 0 0 0 83.948352682363293 177.91626139588925 0 177.91626139588925 240.80891176759906 0 0 0 0 76.553194773510768 173.0296398286755 0 173.0296398286755 237.5987137535376 0 0 0 0 47.796853478321282 169.13553046177367 0 169.13553046177367 247.31042739746499 0 0 0 0 132.09133976492376 199.90956162670409 0 199.90956162670409 240.10698022419092 0 0 0 0 80.92509906534724 163.17554445458882 0 163.17554445458882 229.66157371472218 0 0 0 0 69.603520437638508 123.73034802952225 0 123.73034802952225 194.58331447781347 0 0 0 0 156.92109032339795 175.04833664673424 0 175.04833664673424 224.54786740689633 0 0 0 0 158.23461747136753 184.99973363645404 0 184.99973363645404 201.91166847684144 0 0 0 0 -6.2055379364891721 -4.5011376863908481 0 -4.5011376863908481 27.814162580819712 0 0 0 0 35.75435274499614 131.42362546875029 0 131.42362546875029 196.13362122270064 0 0 0 0 111.15025288030301 45.137988045906241 0 45.137988045906241 64.980717100636753 0 0 0 0 70.017202500118401 168.94927357205233 0 168.94927357205233 214.57833315445896 0 0 0 0 -10.179519593355508 127.18127772646221 0 127.18127772646221 229.70584479631862 0 0 0 0 -62.211130494794361 -30.396986000529182 0 -30.396986000529182 84.239654218512442 0 0 0 0 50.973206932576431 121.57210567765651 0 121.57210567765651 102.37636757806104 0 0 0 0 24.783173352705489 25.691888301057588 0 25.691888301057588 28.397546314979991 0 0 0 0 -2.2787705004338932 35.459774239697254 0 35.459774239697254 216.56400317665612 0 0 0 0 53.91656360237539 66.124986870447174 0 66.124986870447174 127.51009273505224 0 0 0 0 240.58785194959637 -7.7453288464412253 0 -7.7453288464412253 156.54948546226296 0 0 0 0 82.883614948852482 -42.25811177513242 0 -42.25811177513242 68.635676646204956 0 0 0 0 69.691138027708803 2.502806607302773 0 2.502806607302773 -77.360759230577969 0 0 0 0 -31.610482831946058 10.899431163649581 0 10.899431163649581 43.980350265439483 0 0 0 0 -28.347732407341027 -83.660689597745659 0 -83.660689597745659 56.060098319503595 0 0 0 0 
</DataArray>
<DataArray type="Float64" Name="cross_section_updated" format="ascii">
1 1 1 1 1 0.0099913703037019588 1 1 1 1 1 1 1 1 1 1 0.0099914904266635851 1 1 1 1 1 1 1 1 0.011882532890476166 0.018360801470305874 1 0.0093750806199519171 1 1 0.014379175878717513 1 1 0.011324709557519429 1 0.010220899613196562 1 0.013150920733927152 1 1 1 0.012669903936218552 1 0.010576303727589071 1 0.010575459242218513 1 1 1 1 1 1 1 1 1 1 1 1 1 0.0084370089682229109 1 1 0.0089480843808454717 1 1 1 1 1 1 0.010714932013878235 1 1 1 1 1 1 0.010547422439093136 1 1 1 1 1 1 1 1 0.019823090871964547 1 1 1 1 1 1 1 1 1 1 0.019937107024007281 1 1 1 1 1 1 1 1 1 0.011875237461059821 1 0.0099871845592911582 1 1 1 1 1 1 1 1 1 1 1 1 1 1 1 0.012771577383950086 1 0.0098222735372323865 0.019203919694849171 1 0.012896067058657555 1 1 1 0.016323820433267737 0.018114016898479593 1 1 1 1 1 1 1 1 1 1 1 1 1 1 1 1 1 1 1 1 1 1 1 0.0097919850708542561 1 1 1 1 1 1 1 1 1 1 1 1 1 1 1 1 1 1 1 1 1 1 1 1 1 1 1 1 1 1 1 1 1 1 1 1 1 1 1 1 1 1 1 1 1 1 1 1 0.010642951356920836 1 0.0097207421565657821 1 1 1 1 1 1 1 1 1 1 1 1 1 1 1 1 1 1 1 0.011993564434368593 1 1 1 1 1 0.014388371235281415 1 1 0.0078620954866567665 0.010057281457526502 1 1 1 0.010085096987651967 1 1 1 1 1 0.0094806826271498657 0.0094569273807126285 1 0.0085575814046996764 1 1 1 1 1 1 1 1 1 1 1 1 0.0089298869887332322 1 1 1 1 1 1 1 1 1 1 0.010027815530125462 1 1 1 1 1 1 1 1 1 1 1 1 1 0.010643213509300732 1 1 1 1 1 1 1 1 1 1 1 1 1 1 1 1 1 1 1 1 1 1 1 1 1 1 1 1 1 1 1 1 1 1 1 1 1 1 1 1 0.0094627103002635094 1 0.012214954407188757 1 1 0.013090803326061292 1 1 0.0092206000125994881 1 1 1 1 0.0086081360409859514 1 1 0.010144257653171803 1 1 1 1 1 1 0.0081410298080369231 1 1 0.0081751466031017954 1 1 1 1 0.01002486922162759 1 1 1 0.0098124746767600645 1 0.010012448986680569 0.011194263976301425 1 1 0.0088072129431643661 0.012955572964179519 1 1 1 1 1 1 1 1 1 1 1 1 1 1 1 1 1 1 1 0.0118751319162447 1 1 1 1 1 1 1 1 1 0.0095494432788926758 1 1 1 1 1 1 1 1 1 1 1 1 1 1 1 1 1 1 1 1 1 1 1 1 1 1 1 1 1 1 1 1 1 1 1 1 1 1 1 1 1 1 1 1 1 1 1 1 1 1 1 1 1 1 1 1 0.010855816039688118 1 1 1 1 1 1 1 1 1 1 1 1 1 1 1 1 1 1 1 1 1 1 1 1 1 1 1 1 1 1 1 1 1 1 1 1 1 1 1 1 1 1 1 1 1 1 1 1 1 1 1 1 1 1 1 1 1 1 1 1 1 1 1 1 1 1 1 1 1 1 1 0.017412308674938218 1 0.015928330710825889 1 1 1 1 1 1 1 1 1 1 1 1 1 1 1 1 1 0.018736740528291947 1 1 1 1 1 0.01364600671674418 1 1 1 1 1 1 1 1 1 1 1 1 1 1 1 1 1 1 1 1 1 1 1 1 1 1 1 1 1 1 1 1 1 1 1 1 1 0.020209430290497994 1 1 1 0.011233465814898536 1 1 1 1 1 1 1 1 1 1 1 0.0099309928599069595 1 0.021289113021072885 1 1 1 0.012462090995469986 1 0.015965246670621075 1 1 1 1 1 1 1 1 1 1 1 1 1 1 1 1 1 1 1 1 1 1 1 1 1 1 1 1 1 1 1 1 1 1 1 1 1 1 1 1 1 1 1 0.012258064719320817 1 1 1 1 1 0.012557817609054792 1 1 1 1 1 1 0.016358960763898808 1 1 1 1 1 1 0.010277037686141327 1 1 1 1 1 1 1 1 0.018812380858812747 1 1 1 1 1 1 1 1 1 1 0.019279806625187967 1 1 1 1 0.010007606819029912 1 1 1 1 1 0.012454686396289168 0.011683645889744375 1 0.0086789958483339744 1 1 1 1 0.014964525291038396 1 0.011959502444334282 0.010002579652589279 0.014347177145123629 1 1 1 1 1 0.010672265840067148 1 1 1 1 1 0.010992817713267058 1 1 0.010597693908926118 1 1 1 1 1 1 1 1 1 1 1 1 1 1 1 1 1 1 1 1 1 1 1 0.011380865609301211 1 1 1 1 1 1 0.010783171700375099 1 1 1 1 1 1 1 1 1 1 1 1 1 0.015660164391678472 1 1 1 1 1 1 1 1 0.011003551868442082 1 1 1 1 1 1 1 1 1 1 1 1 1 1 1 1 1 1 1 1 1 1 1 1 1 1 1 1 1 1 1 1 1 1 1 1 1 1 1 1 1 1 1 1 1 1 1 1 1 1 1 1 1 1 1 1 1 1 1 1 1 1 1 1 1 1 1 1 1 1 1 1 1 1 1 1 1 1 1 1 1 1 1 1 1 1 1 1 1 1 1 1 1 1 1 1 1 1 1 0.012378048638158789 1 1 1 1 1 1 0.010080911023412541 1 1 1 1 1 1 1 1 1 1 1 1 1 1 1 1 1 1 1 1 1 1 1 1 1 1 1 0.012893912168390193 1 0.012503716237886311 1 1 1 1 1 1 0.012055615842887526 0.01057354380597249 1 1 1 1 1 1 1 1 1 0.010247681140640855 1 1 0.011452844377771746 1 1 1 1 1 1 1 1 0.015186657395361165 1 1 0.015515555446460516 0.0089575712210896042 1 1 1 1 1 1 1 0.0096485791677932801 1 1 0.011911702152685263 1 1 1 1 1 1 0.013300579216888016 1 1 1 1 1 1 1 1 1 1 1 1 1 1 1 1 1 0.011145305047019731 1 0.01295786070251273 1 1 1 1 1 1 1 1 1 1 1 0.013056614484839704 1 1 1 1 1 1 1 1 1 1 1 1 1 1 1 1 1 1 1 1 1 1 1 1 1 1 1 1 1 1 1 1 1 1 1 1 1 1 1 1 1 1 1 1 1 1 1 1 1 1 1 1 1 1 1 0.01004981302614771 1 1 1 1 1 1 1 1 1 0.010082580972119478 1 1 1 0.012436874837445254 0.013986686702642498 1 0.012075384527828144 1 0.0115328364223989 1 0.009979279121354238 1 1 1 1 1 0.012848644495604258 1 1 0.010001133779317235 1 1 0.013088260304633732 1 1 1 1 1 1 0.0099160649737474529 1 0.010124909693810184 0.01883524979284306 1 1 1 1 1 1 1 1 1 0.0099749520163639159 1 1 1 1 1 0.01001826107660223 1 1 1 1 0.010034295838621272 1 1 1 1 1 0.0098041984095179752 1 1 0.0096615086183837288 1 1 0.0099424733121992771 1 1 1 1 1 1 1 1 0.010131842911059397 1 1 1 1 1 1 1 0.010399421031164435 1 1 0.014965459650584699 0.015301015550160942 1 1 1 1 1 1 1 1 1 0.015066861231910722 1 0.014783693975109825 1 1 1 1 1 1 1 1 1 1 1 1 1 1 1 1 1 1 1 1 0.01290179812020446 1 1 1 0.010277052014428311 1 1 1 1 0.010860296251794117 0.012600967443796723 0.013923761821454661 1 1 1 0.011076872331856114 1 1 1 0.010193766668462374 1 0.015109061204445169 1 0.015517759928473788 0.012349833919778612 1 1 1 0.010318545337289819 1 1 1 0.015588073860824159 1 1 0.016850553562114116 1 0.014513300203384483 1 1 0.0094899521923086996 1 1 1 1 1 1 1 1 1 1 1 1 1 1 0.011308888529274953 1 1 1 1 1 1 0.014254066508908789 1 0.012589627926423791 1 1 1 0.016664399879343064 1 1 0.0077699719191926201 1 1 0.011355629874997716 1 1 1 1 1 1 1 1 0.0088250247995292144 1 1 1 1 0.0099488893062373504 1 1 1 1 0.014014266537086349 1 1 1 1 1 1 1 1 0.0092647723426455865 1 1 1 0.0098685147302945957 1 1 1 1 1 1 1 1 1 1 1 1 1 1 1 1 1 1 1 0.00990344015119176 1 1 0.0095359274327823876 1 1 1 1 1 1 1 1 1 0.010701444784040202 1 1 1 1 1 0.012059617201142864 1 1 1 0.0098155316182256397 1 1 0.013765911976037614 1 0.015591706321213596 0.0096467415108698242 1 1 1 1 1 1 0.018267417496818594 1 0.010440596640999207 1 1 1 0.0079787873205059371 1 1 1 0.009363958857563158 1 1 1 1 1 1 1 1 1 1 1 1 1 1 1 1 1 1 1 1 0.020239746349432243 1 1 1 1 0.02008070810227873 1 1 1 1 1 1 1 1 1 1 0.02006906902596187 1 1 1 1 1 1 1 1 1 1 1 1 1 1 1 1 1 1 0.010628649256030539 1 1 1 1 1 1 1 1 1 1 1 1 1 1 0.010890589671177271 1 1 1 1 0.012180952835950104 1 1 1 1 1 1 1 0.010112951535949049 1 1 1 1 1 1 1 1 1 1 1 1 1 1 1 1 1 0.014113141106933519 1 1 1 1 0.012913127795147774 1 1 1 1 1 1 1 1 0.014454867465820765 1 1 0.010909925898552653 1 1 0.011082672235504198 1 1 1 1 1 1 1 1 1 1 0.011623718536564321 1 1 1 0.010713792638011678 1 1 1 1 1 1 1 1 1 1 1 1 1 1 1 1 1 1 1 1 1 1 1 1 1 1 0.0099064965640998318 1 1 1 1 1 1 1 1 1 1 0.0096270168520270309 1 0.0099517627211126169 1 1 1 1 1 1 1 0.0092587989094132673 1 0.0099126994782809709 1 1 0.010000275930974398 1 0.013213691086949473 1 0.009113706527155107 1 1 1 1 1 0.012443098581374724 1 1 1 1 1 1 1 0.0097345063663983027 1 1 1 1 1 1 1 1 1 1 1 1 1 1 1 1 1 1 1 1 1 1 1 1 1 1 1 1 1 1 1 1 0.01021351680007495 1 1 1 1 1 1 1 0.010968468441617123 1 1 1 1 1 1 1 0.013506976551084187 1 1 1 1 1 0.011914692471383999 1 1 1 1 1 1 1 1 1 1 1 1 0.017503250109162712 1 1 1 1 1 0.019091890956500518 1 0.0086551214220998464 1 1 1 1 1 1 1 1 0.010579897838830642 1 1 1 1 1 1 0.0099673565183416094 1 1 0.015790714057776691 1 1 1 1 1 1 1 1 1 1 1 1 1 1 1 1 1 1 1 1 1 0.01053789157903267 1 1 1 0.011050500412974241 1 1 1 1 0.0092085828245241658 0.0090753150923572959 1 0.011587804869412067 0.012190799768679404 0.0071758853607720424 1 1 1 0.0099962156700255447 0.013843663257788828 1 1 1 1 1 1 1 1 1 0.012287908561519007 1 0.0067715100327247306 1 1 1 1 0.0099342968120142688 1 1 1 1 0.0093625805840379574 1 0.014305955033411106 1 1 1 0.0094303652944236968 1 1 1 1 1 0.016603575451563587 1 1 0.017294242187598174 1 1 1 1 1 0.017866629478170491 1 1 1 1 1 1 1 1 1 1 1 1 1 1 1 1 1 1 1 1 1 1 1 1 1 1 1 1 1 1 1 1 1 1 1 1 1 1 1 1 1 1 0.0099943940557865769 1 1 1 1 1 1 0.013504080187294064 1 0.011026151389936952 1 1 1 1 1 1 1 1 1 0.01000351329896031 1 0.01347609951775993 1 1 1 1 1 1 1 0.010975400899597587 1 1 1 1 0.0119591158720937 1 1 0.010098538236473456 1 1 1 1 1 1 1 1 1 1 1 0.011328176327731814 0.014176737242589263 1 1 1 0.01034509642289963 0.012147897008424818 1 1 1 1 1 1 1 1 1 1 1 1 1 1 1 1 1 1 1 1 1 1 1 1 1 1 1 0.01143964732756057 1 1 1 1 0.015459086132121456 1 1 1 1 1 1 1 0.012600952240068096 0.010138942066704319 1 0.018220471765863382 1 1 1 1 1 1 1 1 1 1 1 1 0.020482681931365921 1 1 1 1 1 1 1 1 0.010317457022868206 1 1 1 1 1 0.010745366164646336 1 1 1 0.010069135781986229 1 1 1 1 1 1 0.021499476063597985 1 1 1 1 1 1 1 1 1 1 1 1 1 1 1 1 1 1 1 1 1 1 1 1 1 1 1 1 1 0.010813633095363486 1 1 1 1 1 1 1 1 1 1 1 1 1 1 1 1 1 1 1 1 1 1 1 1 1 1 1 1 1 1 1 1 1 1 1 1 1 1 1 1 1 1 1 1 1 1 1 1 1 1 1 1 0.0096938523623702373 1 1 1 1 1 1 1 1 1 1 1 1 1 1 1 1 1 1 1 0.0090249114575834781 1 1 0.0082085197704733492 1 1 1 1 1 1 1 1 1 1 1 1 1 1 1 1 1 1 1 1 1 1 1 1 1 1 1 1 1 1 1 1 1 1 1 1 1 1 1 1 1 1 1 1 1 1 1 1 1 1 1 0.016228235195625759 1 1 1 1 1 1 1 0.0097399683862134604 1 1 1 1 1 0.012340859063876424 1 1 1 1 1 1 1 1 1 1 1 1 1 1 1 1 1 1 1 0.010618365786427383 1 1 1 1 1 1 1 1 0.011484652303642231 1 0.0094886797044104933 1 1 1 1 1 0.011028068123448857 0.019519889064141371 1 1 0.010018674868056564 1 1 1 1 1 1 1 0.012374526439118093 1 1 1 1 1 1 1 1 1 1 1 1 1 1 1 1 1 1 0.0099726636611397849 1 1 1 1 1 1 1 1 0.0097666736664552643 1 1 1 1 1 1 1 1 1 1 1 1 1 1 1 1 1 1 1 1 1 1 1 1 0.0087125047525013436 1 1 1 1 1 1 1 1 1 1 1 1 1 1 1 1 1 1 1 1 1 1 1 1 1 1 0.0094474254648846609 1 0.009630895491682329 1 1 1 1 1 1 1 1 1 1 1 1 1 1 1 1 1 1 1 1 1 1 1 1 1 1 1 0.011250075976436631 1 1 0.013078809514844025 1 1 1 1 1 1 0.0088183934713228218 1 1 1 1 0.017423942129128345 1 0.0084872862002430983 0.01002420978231343 1 1 1 1 1 1 1 1 1 1 1 1 1 1 1 1 1 1 1 1 0.0099180183807663566 0.018324670717762434 1 1 1 1 0.015261474113774088 1 1 1 1 1 1 1 1 1 1 1 1 1 1 1 0.012089794108536375 0.011831269070814093 1 1 0.011678253297919435 1 1 1 1 1 1 1 1 1 1 1 1 1 1 1 1 1 1 0.021240157607194582 1 1 1 1 1 1 0.0096396646865318167 0.010402092284746544 1 0.010093347204008049 1 1 1 1 1 1 1 1 1 1 1 1 1 0.015178738852587113 1 1 1 1 1 1 1 1 1 1 1 1 1 1 1 1 1 1 1 1 1 1 1 1 1 1 1 0.014191392706911821 1 0.010797998984331803 1 1 1 1 1 1 1 1 1 1 1 1 1 0.011757351942905971 1 1 1 0.010954294925553417 1 1 1 0.011572312236543741 1 1 1 1 1 1 0.010011860107097963 1 1 0.0099919402556917052 1 1 1 1 1 1 1 1 1 1 1 1 1 1 1 1 1 1 0.01148475012403323 1 1 1 1 0.010017196684180513 1 0.0098231397194447814 1 1 0.014442132945625141 1 1 1 1 1 1 1 1 1 1 1 1 1 0.010357180885450722 0.012040012596424496 1 1 0.010885361001070522 1 0.011226391405353602 0.012303048230612236 1 1 1 1 1 1 1 1 1 1 1 0.010828074622526482 1 1 0.010465968974733402 1 1 1 1 0.011789661101419378 0.011289102039715861 1 0.012967522204066466 1 0.010619432241603848 0.010007181711554259 1 1 1 0.010071781969495638 0.011081187482386515 0.013047228348666739 1 1 0.011780688153142451 0.011062501681128727 1 0.011580457838646682 1 1 0.01119415782007128 1 1 1 0.010851092916189669 1 1 1 0.011871900244821416 1 1 0.011806738998972312 1 1 0.011986820363609076 1 0.012973596090536468 1 1 1 0.01064362743295183 1 0.011836366760886313 1 1 0.011448792312346006 0.010966970444646828 0.011328596630436453 0.015045047323901601 1 0.013235171459589332 1 1 1 0.010005080722025182 1 1 1 0.0099971358091298351 0.013580688370514659 1 1 0.011841386755122408 1 0.010828386194440216 1 1 0.011249771793717099 0.011478182130259518 1 0.01142888234881681 1 1 1 0.010017652067778982 1 1 1 1 1 1 0.016008628779546657 1 1 1 0.0093966146513923127 1 1 1 1 1 1 1 1 1 1 1 1 0.0095064280003132051 1 1 1 1 1 1 1 1 1 1 1 1 1 1 1 0.012526099376886486 1 1 1 0.010095058935430458 1 1 0.0097765751701812832 1 1 1 1 1 1 1 1 1 1 1 1 1 1 1 1 1 0.010515183722233425 1 1 0.011307449125178665 1 1 1 0.0082970463062984785 1 0.011335215858250782 1 1 0.013729899229163196 1 1 1 0.010302456436649645 1 1 1 0.010510242407346297 1 1 1 1 1 1 1 1 1 1 1 0.016703983533898639 1 0.012691833633846489 1 0.011695899563219196 1 1 1 1 1 1 1 0.010995235915092549 1 1 1 1 0.010082626801353901 1 0.012913648197458737 1 0.010822929481320607 1 1 1 0.0098655317039305392 1 0.010654083256775726 1 1 0.01150567509172523 1 0.01180959797532989 0.010753076622570117 1 1 1 1 1 1 1 0.013728706244259396 1 1 0.010617608273644901 1 1 1 1 1 1 0.010494539968458156 1 1 1 1 1 1 1 1 0.011392916197255449 1 1 1 1 0.012047591990764862 1 0.01000225454935761 1 1 0.01144861321253849 1 0.010152026328396884 1 1 1 1 1 1 1 1 0.01191358327446462 1 1 1 1 1 1 1 1 1 1 1 1 1 1 1 1 1 0.010003034065849487 1 0.011627834385844926 0.011428406644871731 1 1 1 1 1 0.01269968197690168 1 1 1 1 1 1 1 1 0.010600336681291369 1 1 0.010077828158135056 1 1 1 1 1 0.010940423274298356 1 1 1 1 1 1 1 1 0.011865409969038475 1 1 0.011680917554219494 1 1 1 1 1 1 0.011529116526498323 1 1 0.014477644313946698 0.010057253548410782 1 0.010436714940477073 1 0.010764316434933792 0.012281705389089924 0.011518764727135576 1 1 1 0.013052897667813998 0.012561178265744129 1 1 0.011280933788806213 0.012341742947073103 1 0.011198176475873079 1 1 0.011156585026521443 0.011508054967574516 1 1 0.011723770461680588 1 1 1 0.011292501993440431 1 0.011550440322000203 0.0099531939567379674 1 1 1 1 1 1 1 1 0.010284211069281766 1 1 1 1 1 1 1 1 1 1 0.010916043981210249 1 1 0.013046105454188099 1 0.0083572278497571918 1 1 1 1 1 1 1 1 0.01563572543707456 1 1 1 0.01723017417184412 1 1 1 1 1 1 1 0.010326130073324117 1 1 1 1 1 1 0.01780742141078507 1 1 1 1 1 1 0.012129386287329895 1 1 1 0.01098061219962242 1 1 1 0.0099831904691546451 1 0.0099699792818601501 1 0.0097814018609024243 1 1 1 1 0.0098500795290679104 0.010097412761149204 1 1 1 1 1 1 1 1 1 1 1 1 1 1 1 1 1 1 1 1 0.0097764977920324885 1 1 0.0099932889202259713 1 1 1 0.010516657037958978 0.013784780911163528 1 0.011329331011455456 1 1 1 1 1 1 1 1 1 0.018021098810919726 1 1 1 1 1 1 0.0089672172581156812 1 1 1 1 1 1 1 1 0.015054573747956426 1 1 1 0.010752082093405394 0.01015011984981736 1 1 1 1 1 1 1 1 1 1 1 1 1 1 0.013072182687238788 1 1 1 1 1 1 1 1 1 0.010029982695924155 1 0.011017273175687556 1 1 1 1 1 1 1 1 1 1 1 1 1 1 1 1 1 1 1 1 1 1 1 1 1 1 1 1 1 1 1 1 1 1 1 1 1 1 1 1 1 1 1 1 1 1 1 1 1 1 1 1 1 0.018778026267465352 1 0.012992012151083331 1 0.010998910471584583 1 1 1 1 1 1 1 0.011004993787992086 1 1 1 1 0.010644193251351883 1 1 1 1 1 1 1 1 0.0098226539652410457 1 1 1 1 1 0.013488262098025443 0.010415777397857073 1 1 1 1 0.0091985356277691829 1 1 0.0099953918875234915 1 1 1 0.019004919414746121 1 1 0.0072503555049590815 1 1 1 1 1 0.014794957309978424 1 0.01534862388772206 0.0075213758055544967 1 1 0.01882175377757124 0.012871348241743307 1 1 1 0.018617126869937689 1 0.0099957923419667673 1 0.0098147845118871559 1 1 1 0.015192236421426798 0.01578373472299098 1 1 1 0.010006662356849137 0.01290108966637785 1 0.013608311289642827 1 1 1 0.011092088279454231 0.0076103695082752644 1 1 1 0.01252901538512486 0.0084594872279648708 1 0.0088670785055044755 0.014573041237312205 1 0.0093660077931273025 0.014774266020356027 1 1 1 1 0.016028553649966699 1 0.0083346090541905633 1 0.010412873197390312 1 0.0086736017898519091 1 1 1 1 1 1 1 1 1 1 0.016223084568081119 1 1 0.010081976093602878 1 0.017718947729424915 1 1 1 0.015832295289752121 0.013663134770090365 1 1 1 0.014691737696820089 1 0.0099771017797145312 1 0.012993082561147198 0.0098662682098229551 1 1 1 1 1 1 1 1 1 1 1 1 0.010160569819701749 1 1 1 1 1 1 0.010009452310544592 1 1 0.0097723918753328826 1 1 1 1 1 1 1 1 1 0.0095658943820383958 1 1 0.0093372775826801799 1 1 1 1 1 1 1 1 1 1 1 1 1 1 1 1 1 1 1 1 1 1 1 1 1 1 1 1 1 1 1 1 1 1 1 1 1 1 1 0.010350276673690546 1 1 1 1 1 1 0.010189706853988798 1 1 1 1 1 1 1 1 1 1 1 1 0.010059986015163665 1 0.021193159638346566 1 1 1 1 1 1 1 1 1 1 1 1 1 1 1 1 1 1 1 1 0.017605769348288034 1 1 0.0099944897479302963 1 1 1 0.015774447465544707 0.01003301990076763 1 1 1 1 1 1 1 1 0.010276874469182327 1 1 1 1 1 1 1 1 1 1 1 1 1 1 1 1 0.013082840130206792 1 1 1 1 1 1 0.010733428238903631 0.017889427388622967 1 1 1 1 1 1 1 1 0.0097964334869300347 1 1 1 0.019019134374242488 1 1 1 1 1 1 0.0166658775846493 1 1 1 1 1 1 1 0.010955377199774062 1 1 1 1 1 1 1 1 1 1 1 1 0.010586908127784525 1 1 1 0.010243207698926449 1 1 1 1 0.009946704533815149 1 1 1 1 1 1 1 1 1 1 1 1 1 1 1 1 0.013131094559218473 1 1 1 1 1 1 1 1 1 1 1 0.013142570528632051 1 0.011326560570047592 1 1 1 1 1 1 1 1 0.011598133169095866 1 1 0.013293977822872179 1 1 1 1 1 1 0.010324486436131718 1 1 0.010707157815326898 0.010769208080598572 1 1 1 1 1 1 1 1 1 0.0088383287396574337 1 1 1 0.009845014796285868 1 1 1 1 1 1 1 1 1 1 0.010058581175984639 1 1 1 1 1 1 1 1 1 1 1 1 1 1 1 1 1 1 1 1 1 1 1 1 1 1 1 1 1 1 0.0099461277081236837 1 1 1 1 1 0.009822403643827719 1 1 1 1 1 1 1 1 1 0.01053728573088572 1 0.012884333153471681 1 1 1 1 1 1 0.0096153153390778831 1 1 0.0092798014358990225 1 1 1 1 1 1 1 1 1 1 1 1 1 1 1 1 1 1 1 1 1 1 0.013205508026696447 1 0.017909408905567175 1 1 1 1 1 1 1 1 1 1 1 1 1 1 1 1 1 1 1 1 1 1 1 0.0099346616672656238 1 1 1 1 0.0096423463667236978 1 1 1 1 1 0.01115893355089944 1 1 0.011642213683367077 1 0.01013008672258902 1 1 1 1 0.010384793542069738 0.012812563493503034 0.011035417955171087 1 1 0.010357673244337222 1 1 0.020307201328281052 0.017507724208990064 1 0.0090171624452623691 1 1 1 1 1 0.01072727667757432 1 1 1 0.01118388309858087 0.011158496938110551 0.010005901057431415 0.012832384073539489 1 1 1 0.010000461876052726 0.01259903069293225 1 1 1 0.011323237581648632 0.010904083505582331 1 0.012868362149668576 1 1 1 1 1 1 1 1 1 1 1 1 1 1 1 1 1 1 0.010017236539786372 1 1 1 1 1 1 1 1 1 1 1 1 0.010195882152093459 1 1 1 1 1 1 1 1 1 1 1 1 1 0.0081706012594613929 0.010068866769534626 1 1 1 1 1 1 1 1 0.014009210531404434 1 0.011409404628223407 1 1 1 1 0.010340286372266166 1 0.014712107029396756 1 1 1 1 1 1 0.0083021106033492071 1 1 1 1 1 1 1 1 1 1 1 1 1 1 1 1 0.010531557307503834 1 1 0.0094635516602277758 1 1 1 1 1 1 1 1 1 1 1 1 1 1 1 1 1 1 1 1 0.010147015432149247 1 1 1 1 1 1 1 1 0.012476275802606969 1 1 1 1 1 1 1 1 1 1 1 0.0099903091220188839 1 0.0094674901619663625 1 1 1 1 1 0.013702562205255901 1 1 1 0.0091495781604712736 1 0.0099589999804050831 1 1 1 1 1 1 1 1 1 0.0098482599773741034 1 1 1 1 1 1 1 1 1 1 1 0.014465816790771122 1 1 0.0091561643531007184 1 1 1 1 1 0.015475869434121187 0.010018600473694331 1 1 1 1 1 0.016122759154927287 1 1 0.010043193688692236 1 1 0.01025123692521606 1 1 1 1 1 1 1 1 1 1 1 1 1 1 1 1 0.010031121679782956 1 1 0.010008796999810766 1 1 1 1 1 1 1 1 1 1 1 1 1 1 1 1 1 1 1 0.010318793298736188 1 1 1 1 0.010563431035715672 1 1 1 1 1 0.0099778604886080046 1 1 1 1 1 0.010319948678829391 1 1 1 1 0.0098910279229868017 1 1 1 1 1 0.010135668128950705 1 1 1 1 1 1 1 1 1 1 1 1 1 1 1 1 1 1 1 1 1 1 1 0.011315084600634004 1 1 1 1 1 1 1 0.010177942215307358 1 1 1 1 1 1 1 0.010360731987968913 1 1 1 0.010182789772661557 1 1 1 1 1 1 1 1 1 1 1 0.011203033062584675 1 1 1 1 1 1 0.010500678088253314 1 1 1 1 1 1 1 1 1 1 1 1 1 1 1 1 1 1 1 1 0.011153415224873002 1 1 1 1 1 1 0.010581236138643146 1 1 1 1 1 1 1 1 0.011267067530331236 1 1 1 0.010451060250541648 1 1 1 1 1 1 1 1 1 1 1 1 1 1 1 1 1 1 1 1 1 1 1 1 1 1 1 1 1 1 1 1 1 1 1 1 1 1 1 1 1 1 0.01090701199773535 1 1 1 1 1 1 1 1 1 1 1 1 1 1 1 1 1 1 1 1 1 1 1 1 1 1 0.011391940161457283 1 1 1 1 1 1 1 1 1 1 1 1 0.0097281775159638179 1 1 1 1 1 1 1 1 1 1 1 0.010770177033563394 1 1 0.011976183264557738 1 1 1 1 1 1 1 0.0098423876185514837 1 1 1 1 1 1 1 1 1 1 1 1 0.00894839962132251 1 0.010397823897622241 1 0.01238581699548879 1 0.0094768530774680011 1 1 1 1 1 0.010811835172965821 1 1 1 1 1 1 1 1 1 1 1 1 1 1 1 1 0.0095739011057937497 1 1 1 1 1 1 1 1 1 1 1 0.008046235913100875 1 0.024491256276175148 1 1 1 1 0.020771486558062626 1 0.014186249415086852 1 1 1 1 1 1 1 1 1 1 0.019805149626880094 0.021594848597965399 1 1 1 1 1 1 1 0.013275185207911398 1 1 1 1 0.018956985390823439 0.017125712747173151 1 1 1 1 0.0099914545881325464 1 1 1 1 1 1 1 1 1 1 1 1 1 1 1 1 1 1 1 1 1 1 1 1 1 1 1 1 1 1 1 1 1 1 1 1 1 1 1 1 1 1 1 1 1 1 1 1 1 1 1 1 1 1 1 1 1 1 1 1 1 1 1 1 1 1 1 1 1 1 1 0.010685831391688098 1 1 1 1 1 1 1 1 1 1 1 1 1 1 1 1 1 1 1 1 1 0.010521471826149502 1 1 1 1 1 0.010803395248772954 1 1 1 1 0.011310950072997455 1 1 1 1 1 1 1 0.010282951902261639 1 1 1 0.01010599320190991 1 1 1 1 1 1 1 1 1 1 1 1 1 1 0.010004337015235759 1 1 1 1 0.010010025174989055 1 0.010075031140241315 1 1 1 1 1 1 0.010264272292425772 1 1 1 1 1 1 1 1 1 1 0.010032856646229736 1 1 0.010004412142161587 1 1 1 1 1 1 1 1 1 1 1 0.0099997920396211592 1 1 1 1 1 1 1 0.0099998480196231594 1 1 1 1 1 1 1 1 1 1 1 1 1 1 0.019938478312144604 1 0.0094868986609844049 1 1 0.0058824915727546546 1 1 0.012702187189767565 0.0067733650321694372 1 1 1 1 0.007817724850425178 1 0.010308027391937591 1 1 0.021153514182960728 1 0.013325939684779731 1 1 1 1 1 1 1 1 1 1 1 1 0.024681922612953943 1 1 1 0.027117819234642397 1 1 1 0.011888774545979811 1 1 1 1 1 1 1 1 1 1 1 0.015767398919240328 1 1 1 0.0099663203413040431 1 0.0098354838064420632 1 1 1 1 0.0098691634651380273 1 1 1 1 1 1 1 1 1 1 1 0.011875032243535161 1 1 1 1 1 1 1 0.010098811310189131 1 1 1 1 0.010672538041262412 1 0.010047195471108081 1 0.012770621967435076 1 1 1 1 1 1 1 0.011815612649384929 1 1 1 1 1 1 0.033268720492464925 1 1 1 1 1 1 1 0.01070273143797203 1 1 1 1 1 0.01176998149669161 1 1 1 1 0.01060342576977933 0.0070134795666941521 1 1 1 1 1 0.0082613383957706177 1 1 1 1 1 0.010256994768974315 1 0.0064271084140319111 1 1 1 1 0.0070827686643271459 1 1 1 0.023335765968875967 1 1 1 1 1 1 1 1 1 1 1 1 1 1 1 1 1 1 1 1 1 1 1 1 1 1 1 0.01434298402263611 1 1 1 0.022800670055703735 0.033883902646637001 1 1 1 1 1 1 1 1 0.011132230007662251 1 1 1 1 0.012377381491105774 1 1 1 1 1 1 1 1 1 0.011992947729441797 1 1 0.010747796245998283 1 1 1 1 0.0098164052785935547 1 1 0.015727176731551547 1 1 1 1 0.013326989880598611 1 1 0.012513230928088204 1 1 0.01031278228740848 1 1 0.0093821265109878971 1 1 1 1 1 1 1 1 1 1 1 1 1 1 1 1 0.011773856223344537 1 1 1 0.010348890892095987 1 1 1 1 1 1 1 0.017577102056732963 1 1 1 0.010434760537681134 1 1 0.0078705046836048294 0.011937134924048179 1 1 1 0.016668501964752981 1 0.011629891810087499 1 1 1 0.0092565354913357861 0.014219297855096548 1 1 1 1 1 1 1 1 1 0.010253140202101468 1 0.010134848162679361 1 1 1 1 0.0087740652388391353 0.015421463213855478 1 1 1 0.014508221172579742 1 1 1 1 1 0.011993384929038011 1 1 1 1 1 1 1 1 1 1 1 1 1 1 1 1 1 1 1 1 1 1 1 1 1 1 1 1 0.010097446147177482 1 1 1 1 1 1 1 1 1 1 0.011826667585492912 1 1 0.0090047508650316962 1 1 1 1 0.013265444117810667 1 1 1 1 1 1 1 1 1 1 1 1 1 1 1 1 0.011675923324580045 1 1 1 1 1 1 1 0.018374478883266418 0.010404977231773268 1 1 1 1 1 1 1 0.027065103984908724 0.0094711483666399063 1 1 1 1 1 1 1 0.010249574722679258 1 1 1 1 1 0.010992040745169147 1 1 1 1 1 0.011157880025853771 1 0.010763816268956256 0.010982185711666601 1 0.027420378413077914 1 1 1 1 1 1 1 1 1 1 1 1 1 1 1 1 1 1 1 1 1 1 1 1 1 1 1 1 1 1 1 1 1 0.010436973198724353 1 1 1 1 1 1 1 1 1 1 1 0.009451113053721788 1 1 1 1 1 1 1 1 0.0099382641308371142 1 1 0.039753423001941457 0.0087371833225600975 1 0.023622689360091507 1 0.019899933412658669 1 0.019051632894591098 1 1 1 0.0077754631673666837 0.013686341176319124 1 1 0.011176418257612232 1 1 1 0.0073326980295569865 1 1 1 1 1 1 0.010526717489931225 1 1 0.0090116675207406495 1 1 1 1 1 1 0.011611264372719402 1 1 1 0.01572750758131438 1 1 1 1 1 1 1 1 1 1 1 0.012000971015206722 1 1 1 1 1 1 1 0.0088855666085204087 1 1 1 0.018623836480486936 1 1 1 1 1 1 1 0.013403774650295087 1 1 1 1 0.013849118556478517 1 1 1 1 1 1 1 1 0.010355225508547235 1 1 1 0.010381581759550004 1 1 1 0.021410648092081288 1 1 1 1 0.012441495201725765 1 1 1 1 1 0.010004749489806305 1 0.013311309594455882 1 1 1 0.0099181171898027887 1 0.0090796584665334135 1 1 1 1 0.013015205990915549 1 1 0.0091559904948499311 1 1 0.010113424571844273 1 1 1 1 1 1 1 1 1 1 1 1 1 1 1 1 1 1 1 1 1 1 1 1 1 1 1 1 1 1 1 1 1 1 1 1 1 1 1 1 1 1 1 1 1 1 1 1 1 0.012047977021774634 0.011100177491391755 1 1 1 1 1 1 0.0095313587877131345 1 1 1 1 1 1 1 1 1 1 1 1 1 1 1 1 1 1 1 1 1 1 1 1 1 1 1 1 1 0.01016102011158016 1 1 1 1 1 1 0.010241394687522916 1 1 0.012593804759523451 1 1 1 1 1 1 1 1 0.010997843462168155 1 1 1 1 1 0.0081397219304114709 1 1 1 0.0098300884211973798 1 1 1 0.009475713124615542 1 1 1 1 1 0.0071346059370836785 1 1 1 0.013654950184108871 1 0.011048244416942479 1 0.0091704315089048763 0.010180608534964764 1 0.0099761264249571061 1 1 1 1 0.01001842478156385 1 1 1 1 1 1 1 1 1 0.010234895491979003 1 1 1 1 1 1 0.0095440789926337002 1 1 0.009471459880177684 1 1 1 1 1 1 1 0.0098296807119275294 1 1 1 1 1 1 1 1 1 1 1 1 1 1 1 1 1 1 1 1 1 1 1 1 1 1 1 1 0.012308343260680112 1 0.0099970915653306239 1 0.010324859425441715 1 1 1 1 0.0098321593967751024 0.010388304979707217 1 1 1 1 1 1 0.010128769765164053 1 0.0099839969222591599 1 1 1 1 1 1 1 1 1 1 1 1 1 1 1 1 1 1 1 1 1 1 0.010125635841754455 1 0.011185090260670811 1 0.010063380450519341 0.01359735373708912 0.012318541861651615 1 1 1 1 1 1 1 0.016452646976127416 1 0.010018103478285287 1 1 1 1 1 1 1 1 0.0099932122562731186 0.010627027483789162 1 0.011847825438678754 1 1 0.0090993515062031786 1 1 1 0.010075124120770513 1 0.010293940342131699 1 1 1 1 0.010724693431597517 1 1 1 1 1 1 1 1 1 1 1 1 1 0.013319060617393807 1 1 1 1 1 1 1 1 1 0.012098237142874772 1 1 1 1 1 1 1 1 0.010712940031769945 1 1 1 1 1 0.014107615844715617 1 1 1 1 1 0.014787067249655016 1 1 1 1 1 1 1 0.01416943817944067 1 1 0.015377151948049426 1 1 0.012140242567048628 1 1 1 1 1 1 0.0089455414867326902 1 1 1 1 0.014001330378386488 1 0.0099321551119691438 1 1 1 1 1 1 1 0.015402271539992341 1 1 0.011369356295681117 0.0091993276391339109 1 0.010202341476801628 1 0.016671384207593235 1 1 1 0.013047669762437772 1 0.011252951560468525 1 0.014011711352869445 1 1 1 1 0.008912108911287412 1 1 1 1 1 0.0097189198943380579 1 1 1 1 1 1 1 1 0.0096226806368488859 1 1 1 1 1 1 1 1 1 1 1 1 1 0.010109203785908733 1 1 1 1 1 1 1 1 1 1 0.010992682904022118 1 1 1 0.015164644903389795 1 1 1 1 1 1 1 1 1 1 1 0.010280555649260788 1 1 1 0.011258610102626774 1 0.012605132795202579 1 1 0.015791266328889657 1 1 1 0.014307481535589563 1 1 1 0.0097056478926262034 1 1 0.015527425029311596 1 1 1 1 1 1 1 1 0.014364055523629921 1 0.010338969927422068 1 1 1 1 1 1 1 1 1 1 1 1 1 1 1 1 1 1 1 1 1 1 1 1 1 1 0.010529226367247969 1 1 0.010008840966209969 1 1 0.010009412236134173 1 1 1 1 1 1 1 1 1 1 1 1 1 1 1 1 1 1 1 1 1 1 1 1 1 1 1 1 1 1 1 1 1 1 0.010122801877228246 1 1 1 1 1 1 1 1 1 1 1 1 1 1 1 1 1 0.016448280119036943 1 1 0.016810549019155754 1 1 1 1 1 1 1 0.014570589586977736 1 1 1 1 1 1 1 1 1 1 1 0.013798819532271425 1 0.012491823827819364 1 1 1 0.010026164591208938 1 1 0.0099431563745245553 1 1 1 0.010888676899323563 1 0.010869108306416414 1 1 1 1 1 1 1 0.010836631245792053 1 0.011529475428017213 1 1 1 1 1 1 1 1 1 1 1 1 1 1 1 1 1 0.013888608568314944 1 1 0.015791029812244468 1 1 1 1 0.010056703767048649 1 0.01152508408219133 1 1 1 0.009165150504914215 1 1 1 0.010125879112988406 1 0.00973422051934748 1 1 1 1 1 1 0.011293741449485863 1 1 1 1 1 1 1 1 1 1 0.0099963974794175479 1 1 1 1 0.0176125573781587 1 1 1 1 1 1 1 1 1 1 1 1 1 1 1 1 1 1 1 1 1 1 1 1 1 1 1 1 1 1 1 1 1 1 1 1 1 1 1 1 1 0.010523608884489041 1 1 1 1 1 0.010002634532166179 0.010396881339380278 1 1 1 1 0.013788978646247447 1 0.011511096989302298 1 1 1 1 1 1 1 0.0099867318175035722 0.010261054477215974 1 1 1 1 1 1 1 1 1 0.01043115709559396 1 1 1 1 1 1 1 1 1 1 1 1 1 1 1 1 1 1 1 1 1 1 1 1 1 1 1 1 1 1 1 1 1 1 1 1 1 1 1 1 1 1 1 1 1 1 1 1 1 1 1 1 1 0.010030851000633305 1 1 1 0.010073185324476343 1 1 1 1 1 1 1 1 1 1 1 1 1 1 1 1 1 1 1 1 1 1 1 1 1 1 1 1 1 1 1 1 1 1 1 1 1 0.009688981745177884 1 0.0090610207905872618 1 1 1 1 1 1 1 1 1 1 1 1 1 1 1 1 1 1 0.016800733076017246 1 1 1 1 1 1 1 1 1 1 1 0.010298348653683226 1 1 1 1 1 0.010870043446860206 1 1 1 1 1 1 0.0099906685775247844 1 1 1 1 1 1 1 1 1 1 1 1 1 1 1 1 1 1 1 1 1 1 1 1 1 1 1 1 1 0.0098996163191083352 1 1 1 1 1 1 1 1 1 1 1 1 1 1 1 1 1 1 1 1 1 1 1 1 1 1 1 1 1 0.010079873081965361 1 1 0.010275439453475472 1 1 0.0094605333191147868 1 1 0.010257854755466859 1 0.0099325592427209272 1 1 1 1 1 1 1 1 1 1 1 1 1 1 1 1 1 1 1 1 1 1 1 1 1 1 1 1 0.010116933164674225 1 1 1 1 1 1 1 1 0.012383268516025878 1 0.01033096707654081 1 1 1 0.011990905767459446 1 1 0.010530438949990699 1 0.010357290032762353 1 0.0091674327080705879 1 0.010523390064658474 1 0.010000242393904934 1 0.0096131883861578261 1 1 1 1 1 1 1 1 1 1 1 1 1 1 1 1 1 1 1 1 1 1 1 1 1 1 1 1 1 0.010128049433922558 1 1 0.010965569917567858 1 0.010905485748160981 1 1 1 1 1 0.012467248786496894 1 1 0.0099549555079295696 1 1 1 1 0.010037312275177932 1 0.01188601418096049 1 0.0080797919232430231 1 0.012496254810715583 0.012833773877229331 1 0.0093122723975609892 0.013230637572942358 0.015899341246372021 1 0.010144043897041061 1 1 1 1 1 1 1 1 1 0.0086730946750562879 1 1 1 1 1 0.01774280840840927 1 1 0.010165597300299428 1 1 1 1 1 1 1 0.014619976112492073 1 1 0.012807633862865684 1 1 0.010278177128892479 1 1 1 1 1 1 1 1 1 1 1 1 1 1 1 1 0.0094202249735617465 1 1 0.010500607873265394 1 1 0.014112212351037941 1 1 1 1 1 0.013180623182947285 1 1 1 1 1 0.010216125651054675 1 1 1 1 1 0.018047718027813416 1 1 1 1 0.01076896541471745 1 1 0.01684754001937816 1 1 0.0097310069810462585 0.010055929279061127 1 1 1 1 0.022537244328217219 1 1 1 0.020669368745845809 1 1 1 0.018747792967031104 1 1 1 1 1 1 1 1 0.0066711502643041782 1 1 1 1 1 1 1 1 1 1 0.0048196718929859605 1 1 1 1 0.023700378254034742 1 0.0036491532362138137 1 1 1 1 0.010343786471763303 1 1 0.0095881787992943401 1 1 1 1 1 1 1 1 1 1 0.018662521816512526 1 1 1 0.0097658853742734857 1 1 1 1 1 1 1 1 1 1 1 0.011185886956997518 0.010738921401825483 1 1 1 1 1 0.01082243789812946 1 1 1 1 0.017029977135000415 1 1 1 0.010950597883966835 1 1 0.010578486370525345 1 1 1 1 1 1 1 0.012008654528838715 0.016854418284261402 1 1 1 1 1 1 0.017736828298607586 1 0.013644187639476028 1 0.016399616498836166 1 1 1 0.012147751098560923 1 1 0.010101267139161709 1 1 1 1 0.010877908699186454 0.01319071309085329 0.01006187242362664 1 1 1 1 1 1 1 1 1 1 1 1 1 1 1 1 1 1 1 1 0.010027895062464081 1 1 1 1 1 1 1 1 1 1 1 1 1 1 0.016176050441319777 1 1 1 0.018976200179805145 0.017128916096523394 1 0.014857584771778821 1 1 0.017444920273091642 0.0092081406344960166 0.0094993112121049342 1 0.017536355069027808 1 0.015772847147858149 1 1 1 0.018878561822607963 1 0.010372796537306215 1 1 0.011243001884476907 1 1 0.01389595182690468 0.009938544848971359 0.01435155108298424 1 0.012056378215715362 1 0.020131937399992229 0.010270807316738229 1 1 0.014800465272978373 1 1 1 1 0.016383003414034838 0.013713063153443422 1 1 1 1 1 1 0.010276009585285798 0.014955535644322377 1 0.014290852264292553 0.012849139497369232 1 0.0092498682442163256 1 1 0.0095355395306627195 1 1 1 0.01041346800998748 0.010217688695385915 1 1 1 0.0099725605741219497 1 1 1 1 1 1 1 1 1 1 0.010125903004741969 1 1 1 1 1 1 1 1 1 1 1 1 1 1 1 1 1 0.0099149750304564459 1 1 1 1 0.010452259814993108 1 1 1 1 1 1 1 1 1 1 1 1 1 1 0.011268131091268105 1 1 1 1 1 1 0.011569789821788074 1 0.019276877010409539 1 1 1 1 1 0.010652851314235774 0.019797525898497051 1 1 1 1 1 1 1 1 1 1 1 1 1 1 1 1 1 1 1 1 1 1 1 1 1 1 1 1 1 1 1 1 1 1 1 1 1 1 1 1 1 1 1 1 1 1 1 1 1 1 1 1 1 1 1 1 1 1 0.0096300037209007035 1 1 1 0.0099253003207531165 1 1 1 1 1 1 1 1 1 1 1 1 0.009176008844563514 1 1 1 1 1 1 1 1 0.010534155644963475 1 1 0.010896983337575696 1 1 0.010463184274192218 1 1 1 1 0.010500632341007433 1 0.0099594993712407744 1 1 1 0.0096703290105702444 1 0.011011838213690436 1 1 1 1 0.010447414451203918 1 1 0.010499524613804184 0.010990057597418661 1 1 0.0099994957356755853 1 1 0.0099981050208183125 1 1 1 1 1 1 1 1 1 1 1 1 1 1 1 0.010420465562065842 1 1 1 1 1 1 1 1 1 1 1 1 1 1 1 1 1 1 1 1 1 1 1 1 1 1 1 1 1 1 1 1 1 1 1 1 1 1 1 1 1 1 1 1 1 1 1 0.0098242067562044413 1 0.0094966072896235793 1 1 1 1 1 1 1 1 0.011914565849099841 1 1 1 1 1 1 1 0.011421499589936664 1 1 0.0099716811701763362 1 1 0.0098831829505632903 1 1 1 1 1 1 1 1 1 1 1 1 1 1 1 1 1 1 1 0.01057638325889302 1 1 1 1 1 1 1 0.011200054233044973 1 1 1 0.010732728124706041 1 1 0.012217582248852436 0.010002251264661442 0.012131540230797169 1 1 1 1 0.0099841061548288854 0.014094907044362307 1 1 1 1 1 0.013449358656127704 1 1 1 1 0.012039617722687898 1 1 1 1 1 1 0.010961110848142891 1 1 1 0.009981978370334009 0.012941914456532816 1 1 1 1 1 1 1 1 1 1 1 1 1 0.0099612865823268636 1 1 0.0099750382287727632 1 1 1 1 1 1 1 1 1 1 1 1 1 1 1 1 1 1 1 0.0099670173553910637 1 1 1 1 1 1 1 1 1 1 1 1 1 1 0.023022054713401366 1 1 1 1 1 0.022169138073748207 1 1 0.021276232592406755 1 1 1 1 1 1 0.010019041191588867 1 0.010024337142386031 1 0.0095063551321166763 1 0.0098875803493728188 1 1 0.010146546554816789 1 1 0.0207061663783875 1 1 1 0.020097846042939425 1 0.014614523093413873 1 1 1 1 1 1 1 1 0.010430749263416497 1 1 1 1 1 1 1 1 1 1 1 1 1 1 1 1 1 1 1 1 1 1 1 0.013607494535773011 1 1 0.012744461162708259 1 1 1 0.0092404116283043031 1 0.023396329966371733 0.010008911605276432 1 1 1 1 1 1 1 1 1 1 0.023075578947036199 1 0.012928232878688996 1 0.020866920778132642 1 1 1 1 1 1 1 1 1 1 1 1 0.0097509012493002048 1 1 1 1 1 1 1 1 1 1 1 1 1 1 1 1 1 1 1 1 1 0.014909234179631324 1 0.019456379634996804 1 1 1 0.01761433775074054 0.0092666650102210535 0.018067005850251318 1 1 1 1 0.010017430191626989 1 1 1 1 0.019232215360579334 1 1 1 1 1 1 0.0099205272502822621 1 1 1 1 1 1 0.017961772737547933 0.013142863804691237 1 0.012745994661158746 0.010307500198758634 1 1 1 1 1 0.010219214356688957 1 1 1 1 1 1 1 1 0.010283327104052838 1 1 1 1 1 1 1 0.013236890692029452 1 1 1 0.012677674750701565 1 1 1 0.011157593556800899 1 1 1 1 1 1 0.014229258826126972 1 1 0.011619436233471303 1 1 0.0099895472396152284 1 1 0.012742402545502709 1 1 0.017074521947105986 1 0.019993504213547262 1 1 1 1 1 0.010372097023495848 1 1 1 1 1 1 1 1 1 1 1 1 1 0.011832948126369119 1 0.010716354462232021 1 1 1 1 1 1 1 1 1 1 1 1 1 1 1 1 1 1 1 1 1 1 1 1 1 1 1 1 1 1 1 1 1 1 1 0.011645766530102891 1 1 0.01187907457805994 1 1 1 1 1 1 0.011813412176004161 1 1 1 1 1 1 1 1 1 1 1 1 0.0099582311657640445 1 1 1 1 0.010172456243328149 1 1 1 1 1 0.010785871069528781 1 1 1 1 1 0.010214225077564094 1 1 1 1 1 1 1 1 1 1 1 1 1 1 1 1 1 1 1 1 1 1 1 1 1 1 1 1 1 1 1 1 1 1 1 1 1 1 1 0.010229607940300525 1 1 1 1 1 0.0098577269922221281 1 1 0.010908743922364288 1 1 1 1 1 1 0.011378406646139684 1 1 0.011750267874790525 1 1 0.0099373210170350668 1 1 0.012488838132490077 0.011629631620197568 0.0091517200507054228 1 1 0.015391838867414506 1 1 0.010093436531618039 1 1 1 1 1 1 0.014725697231105488 1 1 1 1 1 1 1 1 1 0.010634414805901802 1 0.01138800615822274 1 1 1 1 1 0.013531047711903277 1 1 0.01182209172673095 1 1 0.0096577786105896297 1 1 1 1 1 1 1 0.0083562121678240429 1 1 1 1 0.0064996320951536887 1 1 0.013244545275674209 1 1 1 1 1 0.01120260464029987 1 1 1 1 1 1 1 0.014776915087259363 1 1 0.011603109579318482 1 0.016735965935630426 1 1 1 1 1 1 1 1 1 1 1 1 1 1 1 1 1 1 1 1 1 1 1 1 1 1 1 1 1 1 0.010198466992159419 1 1 1 1 1 0.0099993080259475949 1 1 1 0.0099854207242025452 1 1 1 1 1 1 1 1 1 1 1 1 1 1 1 1 1 1 1 1 0.0099861126982549505 1 1 1 1 1 1 0.011350389962762412 1 1 1 1 1 1 1 1 1 1 0.017677233443523756 1 1 1 1 1 0.0096230432861336684 1 1 0.012557161214457144 0.015541720725238867 1 1 1 1 1 0.013772830188050398 1 1 1 1 1 1 0.013929259844027913 1 1 1 1 0.010056323280307306 1 1 1 1 1 1 1 1 1 1 1 1 1 1 0.01173044317039541 1 0.010644942126088538 1 1 1 1 1 1 1 1 1 1 1 1 1 1 1 1 1 1 1 1 1 0.011232357237991663 1 0.010075123494514514 1 1 0.010076471350388375 0.010386352917287534 1 1 1 1 1 1 1 0.0098334656225052604 1 1 1 0.0098127470177674734 1 1 0.010687905544796823 1 1 1 0.011241872502343779 1 1 1 0.012566044476925961 1 1 0.0092954012597273507 1 1 1 1 1 0.0093263870388317939 1 1 1 1 1 1 1 1 1 1 0.01635821081000877 1 1 0.011368882676386659 1 1 1 1 1 1 1 1 0.0099924799397069861 1 1 0.010062544804424405 1 1 0.010087533736979213 1 1 1 1 1 1 0.010227882946338182 1 1 1 0.0096149482463405433 1 1 1 1 1 0.0095539270248420089 1 1 1 1 0.017963663530111595 1 1 1 0.010520541306702293 1 1 0.01072092249428348 0.013174212540242045 1 1 1 1 0.011705377857391647 1 1 1 0.010624188094791244 1 1 1 1 1 1 0.009892013969304423 1 1 1 1 0.011693990198778065 1 0.009998798055267398 1 0.0099261375893285823 1 1 0.009745720475408828 1 1 0.011098799335947028 0.0098935315136932239 1 1 1 1 0.0104118011928231 1 1 1 1 1 0.010198452903579066 1 1 1 1 1 1 1 1 1 1 1 0.011888899020324525 1 1 1 1 1 1 1 1 1 0.010011810519228314 1 1 1 1 1 1 1 1 1 1 1 1 1 1 1 1 1 1 1 1 1 1 1 1 1 1 1 1 1 1 0.010761079962716746 1 1 1 1 1 1 1 1 1 0.012987292324528395 1 0.010677536124924732 1 1 1 1 0.0099809306101078937 1 1 1 1 1 1 1 1 1 1 1 0.015040008347873123 1 1 1 1 1 1 1 1 1 1 1 1 1 1 1 0.012047209239567907 1 1 1 1 0.014598430981418824 1 1 1 1 1 1 0.011202288934418155 1 1 1 1 1 1 1 1 1 1 1 1 1 1 1 1 1 1 1 1 1 1 1 1 1 1 1 1 1 1 1 1 1 1 1 1 1 1 1 1 1 1 1 1 1 1 1 1 1 0.010163023816542192 1 1 1 0.0098752016872385388 1 1 1 1 1 1 1 1 1 1 1 1 0.0095543170442751821 1 1 1 0.010136949140567895 1 1 1 1 0.015340377559236059 1 1 1 0.010275831801262953 1 0.01047331489512111 0.0097098837101498719 1 1 0.0099509258755842052 0.0092791806689466617 1 0.013078694328852376 0.011107959272290973 1 1 1 1 1 1 1 1 1 1 1 1 1 1 1 1 1 1 1 1 1 1 1 1 1 1 1 1 1 0.0088295655937086735 1 1 1 1 1 0.011889300816858316 1 1 0.010371606723865848 0.010002796473916243 1 1 1 1 0.010147003521177835 1 1 1 0.0098069281118509724 1 0.010164085306720654 1 1 0.0096924102509029567 1 0.0098013642234159124 1 0.012328437211752308 0.0077061007780870258 1 1 1 1 1 1 1 1 1 1 1 0.010334183867502815 1 1 1 0.01106375362987979 1 1 1 1 0.0096634958165575883 0.012310397001550823 1 1 0.01379953967719303 0.010239307042029073 1 0.0095225042600876799 0.012502429402535518 1 0.010000267605304543 1 1 0.009552776355975668 1 1 1 1 1 0.011060710814270487 1 1 1 1 1 1 1 1 0.014006189141438773 1 0.011591889273385208 1 1 1 1 1 1 1 1 1 0.010600277803185077 1 1 1 1 0.012297263028502987 1 1 1 1 1 1 1 0.011382912964780915 1 1 1 0.010719481002731792 1 1 1 1 1 1 1 1 0.010948077834346946 0.0099382327451470708 1 1 0.0099668004307766553 0.013488371188369314 0.015461473070138163 1 1 1 1 1 1 1 1 1 1 1 1 1 1 1 1 1 1 1 0.011240633574029359 1 1 1 1 0.010100447330066795 1 1 0.013042195721569581 1 1 1 1 1 1 1 1 1 1 1 1 1 1 1 1 0.010010719970578036 1 1 1 1 1 1 1 0.011543339524439943 1 0.013900047855364235 1 1 1 1 1 1 1 1 1 0.01460311646818584 1 1 0.01000576146355559 1 1 0.011334320769051654 1 0.016143206538183436 1 1 1 0.0099902942660065573 1 1 1 1 0.0099612852682206612 1 1 1 1 1 1 1 1 1 1 1 0.0098917482319232052 1 1 1 1 1 1 1 1 1 0.010176514550607649 1 1 1 1 1 1 1 1 1 0.0099166102053025104 1 1 0.013059014659334265 1 1 1 0.012867601174542253 1 1 0.011476973836712489 1 1 1 1 0.013094998460570202 1 1 0.014289666132010957 1 1 0.010092375281219014 1 1 1 1 1 1 1 1 1 1 1 1 1 1 1 0.0099935704062678495 1 0.015277085655621874 1 1 0.011183095226572322 1 0.012897454083201292 1 1 1 1 1 1 1 1 1 1 1 1 1 0.010940064196041099 1 1 1 0.012579192418974386 1 0.0097688453662149576 0.0094707120632930436 1 1 1 1 0.0099293030183568633 1 1 1 1 1 1 1 1 0.014818255177452409 1 1 1 1 1 1 1 1 0.013942878769623914 1 1 1 1 1 1 1 0.011427368203796277 1 1 1 1 1 1 1 1 1 1 1 1 1 1 1 0.010497949737170989 1 1 1 1 1 1 1 1 0.011420094818843677 1 1 0.011894739318974843 1 1 1 1 0.010416586905414308 1 1 1 1 1 1 1 1 1 1 1 1 1 1 1 1 1 0.012472503400195397 1 1 1 1 1 1 1 1 1 1 1 1 1 1 1 1 1 0.012961882242591739 1 1 1 1 1 1 1 1 1 1 1 0.0098700773783498164 1 1 1 0.0098651437917936947 1 1 1 1 1 1 1 1 0.011301511273307462 1 1 1 0.012705283517221272 1 1 1 1 1 1 1 1 1 1 1 1 1 1 1 0.011146771984372469 1 1 1 1 1 1 1 1 1 0.01036957304435558 1 1 1 1 1 1 1 1 1 1 1 0.0098338514903281264 1 1 1 1 1 1 1 1 1 1 1 1 0.011391526999719476 0.013194162282973359 1 1 1 1 1 1 1 0.010510094913587731 1 1 1 0.011257511096669682 1 1 1 1 1 1 0.011712860549795565 1 1 1 1 1 1 1 1 1 1 1 1 1 1 1 1 1 1 1 1 1 1 1 1 1 1 1 1 1 1 1 1 1 1 1 1 1 1 1 1 0.010705167460641965 1 1 1 1 1 1 1 1 1 1 1 1 1 1 1 1 1 1 1 1 1 1 1 1 1 1 0.015907409685550357 1 0.01039778168888029 1 1 1 1 0.010107554223556452 1 1 1 1 0.017764258842649965 1 1 1 1 1 1 1 1 1 1 1 1 0.01229896607942965 1 1 1 1 1 0.0099841674497710524 1 1 0.0080821969891099361 1 0.01546690746225703 1 1 0.014629764825317797 1 1 1 1 1 1 1 1 1 1 1 1 1 1 1 1 1 1 1 1 1 0.0098118979239333309 1 1 1 1 1 1 1 0.0098624642837176341 1 1 1 1 1 1 1 1 1 1 1 1 1 1 1 0.01004988097028249 1 1 1 1 1 1 1 1 1 1 0.009325393957347777 1 1 1 1 0.012080914474914042 1 1 0.0099675311859152103 1 1 1 1 1 1 1 1 0.014339026348107124 1 1 1 1 1 1 1 0.014779117789404625 1 1 0.014682041614847279 1 1 1 1 1 1 1 1 1 0.011948588050959772 1 1 1 1 1 1 1 1 1 1 1 1 1 1 1 1 1 1 1 1 1 1 1 1 1 1 1 1 1 1 1 1 1 1 1 1 1 1 1 1 1 1 1 1 1 1 1 1 1 1 1 1 1 1 1 1 1 0.010734083468601373 1 1 1 1 1 0.012476175556471828 1 1 1 1 1 1 1 1 1 0.010820551087590613 1 1 1 1 1 1 1 1 1 1 0.016077458306383546 1 1 1 1 1 1 1 1 1 1 1 1 1 1 1 1 1 1 1 1 1 0.0098952692964784442 1 0.0099683568175154644 1 1 1 1 1 1 0.017732167352491196 1 1 1 1 1 1 1 1 1 0.0099045147219983965 1 1 1 1 0.0097955458354313206 1 1 0.013500091068153386 1 1 1 1 1 1 1 1 1 1 1 1 1 1 1 1 1 1 1 1 1 1 1 1 1 1 1 1 1 1 1 1 1 1 1 1 1 1 1 1 1 1 1 1 1 1 1 1 1 1 1 1 1 1 1 1 1 1 1 1 1 1 1 1 1 1 1 1 1 1 1 1 1 1 1 1 1 1 1 1 1 1 1 1 1 1 1 1 1 1 1 1 1 1 1 1 1 1 1 1 1 1 1 1 1 1 1 1 1 1 1 1 1 1 1 1 1 1 1 1 1 1 1 1 1 1 1 1 1 1 1 1 1 1 1 0.012177945472827321 1 1 1 1 1 1 1 0.013428377062786455 1 1 1 1 1 0.011688198855281051 1 1 1 1 1 1 1 1 1 1 1 1 1 1 1 1 1 1 1 1 1 0.01174244384910543 1 1 1 1 0.0096811486463972037 1 1 1 1 1 1 1 1 1 1 1 1 1 1 1 1 1 1 1 1 1 1 1 0.0097676162653864539 1 1 1 1 1 1 1 1 1 1 1 1 1 1 1 1 1 1 1 1 1 0.018459147551790872 1 1 1 1 0.013255818216114476 1 1 0.011096350737821673 0.0099921804218301297 1 1 1 0.014538512918171388 1 1 1 1 0.013443368209923402 0.010360222792938703 1 1 0.0084871125276898916 1 1 1 1 1 1 1 1 1 1 1 1 1 1 1 1 1 1 1 1 1 1 1 1 1 0.0096126352361405338 1 1 1 0.015410114356929417 1 1 0.0091910171984828874 0.0096143873816147956 1 1 1 1 1 1 1 0.0085922427863472459 1 1 0.010006346120666969 1 1 0.0099985779995999304 1 0.01732500428650793 1 1 0.0098024632747952343 1 1 1 1 1 1 0.01551556199304395 1 1 1 0.010055816414040256 1 1 1 1 1 1 1 1 1 1 1 1 1 1 1 1 1 1 1 1 1 0.011922405222843241 1 1 1 1 0.010150170448283846 1 1 0.0099962837492861955 1 1 1 1 1 1 0.01432872247353717 1 0.014783498061170929 1 1 1 0.0099868132596013931 1 1 1 1 0.0093395178181161428 0.010370189659369131 1 1 1 1 1 0.00751008948625001 0.014653315165037985 1 1 0.010130696693811433 1 0.010443889788897529 1 1 1 1 1 1 1 0.010517823947865122 1 0.0099355588907951188 1 1 1 1 1 1 1 1 1 0.016402369714003537 1 1 1 1 1 1 1 1 0.0091302121877631683 0.010065449888821135 1 1 1 1 1 1 1 1 1 1 1 1 1 0.010046587993586448 1 0.0083825357350496704 1 0.015067211642075119 1 1 1 0.013230097611471061 1 1 1 1 1 0.0093365784465787895 1 0.0094891760735026781 0.010008847556723318 1 1 1 1 1 1 1 1 1 1 1 1 0.013819314390142612 1 1 1 1 1 1 0.011724670252952506 1 1 1 0.011382622152237162 1 1 1 0.0099987327406408661 1 1 1 1 1 1 1 1 1 0.011033386456181064 1 0.01139692242596671 1 0.0099498975198685606 1 1 1 1 1 1 1 1 1 1 1 1 1 1 1 1 0.010373904507528202 1 1 1 0.010846257073496858 1 0.01143645105904469 1 1 1 1 0.0096073633693736504 1 1 1 0.01232921691408208 1 1 1 1 1 1 1 1 1 0.011728688620513739 1 1 1 1 1 1 1 1 1 1 1 1 1 1 1 1 1 1 1 1 1 1 1 1 1 1 1 0.0099009263739705828 1 1 1 1 1 1 1 0.015338974195913763 1 1 0.013056157983296492 1 0.01001473076628301 1 0.014201543520208833 1 0.013501620944864966 1 1 1 1 1 1 0.011881533855705645 1 1 0.00980596201123962 1 1 0.0099878014198568777 1 1 0.0083603362357658421 1 1 1 1 0.019049781885135324 1 0.0090270148073056805 0.0090596892199240227 1 1 1 1 1 1 0.01864315826244076 1 1 1 1 1 1 1 0.0094943046150240806 1 1 1 1 1 0.01084514170704272 1 1 1 0.011650668404002801 0.010431791952081514 1 1 1 0.010997875035774212 1 1 0.017310845827127386 1 1 0.01164754621786609 1 0.017972795635423439 1 0.010143129396024313 1 1 1 0.010062123736725118 1 1 1 1 1 1 1 1 1 1 1 1 0.018671004718305781 0.010632735598181611 1 1 1 1 1 1 1 0.010028808868798533 1 1 0.0058027510598460362 1 1 1 1 1 1 1 0.017550781007116004 1 1 1 0.01419123449961667 1 1 1 0.016176539799524822 1 1 1 1 1 1 1 1 1 1 1 1 1 1 1 0.011282295790764981 1 1 1 1 1 1 0.0097105101589009587 0.011491883491998428 1 0.010055332723013764 1 1 1 1 1 1 1 1 1 1 1 1 1 1 1 1 1 1 1 1 1 1 1 1 1 1 1 1 1 1 1 1 1 1 1 1 1 1 1 1 1 1 1 1 1 1 0.011446531575911655 0.010435953877907269 0.010725543290883734 1 1 1 1 1 1 1 1 1 0.010514919847984304 0.0099974665355843165 1 1 0.012979567622261027 1 1 0.0084952478674175241 0.015185361692595494 1 1 1 1 1 1 1 0.0090974933014586184 1 1 1 1 1 1 1 1 1 1 1 1 1 1 1 1 1 1 0.010362066140496781 1 1 0.010000172114926537 1 0.017405434436923682 1 0.0099986941488391136 0.0064596817252425519 1 1 1 1 1 1 1 0.011209284448655418 1 0.017146040822155879 1 1 1 0.011130998217619785 1 1 1 0.0099952293671376133 1 1 1 1 1 1 1 1 1 1 1 1 1 1 0.0075296623679893086 1 1 1 1 1 0.0091901877794390886 1 1 1 0.011434318403151979 1 1 1 0.011044360703994565 1 1 1 1 1 1 1 1 1 1 1 1 1 1 1 1 1 1 1 1 1 1 1 1 1 1 1 1 1 1 1 1 1 1 1 1 1 1 1 1 1 1 1 1 1 1 1 0.010028149523161889 1 1 1 1 1 1 1 1 1 1 0.013084903337204289 1 1 1 1 1 1 1 1 1 1 1 1 1 1 1 1 1 1 1 1 1 1 1 1 1 1 1 0.010208614575091259 1 1 1 1 1 1 1 1 1 1 1 1 1 1 1 1 0.010460787618374566 1 1 1 1 1 1 1 1 1 0.018251509498414871 1 1 1 1 1 1 1 0.0096477904324777427 1 1 1 1 1 1 1 1 1 0.011137483557945624 1 1 1 1 1 1 1 0.010177262089508532 1 1 1 1 1 1 1 1 1 0.010947452818317948 1 1 1 1 1 1 1 1 0.010180025441191311 1 1 0.011015119777400427 1 1 1 1 1 1 1 1 0.010144131031955172 1 1 0.0093592562828874806 0.010040656711373828 1 1 1 1 1 1 0.01027664471642048 1 1 1 1 1 1 1 1 1 1 1 1 0.011148319579142321 1 1 1 1 1 1 1 1 0.010441628388717358 1 1 0.011311583033198179 1 1 1 1 1 1 1 1 1 1 1 1 0.0097300298074033727 1 1 1 1 1 1 1 1 1 1 1 0.010205534428626256 1 1 0.0090554356350839912 1 1 1 0.010159478728516002 1 1 1 0.0081710579643152238 1 1 0.010820441250864482 0.010678827109408954 0.012521019395121782 0.0066663993314830233 0.010841884851223263 1 1 1 1 1 1 0.0098362703871238914 0.0075702792661053904 1 0.0097825300906798605 0.013175340539964595 0.01005945080583167 1 0.010006764080504306 1 0.010434558185475656 1 1 0.013681467458152546 1 0.010268047220137218 1 1 0.011703593247014331 0.01000531384807465 1 1 1 1 1 1 1 0.011844950297231706 1 1 1 1 1 1 1 0.014278373187178119 1 0.012322384215604817 0.010456047880436904 0.0096589957722563631 1 1 1 1 0.014381246452141767 0.0099992836262755846 1 1 1 1 0.012807273812352516 0.012215364866863442 1 1 1 0.013103953993016532 1 1 1 1 1 1 0.0099083615823078244 1 1 1 0.010039087412947734 1 1 1 1 1 1 0.016829502653569393 1 1 1 1 1 1 1 1 1 1 1 1 1 1 1 1 1 1 1 1 1 1 1 1 1 1 0.012513730310998131 1 1 0.0089424165490196786 1 1 1 1 1 1 1 1 1 1 1 1 1 1 1 1 1 1 1 1 1 1 1 0.013074397447902356 1 1 1 1 0.012521807904617356 0.014328455214849371 1 1 1 1 1 1 0.012320938992483984 1 1 1 1 0.011508740667510085 0.010800613454265792 1 1 1 1 1 1 1 1 1 1 1 1 1 1 1 1 1 1 1 1 1 1 1 1 1 1 1 1 1 1 1 1 1 1 1 1 1 1 1 1 1 1 1 1 1 1 1 1 1 1 1 1 1 1 1 1 0.01096697413206945 1 1 1 1 0.01045399372259752 1 1 0.010294514994081525 1 1 1 1 1 1 1 1 1 1 1 1 0.010084835671131507 1 1 1 1 1 1 1 1 1 1 1 1 1 1 1 1 1 1 1 1 1 0.010421384022652209 0.009976532984068965 1 1 1 1 1 1 1 1 1 1 1 1 1 0.01877967433008388 1 1 1 1 1 1 0.015447047484432548 1 1 0.015052134801578942 1 1 1 1 1 1 1 1 1 0.014670153693210293 1 1 1 1 1 1 1 1 1 1 1 1 1 1 1 1 1 1 1 0.010055809134956538 1 1 1 1 1 0.012379978566696277 1 0.010142332536893263 1 1 1 1 1 0.010402362222447848 1 1 1 1 1 0.010330722151151429 1 1 1 1 1 0.010901733913811672 0.010679609513028227 1 0.010594324976823347 1 1 1 1 1 1 1 1 1 1 1 1 1 1 1 1 1 1 1 1 0.010106476865034483 1 1 1 1 1 0.010078327341872598 1 1 0.0098415853314693432 0.0145732710276083 1 1 1 1 1 1 1 1 1 1 1 1 1 1 0.010871167275427127 1 1 1 1 1 1 1 0.011572051895024117 1 1 0.01054470469335962 1 0.0099705863659551534 1 1 0.0099870415275904335 1 1 1 1 1 1 1 1 1 1 1 1 1 1 1 1 1 1 1 1 1 1 1 0.011111955760274479 1 1 1 1 1 1 1 1 1 1 0.0116184041531152 1 1 1 1 0.010728495460070517 1 1 1 1 1 1 1 1 1 1 1 0.010104826609743635 1 1 1 1 1 1 1 1 1 1 1 1 1 1 1 1 1 1 1 1 1 1 1 1 1 1 1 1 0.01118429911432775 1 1 1 1 0.012436706896560436 1 1 1 1 1 0.012253858211267361 1 1 1 1 1 1 1 1 1 1 1 1 1 1 1 1 0.010123329300107869 1 1 1 1 1 1 1 1 1 1 1 0.013344273178781053 1 1 0.018180096226513263 1 1 1 1 0.010054692983375281 1 1 1 1 1 1 1 1 1 1 1 1 1 1 1 1 1 1 1 0.010686542759897713 1 1 0.015482359046017875 1 0.019763354744662828 1 0.011893918722207363 1 1 0.010001979194149118 1 1 1 1 1 1 1 1 1 1 1 1 1 0.018040867024867128 1 0.014646598470552852 1 1 1 1 1 1 1 1 1 1 1 1 1 1 1 1 1 1 1 1 1 1 1 1 1 1 1 1 1 0.0103162421899094 1 1 1 1 1 1 1 1 0.014982643810572771 1 0.01160792575021853 1 0.012849008990291708 1 1 1 0.010176212389549072 1 1 1 1 1 1 1 1 0.015454854111442932 1 1 1 1 0.018122244657310542 1 1 1 1 1 1 1 0.010065483273473076 1 0.011269678452137853 1 1 1 1 1 1 1 1 1 1 1 1 1 1 1 1 1 1 1 1 1 1 1 1 1 1 0.011618312098235314 1 1 1 1 1 1 1 0.011561942249720446 1 1 1 0.010213007558601028 1 0.011090815919103301 1 1 0.012536762002475775 1 1 0.0099998237073005373 0.009650743887412867 0.011663899647853488 1 1 1 1 0.0098008771415632207 1 1 0.009444363964353452 1 0.009996620259699579 1 1 1 1 1 1 1 1 1 0.0098501221141720306 1 0.010037825810812435 1 0.0099692240733522744 1 0.010185847909080437 0.010082069378527061 0.012149523862292766 1 1 1 1 1 1 0.013421456109118419 1 1 1 1 1 1 1 1 1 1 1 1 1 1 1 1 1 1 1 1 1 1 1 1 1 1 1 1 1 0.010574902517194366 1 1 1 1 1 1 1 1 1 1 0.011573890336797199 0.01011828823223857 1 1 1 1 1 1 1 0.010369667603302959 1 1 1 1 1 1 1 1 1 0.010619552405557576 1 1 1 0.0099917946827035031 1 1 1 1 1 1 0.0096247454361165601 1 1 0.010831710162827156 1 1 1 0.011503510149922852 1 1 1 0.0099978817667454173 1 0.010527418817429725 1 1 1 1 1 0.0097977871933584443 1 1 1 1 1 1 0.0097570615994715115 1 1 1 1 1 1 1 1 1 1 1 0.0096056657107067289 1 1 1 1 1 1 1 1 1 1 1 1 1 1 1 1 1 1 1 1 0.010272706265932845 1 1 1 1 0.010109230270723354 1 1 1 0.011319226349752283 1 1 0.010183401146632597 1 1 1 1 1 1 1 1 1 0.0084353976345133107 1 0.010004302809150658 1 1 1 1 1 1 1 1 1 0.010160402947162257 1 0.0091312628640893567 1 0.011143677315693391 1 1 1 1 0.010122573440166156 1 0.0097908865994545645 1 1 1 1 1 1 0.010871063777931261 1 1 1 1 1 0.011082920059291838 1 1 1 1 1 1 0.010741726240800834 1 1 1 1 1 1 1 1 1 0.010611760933490403 1 1 1 1 0.012991443832500666 0.010243593243186157 1 0.0099192191838568412 1 1 0.010215818952851192 1 1 1 1 1 1 1 1 1 1 1 1 1 1 1 1 1 1 1 1 1 1 0.010003543222276328 1 1 0.010792554691390493 1 1 1 0.012062603683419966 1 1 1 1 0.011498319271078127 1 1 1 0.010008492986374936 1 1 1 1 1 1 0.010927583659487036 1 0.011314698265184848 1 1 1 1 1 1 1 1 1 1 1 0.010560218424068235 1 1 0.012487749671125273 1 1 1 1 1 1 1 0.010573689492315927 1 1 1 1 1 1 0.012163058868278551 1 1 1 1 1 1 1 1 1 1 0.012341578141628937 1 1 1 1 1 1 1 1 1 1 0.0086257359254055671 1 1 0.0095911027536710203 1 0.010666286216918463 0.0095020426340437936 1 1 1 1 0.011141788798167945 1 0.0098022218036862632 1 1 1 1 1 0.0081480602792156458 1 1 1 1 0.0081303559936359484 1 1 1 0.0096082308710845679 1 1 1 1 1 1 0.0099540385059608428 1 1 1 0.02263619020554888 1 1 0.010432529787457638 1 1 1 1 1 1 1 1 1 1 1 1 1 1 1 1 1 0.019277154967574449 1 1 0.010040137760118429 1 1 1 1 1 0.01874472895298774 1 1 1 1 1 1 1 1 0.010117767467163825 1 0.017172150264786405 0.010256063117329833 1 1 1 1 1 1 1 0.010462498624190684 0.013614905093617673 1 1 1 1 1 0.012050670740423861 1 0.010214477699424927 0.013285353054887525 1 0.010205546992688367 1 1 0.01003047642108593 1 1 1 1 1 1 1 1 1 1 1 1 1 1 1 1 1 1 0.011849493904914394 1 1 1 1 1 1 1 1 1 1 1 1 1 1 
</DataArray>
</CellData>
</Piece>
</UnstructuredGrid>
</VTKFile>
